##TITLE=Trichloroethene
##JCAMP-DX=4.24
##DATA TYPE=INFRARED SPECTRUM
##CLASS=IUPAC A
##ORIGIN=NIST, Analytical Chemistry Division, 301-975-3108
##OWNER=COPYRIGHT (C) 2000 by the U.S. Secretary of Commerce
##DATE=00/02/01
##$SPECTRA VERSION=1.10
##$UNCERTAINTY IN Y=2.1 % relative (B=1.1E-04,C=2.4E-09,D=2.3E-13)
##CAS NAME=Trichloroethene
##CAS REGISTRY NO=79-01-6
##MOLFORM=C2 H Cl3
##MP=-73 C
##BP=87 C
##$NIST SOURCE=QUANT-IR
##SPECTROMETER/DATA SYSTEM=IFS66V (Bruker)
##INSTRUMENT PARAMETERS=KBr Beam Splitter; MCT Detector; Multipass cell
##STATE=gas
##SAMPLE DESCRIPTION=Trichloroethene Primary Gas Standard
##PRESSURE=101.3 Pa
##TEMPERATURE=23 C
##SAMPLING PROCEDURE=1 L/min Flow
##RESOLUTION=0.9640
##DATA PROCESSING=Triangular Apodization
##XUNITS=cm-1
##YUNITS=(micromol/mol)-1m-1 (base 10)
##XFACTOR=1.0
##YFACTOR=9.0949E-13
##DELTAX=0.4820
##FIRSTX=575.17
##LASTX=3974.605
##FIRSTY=1.30E-07
##MAXX=3974.12
##MINX=575.17
##MAXY=.0009161
##MINY=-1.62E-06
##NPOINTS=7052
##XYDATA=(X++(Y..Y))
575.17 142943 425178 3616085 2041621 2057765 1896416
577.58 2655346 4220664 5208705 4677364 2840369 1661615
580.47 606791 2004304 3824361 3129980 1870483 993451
583.37 458132 1104549 1485403 1828761 1236811 343115
586.26 949318 592299-1377028-218405 440080-814745
589.15-561468-686332 171731 1091682 1530493 328458
592.04 4677 476011 362458 710798 586532 1101091
594.94 1359464 120275-437885 706875 1727392 2203854
597.83 1696765 1175582 705264 355203 1304525 1914120
600.72 1445682 1241845 1889839 2313083 1946479 1912916
603.62 2029243 1690783 1072204 1951648 3177648 3469649
606.51 3212159 3078946 3632453 4306583 5115646 6060170
609.40 6704249 6639691 7959226 9002901 9285263 10433289
612.29 11272042 11704234 12463531 13705581 15170478 16856398
615.19 18281633 19040276 20755917 23360664 26236720 28637418
618.08 30005727 32700552 36552125 39362657 42431110 46485114
620.97 50119917 53364406 57094488 61359052 64968985 68800157
623.86 72291799 74998113 78037091 81102070 83785522 84735259
626.76 85622087 88101798 89271538 89376842 88831329 88533764
629.65 88674469 87582664 86273973 84723005 82555355 79953603
632.54 78290399 76972338 76762263 77544502 79307576 84034355
635.44 89429417 93147061 95431649 96243326 94958044 92346543
638.33 88078730 83300687 78139623 71416383 64805744 58827795
641.22 52961443 47114620 41992087 37098364 32376584 29400280
644.11 26395925 23460507 21410264 19424610 17670555 15531979
647.01 13896673 12392307 11188539 10855554 9769698 8581794
649.90 7947666 7485602 7073540 6076328 4954387 4631506
652.79 4356622 3753209 3569452 3168282 2715739 2467204
655.68 2175565 2060155 1987110 2387203 3184959 3297490
658.58 2800504 2356587 1943091 1730255 2148577 2511882
661.47 2173044 2233791 2481514 2353732 2064808 2140054
664.36 1966866 1269606 1363393 1740021 1754731 2140118
667.26 2532398 2208849 1655494 1443455 1809542 2116982
670.15 1716060 1629537 1756580 1932020 2085878 1913838
673.04 1468268 1138678 1294982 1346664 1073234 834475
675.93 1243631 1565093 1318892 1361355 1580606 1516915
678.83 1400421 1594667 1114229 631295 1376335 1690904
681.72 1596982 1045687 611821 703660 1285174 1415241
684.61 1179720 743281 415846 272095 500082 960585
687.50 676570 449953 646034 1039310 833959 222347
690.40-34965 216856 385470 331989 505702 472585
693.29 524739 564266 122392 346904 268308-123178
696.18 6492 12291-23162 358666 460916 112036
699.08 289327 213472-95226 36081 275638 384320
701.97 221001 3206-247258-124928 309346 521512
704.86 334582 24177 414949 330275-149554 107362
707.75 260673 117368-34891 420876 548234 357066
710.65 691145 495809 235595 318983 289967 332837
713.54 449109 523866 459639 503861 535581 285224
716.43 505225 1003169 833599 344331 628107 724956
719.32 467789 422402 553327 1112984 1154907 678035
722.22 423078 371892 866892 1143149 920672 1105906
725.11 1518258 1215983 703011 568065 700866 1211858
728.00 1406289 1437471 1555318 1186890 1087786 1235665
730.90 1336682 1332611 1342710 1378555 1288464 929027
733.79 1035343 1612066 1518048 1376664 1848592 1986266
736.68 1770372 1803728 1731978 1651706 1781003 2159979
739.57 2237297 2122136 2350838 2626988 2617897 2273926
742.47 2148842 2265453 2215055 2008538 2210493 2198524
745.36 2211848 2149866 2151011 2538894 2574697 2388427
748.25 2601667 2842454 2860064 2815749 2772559 3003319
751.14 2916411 2639626 2831220 3141425 3444626 3149815
754.04 2991739 3819158 4450520 4560797 4951790 5598870
756.93 5724203 5982962 7096523 8243936 9314486 10409708
759.82 11334187 12722504 14178745 16055607 18247935 19857580
762.72 22099448 25068488 28177279 30837826 34032791 37272481
765.61 40910892 44807596 48977887 52867282 56797682 61740143
768.50 66456591 70549299 75110960 79070663 82632671 86343831
771.39 90392243 94325052 97275059 99245170 101032524 102364552
774.29 104191175 107068917 111831179 118448775 123000485 129776699
777.18 141599480 140747143 133237171 124760656 122336556 117831864
780.07 113174833 114804341 149826615 260871329 548785989 653752313
782.96 343624468 137851807 111113044 103258168 106888811 108593245
785.86 112158329 113255095 115862202 115717899 115690986 115540507
788.75 115628113 114706960 114152154 112751514 111167379 109652457
791.64 107931781 105636744 103250786 100768684 99100328 96275033
794.54 93156962 90421303 86093926 80825458 75813741 70369496
797.43 65979683 61981336 57888175 53695620 50593693 47948106
800.32 45000383 41798277 38831003 36228039 33528106 30193297
803.21 27125769 24906438 23765443 22651782 21733891 22157749
806.11 22443155 22551361 22656218 21603345 20753551 19621370
809.00 17976194 16657765 15272149 13426442 11852560 10470538
811.89 9290872 8246387 7615582 7016959 6561108 6717658
814.78 6643999 6283990 6265515 6792170 7418896 7293585
817.68 7930573 8362182 8914035 9968395 10494879 11151699
820.57 11781037 12562973 13565693 14793628 16045367 16764813
823.46 17625929 19303667 21012148 22564705 24420041 26397621
826.36 29198616 32084202 35769854 39859742 44180237 49583082
829.25 56685489 65520344 75589518 86756080 99494866 113433271
832.14 127632412 144052814 164392495 186450143 210925635 238170235
835.03 267959598 299247326 332167890 366970364 403272887 440046202
837.93 476360185 511949724 547369347 581785888 613917673 644227138
840.82 672865627 698403254 722858098 744020389 760914002 773823763
843.71 781084500 798815634 831496953 847784649 825494837 751459128
846.60 686678068 702922361 782470547 867854701 972260512 1007273994
849.50 974532427 958762455 805917950 691128967 711913108 738446657
852.39 764916326 776504006 775370904 757648154 724346070 675748708
855.28 615551619 545004464 470103610 394078359 321000580 253885167
858.18 195922972 146867302 107921477 77790386 55574026 39916950
861.07 29328274 22460606 18513940 15458135 13702595 12563542
863.96 11626101 11879175 10957512 9236613 8856022 8453046
866.85 8321723 8248397 8237542 7911369 7469127 7149200
869.75 6879024 6833665 6967199 6850304 6483699 6233917
872.64 6207273 5793256 5521810 5337842 5077624 5268370
875.53 5258863 4907664 4884258 4783555 4579103 4063186
878.42 4023236 4264260 4106657 4037260 3771873 3340323
881.32 3299543 3262193 3522791 3582106 3626987 3779507
884.21 3585342 3751555 3890733 3779223 3921444 4021055
887.10 4284770 4609732 4711540 4879136 5143919 5255781
889.99 5488283 5942777 6154540 6219899 6818544 7379694
892.89 7933692 8639772 9081745 9181056 9923319 10920400
895.78 11676136 12557564 13578771 14591336 15592175 16932638
898.67 18066411 19217788 20863721 22345918 23565343 24502738
901.57 25304537 26357781 27142307 27387590 27518266 27190351
904.46 26679139 25821103 24779952 23567385 22211087 21488654
907.35 21263680 21651331 23176670 25742796 28439334 30973615
910.24 33487992 35446146 36993335 38320019 39039992 39350180
913.14 39641332 40094787 40736216 41520397 42370965 43804282
916.03 45603137 47738614 50568844 53731254 57615284 61769707
918.92 66467069 72149238 78080119 84272743 91384056 99085342
921.81 107449036 116851211 127237845 138705949 151034450 164513905
924.71 179592516 196119420 213759162 233030967 254073343 276715774
927.60 300953747 325971219 352325675 380086614 408851344 438307451
930.49 467961390 496981655 524946044 552170657 577108753 598961125
933.39 617562642 632454341 642975080 648488973 649005113 644964181
936.28 636601197 624320992 609627283 592818883 577014980 564640117
939.17 556034878 551949415 555872097 565342950 583681312 607935365
942.06 636818861 668570195 693434509 719199062 738930687 742040393
944.96 731447516 708470311 674413640 633402926 588272906 540268143
947.85 490679968 441925602 395371643 351772900 311773525 276394969
950.74 245507784 218854836 196030668 176394038 159941557 145722755
953.63 132382638 120123372 109261273 99002803 89311504 80189658
956.53 71745755 63868286 56704092 50051404 43733613 38121305
959.42 33324028 29275686 25741144 22501945 19721792 17251661
962.31 15181468 13564208 12077370 11012027 10195081 9457235
965.21 9029203 8437856 7962691 7855767 7971991 8162258
968.10 8096097 8010383 7953165 7977828 8042875 8106754
970.99 8138207 8186874 8490865 8780968 8937545 9204883
973.88 9644156 10031111 10776463 11737775 12346239 13034688
976.78 13935415 14726851 15314932 15750825 16092024 16362049
979.67 16536409 16411100 15989523 15254640 14446903 13875108
982.56 13821219 14425587 15363063 15262404 14173823 12954557
985.45 12758937 14113384 13869855 13193231 13299439 13295667
988.35 13338097 13259325 13255958 13104613 13037137 12887005
991.24 12356788 11806163 11182052 10365681 9732809 9101057
994.13 8419964 7714146 7050487 6491398 6088777 5800370
997.03 5400242 4941700 4870888 4849598 4763707 4914926
999.92 5161789 5177305 4983488 5051920 5483977 5528181
1002.81 5393478 5859277 6262406 6510353 6438316 6735863
1005.70 7165610 7391715 7772090 7839280 8124340 8593694
1008.60 9108734 9284871 9340539 9393480 9337585 9535455
1011.49 9935637 10054842 10275440 10416853 10059258 10060891
1014.38 10362592 10556708 10594633 10497132 10265842 10057407
1017.27 9987402 9825101 9458856 9372960 9329674 9083761
1020.17 9084010 8977976 8804577 9090920 9160804 9283611
1023.06 9354054 9146601 9043310 8644322 8084129 7938464
1025.95 7422906 6664816 6324188 5796584 5296150 4880301
1028.85 4486600 4298898 3921382 3486527 3501219 3432871
1031.74 3333851 3184014 2901762 2602261 2551088 2757216
1034.63 2456641 2149705 2310834 2370869 2198425 1898053
1037.52 1700805 1804625 2054090 2085619 1845140 1582905
1040.42 1449913 1659711 1720245 1616362 1686519 1640222
1043.31 1603656 1577209 1660676 1695580 1634652 1459364
1046.20 1506612 1418679 1151300 1374723 1417947 1319004
1049.09 1449524 1479623 1391347 1291342 1253387 1324993
1051.99 1215189 979472 1044249 1241069 1294779 1152813
1054.88 1072442 1078364 926226 947656 1208385 885943
1057.77 776505 984914 863696 685340 576889 916247
1060.67 1010016 761058 683315 660223 663609 722211
1063.56 646274 714573 908712 819243 726391 884799
1066.45 994080 939901 720183 486207 502269 709304
1069.34 732813 565236 830427 941876 662375 425738
1072.24 504790 640199 829741 976541 803425 624330
1075.13 655302 888097 911214 887675 759930 666370
1078.02 672351 595262 701359 715229 520679 554573
1080.91 752342 713045 658812 540591 478595 742929
1083.81 725445 514488 544648 810484 917451 804856
1086.70 809546 792797 765496 858168 938266 1034278
1089.59 939729 751826 808808 760948 616337 647577
1092.49 657736 783927 989808 872225 814006 986422
1095.38 1134265 1231656 1349672 1469251 1537878 1525959
1098.27 1546535 1520966 1612322 1473351 1525052 1964181
1101.16 1956537 2015598 2224391 2316128 2322509 2303962
1104.06 2490754 2735018 2716832 2678840 2672149 2607738
1106.95 2597318 2887732 3094816 3123478 3118287 3137424
1109.84 3311343 3405407 3206237 3110383 3347734 3535964
1112.73 3537917 3631761 3747578 3602110 3567730 3651284
1115.63 3752593 3708990 3547866 3330077 3166828 2917921
1118.52 2729097 2743188 2696994 2560020 2677569 2703368
1121.41 2393034 2113988 2047797 2080138 2298091 2403703
1124.31 2193908 2417904 2354094 1996778 2084512 1980261
1127.20 1905012 2110833 1979460 1616764 1532249 1641291
1130.09 1541512 1468387 1403092 1441423 1370153 1210086
1132.98 1383595 1054666 764853 1007795 1066041 1119036
1135.88 1061259 944367 933954 701579 734580 975576
1138.77 1040192 943502 948788 1209865 1310314 1225115
1141.66 1306370 1328157 1211085 1125504 908773 873345
1144.55 1010143 756679 475542 580466 707647 783551
1147.45 687231 684684 780949 830786 916894 809837
1150.34 739161 647143 519284 409676 428485 499257
1153.23 591481 717821 607345 481315 301053 351220
1156.13 525927 531595 306031 279565 376619 250963
1159.02 363614 487743 451855 451354 314400 166381
1161.91 362211 511577 317811 65139-66780 212171
1164.80 457686 422174 394589 293150 287062 172952
1167.70 173174 368813 325858 240043 286905 240251
1170.59 282382 276551 300732 479898 480448 540433
1173.48 606056 546116 567530 511241 530647 525263
1176.37 459843 510175 417094 523836 585919 426398
1179.27 562492 591443 548726 631195 596772 668669
1182.16 780692 731429 742005 776154 638875 580291
1185.05 498455 431493 635036 779610 662233 581704
1187.95 583893 526151 572648 740438 807746 831261
1190.84 772634 687329 748045 781664 803225 743658
1193.73 768045 854986 846948 952846 946230 838384
1196.62 803940 842960 975856 1096418 1141910 1225923
1199.52 1118071 1040584 1395900 1705341 1635476 1590237
1202.41 1554647 1563679 1814483 2045739 1891503 1631573
1205.30 1849831 1993035 2232564 2459776 2426761 2662397
1208.19 2677061 2510735 2640448 2885819 3050330 3130260
1211.09 3261498 3482421 3598448 3673995 3982891 4191061
1213.98 4291212 4525213 4707538 4776572 5089878 5324651
1216.87 5410175 5657095 5996170 6271307 6535531 6757275
1219.77 7056078 7409101 7665517 8002556 8365246 8751537
1222.66 9006050 9481648 10035716 10465228 11002287 11418573
1225.55 11804165 12164862 12387992 12717372 12861886 12777178
1228.44 12762634 12536128 12350228 12240393 11944586 11997385
1231.34 12542120 13715408 15102439 15554458 15343414 15884057
1234.23 17008573 17069115 17139640 18019779 18953839 20229910
1237.12 21534440 22824081 24395501 25976618 27616478 29509759
1240.01 31684702 34054292 36386977 38882665 41746709 44589387
1242.91 47372351 49901498 52037811 53886433 55367240 56303889
1245.80 56703429 56434987 55556325 54350327 53035562 51257241
1248.69 49474779 49207201 52028516 55901294 57936912 58120915
1251.59 57439374 58330737 60357283 62387183 64133604 65091602
1254.48 64736038 63949629 63416800 62373153 60612543 57878789
1257.37 55303986 53290440 51249253 49847830 48548878 46701602
1260.26 44807730 42874481 40581746 38310400 36088350 34153621
1263.16 32279095 30099536 28141134 26511053 25189146 23848283
1266.05 22627414 21613451 20818647 20099516 19669159 19572383
1268.94 19007795 18208388 17402512 16550433 15707488 14722064
1271.83 13725873 12506995 11302430 10313695 9421680 8578030
1274.73 7664479 6956576 6152631 5585430 5314349 4835740
1277.62 4477673 4136019 3705708 3386196 3176125 3036613
1280.51 2780175 2529031 2440042 2193412 1918367 1676386
1283.41 1507212 1640277 1525371 1337209 1233155 1085799
1286.30 993593 944471 812835 722512 702041 744005
1289.19 905202 929983 901692 1035684 1041350 675771
1292.08 467002 459298 574930 555866 481604 615410
1294.98 586030 539923 681045 884076 825069 758453
1297.87 954020 915382 650756 758852 983633 1009114
1300.76 1018183 907952 958815 937670 1007865 1243408
1303.65 1135074 1146343 1322159 1359431 1400729 1489533
1306.55 1531575 1627695 1736968 1645268 1771713 1853214
1309.44 1891182 1967449 1911378 1959247 1870624 1927433
1312.33 2111376 2158506 2252040 2213005 2191749 2362415
1315.23 2413148 2356928 2270072 2425937 2472599 2311388
1318.12 2349844 2318082 2258372 2255411 2304528 2340359
1321.01 2434531 2399666 2198096 2172520 2109420 2037662
1323.90 2015956 1931450 1996366 1900010 1777094 1724633
1326.80 1700700 1833175 1824991 1724338 1615343 1641626
1329.69 1640136 1318826 1188879 1220928 1269067 1372241
1332.58 1142360 966757 960457 846565 776963 924689
1335.47 1025944 855498 738272 769105 844325 712644
1338.37 751628 857666 700430 628487 661688 743659
1341.26 633750 577157 597080 595855 764789 919043
1344.15 734892 544211 562194 837520 864515 569446
1347.05 536056 621415 783677 537629 324909 305261
1349.94 348883 484326 495207-146184-837325-411901
1352.83 181071 354943 410570 176858-224163 135557
1355.72 503183 409174 609118 537756 480158 806625
1358.62 703725 612274 795774 663967 464747 454478
1361.51 310902 311281 302306 402359 740397 823006
1364.40 788266 789072 874925 899276 901411 907238
1367.29 868289 883738 944545 791223 578152 583009
1370.19 820106 836664 722053 884829 970286 775057
1373.08 581043 813324 968308 1146855 1490000 1356167
1375.97 1262388 1320472 1144289 921691 859159 1104096
1378.87 1274315 1352519 1207958 1208035 1302410 1062994
1381.76 1089028 1100027 1136133 1355719 1515666 1656116
1384.65 1385774 1328320 1265067 1071971 846538 571060
1387.54 927035 1098060 1151634 1182635 1314112 1253733
1390.44 1121516 1266496 1180980 1122740 1071170 975114
1393.33 935393 775997 724680 919946 937326 1001674
1396.22 1202166 1069758 849400 897799 805766 685068
1399.11 868405 1044932 1080708 1105144 1118437 1119213
1402.01 1249610 1357979 1224206 964549 798519 824770
1404.90 960251 1055738 1054554 1021400 1104324 1128576
1407.79 1287883 1350460 1122561 1124129 1307583 1313007
1410.69 1139298 1156246 1206560 1229867 1216376 1276967
1413.58 1367552 1395904 1507021 1279649 1053017 1250082
1416.47 1347287 1323895 1211946 1204070 973498 611445
1419.36 1150848 1562652 1532683 1503632 1548831 1695764
1422.26 1639239 1491166 1324575 1354963 1452907 1648338
1425.15 1775392 1740917 1732905 1612446 1539997 1595138
1428.04 1566361 1515594 1293687 1105148 1383304 1437556
1430.93 1258586 1250024 1311794 1178465 985579 1168619
1433.83 1084554 897710 927928 932536 455570-131554
1436.72 369649 887835 814668 736278 812509 988536
1439.61 988698 874739 793610 890092 961300 862500
1442.51 811800 688734 682739 612679 656356 796938
1445.40 795433 788256 597179 453841 298042 445751
1448.29 674724 681659 759872 695180 702387 790548
1451.18 679099 641304 740344 657746 648177 854173
1454.08 905450 702504 571703 407224-542538-746807
1456.97 197800 363811 394962 632663 635281 641780
1459.86 635331 692716 768567 749818 685973 723009
1462.75 799845 775183 645192 188875 370968 813881
1465.65 776055 889848 921445 745772 599688 677901
1468.54 710226 660367 750087 659097 608252 533491
1471.43-21126-12317 199428-26358 167595 557939
1474.33 601212 644874 488192 222198 462848 757458
1477.22 761194 639242 588479 641561 647093 602276
1480.11 647902 641662 668633 803744 870483 764266
1483.00 684121 693780 599697 603384 767880 733797
1485.90 583544 443773 353985 462585 570873 644789
1488.79 631105 514401 317726 163786 418094 740781
1491.68 709395 733791 799229 636255 544343 426498
1494.57 411516 344108-369530-262886 369487 419961
1497.47 482989 289200 3166 241293 596817 597130
1500.36 499000 622035 748172 691053 500638 552676
1503.25 558597 395377 348326-431388-954062-245830
1506.15-492474-1034055-246084 182170 53204 199367
1509.04 311057 375153 551238 617961 642396 501593
1511.93 393279 541788 500575 446698 566173 585958
1514.82 578532 466670 254790 220283 99570 138268
1517.72 601431 735623 629044 471649 243834 155390
1520.61-524314-305769 330090 156985 407531 738074
1523.50 765513 658557 448974 231945 485008 714625
1526.39 615113 695306 905074 756264 748895 1000664
1529.29 1068909 1196124 1173117 1071431 1134816 1286699
1532.18 1275294 1025261 982106 1319739 1773377 2108011
1535.07 2269077 2472829 2823581 3089604 3192913 3333702
1537.97 3213961 2509580 3350112 4240224 4440690 5777932
1540.86 6602670 6589832 7304334 8616875 9537755 10415156
1543.75 11352295 12075523 12749574 13957754 15374693 16551680
1546.64 17536185 18784342 20073128 21489771 23375231 25584934
1549.54 28086380 31398237 34502875 37033666 40009059 43448053
1552.43 46993538 50540336 53848457 56470714 58716180 60315733
1555.32 60583736 59439688 57143722 53344431 48710538 43438538
1558.21 38586655 36918513 37642109 43473616 51481701 47690434
1561.11 40200098 40058189 43529975 47765781 51175987 53771320
1564.00 55009692 55121383 54571197 53648079 52150318 49894522
1566.89 47196805 44423813 41373777 38387152 35518610 32546091
1569.79 30600487 28956320 27187675 25971890 24941813 24087189
1572.68 23544192 23360367 23358507 23458213 23777789 23586575
1575.57 22860004 23981070 25700339 26494051 27398340 28509186
1578.46 29619197 30818872 32270930 33671501 35259090 36955061
1581.36 38740800 40736115 42523651 44195120 45971406 47420267
1584.25 48519658 49561467 50395084 50855534 50867974 50438275
1587.14 49709773 48650744 47201625 45571204 43759028 42023226
1590.03 40647117 39722236 39354954 39617532 41063167 43395244
1592.93 45844844 48481441 50673800 52030692 52621019 52144592
1595.82 50803968 49074770 46946008 44216825 41380630 38504571
1598.71 35438995 32514217 29501030 26536613 23956433 21574027
1601.61 19518881 17724508 16097286 14576463 13254674 12260742
1604.50 11355122 10383954 9512074 8571394 7662136 6885117
1607.39 6257426 5658260 4995708 4501918 4086211 3648411
1610.28 3151140 2854119 2637721 2327602 1950042 1676062
1613.18 1531940 1334376 1178230 1012330 842297 514730
1616.07-491459-294958 695555 702929 626916 635648
1618.96 561530 545784 692284 837509 719350 653131
1621.85 539764 378841 92198-54067 296394 544192
1624.75 589480 634360 644823 583437 438548 341940
1627.64 437832 559103 545642 643396 814629 597550
1630.53 318742 297389 493471 667460 701256 609681
1633.43 512437 364733-10275-737030-720923 39071
1636.32 277181 235889 312731 551341 547504 389965
1639.21 329387 373056 471557 577506 490603 342214
1642.10 360745 305359 322961 417106 316322 174342
1645.00-251184-766905-336540 51344 93935 116314
1647.89 46460 193635 313294 149365 148934 231098
1650.78 146190-285285-1362930-1678093-1783398-1012667
1653.67-237147-345555 76300 203579 164607 212258
1656.57 320675 359046 387250 338330 318801 201393
1659.46 190936 328839 226114 222797 355627 102418
1662.35-151605 185788 357178 445609 450998 381373
1665.25 447126 414049 448578 401982 264064 151100
1668.14 89843-357999-246108 287302 246477 131083
1671.03 96602 234874 232330 352787 553583 474050
1673.92 338244-189470-443457 131437 466745 526852
1676.82 574050 628869 572201 351896 392130 491201
1679.71 478480 462057 507662 580945 682280 470501
1682.60 56256 14625 70131-1029865-1312182 168432
1685.49 634465 593258 663954 733759 738054 652740
1688.39 745489 752847 650293 737549 869330 861986
1691.28 848316 750118 708149 725165 703033 670164
1694.17 517329 162618-1035259-1086412 325060 613693
1697.07 585554 634797 377398 246695-316201-1069059
1699.96-1000126-274224 615142 744060 495554 424457
1702.85 401243 242323-79629-22590 195175 1809
1705.74-215282-70508 228039 410875 381275 322371
1708.64 279801 258088 178757 191411 339985 292291
1711.53 172724 230759 225982 133502-12003-21165
1714.42-190488-14836 340178 382933 18845-1103336
1717.31-690120 11264-41170 326283 420927 371821
1720.21 461677 509255 431272 418872 481376 488256
1723.10 435038 522429 559252 608493 666927 633728
1725.99 541158 451570 469087 539486 625644 517449
1728.89 367401 431144 609254 557984 556836 597213
1731.78 512652 377396-439599-377224-324359-524185
1734.67 364597 694653 666986 724584 716677 727884
1737.56 763230 679108 653324 426955 218545 673729
1740.46 1028301 1007654 812303 726057 805832 867374
1743.35 977251 1151676 1212366 1208131 1200268 1214355
1746.24 1244187 1250782 1429903 1500037 1438865 1440385
1749.13 1575118 1752793 1647274 1317288 1339745 1806464
1752.03 2144378 2113295 2198040 2541934 2589274 2605033
1754.92 2632990 2694260 2631454 2421711 2705551 2926120
1757.81 2836184 2855885 2875104 2828847 2730900 2648761
1760.71 2590715 2254360 2439916 2872763 2853967 2806392
1763.60 2731548 2817025 2993198 2870469 2771048 2794086
1766.49 2723185 2681600 2316545 2325104 2622182 2624529
1769.38 2615340 2438380 2304496 2258416 2360775 1816897
1772.28 1414841 2089221 2450146 2533133 2501372 2377467
1775.17 2273601 2240363 2407757 2475805 2456090 2399069
1778.06 2399413 2421146 2471827 2577871 2512839 2431504
1780.95 2427478 2330861 2495091 2747240 2655155 2557303
1783.85 2523501 2401762 2374955 2470073 2503532 2579423
1786.74 2534890 2503355 2513115 2493369 2569928 2621656
1789.63 2736732 2622285 2421336 2599053 2582970 2022192
1792.53 1914022 1939110 1633647 1580062 1576261 1410733
1795.42 1222303 1250612 1327512 1297795 1291186 1188140
1798.31 1036379 880327 881774 1056414 1042107 892104
1801.20 867842 836708 791886 845459 896996 954581
1804.10 888711 869144 823387 684413 723595 870656
1806.99 806318 706459 707567 651994 641670 628169
1809.88 501052 482895 602435 677288 580313 565356
1812.77 590044 429824 423514 495219 605089 658957
1815.67 581612 559191 591185 573082 561614 568901
1818.56 590774 601658 595239 581297 450425 467441
1821.45 588232 510107 441334 403196 533150 637797
1824.35 408435 285396 604833 650717 385769 419952
1827.24 483061 536436 468610 526243 589458 455471
1830.13 619811 722867 602237 607442 779864 813556
1833.02 717000 649349 700992 760969 821674 781499
1835.92 677759 724379 829548 964874 888879 821147
1838.81 849182 762675 752948 828752 796047 700370
1841.70 731727 707219 607169 461609 136042 282137
1844.59 518776 658751 812368 748645 723334 808786
1847.49 882355 863223 887504 873401 857499 874532
1850.38 869509 925084 1051203 1100941 1127471 1149640
1853.27 1223811 1240767 1162077 1179868 1284275 1376875
1856.17 1445862 1448934 1431028 1485725 1516863 1506911
1859.06 1630870 1739236 1610326 1479688 1504444 1602429
1861.95 1671064 1652835 1666880 1805205 1838140 1822821
1864.84 1796237 1735855 1738138 1764835 1809489 1873627
1867.74 1826523 1651871 1536898 1813744 2030485 1926952
1870.63 1943738 1945720 1803180 1741736 1750487 1641547
1873.52 1516406 1467231 1516545 1533346 1450111 1293893
1876.41 1298473 1406674 1396406 1318332 1420913 1415143
1879.31 1185876 1257906 1366679 1316017 1316286 1389536
1882.20 1276248 1029626 1116011 1162277 1046440 944881
1885.09 868319 872557 887799 928721 924168 839720
1887.99 746678 639760 467485 467390 439187 341455
1890.88 334717 287333 336316 290458 177436 301938
1893.77 341648 220154 145253 132938 223775 377038
1896.66 366614 336270 338395 391326 422148 419577
1899.56 305263 170411 155119 290478 479861 369484
1902.45 276206 299683 394406 478606 415931 393762
1905.34 402240 478626 482014 459909 517566 435463
1908.23 513917 587809 442999 383823 393073 395931
1911.13 510746 513587 426864 340612 494566 757293
1914.02 641968 538572 673845 778080 758716 646832
1916.91 412968 160920 322181 553963 567109 686715
1919.81 675069 532470 562315 656230 611223 531489
1922.70 521668 586426 623949 630913 560117 625967
1925.59 777263 685916 648022 625206 593801 603356
1928.48 624436 629341 639022 572174 570091 751906
1931.38 684330 540813 473233 492859 587440 586619
1934.27 558721 608607 666203 667839 597476 580515
1937.16 683305 613981 546855 526332 531068 662907
1940.05 509130 431098 629368 628996 445603 374256
1942.95 448098 534041 687924 724261 549433 618916
1945.84 618839 499712 709062 726463 697213 711237
1948.73 615116 531914 567955 702646 635259 620119
1951.63 683870 685765 758202 735521 816410 941104
1954.52 860584 823093 829315 785199 757770 708403
1957.41 713624 754003 683988 657512 707194 804369
1960.30 905942 874404 744663 753302 855561 828091
1963.20 841900 861419 916793 936262 895020 852890
1966.09 788126 840247 845571 902566 1007266 954348
1968.98 846839 831365 810070 881835 1008747 996913
1971.87 1024607 1114497 1132793 1224384 1402920 1224553
1974.77 752833 641616 765206 812852 874581 854497
1977.66 900603 954932 967906 878709 782339 837190
1980.55 789252 693153 730846 857754 925462 984557
1983.45 881206 674907 668881 819306 871265 820317
1986.34 780048 741010 700294 689683 669513 705976
1989.23 670850 644845 677908 698959 721784 759725
1992.12 803567 784104 804338 724199 687565 718990
1995.02 756479 756702 797948 813080 768585 784178
1997.91 693968 672127 766761 811736 731621 645496
2000.80 760842 811188 805292 926618 844026 774589
2003.69 818593 645877 498910 560585 708913 775815
2006.59 724950 799260 830192 827347 792008 715655
2009.48 711128 753478 768946 660716 715178 763259
2012.37 761675 850697 916794 987116 944985 828943
2015.27 734791 626010 619412 707493 791757 698907
2018.16 562477 632511 827794 793558 632756 670912
2021.05 782384 826887 724265 643615 659697 775860
2023.94 829977 824402 864944 838673 799143 775528
2026.84 813212 821386 823319 822658 737151 775593
2029.73 882687 932943 941506 796433 846092 978459
2032.62 949159 938142 888675 961285 989791 912274
2035.51 1067274 1067796 831374 751467 709795 832563
2038.41 900834 751151 815929 954368 902653 864171
2041.30 911394 828009 781265 858665 940454 941811
2044.19 924998 865631 917070 935907 816373 816343
2047.09 752354 737760 821755 880386 857452 771525
2049.98 810234 855901 756766 711387 729071 765544
2052.87 798556 767221 743599 887195 949510 936628
2055.76 1032471 958814 879470 840002 724583 789303
2058.66 847122 771000 742560 950251 1057037 971681
2061.55 777140 681921 863894 937865 887289 906623
2064.44 996339 1064726 1021892 914243 912170 998296
2067.33 1026563 995066 1021318 990593 1031761 1125281
2070.23 1085916 1058204 1047754 1009906 988643 1008202
2073.12 1129795 1206784 1230771 1180594 1208142 1240807
2076.01 1229644 1202503 1040402 1106457 1283260 1367528
2078.91 1308832 1233371 1339673 1422687 1404940 1202581
2081.80 1148592 1382219 1410013 1288961 1331198 1490654
2084.69 1506073 1483399 1451496 1488511 1568952 1658809
2087.58 1705873 1601785 1630517 1589434 1538946 1604103
2090.48 1784217 1844285 1867051 1883316 1914469 1939860
2093.37 1923784 1892722 1753100 1817705 1895846 1836567
2096.26 1787586 1901531 1911816 1877430 1798499 1682640
2099.15 1845668 2002114 2042374 1961765 1886268 1794033
2102.05 1664283 1443477 1339371 1569495 1620726 1591181
2104.94 1639972 1517621 1408021 1331752 1073967 1190359
2107.83 1303296 1133473 1080482 996334 972731 1055821
2110.73 877872 703096 825118 1017934 1088624 953398
2113.62 907676 939459 805616 563397 798376 971238
2116.51 857185 787541 841032 1043945 936725 602495
2119.40 648651 940419 923427 882017 850454 683177
2122.30 627656 723925 796540 871833 919703 820870
2125.19 749228 850578 903139 784825 535727 633171
2128.08 815459 838330 866200 833634 946052 975517
2130.97 845975 853740 884260 853342 921324 1006327
2133.87 942010 864879 758693 724095 786603 763912
2136.76 789021 789927 797662 964649 1026436 1011686
2139.65 1148209 1088450 899958 836883 983787 922830
2142.55 810327 892030 861578 904298 959095 1046816
2145.44 1075512 959242 919145 1016517 1088408 1082335
2148.33 1054560 943601 940566 964091 915536 1007596
2151.22 1091819 1157587 1105657 1069647 1046091 869312
2154.12 759494 881138 1003049 1007223 1038732 992287
2157.01 1010699 875908 828080 1143828 1195371 1049704
2159.90 977952 1038851 1098691 815595 808495 1152226
2162.79 1152692 1036390 1108932 1292501 1054801 767700
2165.69 1026592 1239584 1327577 1231907 1114003 913974
2168.58 694772 928860 1119343 1051723 1016614 1135118
2171.47 1139527 919243 960492 1278617 1293016 1170163
2174.37 1177728 1182419 1098745 984441 1049961 1137426
2177.26 1219348 1269442 1259551 1192854 982994 1127555
2180.15 1201531 1206032 1338801 1326210 1236682 1023711
2183.04 1094047 1371799 1352686 1184389 1234451 1203403
2185.94 979270 1057846 1373705 1429443 1349503 1269398
2188.83 1222575 1177869 1173820 1239782 1315327 1445808
2191.72 1402966 1199968 1121100 1220518 1366317 1331332
2194.61 1189759 1195319 1152543 922744 1024027 1301520
2197.51 1339644 1299093 1265694 1187998 1109551 1247373
2200.40 1256580 1175018 1200312 1253686 1207725 1134335
2203.29 1144219 1185107 1231847 1183668 1199843 1136486
2206.19 1113873 1206440 1230448 1240088 1294029 1431231
2209.08 1378621 1216965 1220686 1240386 1323483 1409776
2211.97 1386498 1398436 1445014 1520573 1538909 1561314
2214.86 1549712 1483869 1482584 1479805 1491401 1471966
2217.76 1456552 1556127 1667370 1688559 1633024 1624835
2220.65 1605258 1373719 1277456 1466281 1604476 1562667
2223.54 1492532 1467247 1462623 1439865 1529689 1541270
2226.43 1418991 1335942 1355842 1462270 1471999 1374162
2229.33 1379194 1460252 1434006 1297325 1309364 1378010
2232.22 1327995 1248045 1316837 1319265 1233364 1246748
2235.11 1249525 1182175 1207227 1292330 1262040 1217979
2238.01 1166393 1207496 1136314 1150195 1250491 1257758
2240.90 1181838 1125186 1084818 1084125 1153241 1184778
2243.79 1091322 1008774 1001777 1061917 1199033 1072774
2246.68 973473 969790 978963 1021293 1012624 1144363
2249.58 1160264 987244 999300 1188947 1140538 1144487
2252.47 1154718 979525 1027891 1114614 1066003 1132341
2255.36 1257631 1220876 1086231 1059737 1159670 1237406
2258.25 1178657 1043778 1109369 1181953 1141994 1159265
2261.15 1163156 1117444 1197080 1107658 981500 1125691
2264.04 1120305 1120878 1093242 1046567 1147292 1131612
2266.93 1141066 1144719 1215565 1306466 1114229 923134
2269.83 1056249 1176801 1131947 1106562 1185677 1140022
2272.72 988084 948805 1013914 966963 887011 1060260
2275.61 1144796 1155227 1123798 1130126 1181319 986097
2278.50 1057315 1128485 1133319 1216823 1061402 1050501
2281.40 1091536 1068818 1072226 1101058 1056879 1090822
2284.29 1217923 1143991 964479 976097 1093663 1060991
2287.18 1028480 1117968 1102210 1060496 1102452 1073983
2290.07 1043402 1072870 1027405 1038402 1213327 1247678
2292.97 1209283 1166770 1198495 1256267 1180734 1172156
2295.86 1244521 1094635 973148 1068398 1051741 1049569
2298.75 1171705 1203710 1012687 999057 1087547 1137055
2301.65 1116881 955767 1043745 1123946 1074081 1056217
2304.54 1167580 1371150 1401802 1281582 1155759 1184258
2307.43 1251093 1324477 1255297 1174178 1279661 1259886
2310.32 1176298 1205651 1250264 1355905 1447616 1332615
2313.22 1191562 1078052 1098937 1136429 1056387 1165880
2316.11 1297764 1280536 1239781 1223651 1170669 1103660
2319.00 1040594 1002129 1046273 1020212 977572 1123766
2321.89 1203788 1126143 1145629 1229671 1217021 1044553
2324.79 983793 1160437 1255002 996415 956325 1090886
2327.68 1069702 986714 996734 1143854 1010752 947989
2330.57 1202669 1271010 1028757 877681 1068802 1227580
2333.47 1019579 903236 1088158 1050359 875207 961695
2336.36 1096316 864477 722197 1011818 1049042 792851
2339.25 791557 1003423 1029656 1044738 1112457 1072326
2342.14 1027708 1098574 1260870 1183390 1129827 1216977
2345.04 1077223 964447 874649 928645 1099512 1157316
2347.93 1230634 1262582 1115168 1004488 1119688 1145657
2350.82 1071474 1087097 1202162 1069818 1003649 1190516
2353.71 977349 979141 1133220 929075 1037943 1192451
2356.61 938582 928638 1004989 799184 938898 1018226
2359.50 825273 965808 1113683 903918 960008 939378
2362.39 768817 930430 803976 858730 1026381 805577
2365.29 860327 845311 812028 1126939 1133798 990480
2368.18 940088 884977 1000357 1139258 1074888 981958
2371.07 1056385 1212293 1124800 978774 865795 1010807
2373.96 1308968 1312721 1279474 1174477 1056847 1094872
2376.86 1029288 1078153 1218306 1152765 1210836 1267083
2379.75 1259542 1219456 1130755 1196360 1341203 1321629
2382.64 1165126 1132943 1221679 1287811 1285692 1234153
2385.53 1175321 1142015 1134676 1130400 1223730 1142384
2388.43 1067064 1080780 1280828 1496094 1456442 1382430
2391.32 1224378 1209412 1093937 930598 984649 1231697
2394.21 1260486 1208374 1384723 1373565 1262787 1180774
2397.11 1257625 1369316 1294907 1263136 1253819 1193847
2400.00 1306518 1429432 1429187 1483302 1471863 1375104
2402.89 1224453 1163842 1133814 1252061 1309157 1239478
2405.78 1162333 1270955 1487843 1478214 1379494 1194998
2408.68 1151864 1247981 1252434 1282858 1349193 1314215
2411.57 1322150 1352809 1343458 1408360 1423405 1333781
2414.46 1376656 1428780 1386863 1400051 1459953 1389203
2417.35 1427768 1503313 1410910 1463688 1533249 1444748
2420.25 1412974 1459222 1513345 1536389 1582090 1639000
2423.14 1628110 1636492 1707067 1784476 1680989 1536080
2426.03 1623930 1696131 1755624 1753614 1815433 1930649
2428.93 1888989 1795096 1875801 1864967 1727653 1807782
2431.82 1799654 1708078 1668081 1656281 1793872 1895408
2434.71 1815120 1760881 1656601 1675485 1645820 1501476
2437.60 1709261 1868941 1726585 1717170 1658140 1510274
2440.50 1471174 1463752 1437377 1377730 1337651 1319814
2443.39 1250009 1308255 1335356 1245774 1339106 1429122
2446.28 1350930 1293277 1354788 1372025 1352978 1412347
2449.17 1516480 1557034 1434162 1333883 1460752 1543813
2452.07 1399237 1184968 1183031 1366157 1340268 1228445
2454.96 1364691 1424858 1386630 1429280 1499773 1484113
2457.85 1422139 1375083 1392513 1497701 1468557 1443714
2460.75 1483826 1554547 1550592 1515502 1533811 1645669
2463.64 1709746 1571546 1531951 1562903 1640883 1748229
2466.53 1773858 1670457 1626479 1873635 2029200 2080083
2469.42 2103719 2033177 1977392 1882254 1956924 2092722
2472.32 2042956 2001412 2100221 2109648 2116967 2091186
2475.21 2088477 2116146 2156136 2267881 2238210 2106176
2478.10 2156280 2275482 2123014 2180801 2284722 2261615
2480.99 2306308 2286163 2106380 1925091 1981606 2128849
2483.89 2297470 2171142 1998927 2176198 2163978 2034548
2486.78 2127545 2158145 2074830 2099619 2143192 2082503
2489.67 2033322 1921770 1811090 1854462 1911531 2007296
2492.57 1993507 1856576 1799972 1820738 1811206 1784566
2495.46 1913437 1994953 1911042 1941995 1940193 1798404
2498.35 1866880 1985420 2005307 1941765 1875214 1736077
2501.24 1723588 1945885 1936982 1801269 1729856 1825639
2504.14 1925733 1866069 1815176 1854958 1904201 1771715
2507.03 1805181 1853746 1753842 1740280 1649341 1626412
2509.92 1704410 1823888 1866199 1767197 1914664 2011821
2512.81 1804539 1889602 2073593 2036124 1982166 1978052
2515.71 1797942 1700085 1941895 1991194 1870547 1891123
2518.60 1890752 1932705 1891232 1883027 1965494 1987438
2521.49 1954807 1880164 1873278 1939294 2072613 2001927
2524.39 1900624 1925467 1789637 1847488 2024308 2019301
2527.28 1864453 1658683 1770582 1881511 1773112 1801944
2530.17 1769928 1692102 1671899 1662491 1698861 1631463
2533.06 1620148 1659501 1673075 1716701 1618893 1646254
2535.96 1674881 1427612 1274471 1326449 1342397 1244714
2538.85 1157149 1282408 1436750 1519707 1599269 1449807
2541.74 1318011 1235804 1262007 1281707 1215622 1367513
2544.63 1541746 1500298 1340637 1214744 1257357 1260700
2547.53 1204936 1183379 1218785 1296199 1378726 1446361
2550.42 1366809 1354937 1411808 1369106 1313635 1259632
2553.31 1403728 1464111 1375394 1275261 1021114 1146756
2556.21 1375232 1407181 1416974 1421955 1487466 1473586
2559.10 1379921 1276845 1335146 1239012 1297637 1311537
2561.99 1338296 1513839 1379968 1193557 1273125 1409425
2564.88 1366346 1364961 1350172 1310057 1309202 1272004
2567.78 1197620 1224352 1305433 1502241 1500112 1432154
2570.67 1448215 1330850 1253459 1303715 1387395 1465589
2573.56 1463356 1496962 1422000 1193638 1225656 1372051
2576.45 1344752 1349134 1460088 1380611 1316062 1361701
2579.35 1362563 1317221 1326943 1363702 1324785 1283204
2582.24 1291507 1348683 1407237 1462893 1465062 1255669
2585.13 1261058 1432724 1422562 1499482 1432967 1302544
2588.03 1159932 1271002 1338140 1337850 1469851 1378840
2590.92 1343940 1324108 1382792 1352305 1292482 1413179
2593.81 1478028 1476444 1484043 1526656 1522198 1485861
2596.70 1433983 1327159 1278903 1235416 1283826 1511282
2599.60 1424391 1250300 1262940 1292315 1330688 1321050
2602.49 1335984 1483732 1497452 1305500 1281665 1499329
2605.38 1508971 1261905 1396835 1489694 1378435 1247123
2608.27 1159522 1277234 1408098 1421235 1337376 1355817
2611.17 1605241 1591172 1490312 1555455 1440571 1481660
2614.06 1405292 1415297 1495601 1549225 1566704 1536803
2616.95 1514228 1442398 1450627 1350471 1499924 1507513
2619.85 1325360 1334750 1346921 1337941 1248645 1311266
2622.74 1348908 1386757 1639256 1656634 1616335 1595452
2625.63 1467737 1379411 1416994 1473530 1502991 1615304
2628.52 1570612 1381354 1444967 1500635 1395064 1438017
2631.42 1427272 1373556 1421589 1451851 1326211 1318513
2634.31 1281762 1255988 1481902 1428033 1511811 1649104
2637.20 1554658 1443620 1384413 1457341 1503801 1509408
2640.09 1450478 1421137 1394081 1277385 1439101 1457276
2642.99 1329977 1467016 1479296 1524488 1519521 1491345
2645.88 1505928 1417558 1416740 1507094 1512058 1446261
2648.77 1345189 1355153 1531728 1724776 1644956 1531798
2651.67 1471885 1562079 1647880 1438313 1415896 1423650
2654.56 1421782 1506686 1465405 1358096 1340027 1270492
2657.45 1290802 1416473 1367225 1499705 1565709 1517099
2660.34 1398801 1261949 1340155 1285881 1262434 1440739
2663.24 1507995 1383514 1372993 1434836 1480539 1607778
2666.13 1575567 1408646 1380333 1331565 1261766 1336253
2669.02 1349593 1246414 1342269 1453009 1491655 1582874
2671.91 1513689 1481469 1565103 1480507 1368416 1413770
2674.81 1564438 1642079 1541729 1520860 1585907 1492892
2677.70 1384577 1453722 1532765 1544266 1576150 1546072
2680.59 1318712 1209427 1533175 1618639 1403440 1411865
2683.49 1445961 1389972 1409415 1521022 1415084 1301599
2686.38 1351349 1337684 1424774 1464645 1427151 1541958
2689.27 1442394 1285770 1361602 1539989 1540000 1415546
2692.16 1464902 1505508 1573925 1441645 1311768 1392902
2695.06 1299529 1220034 1307042 1372876 1432156 1491632
2697.95 1680459 1669289 1319933 1220208 1289355 1243948
2700.84 1246529 1350855 1279814 1311671 1477955 1477807
2703.73 1548908 1687339 1817374 1721484 1578504 1608253
2706.63 1602223 1683484 1768892 1720578 1658025 1579845
2709.52 1588728 1660012 1659897 1553262 1423834 1390796
2712.41 1407400 1486586 1489003 1434043 1329057 1242248
2715.31 1257742 1329979 1463251 1533926 1580086 1670863
2718.20 1730130 1589967 1470992 1641312 1725383 1510235
2721.09 1596413 1682568 1521351 1569847 1608643 1741960
2723.98 1706008 1418966 1532665 1632558 1523404 1532445
2726.88 1533306 1471135 1514177 1517737 1323844 1334067
2729.77 1553408 1556751 1454986 1514450 1375314 1249102
2732.66 1336020 1269863 1299740 1505947 1505281 1443401
2735.55 1452145 1336848 1219115 1225788 1280720 1323258
2738.45 1499034 1648422 1570379 1584142 1561212 1632019
2741.34 1811711 1585632 1326976 1400847 1379554 1371501
2744.23 1369950 1341400 1386903 1514850 1643486 1616569
2747.12 1809417 1719237 1373957 1386356 1603508 1711223
2750.02 1739454 1674195 1578803 1544095 1509384 1521824
2752.91 1693845 1624230 1413952 1407868 1426879 1356259
2755.80 1348964 1402157 1261882 1394729 1556438 1472404
2758.70 1395883 1353750 1433449 1607211 1638732 1565064
2761.59 1676252 1648638 1455698 1284105 1463965 1590580
2764.48 1335997 1415826 1541130 1464694 1506014 1577251
2767.37 1561788 1535642 1604098 1670330 1522758 1579393
2770.27 1818154 1715521 1514311 1626732 1815332 1660603
2773.16 1594016 1661663 1491231 1480123 1587219 1633224
2776.05 1558682 1432267 1455699 1486751 1625616 1709577
2778.94 1520242 1625004 1836639 1654335 1600967 1520204
2781.84 1538177 1750033 1671149 1635279 1682571 1696165
2784.73 1591704 1522254 1445810 1486183 1603541 1632560
2787.62 1670524 1723190 1769267 1735454 1698249 1645815
2790.52 1693426 1679664 1645079 1590620 1448273 1539052
2793.41 1942257 1999606 1803491 1732854 1644273 1844983
2796.30 1983481 1896366 1818056 1768254 1850059 1884616
2799.19 1962681 2132969 2166446 2356369 2454886 2389397
2802.09 2223447 2277523 2409264 2099491 2193902 2426113
2804.98 2471293 2626366 2511398 2299634 2401588 2572608
2807.87 2686183 2608771 2623188 2663128 2600495 2616404
2810.76 2681391 2802721 2765526 2713175 2754005 2649076
2813.66 2759431 2897586 2887655 2884543 2792372 3009332
2816.55 3025901 3027537 3047874 3006144 3165144 3269368
2819.44 3287522 3110598 2933970 2976328 3094790 3172173
2822.34 3234313 3384795 3604491 3669083 3480700 3426322
2825.23 3679811 3570239 3505547 3723405 3868245 3878284
2828.12 3805602 3660915 3447729 3359792 3293135 3146559
2831.01 3101048 3300795 3307563 3305472 3359322 3559946
2833.91 3463299 3110391 3053506 2911499 3113895 3377662
2836.80 3509701 3614533 3374074 3098015 3114032 3065176
2839.69 2876043 2817477 2846634 2822557 2577910 2475484
2842.58 2383217 2233999 2025284 1845360 2139968 2276686
2845.48 2034195 2001448 2176765 2236824 2083528 1943256
2848.37 1925239 1916552 2008211 1969895 1957596 2062471
2851.26 1855262 1715941 1895998 1885062 1793147 1620620
2854.16 1561408 1786389 1939832 1994114 2035584 2060406
2857.05 1926274 1725017 1689326 1846571 1968432 1922716
2859.94 1813711 1895198 1900336 1799053 1732253 1684807
2862.83 1826189 1916159 1799045 1756973 1627766 1595178
2865.73 1764674 1777751 1802051 1748738 1786233 1767151
2868.62 1717567 1654717 1548293 1745917 1761363 1704411
2871.51 1799377 2010441 2070090 2034702 1913872 1856583
2874.40 2114708 2335623 2397890 2237600 2051187 2024828
2877.30 1950363 2052344 2219253 2023422 1876873 1869953
2880.19 2036087 2168648 2101141 2088440 2056623 1945336
2883.08 1838838 1855241 1792647 1757481 2094629 2243909
2885.98 2189179 2216713 2396686 2370668 2262145 2107649
2888.87 1900951 2113602 2125398 1966311 2121921 2191198
2891.76 2203732 2230826 2100168 2034702 2116615 2248208
2894.65 2096497 2040943 1965134 1990370 1973790 1887494
2897.55 2129180 2109910 2155254 2432701 2511385 2450530
2900.44 2399666 2346373 2427536 2384531 2147559 2146765
2903.33 2221722 2365940 2630542 2563247 2457552 2489054
2906.22 2463841 2330047 2253864 2258544 2397651 2493843
2909.12 2310081 2362331 2373244 2363844 2391744 2222825
2912.01 2288430 2451197 2389424 2219828 2296179 2484851
2914.90 2571500 2494677 2451595 2440473 2194167 2039249
2917.80 2265108 2499549 2307496 2488113 2539340 2254797
2920.69 2376779 2584582 2642679 2487103 2245115 2189775
2923.58 2409868 2571333 2699284 2677892 2597432 2567468
2926.47 2381700 2474225 2655536 2622094 2521747 2534281
2929.37 2688592 2665500 2535267 2607231 2497374 2326480
2932.26 2472408 2719768 2794557 2673979 2744268 2853303
2935.15 2891852 2981120 2839097 2695911 3019926 3161418
2938.04 2849830 2708961 2706942 2682692 2702047 2687213
2940.94 2916317 3055938 3064620 3133320 3153314 3107218
2943.83 3099086 3052699 2718469 2763805 3023946 2904629
2946.72 2814087 3262793 3269420 2928644 2792254 2789766
2949.62 2836786 2854868 3063922 3311559 3300191 2935155
2952.51 2858583 3084818 2990957 3004214 3108718 2896841
2955.40 2886698 3042678 3174807 3348588 3410483 3143844
2958.29 2970440 2989368 2924173 2941606 2951342 2644593
2961.19 2042019 2524464 3649040 3591030 3379152 3507292
2964.08 3392861 3340704 3504524 3559053 3374368 3311058
2966.97 3243660 3258876 3282075 3321493 3589780 3529877
2969.86 3459719 3517560 3593557 3735230 3649106 3524535
2972.76 3545735 3605142 3757760 3965577 4049545 4036730
2975.65 3832950 3632149 3519560 3567123 3746649 3851704
2978.54 3943393 3900266 3743232 3731038 3730417 3814634
2981.44 3983874 3930900 3927689 4086913 4214302 4073511
2984.33 3866164 3973741 4126873 3945245 3785433 3869155
2987.22 4085969 4107797 3907477 3820530 3744950 3779795
2990.11 3808451 3660123 3662598 3836780 3873873 3796663
2993.01 3780632 3756319 3833430 3877341 4083907 3942728
2995.90 3480160 3488622 3433395 3496864 3461493 3250269
2998.79 3183750 3034586 3149069 3147749 3172984 3242638
3001.68 3051539 3147585 3196392 2940436 2859906 2924199
3004.58 3146328 3236478 2929115 2674651 2781761 2889081
3007.47 2741254 2853130 2988589 2966433 2964209 2926166
3010.36 2879480 2763159 2612846 2751613 2857281 2764485
3013.26 2807868 2627951 2393827 2464121 2509979 2524344
3016.15 2567239 2732086 2739258 2631772 2584774 2616159
3019.04 2755159 2750037 2562705 2582954 2567558 2448527
3021.93 2617692 2601020 2497345 2450106 2427741 2482744
3024.83 2501652 2717249 2719227 2370050 2396963 2446788
3027.72 2397280 2376210 2336286 2258408 2246094 2319515
3030.61 2244862 2364137 2489750 2564353 2632794 2476375
3033.50 2257663 2165699 2240069 2538199 2701672 2562086
3036.40 2570483 2506987 2482065 2334886 2167121 2362103
3039.29 2457380 2558456 2366810 2266607 2517227 2459277
3042.18 2473004 2455472 2498382 2539102 2469045 2516546
3045.08 2519207 2727506 2818060 2871140 2989040 2918344
3047.97 2635033 2570703 2692949 2836581 2978108 2699326
3050.86 2644766 2777334 2751938 2777942 2575132 2519653
3053.75 2783717 2806364 2647107 2674011 2723410 2542030
3056.65 2675425 2838641 2976197 3203900 3151168 2936571
3059.54 2670948 2603639 2771978 2795032 2847678 2940206
3062.43 3115714 3132735 3076526 3230712 3315775 3261195
3065.32 3320633 3505060 3324745 3440112 3729820 3623345
3068.22 3832756 4068921 4153560 4389109 4638475 4890381
3071.11 4992004 5272624 5630666 5763780 5892576 6262575
3074.00 6499036 6525830 6671726 6964340 7383444 7816803
3076.90 8397758 9006592 9661029 10365298 10745510 11383143
3079.79 12753683 13985201 15012377 16216190 17937796 20024721
3082.68 22190323 24679147 27500105 30720800 34158656 37810987
3085.57 41813893 46249525 50804758 54983098 59325131 63396762
3088.47 66877471 69967701 72566970 74278650 74433059 73760828
3091.36 72917595 70697037 66802892 62829229 61031937 62598033
3094.25 69002189 81050687 92204945 85104322 62955100 52811736
3097.14 56320734 62925235 69917350 75929033 80679421 83398159
3100.04 84510539 83819094 80911867 77360673 72678430 66356025
3102.93 59870898 53350458 47030185 41134427 35933962 31263769
3105.82 27340894 24201656 21288095 18883818 17011058 15367682
3108.72 13996617 12633254 11605855 10859639 9957054 9296607
3111.61 8685933 8065838 7667366 7279736 6714481 6363746
3114.50 6313407 6199742 5891152 5486974 5279964 5002066
3117.39 4976813 5174619 5161642 4819453 4365433 4262652
3120.29 4253242 4475763 4850820 4619082 4103205 4172549
3123.18 4407232 4503952 4438240 4098377 4150224 4356430
3126.07 4232074 4354654 4560145 4598108 4409599 4125984
3128.96 4395643 4672246 4719878 4641002 4708921 5078189
3131.86 4890679 4725009 4919408 4982656 5015267 4824591
3134.75 4790710 4786067 4633395 4688747 4655058 4665042
3137.64 4833611 4801847 4818690 4664839 4676914 4993549
3140.54 5115258 5007404 4847869 4907384 5010371 5106161
3143.43 5347349 5499229 5445610 5407011 5421735 5499438
3146.32 5605078 5792243 5708488 5669509 5645188 5389278
3149.21 5205599 5157693 5313889 5404307 5685164 5881971
3152.11 5665939 5737765 6179140 6477539 6736183 6987096
3155.00 7034844 7237091 7623984 7949523 7985726 8296723
3157.89 8720525 8718278 8709535 9109347 9648543 9702387
3160.78 9823887 10179353 10759596 11144589 11228487 11473378
3163.68 11649761 11634927 11781352 12216428 12330847 12105161
3166.57 12169580 12390701 12550121 12543142 12493996 12303379
3169.46 12010999 12262074 12309101 11900342 11863988 11705598
3172.36 11622466 11886832 11940780 11977686 11646755 10902950
3175.25 10585969 10644086 10602102 10566686 10335165 10096409
3178.14 9763668 9161324 8464035 7955440 7582475 6895015
3181.03 6177551 5506721 4973263 4579058 4203506 3805968
3183.93 3539642 3251369 3210968 3448088 3299297 3029805
3186.82 2950747 2913400 3203936 3426393 3009338 2877943
3189.71 3088770 2911426 2730157 2760060 2762842 2749000
3192.60 2674401 2641607 2825903 2767772 2944988 2947191
3195.50 2402708 2591543 2690963 2527629 2492160 2396364
3198.39 2436938 2565437 2827736 2968379 2938462 2816046
3201.28 2747906 2780474 2770557 2949356 3083250 3042284
3204.18 3142062 3031306 2773395 2808843 2903044 2716888
3207.07 2563193 2664420 2611108 2687740 2745325 2865368
3209.96 2947766 2969005 2981641 2861943 2843595 2499270
3212.85 2453743 2734258 2660283 2808378 2950458 2941039
3215.75 3091558 3114394 3231256 3078979 2878989 2764669
3218.64 2572708 2496243 2692659 3054470 3106332 3098532
3221.53 3110045 2839389 2797836 3149127 3220540 3017205
3224.42 2758199 2674475 3016759 3234382 3182054 3017232
3227.32 2698239 2636957 2957022 2997435 2939223 3070464
3230.21 3188927 3202852 3046524 2951424 3120058 3058889
3233.10 2882904 2985061 2980371 3052500 2940458 2863822
3236.00 2884683 3041733 2957474 2824184 2902063 2864893
3238.89 3158092 3329706 3198670 3168031 3183375 3135086
3241.78 3026524 2941701 3081002 3118396 2955119 3038387
3244.67 3349445 3486358 3285496 2894962 2521373 2441768
3247.57 2801209 2969402 3096128 3138635 2711152 2736210
3250.46 2941646 2831440 3065451 3209196 3053749 3068340
3253.35 3193829 3461115 3330313 3027090 3032940 3319077
3256.24 3206938 3077985 3396983 3592594 3441248 2990756
3259.14 2862522 3036372 3087742 2971544 3340973 3709522
3262.03 3358956 2950602 3156914 3174710 3164312 3407468
3264.92 3261916 3075128 2883512 2945793 3140581 3032569
3267.82 3113182 3096467 2875156 3002868 3148067 3123452
3270.71 3086929 3039361 2903563 3122258 3312580 3174588
3273.60 3354732 3357251 3050112 3013771 2954935 3021012
3276.49 3274660 3183342 2959313 2860500 2902673 2791885
3279.39 2855591 3013319 2828968 2606954 2671009 2752285
3282.28 2658034 2894967 2964000 2721992 2689140 2803137
3285.17 2814406 2694461 2800821 2892357 2952534 2988223
3288.06 2930344 3171998 3344946 2982674 2751904 2744842
3290.96 2596238 2488877 2523433 2698496 2852988 2817156
3293.85 2626679 2641284 2859774 2889413 2820067 2922668
3296.74 2886529 2890619 2971705 2817205 2780170 3003031
3299.64 2800224 2489864 2720842 2721679 2888055 3014066
3302.53 2831038 2877085 2898933 2636651 2308061 2381681
3305.42 2608627 2809943 2842195 2909504 2843799 2663177
3308.31 2870319 3081453 2983975 2649187 2546107 2598562
3311.21 2717343 3067342 2864318 2618281 2635191 2718619
3314.10 2761993 2553909 2370883 2368730 2501095 2753760
3316.99 2895105 2785631 2943860 3044554 2851500 2883788
3319.88 2947735 2703102 2600835 2658325 2531064 2626858
3322.78 2757251 2803381 2800517 2801404 2780617 2693970
3325.67 2706999 2466924 2524281 2887774 2577459 2393743
3328.56 2787152 2980338 2810061 2578943 2628569 2530003
3331.46 2438869 2457812 2601053 3114629 3254562 2723115
3334.35 2322356 2436120 2422128 2487542 2900542 3054115
3337.24 2746499 2570480 2498724 2557435 2722056 2540895
3340.13 2419405 2569515 2620520 2733996 2747718 2653026
3343.03 2719328 2664949 2672058 2797449 2762310 2467819
3345.92 2532977 2533933 2493769 2735516 2678422 2683396
3348.81 2888696 2603862 2200653 2401894 2605461 2406542
3351.70 2203242 2512546 2824725 2883195 2661982 2470624
3354.60 2373749 2414260 2577454 2641320 2920121 2975746
3357.49 3059828 2962501 2772417 2868799 2988585 2933266
3360.38 2989700 2905309 2634361 2612131 2599928 2751738
3363.28 2502600 2294070 2684463 2558745 2262816 2521499
3366.17 3057704 3330549 2941116 2699830 2708155 2633264
3369.06 2665192 2482609 2405659 2487833 2665743 2647522
3371.95 2463250 2491352 2491817 2663919 2919652 2705853
3374.85 2488038 2777501 2805027 2526092 2786462 2692257
3377.74 2260052 2274227 2387757 2524851 2535832 2596495
3380.63 2699124 2715284 2509854 2302152 2314880 2628799
3383.52 2726698 2525133 2549887 2640134 2824851 2956614
3386.42 2868208 2786139 2921588 2908770 2572174 2451595
3389.31 2691096 2889942 2854348 2894184 2773838 2438773
3392.20 2430550 2520483 2386356 2206080 2293732 2751937
3395.10 3064404 2834817 2552320 2785347 3222314 2742316
3397.99 2244415 2304031 2429497 2742063 2665017 2649802
3400.88 2649589 2587169 2520388 2511160 2584116 2454368
3403.77 2453332 2416656 2229503 2526354 2747950 2556022
3406.67 2584481 2602662 2737267 2852396 2752654 2630888
3409.56 2640822 2426737 2336505 2332221 2058003 2141687
3412.45 2561790 2740162 2501092 2598633 2863592 2589467
3415.34 2308643 2554888 2601023 2390169 2518825 2546974
3418.24 2487115 2604078 2598815 2496040 2537389 2615057
3421.13 2539579 2550986 2612993 2839931 2772773 2583770
3424.02 2670390 2576988 2639210 2632479 2489078 2722998
3426.92 3064360 2902479 2396290 2174301 2499372 2668525
3429.81 2641777 2719365 2508983 2299208 2428646 2628920
3432.70 2711623 2522417 2120461 2244435 2502414 2571938
3435.59 2633890 2384451 2319226 2473709 2627324 2821970
3438.49 2980662 2757460 2512565 2680684 2703862 2617175
3441.38 2526626 2478214 2432343 2497652 2366145 2174349
3444.27 2502186 2945566 3149709 3031915 2837935 2623989
3447.16 2521061 2583317 2702995 2865420 2776399 2670958
3450.06 2763897 2554370 2735867 3046000 2833244 2780100
3452.95 2687372 2975652 2992859 2684483 2849814 3055913
3455.84 2786995 2625128 2736881 2581378 2752277 2920697
3458.74 2853758 2642093 2392193 2557768 2793195 2976850
3461.63 3000324 2813653 2862220 2742623 2623675 2726852
3464.52 2739464 2795223 2613666 2746760 2914404 2511322
3467.41 2629795 3067430 3039401 2875457 2773648 2809894
3470.31 2964739 2990479 2836258 2844141 2708772 2555150
3473.20 2660210 2719662 2903059 3016627 2791525 2702648
3476.09 2626250 2693358 3070275 2732713 2469701 2564268
3478.98 2813166 3018283 2853103 2704456 2770746 2874036
3481.88 2910254 2888970 2853926 2993582 2959965 2816365
3484.77 2917622 3079818 3110086 3181407 3102443 2998223
3487.66 2881560 2641358 2834758 2918566 2668880 2577836
3490.56 2694093 2607274 2314357 2608111 2965190 2986149
3493.45 3093280 3064732 2724861 3090014 3428648 2955370
3496.34 2821887 2957766 2853282 2989718 2959251 2791113
3499.23 2913205 2888600 2936268 2762336 2767882 2621392
3502.13 2389329 2671659 2965033 2966483 2746669 2951597
3505.02 3067975 3000812 2896638 2697160 2745224 2676328
3507.91 2764566 2962210 2942733 2996421 3202830 3127601
3510.80 2974705 2756975 2584789 2777602 2653552 2545302
3513.70 2613446 2795816 2867453 2831585 2849677 2863650
3516.59 2867692 2766117 2702446 2836875 2808595 2996896
3519.48 2971349 2655319 2965873 2881356 2630479 2861426
3522.38 2754608 2534197 2591842 2649101 3025755 3161156
3525.27 2998236 2788753 2701684 2822354 2709804 2752908
3528.16 2769245 2607774 2795732 2747465 2597211 2714074
3531.05 2954721 3055788 2824429 2753816 2868354 3124270
3533.95 3135152 2834868 2767924 2918059 2843738 2665040
3536.84 2633668 2895378 3195099 3060256 2799469 2690902
3539.73 2631253 2510271 2580942 2956352 3316683 2870246
3542.62 2628274 2805872 2849378 3065837 2959040 2845318
3545.52 3059259 3063688 2976881 3209476 3180976 3086932
3548.41 3155495 3048802 2866832 2883715 2823871 2609443
3551.30 2630216 2714662 3095599 3274227 2927518 2679182
3554.20 2732223 2749219 2912370 3178262 2930649 2737279
3557.09 2847652 3041946 3036641 3037483 3109931 2866819
3559.98 2674714 2711640 2851563 3167027 3178974 3118009
3562.87 3025132 2888658 2803200 2434277 2686125 2885975
3565.77 2508389 2413913 2687455 2685123 2797167 3285993
3568.66 3137843 2917036 2944633 2799713 2765393 3197696
3571.55 3224660 3189204 3313666 3054979 2858049 2629707
3574.44 2838568 3069663 3010926 3058778 3246053 3046653
3577.34 2693961 2803872 2986525 2919124 2906186 2966908
3580.23 2939687 2974648 2889611 3076185 3240112 3101302
3583.12 3136548 3361351 3229564 2858854 3103492 3249636
3586.02 3042902 3143083 3040544 3097885 2983053 2553158
3588.91 2732314 3052144 3105355 3108438 3117219 2998825
3591.80 2876762 2987000 3139389 3091073 2928420 2913362
3594.69 2807045 2937529 3206188 3133097 2870557 2594885
3597.59 2800347 3095789 3293297 3217700 2982763 2952002
3600.48 3032642 3184773 3018192 2829186 2936402 2902933
3603.37 2874201 3204622 3378766 3380619 3195311 2945669
3606.26 3047985 3068948 3153518 3300232 2992129 2358786
3609.16 2603086 3195659 3191346 3273314 3385184 3189707
3612.05 2885021 2861716 3081318 2967244 2822860 2950071
3614.94 3007063 3173935 3100197 3267433 3401733 3236641
3617.84 3349579 3221461 2784886 2796151 3144558 3100302
3620.73 3102598 3242700 3307810 3473454 3608756 3346985
3623.62 3156970 3352374 3281249 3140293 3352664 3490036
3626.51 3485912 3474343 2860378 2558608 2847086 2392901
3629.41 2674313 3297753 3087071 3081567 3138539 3194959
3632.30 3291026 2996821 2688507 2994861 3159398 3238385
3635.19 3538953 3527797 3520690 3486813 3344612 3175490
3638.08 3229138 3392324 3346719 3286884 3318422 3469030
3640.98 3196873 3126122 3312078 3309090 3266413 3203914
3643.87 3303279 3184811 3187813 3545951 3353606 2964683
3646.76 2972255 3122185 3115735 2851714 2488886 2875463
3649.66 3269723 2993273 2960114 3336268 3696859 3659048
3652.55 3535560 3419271 3238700 3226759 3464652 3356075
3655.44 2820289 2721461 3092235 3212010 3198388 3310283
3658.33 3439261 3507538 3530909 3549415 3492107 3327587
3661.23 3386210 3483491 3330907 3094177 3123250 3534240
3664.12 3636926 3383957 3371617 3388485 3113110 3128542
3667.01 3393254 3439225 2953390 2762252 3287271 3483185
3669.90 2829493 2327172 2764684 3305424 3579643 3512994
3672.80 3367481 3224553 3168529 2925678 2714771 2218004
3675.69 2193668 2823213 2940349 3192771 3396000 3303669
3678.58 3182556 3170935 3159879 3197074 3300364 3364407
3681.48 3314049 3258464 3140889 3199418 3499620 3546206
3684.37 3450028 3428530 3344358 3230091 3256398 3240165
3687.26 2988291 2089079 2288388 3300898 3399346 3236727
3690.15 3207987 2919239 2753253 3070558 3265578 3366195
3693.05 3164091 3092535 3227505 3447318 3747907 3710279
3695.94 3568624 3538761 3592674 3576522 3646032 3841928
3698.83 3676031 3665304 3846219 3804947 3278707 2954822
3701.72 3463496 3764726 3768692 3716789 3669222 3523918
3704.62 3489594 3492639 3382814 3621417 3709126 3501561
3707.51 3580728 3557846 3196685 3105311 3377586 3621010
3710.40 3519634 3392470 3137014 2964385 3231806 3499952
3713.30 3752623 3801407 4014136 4137896 4068756 4213489
3716.19 4166652 3914088 3803774 4081972 4107121 3802852
3719.08 3758283 3913448 4000806 4125680 4370134 4141177
3721.97 4078375 4234655 4143023 4217993 4352011 4414030
3724.87 4419533 4218281 3776039 3857780 4096001 4063177
3727.76 4082235 4089766 4068097 4151733 4340236 4082307
3730.65 3889081 3841328 3478418 3687577 4104946 4070110
3733.54 3876420 3777950 3765612 3650205 3705496 3368537
3736.44 3121168 3634172 3797191 3520386 3536858 3624567
3739.33 3595070 3429877 3286362 3271964 3422952 3697240
3742.22 3675215 3366961 2950252 1858697 1266875 2376380
3745.12 3314471 3481182 3525159 3462000 3330854 3222499
3748.01 3041773 2324909 1834596 2833454 3577604 3192309
3750.90 3015359 2197122 1903673 2915885 3225931 3379606
3753.79 3599186 3671250 3732577 3631214 3288888 3350149
3756.69 3703249 3560638 3438710 3289550 3317527 3391654
3759.58 3187129 3319567 3377090 3453471 3436640 3409647
3762.47 3581239 3484404 3560981 3673196 3449898 3214748
3765.36 3072299 3236926 3417706 3392755 3542420 3638387
3768.26 3633886 3444896 2984965 3054063 3330192 3152934
3771.15 3289428 3713992 3472480 3333231 3643479 3668449
3774.04 3724335 3641490 3422540 3639813 3625147 3289005
3776.94 3288445 3305439 3226187 3091483 3007493 3213238
3779.83 3520919 3471953 3434429 3461878 3577795 3627191
3782.72 3448498 3548728 3503771 3396233 3472657 3457274
3785.61 3664704 3663159 3320281 3338533 3535709 3394052
3788.51 3454312 3578102 3614359 3819996 3751103 3484151
3791.40 3342090 3532081 3664246 3475990 3414069 3528442
3794.29 3643186 3458202 3372148 3277345 3151776 3538675
3797.18 3635752 3355838 3419305 3503268 3490568 3587110
3800.08 3399108 2429206 1973050 2974681 3222301 3227256
3802.97 3369779 3167298 3244842 3384466 3458881 3314669
3805.86 3117432 2712496 3153823 3721657 3647411 3798722
3808.76 3675175 3635843 3733787 3528582 3602014 3662749
3811.65 3410593 3240159 3401985 3649122 3663722 3452125
3814.54 3334964 3164238 2390041 2633340 3412344 3707065
3817.43 3673379 3209052 3332718 3619944 3529327 3314458
3820.33 3155404 3025162 2749741 3010000 3371282 3390679
3823.22 3384281 3428304 3525198 3606852 3493959 3294565
3826.11 3260695 3508491 3685826 3646473 3481427 3362236
3829.00 3581063 3640132 3749817 3658097 3300778 3343580
3831.90 3401264 3356155 3386463 3661353 3685726 3137589
3834.79 2967866 3348192 3710805 3742439 3333986 1991110
3837.68 2177918 3098343 3059658 3094835 3260015 3433018
3840.58 3254578 3316389 3615584 3674625 3537766 3425353
3843.47 3313039 3414334 3516386 3721506 3708112 3468144
3846.36 3389734 3612069 3671868 3460625 3551321 3687560
3849.25 3730787 3520136 3389290 3583352 3086239 2698614
3852.15 3359965 3371289 2625393 1656612 1915877 2953394
3855.04 3145077 3276646 3562358 3477392 3448242 3715536
3857.93 3754792 3802023 4002209 4184967 4218675 4185455
3860.82 4132462 4091718 4062282 3867466 3586759 3481615
3863.72 3698366 3338898 2912784 3511868 3897017 3888233
3866.61 3802125 3578581 3632245 3667594 3261204 3092216
3869.50 2888046 3094598 3459379 3347976 3625942 3791716
3872.40 3787921 3772551 3498877 3158664 3263808 3668622
3875.29 3513031 3573288 3764979 3558466 3486501 3432355
3878.18 3300094 3292987 3267351 3075008 3256376 3702255
3881.07 3573767 3474629 3739553 3680268 3594070 3377083
3883.97 3139933 3327599 3116571 3071503 3387929 3382184
3886.86 3574471 3513965 3556070 3710749 3547092 3695649
3889.75 3630744 3218181 2936338 3045567 3403250 3653419
3892.64 3536305 3388653 3561008 3656960 3532209 3389072
3895.54 3451567 3624123 3380695 3360249 3505597 3325407
3898.43 3209662 3126801 3288076 3488654 3639314 3422572
3901.32 3032799 3102791 3281671 3537190 3670553 3306592
3904.22 3343138 3437143 3175843 3185148 3517596 3662456
3907.11 3531387 3427299 3248479 3306821 3619005 3753552
3910.00 3652295 3696953 3865911 3900498 3724911 3670604
3912.89 3761687 3473609 3288851 3586471 3644921 3435064
3915.79 3394650 3238656 3284765 3432514 3394395 3414201
3918.68 3505043 3499273 3369808 3285451 3259063 3405222
3921.57 3490541 3552854 3594686 3474233 3471508 3500440
3924.46 3322612 3430485 3590448 3676174 3886589 3996207
3927.36 4073615 4084788 3877055 3754948 3861057 3756810
3930.25 3735566 4078024 4195448 3955557 3661119 3562097
3933.14 3817774 4142877 4276616 4200607 4021622 3966368
3936.04 4120137 4236100 4313767 4292288 4460423 4552385
3938.93 3992345 3810765 4113299 4125124 4147301 4287893
3941.82 4259513 4371962 4526179 4515684 4312670 4203254
3944.71 4316492 4501305 4650522 4274163 4067477 4145593
3947.61 4121342 4173895 4225346 4418563 4401531 4306771
3950.50 4250444 3834019 3777014 3783759 3794804 3836332
3953.39 3875211 3931290 3778124 3728586 3947077 3847061
3956.28 3657742 3842022 3927770 3900598 3841872 3663570
3959.18 3727705 3798729 3624093 3565524 3517248 3562761
3962.07 3518968 3528446 3601212 3834047 3788299 3567373
3964.96 3501412 3381074 3565922 3857791 3654718 3457590
3967.86 3676723 3814790 3818489 3903894 3991413 3868197
3970.75 3804478 3762478 3521073 3472340 3469402 3551346
3973.64 3888372 3845004
##END=
