##TITLE=1,1,2-Trichloroethane
##JCAMP-DX=4.24
##DATA TYPE=INFRARED SPECTRUM
##CLASS=IUPAC A
##ORIGIN=NIST, Analytical Chemistry Division, 301-975-3108
##OWNER=COPYRIGHT (C) 2001 by the U.S. Secretary of Commerce
##DATE=01/06/01
##$SPECTRA VERSION=1.10
##$UNCERTAINTY IN Y=2.1 % relative (B=1.14E-04,C=1.89E-9,D=6.50E-14)
##CAS NAME=1,1,2-Trichloroethane
##CAS REGISTRY NO=79-00-5
##MOLFORM=Cl C H2 C H Cl2
##MP=-36.5 C
##BP=113.77 C
##$NIST SOURCE=QUANT-IR
##SPECTROMETER/DATA SYSTEM=IFS66V (Bruker)
##INSTRUMENT PARAMETERS=KBr Beam Splitter; MCT Detector; Multipass cell
##STATE=gas
##SAMPLE DESCRIPTION=1,1,2-Trichloroethane Primary Gas Standard
##PRESSURE=101.3 Pa
##TEMPERATURE=23 C
##SAMPLING PROCEDURE=1 L/min Flow
##RESOLUTION=1.9290
##DATA PROCESSING=NB Strong Apodization
##XUNITS=cm-1
##YUNITS=(micromol/mol)-1m-1 (base 10)
##XFACTOR=1.0
##YFACTOR=9.0949E-13
##DELTAX=0.9645
##FIRSTX=575.652
##LASTX=3974.606
##FIRSTY=-1.39E-06
##MAXX=3973.64
##MINX=575.65
##MAXY=.0008537
##MINY=-2.36E-06
##NPOINTS=3526
##XYDATA=(X++(Y..Y))
575.65-1533631-1970508-1987224-1359682-949523-891688
580.47-503879-946076-1205121-174861-277586-1692537
586.26-1796175-229388 865669 751951-241955-442048
592.04-813121-656364-119043-345771-1448299-1526808
597.83-1567578-1195579-1159372-1130781-359020 1782
603.62-438643-671213-980005-950767-610442-260057
609.40-370395-694721-1258452-1496356-1510801-1111931
615.19-874838-634163-399723-569179-674936-522000
620.97-292661-362721-471625-504466-538610-533515
626.76-166080 103968 289449 558966 602474 941057
632.54 1306494 1305041 1273039 1718962 2268955 2329275
638.33 2301129 2922519 3784620 4168067 3983958 4976407
644.11 6251194 7066395 8017892 9033591 9979880 10725761
649.90 10984234 11982076 13995933 16708035 19903168 23823097
655.68 27831313 32732866 38412898 45142304 52851528 61630305
661.47 70952511 81651473 94159127 107897262 121971509 135018549
667.26 149144220 163494868 172892425 176428057 175687715 173328131
673.04 169199391 166065734 164184799 167953179 181720444 200878547
678.83 212977652 210912528 195684726 173361688 148717359 125101560
684.61 105455746 89730328 76711472 66331867 57121904 48938966
690.40 41311742 34616870 28501951 23546113 19504869 16730440
696.18 14449809 13367558 12980197 13059048 13195247 14367000
701.97 15502607 16957940 18485117 20226481 21652896 23261822
707.75 24618521 26336269 28004674 29379274 30174063 31302278
713.54 32881697 35565773 38826547 43588633 48480079 52902302
719.32 58305373 66981033 77451906 90834628 107750084 129126648
725.11 155735432 189384656 229887054 279455666 337048580 402144149
730.90 473562718 550631648 627933586 702883167 770764749 829162332
736.68 873663865 904155158 920895529 930481222 935165429 937659633
742.47 938584022 938700518 920295237 906823223 866073319 802605668
748.25 756184809 682136951 576294843 452863175 333566531 230196447
754.04 153341437 100807214 69652154 51850906 42541201 36842109
759.82 33769231 31189967 29950390 28821251 29031836 29301055
765.61 30423786 31893502 34030016 35747618 37860300 39610318
771.39 41501674 43487518 46302534 50401446 56572800 63509402
777.18 70625800 76677795 81826776 86415929 91482888 96976082
782.96 103773883 111404635 118746276 123635678 123280105 115892362
788.75 105849431 94665472 85555041 83359018 91652490 106379891
794.53 117241984 117407865 109538874 97237609 83416922 69451332
800.32 57020348 46326552 37947353 31161382 25774244 21399581
806.11 17275799 13622748 10773821 8153114 6222358 4560735
811.89 3421144 2599949 2304845 1989343 1873898 1573861
817.68 1552926 1603044 1921859 1990777 2214372 2335148
823.46 2426287 2586002 2781636 2419502 1971128 1829559
829.25 2016704 1947127 2291228 2584134 2399208 2100434
835.03 2538245 2671942 2703378 2524361 2415988 2355000
840.82 2399078 2210033 2468794 2690950 2727937 2548180
846.60 2716798 2938177 2851718 2612145 2214526 2091295
852.39 2168600 2247040 2349248 2091645 1755111 1664744
858.17 1867278 1630920 1255013 1113703 1192322 1020959
863.96 868280 823142 921439 822746 905362 1019724
869.75 1221838 1189157 1054431 879404 1091764 1337152
875.53 1402925 1510308 1641311 1596840 1657805 1716016
881.32 1636706 1788258 2206356 2265187 2498307 2643387
887.10 2869759 3082987 3500986 3798280 4058149 4174118
892.89 4380809 4493946 4601376 4685918 4888109 4953222
898.67 5138983 5440513 5953055 6467340 7005214 7444319
904.46 7616695 7815303 8419463 9178624 10043076 10991633
910.24 12249449 13873133 15645786 17682204 20112523 23045877
916.03 26133110 29644611 33874795 38674953 43958187 49806799
921.81 56685807 64601364 73360579 83202694 94415726 106602835
927.60 119528252 133144633 146530756 157928204 164646512 163297882
933.39 153612346 139670313 128098237 125326714 135368758 156460193
939.17 178005782 186185654 179778881 165064058 147325191 128880316
944.96 111437040 96851416 86527558 78473413 69653588 60675598
950.74 52868686 45781575 39069431 32964427 27538584 22619217
956.53 18650435 15520665 13149909 11485595 10171277 9083262
962.31 8197601 7297573 6616196 6239371 5930054 5673912
968.10 5384690 5024378 4874396 4749578 4711892 4442058
973.88 4195499 4267170 4425437 4245117 3872649 3373744
979.67 2856763 2522998 2320280 2201235 2110497 2010536
985.45 2121570 2206556 2320172 2425321 2526960 2542669
991.24 2507579 2454716 2588969 2627216 2842185 2904843
997.03 2817843 2758153 2870335 2993727 3030816 2939472
1002.81 2887546 2723042 2616437 2586238 2626758 2600737
1008.60 2654466 2803599 2916688 2945040 3246415 3351549
1014.38 2528625 1910275 1826066 1855474 2020607 2162644
1020.17 2408947 2601841 2641584 2716378 2936298 3054762
1025.95 3216289 3430330 3624073 3934839 4413186 5039728
1031.74 5815476 6589132 7343971 8062612 8872050 9738308
1037.52 10611519 11355975 12344763 13125992 14007765 15011630
1043.31 16010083 16991269 17960274 18821446 19741124 20289986
1049.09 20199977 19880485 19560747 19163668 18654199 18082712
1054.88 18158674 18941905 19742158 19633197 18476471 16748008
1060.67 15144861 13846306 12841038 11859468 10946151 10349153
1066.45 9996335 9655107 9101146 8191986 7308523 6558394
1072.24 5923346 5234672 4689620 4250871 3804322 3464359
1078.02 3124223 2777539 2468986 2278728 2261026 2023096
1083.81 1560894 1195806 973502 832948 848537 824327
1089.59 749806 600187 572505 420926 412676 561521
1095.38 658537 450512 317464 293984 335242 327314
1101.16 271351 140180 165279 150117 122180 194540
1106.95 191711 327855 332274 242858 144876 195302
1112.73 297468 246167 369302 392366 356182 375939
1118.52 430766 531692 683379 631966 516401 487380
1124.31 637070 792324 866933 734053 690341 774000
1130.09 792770 702082 739872 848059 869816 933388
1135.88 1152299 1338406 1468053 1775244 2248722 2731495
1141.66 3158939 3678086 4375472 5325508 6348420 7392643
1147.45 8613785 10222867 11948143 13557719 15334670 17366821
1153.23 19756592 21874023 21748830 21696690 24979643 27843774
1159.02 26290477 25976651 27148730 27562784 26760622 23987011
1164.80 22171511 21012648 19638430 18212433 16377310 14215212
1170.59 12192267 10326728 8550669 7179606 6004792 5247489
1176.37 4668626 4030827 3642669 3596270 3453657 3475337
1182.16 3690637 4126603 4595326 5158199 5790244 6646215
1187.95 7473965 8508407 9784311 11555061 13805746 16705252
1193.73 20423821 25419475 31789515 40134474 50606269 63663800
1199.52 79000123 95818986 112038576 125298937 132500695 131792552
1205.30 120301353 104986305 117125964 148178396 124071151 105146752
1211.09 124006595 142855017 150635850 146046600 131907962 111263348
1216.87 88864054 67846646 51178283 38664743 30191422 24304124
1222.66 20295964 17147929 15029459 13266847 11976627 10910736
1228.44 10463223 10157585 10038578 10003215 10313284 10769269
1234.23 11833006 13319145 14516404 14462626 14737013 15266430
1240.01 15786243 16136391 16228226 15918227 16049694 16601761
1245.80 17704567 19437251 21983205 25003229 29148411 34426638
1251.59 41082829 48857997 57926873 68103554 78732540 88724356
1257.37 97487247 103477412 106069274 104566079 100853808 98749191
1263.16 98956273 96394098 96274091 99381659 100512220 98279547
1268.94 93429404 86957471 79525558 71471554 62947529 54202832
1274.73 45929868 38527323 32008957 26420278 21749463 17718705
1280.51 14424781 11848723 9724926 7881944 6484221 5491832
1286.30 4837266 4452372 4308828 4555946 5227487 6202106
1292.08 7468979 9113386 11117477 13570523 16408261 19623779
1297.87 23061062 26358663 29511097 32586313 35105549 37198297
1303.65 39339399 43723335 44754973 39114727 37493197 38157089
1309.44 38269058 38995856 40023442 40610492 40564571 38580409
1315.23 35105804 30372546 25435307 20885392 17056720 13695268
1321.01 11303417 9506541 8194024 7081176 6329652 5772463
1326.80 5498445 5321944 5521444 5514479 5412018 5184937
1332.58 5046320 4929538 4840047 4619045 4667342 4689582
1338.37 4673712 4628441 4701175 4677406 4746234 4837092
1344.15 5125720 5198812 4967813 4664690 4443181 4077592
1349.94 3639301 3545231 4069384 4310228 4212627 3785550
1355.72 3243019 2513535 2148904 1697494 1555460 1276508
1361.51 1378927 1383010 1291572 1230120 1118541 846422
1367.29 831302 769029 844162 843480 882861 646664
1373.08 684379 648581 712730 565240 633236 690030
1378.87 870795 766440 781055 784769 934328 886879
1384.65 739166 350011 336165 456230 695579 682506
1390.44 788552 668055 488953 242333 518718 628917
1396.22 626660 392350 485119 600498 800135 718667
1402.01 975607 953103 952569 980239 1281225 1304054
1407.79 1460247 1476261 1722720 1757795 2151673 2370456
1413.58 2744309 3008418 3685550 4263802 5169726 6092604
1419.36 8065375 9761926 11886663 14003215 16691728 19311267
1425.15 22569362 25908488 30369716 35375525 41706738 46125449
1430.93 49142593 50850186 51536380 48644136 47876368 72478763
1436.72 112776617 80282984 45158674 48579893 52962399 54528047
1442.51 52509833 49263537 44000116 39213962 34162352 30071624
1448.29 25960157 22376932 18781303 15695548 12665880 10329314
1454.08 7826183 5766914 4002308 3507556 2926589 2576283
1459.86 2214148 2014002 1580821 1384745 1011567 1132957
1465.65 1284460 1359617 1262630 1194692 1055730 960022
1471.43 745171 758397 796872 924719 765622 1017132
1477.22 1090857 1114844 1082587 1225516 1162248 1148316
1483.00 1028841 1120717 1078805 914361 866658 875064
1488.79 536442 594871 712708 674960 568785 539510
1494.57 86164-162508-8654-101042-175494-132650
1500.36-235815-135013-62364-228968-930323-1287204
1506.15-1176936-617024-365903-216876-175071-184073
1511.93-166365-58981-123842-134812-302881-266344
1517.72-133946-199659-577365-686624-410378-164135
1523.50-209350-395038-340705-193861-168312-189730
1529.29-181389-218201-303097-400185-396814-247823
1535.07-116235-124460-529869-1105173-1040087-600298
1540.86-553700-381045-104601-166448-180206 9139
1546.64 119891 137528 59133 36371 97998 123523
1552.43-21047-182587 10811 43893-465317-1069820
1558.21-1088514-939839-348966 41841 85518 32494
1564.00-39559 39750 68357 17923-144894-273309
1569.79-71474 2060-71653-131402-215835-948252
1575.57-1125452-398756-211748-179136-223228-157249
1581.36-170564-209973-216154-144099-173130-128422
1587.14-88967-117589-264635-271102-220851-196195
1592.93-197069-77854 34984 55283 85421 17488
1598.71 405 71704 139364 111275 76550 193634
1604.50 280227 248236 254177 286901 284389 275721
1610.28 275507 254715 234534 231876 96951-376275
1616.07-458585 147822 203730 145654 67021 8729
1621.85-257174-395795-136342-104409-264473-311071
1627.64-272658-321110-300847-246008-266306-324479
1633.43-606967-968054-683142-412454-422614-323711
1639.21-253218-222140-276736-203880-145986-374309
1645.00-733241-588252-485370-282317-178297-284884
1650.78-1027747-1888843-1579755-737588-284649-197992
1656.57-186340-172103-196706-190556-307964-543292
1662.35-437854-218344-276464-248484-234523-377004
1668.14-686678-540842-494370-420140-266947-301225
1673.92-660933-654150-360522-241902-222833-271868
1679.71-306863-295132-475711-851295-1338876-887069
1685.49-172290-46841-30552-112014-181124-84314
1691.28 13539-112524-257405-888987-1212083-459437
1697.07-111434-490772-1246673-898878-204391-100167
1702.85-259138-356145-331942-306130-202402-211402
1708.64-189255-146198-119286-125376-208644-386756
1714.42-440664-541447-967293-729619-262296 365
1720.21-45660-86453-121992-56280-34296-131422
1725.99-137172-106747-88772-146103-123837-142987
1731.78-560880-1075828-932404-363638-183870-226211
1737.56-282673-577698-509308-272921-327641-404616
1743.35-311005-283819-350740-423879-526196-521689
1749.13-516090-750817-627309-414571-322008-389099
1754.92-546900-557433-439819-439308-396800-406443
1760.71-585023-504786-284069-196225-198500-306104
1766.49-452639-474865-310017-251392-388937-671673
1772.28-610873-340447-192535-158549-122991-77283
1778.06-82921-67468-99409-39525 106063 126791
1783.85-40373-30997 26312 33032 20520 37857
1789.63-13007-74137-122514 78061 245816 236399
1795.42 221315 259409 235834 147077 183708 199250
1801.20 129927 108017 187186 290195 288050 193943
1806.99 117251 120686 97358 19804 16605 82623
1812.77 125463 140590 155893 94810 70962 155746
1818.56 243381 322746 326294 323904 477666 514970
1824.35 641830 714310 403330 209678 127576 102133
1830.13 179580 249589 246392 184500 181466 147327
1835.92 52347-39560-3126 17114-18505-137200
1841.70-323479-585952-583928-239213-181163-299178
1847.49-375023-377614-334748-363274-409844-318702
1853.27-315218-370648-360739-364543-376781-369606
1859.06-369095-461489-435645-398005-451993-560555
1864.84-531613-437225-432294-482486-438629-389629
1870.63-430743-380471-310818-299103-331754-336574
1876.41-342873-332621-312277-249965-294976-427395
1882.20-463156-384020-388331-389180-376542-379383
1887.99-398180-354278-280482-222935-256737-331643
1893.77-436074-439463-372813-293409-318991-342003
1899.56-292892-325814-351987-409858-424096-366878
1905.34-323337-392266-399217-355707-427983-410306
1911.13-371913-354110-285920-310711-320056-362114
1916.91-408792-324849-284742-326174-360000-358326
1922.70-265904-272259-287422-271511-280811-239445
1928.48-216025-189060-136589-137899-140606-159580
1934.27-150361-114271-68159-60440-74300-144639
1940.05-150536-97964-50438-127358-128938-80252
1945.84-51317-70343-173737-213826-148866-96180
1951.63-201129-339089-295521-244169-194602-183986
1957.41-234357-146220-147453-194395-220022-327966
1963.20-337754-297662-302942-255924-192181-126794
1968.98-104199-108658-47972 33733 2537 64065
1974.77 157712 172407 272148 321715 305834 336517
1980.55 384109 382309 346331 341216 400072 423696
1986.34 403826 363664 418930 450517 351802 273530
1992.12 197949 194426 185945 134090 125162 65724
1997.91 33084 78443 99727 64165 42364 12424
2003.69 6327 8078 29587 9741 38923 26429
2009.48 4571 7414 26879-46158-81796-68270
2015.27-52042-144176-213872-139659-127889-218606
2021.05-308569-211615-68562-76430-126634-175362
2026.84-227750-228137-172754-128919-77100-60361
2032.62-115148-178603-100229 23410 22585 10534
2038.41 25725 24964 36445 26616 89315 172810
2044.19 237486 255276 240687 200481 210221 178973
2049.98 199176 205139 137232 96804 139067 147752
2055.76 125914 148820 88906-42664-96714-72027
2061.55-14570-76643-226619-251685-201128-198283
2067.33-165941-109951-117721-150100-126163-165674
2073.12-95560-22348-12465-135378-175336 18987
2078.91 80800-57365-217920-121483 77803 110898
2084.69 23366-30943 141299 241832 319000 224365
2090.48 366530 559507 522052 289070 312303 614852
2096.26 774759 747201 506379 639848 748443 666280
2102.05 330557 378419 587786 692346 501089 467736
2107.83 715535 679693 468212 269349 578921 650060
2113.62 326085-58230 119309 276650 160440-210153
2119.40-146713 86196 71814-308416-382427-100669
2125.19-27513-259701-273601 14364-58074-304338
2130.97-404625-209636-152391-240296-233366-75542
2136.76-53010-223094-362249-262536-142072-136650
2142.55-136229-43368-33206-198330-313178-228749
2148.33-133801-250331-380911-192068-126318-385174
2154.12-446192-235582-285176-548080-428682-103700
2159.90-279111-608662-423241-134464-438646-669994
2165.69-347529-151588-465911-602079-220905-130616
2171.47-456975-314811-55549-225523-370016-70495
2177.26 105148-298209-363972 61111 63270-207089
2183.04-99439 172653-37293-145721 157246 143674
2188.83-28148 227728 396678 203978 185927 439803
2194.61 446299 321396 486650 577457 358582 348918
2200.40 512121 405458 251235 423945 507690 440011
2206.19 486902 452454 267965 129528 185861 183140
2211.97 169486 191188 93960 77166 95241-1729
2217.76-78741-109291-73877-109419-79844-60513
2223.54-68148-76631-148686-118837-17355-35705
2229.33-52245-3499-21847-101255-140567-47722
2235.11-76015-87583-27475-57166-32719-38623
2240.90-55991 25560 36132 20905 65386 57736
2246.68 139342 109359 48989 70228 94773 174093
2252.47 120918 97428 142200 142026 103427 95751
2258.25 35328 3947 27026 45946-20581-51974
2264.04 10223 57741 56024 34810-5225-80481
2269.83-92945-8447-66529-143459-151784-82312
2275.61-47421-27745-12255-49143-118483-175041
2281.40-137027-102103-159924-202027-209201-253218
2287.18-200820-93551-151429-163355-95168-167482
2292.97-231064-248823-276028-325529-363385-284258
2298.75-270406-181227-104613-180142-251133-291190
2304.54-231873-384415-396334-338049-458317-585083
2310.32-558524-438165-545907-642132-854967-737416
2316.11-941707-931126-1094168-1016857-1242760-1249927
2321.89-1494784-1466828-1634101-1652148-1906395-1869781
2327.68-2024612-2054314-2327980-2393796-2437399-2336809
2333.47-2412089-2475547-2596352-2473953-2388458-2262363
2339.25-2192131-2023573-1855816-1623113-1463555-1160108
2345.04-797355-346381-46677 260351 335148 256420
2350.82 47604-186134-492029-650384-797071-890433
2356.61-1032221-1130508-1185599-1103227-1020265-878081
2362.39-608848-458042-425974-252081-130471 34851
2368.18 194658 374188 451500 563741 512008 444639
2373.96 507180 701592 709660 710344 687867 639256
2379.75 592180 544079 508161 555949 603227 577067
2385.53 478509 420075 500779 556649 565509 647190
2391.32 757381 837775 832095 914240 985371 1029748
2397.11 1045462 1149994 1255033 1287925 1325184 1428517
2402.89 1524180 1891423 2294476 2113610 1631868 1319309
2408.68 1138074 1079254 1078592 1120320 1127937 1105092
2414.46 1013761 906906 632927 538035 721177 814353
2420.25 707275 542422 437929 377345 278412 243661
2426.03 203458 172862 95740 91907 52982 56231
2431.82 85781 46759-12093 45403 166130 225757
2437.60 267135 289520 394158 432990 468258 533068
2443.39 524391 579295 741989 935408 1091414 1165902
2449.17 1268120 1415180 1604625 1741563 1828024 1960718
2454.96 2106190 2240288 2362737 2525716 2574869 2563677
2460.75 2558570 2476689 2390557 2316044 2337368 2335997
2466.53 2151393 1926774 1776626 1760297 1702124 1552620
2472.32 1434210 1433683 1381361 1312347 1235090 1127061
2478.10 1077538 1016712 953615 965329 985097 996775
2483.89 921193 951915 914185 838911 953722 1006677
2489.67 972419 884005 829197 764196 790052 838748
2495.46 814436 785127 733770 725934 720322 807106
2501.24 833082 865561 892324 959310 973338 1007856
2507.03 1127806 1226976 1281990 1326489 1423554 1561095
2512.81 1619544 1629092 1558106 1397047 1272343 1216934
2518.60 1268084 1300358 1304839 1317502 1302412 1200658
2524.39 985357 872225 759278 610673 461339 435801
2530.17 317766 114129-2866-42731-10032-69937
2535.96-209297-188423-187242-256851-216148-156095
2541.74-135990-56443-112070-237563-211287-145030
2547.53-76760-48844-39716 48956 125060-16600
2553.31-120110-77522-6557 60117 263284 368263
2559.10 410033 439048 428665 419051 534190 617054
2564.88 570571 464720 450680 447580 548447 624824
2570.67 587486 500937 362128 385004 431493 422110
2576.45 361607 319520 345951 352413 276183 229937
2582.24 162781 167584 193275 260791 355074 356052
2588.03 326463 288168 293601 333848 387621 387279
2593.81 386967 414240 422445 516485 578458 453502
2599.60 363173 430523 487024 491759 434686 334469
2605.38 223630 196068 173312 257171 254734 232326
2611.17 199979 202834 222991 209330 65447 22406
2616.95 45214 13887-6229-101109-170946-132152
2622.74-132712-175438-162637-58037-48136-174294
2628.52-225897-150065-32336-86844-154063-108060
2634.31-97778-81718-22694-9703-28114 133892
2640.09 120740 46492-19539 65891 135397 103518
2645.88-32947-37550 83387 193420 68823-95622
2651.67-102582 26936 122065 35263-88277-52532
2657.45-96672-142628-22175 56806-37264-129635
2663.24-122945-71724-9318-27160-60151-146975
2669.02-132225-9370 13818 8235-10858 42272
2674.81 104672 114112 45025 61434-5846 56229
2680.59 69396 37567 33928-22504-20048 14985
2686.38 150256 303123 352801 498374 634884 708633
2692.16 821464 848606 889667 969924 952394 950772
2697.95 987257 1007203 909402 919053 975240 1065562
2703.73 1132547 1010917 920880 972325 911847 602625
2709.52 439267 378759 264643 197456 110058 24561
2715.31-27930-80756-34955 83941 14408-141192
2721.09-110908-10299 45148 142622 254633 269263
2726.88 171964 164731 240793 236008 212951 451825
2732.66 700442 746326 656688 683674 841005 995725
2738.45 874960 873129 964237 940450 799456 714099
2744.23 678947 784479 816055 621286 708373 794967
2750.02 661287 480153 366603 369002 251685 88309
2755.80-11264-20188 16559 57309 47581-48138
2761.59-80352-943-6477-2831-57343-77058
2767.37-72184-30726-81274-130917-211515-80990
2773.16 43856-17076-42367-39653 17612 146940
2778.95 126025 38074 6344 18786 43992 28997
2784.73 44900 23342-23045 5068 189203 139257
2790.52-49277 15841 120927 187831 210228 87808
2796.30-14498-27583-18609 48886 227326 224647
2802.09 14301-34173 90671 70224-71604-27389
2807.87 38356 109022 76599 66236 157632 129691
2813.66 85797 191593 172116 35214 157618 316039
2819.44 145364 94860 185324 161547 88197 83392
2825.23 79171 243890 408127 526250 456408 392835
2831.01 384972 374493 235016 264902 311948 522410
2836.80 735166 818412 750818 778111 917942 1196306
2842.59 1375579 1593616 1937065 2309528 2871277 3622104
2848.37 4383954 5251286 6110828 6864014 7111898 6871765
2854.16 6353393 6101023 7078127 8290655 6922113 5474970
2859.94 5830423 6670334 6946925 6725626 6236825 5355766
2865.73 4459098 3670528 3112368 2626487 2236514 1842353
2871.51 1499055 1291044 891999 691461 1236183 1556291
2877.30 1360739 1314025 1232437 1248300 1155523 1156171
2883.08 1196862 1185654 1214323 1263737 1203087 1245602
2888.87 1133975 1193996 1155209 1131554 1187544 1341000
2894.65 1360969 1211961 1125516 1167290 1294438 1432704
2900.44 1353196 1384854 1412298 1258438 1110012 1128506
2906.23 1212457 1329370 1311785 1343655 1326502 1402795
2912.01 1391003 1379187 1307878 1266468 1423864 1649626
2917.80 1547670 1567405 1640181 1638411 1697446 1793177
2923.58 1940044 1996130 1945423 2066083 2009551 2065621
2929.37 2061112 2066561 2017608 2121552 2101686 2118229
2935.15 2073486 2190768 2312815 2412561 2321032 2172372
2940.94 2100333 2334740 2391461 2452256 2706278 3127008
2946.72 3116970 3268874 3583138 3913587 4204748 4615555
2952.51 4871703 5196296 5501909 6153287 6724581 7537036
2958.29 8823878 11155915 14250497 17623013 19915799 22835707
2964.08 27699259 34155639 40794165 46735348 50184788 50890109
2969.87 47877972 43135348 45363176 60930593 58723280 46116191
2975.65 44818879 48458754 52445668 53026655 50549727 45220354
2981.44 38788992 32175445 26968990 23256479 19498245 15051217
2987.22 12148966 10232857 9132676 8256533 7720592 7177832
2993.01 6872173 6670306 7013844 7637400 8678456 9771284
2998.79 11044154 11714037 11882619 11268603 9921756 8587448
3004.58 10390116 12900676 10878024 9092867 9767039 10941256
3010.36 11715981 11574439 10914635 9969201 9030716 8175534
3016.15 7605897 7149894 6975229 7043076 7026100 6414396
3021.93 5512557 5043733 5651766 5381966 4890555 5323415
3027.72 5990796 6319322 5986412 5485179 4890654 4096754
3033.51 3321606 2852290 2442777 1998673 1671263 1372833
3039.29 1259663 1058241 942834 778010 675123 657215
3045.08 505394 490358 626441 552183 501868 528510
3050.86 480627 495604 399574 355032 377226 271534
3056.65 227274 167944 166344 243317 284334 260906
3062.43 379753 313835 165516 101147 278583 434766
3068.22 443599 270662 91665 188302 288269 313229
3074.00 325495 224930 261853 245773 238476 353156
3079.79 507462 549478 565866 435843 411541 291872
3085.57 346409 372467 318859 306272 152887 141818
3091.36 102055 104317 166927 144547 119523 163352
3097.15 107721-62025 8684-36214-88558-18627
3102.93 67279 94686 194126 156124 14879 86965
3108.72 123257 166337 253601 152349 167165 159525
3114.50 200761 304616 147579 23573 24382 158282
3120.29 85148-48777 14186 24506 87137 95340
3126.07-9735-87567-15353 16430-101323-27839
3131.86 223989 281761 238613 84822 100338 43721
3137.64-16716 183056 299063 292864 263765 143999
3143.43 142792 349571 227817-61107-25654 247963
3149.21 368595 295634 291708 361135 280190 168489
3155.00 206959 187248 180864 255095 239402 152444
3160.79 67543 19474 86821 154382 100913 163275
3166.57 119480-22350 95994 134261 35699 46896
3172.36 100670 99269 172075 101835 348 30207
3178.14 121429 95505 136255 91613 213812 258033
3183.93 79941-20847 100175 56216-101502-147641
3189.71 109215 266841 190033 210668 269493 206529
3195.50 179655 128151-50607-75671 146304 136660
3201.28 51061 175458 130083 124732 200205 106085
3207.07-37101-158481-282306-283971-6168 133593
3212.85 62067 2567 83825 72098-35432-117598
3218.64-149192-58820-49795-31656 45105 36195
3224.43 10952 24317 202914 177961 51871-104238
3230.21-115837 116195 272554 180978 13322 102292
3236.00 104823 183898 32857-80394-68267 96318
3241.78 187385 107127 75829 119638 21022-37653
3247.57 31813 58923 32132 100015 96636 31043
3253.35-83634-43050 43562 49624-154532-283328
3259.14-138946-22310-34806-62156-14492 116899
3264.92 91477-63081-162727-107820 2064 19307
3270.71 1774 66241-7995-60822-72277-93477
3276.49-134432-175935-79026-121529-178603-58197
3282.28-132772-211291-31682 4338 22575-1062
3288.07 41451 153955 98050 8532-93580-83861
3293.85-122156-40691 134793 22813 66811 182959
3299.64 125545-34159-96850-228846-106712 90523
3305.42-16099-7003 4450 89568 125591 22067
3311.21 15798-18204 90563 72717-84321-85644
3316.99-68170 909 130945 48747-29454-49750
3322.78-110511-182150-2779 50969 33580-140376
3328.56-209510-7908 96182 11358-40527-95757
3334.35 215872 277615-16688-101369 3470-10539
3340.13-59971-224273-100537 39707 135069 138339
3345.92 78373 174568 131220-32536-69090 189639
3351.71 191980 127516 114426 124782 66773 99385
3357.49 195930 188836 115198 79146 194944 226296
3363.28-6147-122423-79179-4364 86497 138984
3369.06 175820 77824-96986-3051 136848 101049
3374.85 33967 33271-31831-67863-78126-94209
3380.63 139105 250854 72272 44616 6073 30097
3386.42 134963 306041 402059 344093 282203 273087
3392.20 284584 231628 244248 291512 235293 25476
3397.99 135749 386157 302624 180581 155444 385821
3403.77 451707 334555 135829 124685 310609 326235
3409.56 333120 179752 116431 335691 325307 322059
3415.35 485211 641279 548900 466547 388209 214366
3421.13 33553 3060 40094 99065 309748 236811
3426.92-63391-247549-95845 555-285410-234317
3432.70-10663 26473-120411-101171 30057 56691
3438.49-114851-238030-345610-77469 165158 41420
3444.27 11683 36732 62394-104221-262168-82388
3450.06 197340 152070 160630 141600-92933-209331
3455.84-32942-41619-122257-109276 22594-36342
3461.63-136600-142778-131380-169057-212210-31623
3467.41 41485 68986-23943-244783-240197-321717
3473.20-290376-122538-99277-148083-77608-10929
3478.99 7401 9772-37616-185974-283107-257687
3484.77-96716-107695-110588-2817-17678-104560
3490.56-127454-199407-313521-157845-33036-98888
3496.34-22719-59877-175631-201419-127609-134695
3502.13-179994-337082-310766-132803-42545-120453
3507.91-164268-199624-153355-190571-287389-251733
3513.70-227313-219248-50677 25674-19476-170450
3519.48-143263-30691-107676-155778-131162-216908
3525.27-238479-186891-173156-142595-204209-271691
3531.05-257802-89978 44182 24468-163514-334776
3536.84-260527-253925-115884 69126 48251-73092
3542.63-308189-269560-228504-177936-78402-38129
3548.41-224887-313329-235864-84109-49642-115391
3554.20-298012-320071-134502-95820-101720-115657
3559.98-100124-55912-43443-65803-40582-62779
3565.77-162399-383666-422937-283934-112801 66489
3571.55-47690-155478-60586-144098-228951-202460
3577.34-80980-28880-59618-98998 14954 5721
3583.12-79476-238510-317490-332259-348463-378532
3588.91-262011-198700-109697-145859-116056-127650
3594.69-302985-244326-159225-136632-186544-284603
3600.48-317923-216669-213412-270847-275780-274295
3606.27-259048-322219-659425-487025-161305-230046
3612.05-234195-170927-228276-380479-327842-233422
3617.84-264825-541054-506941-267025-85750-53821
3623.62 15958-130575-88060-276471-660622-614519
3629.41-234540-2623 109230-84545-118627-33464
3635.19-113591 49520 135377 16240-806 77756
3640.98 49210 140080 263093 208167 192147-19145
3646.76-172909-265673-253551-193368-141282 28097
3652.55 83083 122082-809 49919 265728 284128
3658.33 179957 182155 167759 236786 228711 238052
3664.12 264497 229810 140161 126617 29016-289433
3669.91-519988-256376-134218-31997-350274-588110
3675.69-255673 196976 244035 177377 224721 208271
3681.48 148872 180948 66798 64380 121413-28479
3687.26-502049-105974 152126-168505-116054 135742
3693.05 166226 91477 127952 192017 371490 382971
3698.83 352526 315325 100231 98024 180232 237269
3704.62 217210 157955 79608 101070 26255 113362
3710.40-198092-460189-1595 177370 35706 28266
3716.19 63243 11753-68849-12429-28114-101899
3721.97-77200-104584-102606-237964-327363-150611
3727.76-5671-98700-243798-405596-484418-309021
3733.55-451647-530415-707827-553568-307950-294803
3739.33-44750 303179 280331-253256-1134235-875711
3745.12 145366 212137-102952-499831-330923 91930
3750.90-367310-327323 269179 558444 438499 367376
3756.69 570547 692290 598838 653385 844401 879293
3762.47 899259 998623 1029925 1010529 913027 843385
3768.26 733837 674517 821757 850939 741610 671092
3774.04 629976 475625 466799 401181 226708 172228
3779.83 184926 216597 247269 195083 139058 205866
3785.61 307039 380456 387253 285734 329483 404153
3791.40 548703 532150 341958 231983 248283 370393
3797.19 553695 625607 454207-34074-24713 288942
3802.97 543328 658483 449505 109215 268744 721811
3808.76 703986 493105 461491 579843 673614 645703
3814.54 121855 104176 690837 779864 518925 31665
3820.33-116409 115375 352022 274564 297487 317116
3826.11 262938 240441 68780-51076-207958-365013
3831.90-169583-214421-390408-388055-635412-1138349
3837.68-745615-445588-523786-516663-551459-645914
3843.47-513881-548690-546104-328737-196098-204512
3849.25-255959-683517-1107642-1176786-1565868-844415
3855.04-312071-360447-209299-62428-142164-300231
3860.83-272417-202956-294710-469814-444272-218016
3866.61-172640-397258-807070-872399-440777-294950
3872.40-418071-490786-230700-157213-238222-242266
3878.18-449697-643095-518404-431952-303046-84546
3883.97-295248-533549-284559-74531-101550-92983
3889.75-200354-229878 11274 159488 140040 175309
3895.54 285020 377791 217501 88801 150120 104285
3901.32 131741 252444 250668 264577 257950 284332
3907.11 359449 212858 31800 71184 83847 96395
3912.89 160663 63826-52631-99656-173433-322171
3918.68-505215-464504-220832-227280-321592-253801
3924.47-106749-35017 806 33235 16026 128873
3930.25 232320 119719 114126 299832 380967 262484
3936.04 375256 401656 348275 448960 536677 443860
3941.82 261645 506833 678011 591867 621947 839318
3947.61 767202 587802 511153 622258 799708 966472
3953.39 846836 595590 723943 1066211 964740 920910
3959.18 924968 671166 567390 685596 741607 566660
3964.96 374024 293223 318819 313469 205701 75291
3970.75 30917-4215-155303-166192
##END=
