##TITLE=Trichloroethene
##JCAMP-DX=4.24
##DATA TYPE=INFRARED SPECTRUM
##CLASS=IUPAC A
##ORIGIN=NIST, Analytical Chemistry Division, 301-975-3108
##OWNER=COPYRIGHT (C) 2000 by the U.S. Secretary of Commerce
##DATE=00/02/01
##$SPECTRA VERSION=1.10
##$UNCERTAINTY IN Y=2.1 % relative (B=1.1E-04,C=2.4E-09,D=2.3E-13)
##CAS NAME=Trichloroethene
##CAS REGISTRY NO=79-01-6
##MOLFORM=C2 H Cl3
##MP=-73 C
##BP=87 C
##$NIST SOURCE=QUANT-IR
##SPECTROMETER/DATA SYSTEM=IFS66V (Bruker)
##INSTRUMENT PARAMETERS=KBr Beam Splitter; MCT Detector; Multipass cell
##STATE=gas
##SAMPLE DESCRIPTION=Trichloroethene Primary Gas Standard
##PRESSURE=101.3 Pa
##TEMPERATURE=23 C
##SAMPLING PROCEDURE=1 L/min Flow
##RESOLUTION=1.9290
##DATA PROCESSING=Boxcar Apodization
##XUNITS=cm-1
##YUNITS=(micromol/mol)-1m-1 (base 10)
##XFACTOR=1.0
##YFACTOR=9.0949E-13
##DELTAX=0.9645
##FIRSTX=575.652
##LASTX=3974.605
##FIRSTY=1.33E-06
##MAXX=3973.64
##MINX=575.65
##MAXY=.0009526
##MINY=-2.13E-06
##NPOINTS=3526
##XYDATA=(X++(Y..Y))
575.65 1471116 2521823 1653286 4138989 5780039 149790
580.47 2378092 3599386 495365 740251 1991848 436493
586.26 337979-1238698 328925-1899650 2166356-270890
592.04 650133-173319 1766182-494332 453806 2294231
597.83 1049328-2290 1971492 823803 2367505 1533203
603.62 1518488 1061445 4030401 2051212 4482284 5287104
609.40 7104540 8009671 10543209 10985877 13415915 16348236
615.19 18863450 22521432 28760875 31726386 40051850 45546429
620.97 54568879 60651301 70643730 74958802 83391646 85073105
626.76 89765775 90244509 90156704 88387142 86059669 79774846
632.54 77412872 76190562 84860524 95128564 99128624 94154586
638.33 85502952 72175494 59186501 46849499 36607715 28116993
644.11 23384693 18388767 15636768 11046769 10838159 7594419
649.90 7687949 5223676 4485194 3172713 3180134 1672745
655.68 2001869 1672765 3884971 1448579 2066992 1689529
661.47 2641418 1703682 2470250 710097 1784708 1694621
667.25 2703612 612242 2623530 758293 2563851 1223436
673.04 1599247 595064 1320397 791031 1881607 854125
678.83 2014782-85473 2459363 259273 1100343 952842
684.61 1199012-588985 1487110-373924 1685732-543776
690.40 575678-269364 1032476-248098 737972-695005
696.18 355923-372244 828718-628551 464370-229702
701.97 391688-933054 1132610-640285 852656-869019
707.75 786912-682751 1337080-469152 904183-593242
713.54 1186209-422051 981733-5209 1207236-318596
719.32 998245 140868 1527631-820386 1973276-31455
725.11 2300171-984975 2157011 307246 2198604-198002
730.89 2406103-16324 1967068-52076 2656269 423954
736.68 2936366-33626 3341380 493937 3917818 600180
742.47 3419213 278609 3506953 159458 3816366 434186
748.25 4208017 655201 4405511 303340 4675806 626537
754.04 5025274 2198084 6815218 3179579 9657498 7403945
759.82 14033774 12880711 21634698 21361996 33321215 33289601
765.61 47737875 48838589 65104655 66985906 83467667 81959981
771.39 99893155 94431201 108136236 99608077 125220004 122640223
777.18 157516529 106125621 137111618 57929524 305413107 728256458
782.96 88104754 108719689 93223890 122691535 107162514 122559013
788.75 109054559 118529918 105161102 110497789 97163872 100636928
794.53 87211897 84628760 66689939 64359289 50056178 49780070
800.32 38485731 37687754 26920245 25404147 19368591 22473217
806.11 20419742 22661183 17207425 17152612 11059096 10317664
811.89 5700269 6566605 4128436 5839832 4120239 7044545
817.68 5559820 9173237 8460197 11381868 12052740 15335889
823.46 15866022 20783369 22503735 29472447 35225197 45630060
829.25 60017573 82784387 107883513 139438726 181270757 234712621
835.03 296872174 366653569 442263763 516231072 588339117 652271183
840.82 708628339 754638878 784210178 804007168 883110962 749988673
846.60 667452887 903211871 1047498422 970269962 678852238 744665075
852.39 796126695 780313152 693852670 555714843 392748536 246239205
858.17 133581385 65658016 27947503 14570376 8306509 7753479
863.96 6985421 6552894 4390960 6303042 4825771 5479278
869.75 4168039 5718084 3873311 4980172 2996260 4508919
875.53 3048840 4166864 2280624 3545843 2451480 2746624
881.32 1642873 3138095 2137460 3264476 2364680 3510896
887.10 3169192 4440291 3856799 5408839 4910663 6802700
892.89 7377736 8696898 9441393 12130093 13223963 16459288
898.67 18049218 22199294 23501916 26169524 26711391 26961614
904.46 24795484 22671392 19476499 20083407 23735268 30405701
910.24 34139427 37751541 37741951 38792355 39248446 41854576
916.03 45025491 51506608 58716632 69547759 81247268 96192938
921.81 113409659 135743183 161141629 193410438 230312705 275398856
927.60 325448378 381050042 441311426 502242791 559519495 608868995
933.39 643341873 660235094 655043165 632532870 596479699 564357512
939.17 550265163 563275256 610437252 676001703 735232535 764915361
944.96 726105180 647082369 546816589 444332915 349184757 272237441
950.74 213248127 171714649 141049845 116739824 95230604 77211052
956.53 60348686 47232324 34651020 26650410 19593065 15002731
962.31 10950150 9152175 7428209 6989208 5959283 7125917
968.10 6493949 7080503 6775434 7426961 7577983 8538210
973.88 8956153 11191867 12241040 14522075 15187802 16290354
979.67 16034002 15110004 12926376 14235496 15268324 12240159
985.45 13431787 13254757 12728749 13273727 12704355 12912588
991.24 11439462 10312214 8601573 7532536 5877181 5552921
997.03 4401390 4495822 4452647 4966405 4586519 5382938
1002.81 5250795 6525794 6125731 7589346 7355139 8667961
1008.60 9068058 9365054 9180249 10273274 10055744 10071968
1014.38 10387834 10610749 9814510 9881382 9007192 9274335
1020.17 8564485 9095704 9098809 9446279 8401727 7982129
1025.95 6531156 5788880 4526572 4225353 3196034 3404442
1031.74 2937207 2505780 2433166 2140120 2158925 1837774
1037.52 1454024 2241438 1178571 1632997 1432718 1643482
1043.31 1341439 1730493 1296480 1360955 1026174 1455528
1049.09 1226548 1342222 1057851 1050367 934429 1354414
1054.88 641242 1175869 641076 1009335 375428 922500
1060.67 656186 617741 486207 758439 667533 841185
1066.45 890671 384276 536372 646511 803480 387834
1072.24 452517 1056168 397726 891031 769117 653716
1078.02 487657 695610 349413 868364 250797 781235
1083.81 339991 791035 762360 739961 713128 1072264
1089.59 647115 765744 383229 859640 742005 913602
1095.38 1148143 1481447 1438906 1560160 1345062 1822743
1101.16 2005674 2304715 2245025 2702346 2689739 2495613
1106.95 2814041 3174765 3081311 3426462 3019234 3545798
1112.73 3623153 3672725 3575056 3837707 3279696 2918730
1118.52 2590973 2635757 2636259 2057859 1982191 2399469
1124.31 2258256 2196260 1779563 2168424 1547951 1554364
1130.09 1426145 1343470 1313490 993330 781865 1171456
1135.88 892374 666456 854982 956919 1066742 1348156
1141.66 1249084 1101071 810697 807299 310713 896115
1147.45 474775 973223 711988 691387 247541 505723
1153.23 642896 459710 207981 601464 87389 381917
1159.02 290900 558760-36036 670631-211580 223600
1164.80 397767 336698 34919 345950 168721 263040
1170.59 146638 448490 466925 607922 411371 549530
1176.37 322699 543481 384774 593362 471925 703007
1182.16 673461 771438 446653 432052 685878 586563
1187.95 393925 714431 771978 663241 699292 737237
1193.73 700495 954888 734579 770786 1014908 1166568
1199.52 923405 1704775 1478920 1501181 1993937 1572468
1205.30 1900364 2374951 2550945 2489842 2704881 3136765
1211.09 3284438 3701761 4024176 4484386 4681596 5260932
1216.87 5474499 6278820 6595951 7358595 7845950 8698815
1222.66 9290531 10572841 11322750 12255922 12603176 12991378
1228.44 12286748 12195431 11261036 13825521 15376895 15745690
1234.23 17053313 17329214 20092508 22528903 25839172 29243255
1240.01 34064905 38933409 45073143 50566761 54811203 57344290
1245.80 57368267 54942439 51306511 48134749 56794439 58795458
1251.59 58135353 63534751 66193253 65093044 63467961 58764309
1257.37 53230689 50375216 47098362 43245059 38309803 34268197
1263.16 29999868 26294262 23650324 21373295 19874066 19501358
1268.94 18311392 16491373 14803138 12380284 10094031 8390316
1274.73 6628278 5359793 4687977 3899157 3179214 2843678
1280.51 2402496 2083001 1442082 1452762 1276797 912665
1286.30 845102 523215 687923 797614 1023230 633604
1292.08 276238 529227 409990 544455 707656 840501
1297.87 765924 657618 1030379 862339 864196 1130956
1303.65 1101990 1350016 1394621 1635958 1643190 1823967
1309.44 1926077 1892950 1856286 2238539 2135336 2363565
1315.23 2325164 2378227 2394240 2258524 2237471 2351559
1321.01 2422673 2082322 2073036 1897582 1962274 1572927
1326.80 1889215 1645387 1700162 1302710 1140693 1341815
1332.58 964916 755384 903308 879083 681052 777795
1338.37 739788 635499 652874 579106 522194 983143
1344.15 410253 865047 592294 585695 677546 36632
1349.94 751861-329307-776907 713607-93541 40436
1355.72 584290 472168 696404 712873 664128 355746
1361.51 216229 374240 896380 717755 972088 808517
1367.29 977621 712463 565113 809364 843825 811477
1373.08 550357 1353786 1359852 1338911 821253 1044839
1378.87 1378752 1176469 1177461 945389 1404489 1615766
1384.65 1350045 1053805 546151 1088716 1231729 1248878
1390.44 1183276 1153799 960311 756601 765049 1115367
1396.22 1062153 799305 681599 1002519 1129652 1082906
1402.01 1433577 916019 735115 1081424 978231 1177729
1407.79 1308336 1089299 1354146 1039908 1291571 1155256
1413.58 1575923 1188636 1187152 1355811 1152486 586606
1419.36 1590333 1478376 1726457 1473027 1257576 1658152
1425.15 1842298 1567578 1615972 1471513 1142062 1415604
1430.93 1264557 1158156 1068528 975017 889706-196370
1436.72 842933 729007 974833 884372 826717 954783
1442.51 630865 622348 720478 856286 296448 402204
1448.29 750945 687802 741382 647281 666006 774886
1454.08 938215 100372-848099 504056 498757 703720
1459.86 624761 808926 631499 911408 112576 701117
1465.65 950942 740442 595691 717524 715266 409062
1471.43-151339 63626 373603 796607 66948 847810
1477.22 574328 645414 568003 639880 750932 860192
1483.00 535925 677794 709991 419067 319023 758527
1488.79 409987 162428 614199 865710 570391 534622
1494.57 96566-436975 680300 102650 164056 682493
1500.36 492315 834249 308582 771514-707426-565056
1506.15-926830 93582 115480 395708 622291 503572
1511.93 367828 520930 490556 537774-76265 227255
1517.72 656596 596728-286931-381899 211258 660064
1523.50 635450 128521 564151 656266 689474 795997
1529.29 1158612 920225 1191471 862371 985556 2109186
1535.07 2192850 3105418 3038655 2553854 3459393 5719060
1540.86 6367183 8241877 10352378 11833788 13563693 16589524
1546.64 18235456 21466973 24858447 31660548 37045643 43913740
1552.43 51186355 58142781 61550849 61852462 53787931 44051587
1558.21 32770657 45925490 49580041 36470551 49491634 54059492
1564.00 57128313 54023088 51388683 44204564 38994913 31832073
1569.79 28918256 25030928 24048775 22347413 23761137 22565315
1575.57 23613850 26379874 28268593 30629988 33702715 36851452
1581.36 41027707 44561453 48100908 50103193 51813357 51080664
1587.14 49376191 45769989 42049784 39224659 39239562 43170057
1592.93 49330838 53262834 53516740 49967668 45136101 38704501
1598.71 32811037 26308746 21419065 17290347 14367561 11776941
1604.50 10371341 8133679 6780758 5216476 4414791 3235318
1610.28 2780022 1983834 1630800 975659 1142122-52796
1616.07-527098 843936 388905 493100 725666 605934
1621.85 256739-224876 528295 560014 569533 206833
1627.64 506782 601255 683782 17638 837924 455040
1633.43 569556-1082572-75216 249201 513604 392827
1639.21 291400 584928 339900 263163 407691 172603
1645.00-880997 39718 55976 179742 211496 240781
1650.78-207711-2350684-1016984-142802 196716 181142
1656.57 412611 320732 229687 178472 344631 15307
1662.35 4677 567529 314988 519487 314752 263412
1668.14-478934 204778 137771 142560 335592 700676
1673.92-397909-40570 666126 610854 375044 469176
1679.71 401940 733526 353218 192126-1192719-381609
1685.49 1114365 407902 982132 476368 935955 732253
1691.28 955548 492543 1023887-254543-1222256 965253
1697.07 473107 427431-1423181-302114 981689 349260
1702.85 262554-143298 120861-329524 623558 187589
1708.64 338323 83220 424569 59713 291647-293104
1714.42 52473 515781-1024663-341396 446956 319637
1720.21 590233 319330 569628 377371 730654 571725
1725.99 482661 495747 584282 306337 711200 522605
1731.78 390697-832162-212281 568409 896291 546874
1737.56 958349 101954 723258 1019898 725610 770822
1743.35 1224691 1142683 1271297 1168320 1621450 1264854
1749.13 1949316 1100382 1841506 2133113 2522287 2647592
1754.92 2723216 2455683 2943195 2868745 2874089 2667577
1760.71 2266859 2782818 2887114 2758637 3047437 2662754
1766.49 2764184 2094814 2967140 2188572 2582464 1562265
1772.28 1910615 2711696 2341926 2218406 2540643 2360976
1778.06 2448687 2537487 2500286 2274520 2788958 2567087
1783.85 2423842 2395476 2634587 2478158 2525623 2678114
1789.63 2665971 2558497 2278036 1664437 1721920 1266313
1795.42 1284573 1261180 1279072 729956 1105451 863309
1801.20 838022 762398 1006516 810296 734046 770748
1806.99 799416 575958 662865 377119 747262 484414
1812.77 525208 352530 785343 419126 703738 415958
1818.56 753507 401727 591688 412542 498377 496875
1824.35 404027 567937 409103 463706 558735 459178
1830.13 735886 540426 926075 524025 876395 683179
1835.92 757641 895670 923099 681968 891031 643022
1841.70 816176 293806 181829 713716 785660 736986
1847.49 954176 799888 901814 849593 1185116 1084033
1853.27 1319270 1052872 1497040 1360766 1561002 1440130
1859.06 1850156 1365888 1688618 1574924 1868571 1791133
1864.84 1813029 1665497 2017476 1512579 1830644 2031183
1870.63 1934319 1751854 1681581 1399935 1609089 1236371
1876.41 1406248 1356179 1400297 1178995 1416976 1325976
1882.20 1138063 1087245 999393 767023 1012480 816244
1887.99 651964 369869 402603 233250 311515 188201
1893.77 335056-35935 472324 239558 456381 378755
1899.56 167630 225616 507000 132654 607391 247406
1905.34 574706 376052 567417 464255 457028 298792
1911.13 642544 182121 860165 430105 929355 562263
1916.91 216640 390660 827543 430128 753324 412834
1922.70 680574 503517 728465 661022 675121 504700
1928.48 745398 448602 831099 456257 547718 516537
1934.27 669629 601223 656132 583330 543364 558284
1940.05 509270 602634 344202 521508 769714 494550
1945.84 641761 664347 779614 427354 743143 537914
1951.63 783339 665452 1010279 751874 881450 607415
1957.41 829583 523434 921612 792695 804419 790341
1963.20 916206 894125 899412 715782 1007217 910332
1968.98 835653 809037 1118644 964313 1424522 1185182
1974.77 564908 826817 874546 949832 920282 745199
1980.55 755350 745370 1125206 561057 866974 797972
1986.34 778135 612493 743852 578443 749768 695364
1992.12 887513 654510 755996 716055 870791 695584
1997.91 719761 767333 690917 768281 928981 802748
2003.69 667617 445340 859008 690731 944708 616109
2009.48 828899 617029 788554 782756 1072776 811803
2015.27 613597 685112 735486 545267 909970 508218
2021.05 978885 480860 867362 758448 939021 668539
2026.84 930079 701182 828380 905589 879193 871497
2032.62 1019374 840856 1079648 989758 751039 743683
2038.41 890748 795163 1025941 697544 942307 876283
2044.19 971489 834990 866952 630539 993152 680501
2049.98 942920 576760 878451 637310 950274 901346
2055.76 1101213 661878 894536 638968 1025099 941620
2061.55 695353 904730 923918 1053796 949812 917771
2067.33 1089586 910365 1183589 997184 1064181 911490
2073.12 1317961 1106617 1334102 1088209 1115474 1371258
2078.91 1248233 1449259 1213883 1274953 1394611 1366236
2084.69 1599563 1350254 1796189 1557707 1652681 1489663
2090.48 2002140 1769171 2096269 1746628 1912194 1766372
2096.26 1947067 1855365 1722842 1991014 2075463 1764975
2102.05 1461620 1408989 1773634 1469361 1338564 1040130
2107.83 1355796 796971 1191499 504901 1177981 863985
2113.62 1033524 454426 1093546 614409 1195170 485049
2119.40 961961 859278 756788 540982 1056367 667932
2125.19 982139 649642 639934 818314 922862 898536
2130.97 900490 790652 1091020 775574 777206 701998
2136.76 835228 831909 1205452 982206 936779 846201
2142.55 902869 802341 1162884 876829 1065059 1053727
2148.33 1030198 826539 1084959 1071037 1211887 737954
2154.12 920924 960812 1132269 721284 1197824 1013864
2159.90 1110777 780544 1087586 1089945 1253477 783976
2165.69 1242644 1366430 776338 874840 1119703 1083261
2171.47 980194 1145191 1339082 1056410 1088911 1002856
2177.26 1437367 1031434 1139921 1184490 1458896 914632
2183.04 1404539 1223544 1174694 955314 1612453 1143480
2188.83 1280338 1077646 1623661 1068360 1309676 1274562
2194.61 1254159 853004 1304097 1330632 1176300 1168542
2200.40 1264776 1166966 1213552 1086768 1320051 1012062
2206.19 1274580 1140090 1529835 1150545 1291626 1332259
2211.97 1467871 1434727 1675176 1395658 1585072 1346829
2217.76 1656164 1616003 1763924 1267137 1482544 1581193
2223.54 1475315 1421805 1613280 1233927 1534919 1325296
2229.33 1512663 1271128 1393542 1237013 1349130 1184507
2235.11 1244013 1212242 1295363 1079559 1233421 1208184
2240.90 1176646 995242 1292104 872973 1182326 1032295
2246.68 989591 920452 1214980 952416 1162783 1147964
2252.47 1048774 1001521 1208362 1198984 1053519 1240318
2258.25 1076070 1138004 1175844 1142167 1121987 1012242
2264.04 1193292 994022 1212130 1081454 1372402 858372
2269.83 1212203 1092750 1187796 880331 1001229 934537
2275.61 1270373 1054702 1134383 992369 1307398 907078
2281.40 1215469 927953 1253585 1035292 1037455 1000736
2287.18 1152287 1018109 1147658 951155 1129307 1204556
2292.97 1243534 1155423 1286346 1040797 1036323 1042441
2298.75 1243919 885009 1252291 887337 1186046 940265
2304.54 1476962 1238698 1184820 1296451 1231177 1239658
2310.32 1171402 1382974 1409551 1015834 1127482 1106142
2316.11 1383639 1160949 1150182 950258 1035653 1053676
2321.89 1217170 1181117 1102889 1066440 1173979 885498
2327.68 1163580 908687 1149664 1137025 1005724 1067196
2333.47 1078475 891751 1093842 768856 1004052 815139
2339.25 915298 1108938 1050630 1099372 1266198 1130749
2345.04 998241 808149 1301204 1169373 1100736 1053715
2350.82 1179498 1049675 1114502 966003 1060700 1055854
2356.61 976976 836437 972531 903460 1087517 799709
2362.39 890875 814624 988758 658650 1176905 988857
2368.18 884176 1120677 995405 1194492 970408 919820
2373.96 1506232 1071141 1096920 1020449 1262144 1201725
2379.75 1270207 1109641 1447820 980999 1424574 1139688
2385.53 1210499 1061559 1253140 915558 1658775 1270725
2391.32 1287919 795531 1258223 1208011 1473124 1077968
2397.11 1441885 1178087 1274206 1336836 1588078 1326994
2402.89 1146067 1193630 1296723 1159770 1683492 1049496
2408.68 1299905 1200901 1429905 1221325 1513355 1262610
2414.46 1492280 1315523 1517102 1349155 1572015 1371521
2420.25 1506285 1474626 1704846 1563011 1877253 1456455
2426.03 1772719 1697761 1993028 1788171 1906258 1711313
2431.82 1811386 1545065 2024636 1645528 1744230 1455005
2437.60 1938966 1644112 1610590 1351020 1483228 1174572
2443.39 1380813 1184256 1487632 1220503 1431148 1323398
2449.17 1672107 1221522 1684048 1048205 1404208 1188830
2454.96 1479544 1347614 1596273 1245626 1573362 1341514
2460.75 1644751 1408597 1735459 1545397 1548596 1746065
2466.53 1683807 1747476 2248615 1964350 1959909 1988619
2472.32 2107611 2051246 2174857 2015886 2359647 2068249
2478.10 2279624 2108480 2387722 2248141 1929630 2107478
2483.89 2275357 1991172 2231123 2008057 2221015 2024337
2489.67 2002607 1684213 2156042 1759628 1877108 1708075
2495.46 2079427 1843326 1929282 1848453 2138818 1537928
2501.24 2065218 1686473 1906571 1806482 1926857 1748039
2507.03 1892027 1644519 1658202 1749580 1908346 1874500
2512.81 1941537 2063931 1968302 1666358 2074345 1776552
2518.60 2008958 1797332 2108502 1774166 2034471 1996372
2524.39 1889464 1803490 2143939 1584560 1925668 1727411
2530.17 1764945 1600803 1708812 1579067 1760544 1615606
2535.96 1529605 1165943 1357667 1064045 1761255 1333356
2541.74 1345032 1099992 1474025 1472023 1264764 1184076
2547.53 1219321 1215684 1527447 1266859 1488975 1136284
2553.31 1639016 1072713 1177733 1392702 1492848 1438771
2559.10 1339599 1214313 1333366 1448674 1260453 1309817
2564.88 1444042 1246708 1327622 1091798 1573160 1423387
2570.67 1386199 1188118 1555950 1439502 1290793 1208807
2576.45 1499334 1299771 1417090 1254941 1418208 1209580
2582.24 1382656 1455662 1332691 1283152 1622787 1190566
2588.03 1255946 1363338 1447111 1276586 1390378 1315280
2593.81 1575507 1451271 1583751 1266741 1239626 1447501
2599.60 1322761 1222071 1353517 1447261 1370943 1392872
2605.38 1426421 1396909 1295941 1146510 1532613 1249608
2611.17 1773951 1356399 1582611 1269151 1694823 1440628
2616.95 1562356 1286502 1610611 1171402 1453182 1109298
2622.74 1564714 1596728 1696119 1252541 1559558 1518557
2628.52 1540479 1338091 1538152 1273920 1556470 1142673
2634.31 1409767 1357078 1752310 1336412 1514361 1454001
2640.09 1476516 1249213 1507055 1317590 1634747 1419557
2645.88 1509684 1394464 1561000 1176391 1898966 1379466
2651.66 1690627 1413324 1446162 1440373 1451168 1175633
2657.45 1422418 1433141 1630079 1188764 1342675 1324442
2663.24 1542526 1257830 1758114 1341316 1383712 1215180
2669.02 1363395 1327368 1678291 1411118 1587793 1259103
2674.81 1791468 1393982 1651637 1231518 1787207 1333011
2680.59 1382507 1490158 1501839 1282483 1615095 1185953
2686.38 1470499 1321885 1656114 1149252 1651942 1331080
2692.16 1641472 1366637 1398151 1153549 1412390 1478126
2697.95 1778463 1041008 1391212 1131728 1467388 1344370
2703.73 1849120 1655826 1630948 1609589 1876501 1436304
2709.52 1797640 1453218 1443851 1378969 1568060 1059864
2715.30 1452629 1393192 1855471 1453626 1718254 1513533
2721.09 1709605 1425631 1876345 1379871 1686941 1422326
2726.88 1613339 1360702 1418708 1516448 1531407 1201812
2732.66 1328608 1371448 1617480 1203193 1280033 1211064
2738.45 1784003 1403621 1839436 1519292 1369912 1318306
2744.23 1382754 1405234 1837665 1612277 1370169 1720559
2750.02 1757739 1420716 1643378 1580824 1400147 1349052
2755.80 1343910 1333974 1600764 1209952 1688843 1554480
2761.59 1733937 1199609 1629221 1256642 1650087 1391997
2767.37 1723068 1447121 1767795 1602192 1695420 1675922
2773.16 1634869 1394258 1742945 1316625 1591235 1571355
2778.94 1698099 1712426 1489551 1668894 1697916 1649533
2784.73 1531805 1392522 1720858 1643602 1850855 1536708
2790.52 1812786 1407669 1610952 2040110 1656746 1777618
2796.30 2027127 1627032 1988947 1950797 2515733 2285205
2802.09 2371659 2110030 2373369 2642036 2316184 2531302
2807.87 2728721 2556359 2675148 2719990 2823605 2576224
2813.66 2972444 2780666 2997164 3036646 3028748 3323661
2819.44 3138622 2868915 3214263 3358389 3762998 3385242
2825.23 3714262 3554067 4149808 3509915 3495861 2982821
2831.01 3361375 3210857 3679271 3119457 2911013 3344154
2836.80 3743156 3072193 3116943 2743701 2902886 2375400
2842.58 2297523 1731501 2370927 1837803 2414231 1767612
2848.37 2056238 1853138 2137272 1589809 2077749 1402960
2854.16 1851751 1925775 2204943 1560431 1934586 1845982
2859.94 1941133 1750230 1723931 1870434 1772395 1500886
2865.73 1907989 1652148 1893058 1473894 1782657 1610390
2871.51 2076648 1990923 1868092 2349022 2372083 1814087
2877.30 2198764 1985329 1867936 2133691 2146303 1895030
2883.08 1819686 1719781 2327060 2149845 2564467 1923830
2888.87 2121808 1960833 2247845 2167733 2065885 2174524
2894.65 2069858 1871699 2008148 2023081 2468787 2468754
2900.44 2387832 2370795 2030716 2431082 2634133 2440127
2906.22 2382922 2174092 2551681 2222535 2499546 2141488
2912.01 2506014 2163377 2505237 2550717 2387467 2018070
2917.80 2420593 2474042 2327077 2544046 2576823 2021803
2923.58 2697112 2667418 2533394 2404456 2711988 2451870
2929.37 2765311 2469436 2390856 2617188 2821325 2720547
2935.15 3084968 2618000 3308140 2532379 2800082 2546254
2940.94 3217084 2980395 3340521 2799425 2900249 2771857
2946.72 3291629 2976683 2719943 2825256 3400004 2975422
2952.51 2925940 3101208 2890162 2963288 3432755 3239175
2958.29 2790685 3152208 2338967 2418422 4000311 3185483
2964.08 3575440 3406219 3410675 3074355 3483716 3483239
2969.86 3530221 3692188 3578505 3500626 4060115 4052092
2975.65 3621250 3466217 3958048 3882505 3667885 3842579
2981.44 3944561 4101433 4122709 3899218 4074079 3709512
2987.22 4313784 3612702 3922307 3548305 3884458 3791291
2993.01 3760525 3947302 4025279 3252054 3623036 3197586
2998.79 3078964 3118423 3202503 3106701 3019162 2800290
3004.58 3368663 2540669 2910696 2718189 3115913 2834400
3010.36 2821056 2557715 3016202 2440045 2486283 2397145
3016.15 2809070 2549942 2668682 2703029 2546130 2470322
3021.93 2621690 2379469 2426378 2706945 2476093 2316262
3027.72 2429141 2162451 2284916 2249411 2668350 2455041
3033.50 2033531 2518405 2653731 2479701 2294258 2198814
3039.29 2596541 2169804 2573390 2320957 2579041 2333471
3045.08 2727624 2852791 2974107 2342186 2982449 2630455
3050.86 2724514 2665495 2489819 2772380 2569449 2558318
3056.65 2663735 3270224 2814616 2502851 2693130 2881907
3062.43 3029266 3099470 3205456 3278040 3298053 3618543
3068.22 3774114 4325316 4599125 5221932 5508032 6134610
3074.00 6260278 6701500 7439175 8806946 9863950 11067774
3079.79 13493649 15800213 19334912 24395744 30167294 37934215
3085.57 46118178 56171857 63897836 72063663 75240209 76249617
3091.36 70751669 63734529 58033625 86985460 89592840 46020268
3097.14 64346670 76173486 87266447 85195979 80357646 67105191
3102.93 54265786 40328462 31136224 22923648 18663898 14336975
3108.72 12540053 9892619 9279932 7336454 7286815 5657273
3114.50 6358231 4926858 5062050 4660068 5087877 3466248
3120.29 4843962 4173957 4175689 4257206 4253559 3880954
3126.07 4522443 4332548 4247389 4378776 4818022 4694690
3131.86 4974063 4713777 5102933 4391884 4859162 4339626
3137.64 5125450 4265626 5201098 4760078 4991047 4879206
3143.43 5716149 5128003 5677864 5518315 5927455 5129909
3149.21 5228717 5183174 6007865 5367719 6764722 6633732
3155.00 7498414 7606154 8610808 8472205 9302601 9611094
3160.78 10313522 11110919 11687647 11564430 12409410 12165558
3166.57 12484526 12717384 12344251 12208400 12252442 11547555
3172.36 12020173 12125319 11077413 10461220 10837587 10117106
3178.14 9408015 7810634 7161489 5188654 4647330 3550479
3183.93 3236970 3188070 3140851 2668820 3548377 2641428
3189.71 3148326 2397253 2981031 2320345 3143378 2562799
3195.50 2664777 2414854 2468457 2350119 3208829 2606507
3201.28 2890016 2709819 3372364 2770521 2983229 2551492
3207.07 2699891 2487557 3016239 2832740 3104720 2316206
3212.85 2712762 2666723 3121191 3036168 3299901 2504081
3218.64 2592203 2820577 3409526 2590085 3282960 2939313
3224.42 2676324 3256031 3051861 2486317 3149750 2890851
3230.21 3392573 2789638 3254747 2685803 3275444 2598300
3236.00 3229781 2619035 3087279 3147957 3364777 2944883
3241.78 3130041 2909081 3156117 3484844 3006476 2130713
3247.57 3282419 2853546 2847897 2748560 3351633 2826972
3253.35 3686022 2841612 3403046 2948898 3862055 2832424
3259.14 3063091 2919679 3826158 2900319 3246909 3280324
3264.92 3182298 2735755 3326014 2838542 3109919 3061979
3270.71 3080005 2938873 3484738 3181223 3065755 2911707
3276.49 3424025 2621777 3028078 2752498 2864287 2403428
3282.28 3135497 2547017 2957263 2519598 3099569 2727267
3288.06 3423766 2929220 2781456 2301617 2826421 2705877
3293.85 2703369 2841845 2930682 2878341 2905101 2850625
3299.64 2644111 2647549 3089704 2795992 2761534 2068676
3305.42 3028849 2733958 2860925 2940957 2884653 2257525
3311.21 3309506 2386761 2948284 2382479 2419425 2595880
3316.99 3068125 2805877 3101881 2581404 2705830 2433649
3322.78 3018018 2606687 2950382 2262202 2963812 2225006
3328.56 3240582 2385656 2768527 2058817 3458757 2630477
3334.35 2353434 2414195 3285282 2300357 2782848 2384901
3340.13 2628883 2601062 2870589 2469408 3000908 2345340
3345.92 2671539 2424870 3054621 2350680 2501683 2276343
3351.70 2499447 2942662 2458915 2284706 2778975 2974143
3357.49 3076945 2667002 3223704 2696428 2730268 2493973
3363.28 2574075 2349952 2550669 3371049 2728019 2617710
3369.06 2556853 2337689 2845220 2172505 2934690 2572197
3374.85 2787939 2623574 2754904 2007563 2689234 2418331
3380.63 2962458 1997774 2810797 2401804 2773179 2822241
3386.42 3002339 2734626 2556829 2730195 3128149 2251182
3392.20 2698781 1876740 3005579 2690128 2948672 2836393
3397.99 2063796 2757968 2668320 2569169 2526844 2509192
3403.77 2314439 2437369 2762985 2446923 3027701 2522089
3409.56 2637782 2009457 2283064 2583886 2761725 2550756
3415.34 2468467 2493998 2496657 2579385 2540783 2552952
3421.13 2538158 2809015 2667962 2600151 2563659 2719539
3426.92 3075187 1952195 2837109 2585483 2366345 2573710
3432.70 2626081 1936882 2890118 2211693 2503511 2814033
3438.49 2916330 2420571 2868520 2214630 2679948 1917633
3444.27 3162102 3018001 2690271 2399875 3003896 2578856
3450.06 2720879 2857659 2862377 2772660 2990344 2772143
3455.84 2884377 2372482 3185566 2387677 2624422 2883385
3461.63 3080018 2518274 2881785 2530056 2962494 2407009
3467.41 3130855 2817502 2870140 2946735 2874443 2475815
3473.20 2792886 2991988 2652787 2728636 2923007 2269019
3478.98 3267552 2475841 3071832 2695334 3142746 2681847
3484.77 3200113 3080783 3153278 2540909 3029113 2434806
3490.56 2709375 2248014 3458815 2632895 3351317 2953833
3496.34 2933586 2861943 2994466 2746050 3052200 2300882
3502.13 2798389 2843975 2999698 2994317 2796416 2556745
3507.91 3025379 2922381 3386399 2526276 2847997 2372205
3513.70 2919935 2726576 3017450 2623032 2886753 2851730
3519.48 2967578 2690075 2917254 2425480 2756857 3164358
3525.27 2861481 2632366 2861602 2564441 2848461 2506866
3531.05 3299488 2439518 3418287 2643858 3089376 2418196
3536.84 3087296 3002618 2791994 2258487 3176908 2905578
3542.62 2677672 3027618 2936183 3008262 3190540 3150421
3548.41 3076300 2805913 2668874 2612826 3462145 2498134
3554.20 2871381 3025052 2861926 2853977 3277297 2744725
3559.98 2710071 3064825 3305112 2768900 2646228 2637278
3565.77 2541048 2535529 3343917 2911596 2834490 2957423
3571.55 3503334 2939527 2760777 2843174 3327833 2881341
3577.34 2841891 2873705 3034069 2800550 3181867 3065312
3583.12 3419440 2876638 3283259 2979682 3230815 2474945
3588.91 3053682 3139864 3019173 2886627 3254417 2679021
3594.69 3063186 3152566 2559803 3075013 3353554 2774483
3600.48 3296682 2750728 2944839 3041847 3625361 2786752
3606.26 3218308 3204023 2499447 2848897 3627548 2972647
3612.05 3018563 2842752 2978095 3018927 3365407 3304440
3617.84 3257497 2581266 3375210 2922824 3811171 3164088
3623.62 3447282 3001575 3740252 3238705 2739125 2294436
3629.41 3286295 2950232 3415083 2852754 2889981 3295706
3635.19 3676922 3414312 3258593 3246795 3443886 3252394
3640.98 3281802 3181273 3407217 2994303 3694799 2820748
3646.76 3294064 2608937 2881291 3055848 3233249 3913522
3652.55 3257173 3350492 3324156 2586130 3311175 3205161
3658.33 3629383 3502826 3416546 3424985 3112562 3391888
3664.12 3677294 3108894 3302268 3302164 2826369 3504325
3669.90 2207618 3305307 3719113 3129114 3134646 1981450
3675.69 2662254 3255527 3405944 3060762 3255048 3348245
3681.48 3256490 3146633 3684709 3357931 3291227 3316831
3687.26 2073034 2961902 3661297 2610799 3135752 3290767
3693.05 3095381 3401429 3912002 3359959 3756343 3623641
3698.83 3878902 3685794 2981197 3748308 3835364 3469923
3704.62 3484084 3501266 3742676 3378495 3127274 3572210
3710.40 3463361 2779262 3594386 3810466 4196016 4184119
3716.19 3988108 3926428 4027306 3607657 4429885 4048897
3721.97 4288239 4077341 4674271 4045261 3848200 4111014
3727.76 4084064 4169124 4295620 3551690 3724836 4190049
3733.54 3699406 3821519 3243260 3510537 3721827 3515587
3739.33 3543801 3122172 3786984 3631896 1579234 1850776
3745.12 4126872 3089322 3719830 1828818 2722836 3740489
3750.90 1869357 2601905 3615630 3670738 3691887 3220483
3756.69 3839134 3110517 3469492 3109016 3595057 3323899
3762.47 3659183 3576932 3256512 3063738 3566708 3607306
3768.26 3502054 2827241 3396103 3420684 3553166 3623877
3774.04 3733661 3463793 3532919 3109611 3190168 3006269
3779.83 3752667 3239475 3832277 3287753 3628382 3306880
3785.61 3866738 3043647 3748587 3207198 4175839 3184591
3791.40 3750051 3318766 3689296 3409216 3299851 3306949
3797.18 3731638 3130255 4092663 2034000 2740073 3399290
3802.97 3217008 3326172 3498280 2538523 3796543 3670878
3808.76 3798973 3502642 3736851 3106596 3747003 3535117
3814.54 3007044 2297419 4150058 3045407 3752157 3270939
3820.33 2973615 2794901 3660032 3200510 3865049 3049938
3826.11 3644128 3593450 3425442 3669105 3718546 3169806
3831.90 3449446 3594875 3348928 2961953 4365820 1670603
3837.68 3008285 3048877 3479289 3192882 3904262 3229173
3843.47 3470256 3663229 3593765 3427397 3703407 3519406
3849.25 3792392 3228205 2989309 3377528 1586007 2500208
3855.04 3702395 3227675 3886234 3606583 4471702 3987928
3860.82 4413760 3596721 3794790 3056324 3435286 4038097
3866.61 3625033 3629970 2968142 2970033 3589371 3676886
3872.40 3964756 2965710 3677579 3507992 3803679 3208554
3878.18 3448924 2895462 3763030 3426275 3922770 3204196
3883.97 3285379 2974735 3579613 3460223 3717667 3659898
3889.75 3323109 2759902 3899644 3218619 3859626 3219494
3895.54 3721751 3207516 3578063 2833781 3779331 3268595
3901.32 3047907 3530391 3541330 3183554 3284315 3632452
3907.11 3447044 3174727 3895973 3581613 4054184 3589698
3912.89 3622003 3305449 3770263 2963821 3610430 3212789
3918.68 3736510 3007102 3567289 3393887 3715021 3210583
3924.46 3564690 3515234 4255223 3893064 3974631 3528669
3930.25 4233495 3918991 3510335 4124511 4338886 3807917
3936.04 4381339 4257454 4643592 3606268 4349555 4041927
3941.82 4576463 4427601 4258456 4489950 4505823 3848663
3947.61 4365571 4215556 4622313 3690381 3874715 3703585
3953.39 4034711 3625180 4018270 3570104 4198793 3452825
3959.18 3999815 3307878 3747779 3271083 4053814 3428811
3964.96 3520499 3657595 3661838 3617359 4133259 3763196
3970.75 3908924 3198120 3800477 3761116
##END=
