##TITLE=1,1,2-TRICHLOROETHANE
##JCAMP-DX=4.24
##DATA TYPE=INFRARED SPECTRUM
##CLASS=COBLENTZ
##ORIGIN=W.T. BOLLETER
##OWNER=COBLENTZ SOCIETY
Collection (C) 2018 copyright by the U.S. Secretary of Commerce
on behalf of the United States of America. All rights reserved.
##DATE=Not specified, most likely prior to 1970
##CAS REGISTRY NO=79-00-5
##MOLFORM=C2 H3 Cl3
##SOURCE REFERENCE=COBLENTZ NO. 4475
##$NIST SOURCE=COBLENTZ
##$NIST IMAGE=cob4475
##SPECTROMETER/DATA SYSTEM=Not specified, most likely a prism, grating, or hybrid spectrometer.
##PATH LENGTH=0.0025 CM
##SAMPLING PROCEDURE=TRANSMISSION
##RESOLUTION=4
##DATA PROCESSING=DIGITIZED BY NIST FROM HARD COPY
##XUNITS=MICROMETERS
##YUNITS=TRANSMITTANCE
##XFACTOR=1.000000
##YFACTOR=1
##DELTAX=000.017518
##FIRSTX=14.526
##LASTX=38
##FIRSTY=0.012
##MAXX=38
##MINX=14.526
##MAXY=0.964
##MINY=0.005
##NPOINTS=1341
##XYDATA=(X++(Y..Y))
14.526000 0.0120 0.0140 0.0160 0.0170 0.0190
14.613657 0.0190 0.0230 0.0260 0.0280 0.0300
14.701000 0.0300 0.0300 0.0300 0.0300 0.0280
14.788657 0.0260 0.0250 0.0230 0.0190 0.0170
14.876000 0.0160 0.0140 0.0120 0.0100 0.0080
14.963657 0.0080 0.0080 0.0080 0.0070 0.0070
15.051000 0.0070 0.0070 0.0070 0.0070 0.0050
15.138657 0.0050 0.0050 0.0050 0.0050 0.0050
15.226000 0.0070 0.0070 0.0070 0.0080 0.0080
15.313657 0.0080 0.0080 0.0100 0.0100 0.0120
15.401000 0.0160 0.0190 0.0230 0.0260 0.0280
15.488657 0.0300 0.0300 0.0320 0.0320 0.0320
15.577000 0.0320 0.0320 0.0320 0.0320 0.0320
15.664657 0.0330 0.0330 0.0350 0.0420 0.0510
15.752000 0.0620 0.0910 0.1030 0.1340 0.1870
15.839657 0.2230 0.2660 0.3110 0.3590 0.4060
15.927000 0.4490 0.4840 0.5110 0.5250 0.5540
16.014657 0.5950 0.6270 0.6450 0.6670 0.6920
16.102000 0.7030 0.7260 0.7380 0.7470 0.7560
16.189657 0.7690 0.7740 0.7870 0.7970 0.7970
16.277000 0.8010 0.8100 0.8150 0.8190 0.8210
16.364657 0.8240 0.8260 0.8280 0.8310 0.8330
16.453000 0.8370 0.8370 0.8370 0.8350 0.8330
16.540657 0.8330 0.8310 0.8300 0.8260 0.8210
16.628000 0.8190 0.8150 0.8120 0.8080 0.8060
16.715657 0.8050 0.8030 0.8030 0.8030 0.8050
16.803000 0.8060 0.8080 0.8120 0.8170 0.8210
16.890657 0.8240 0.8350 0.8420 0.8470 0.8550
16.978000 0.8600 0.8670 0.8740 0.8800 0.8830
17.065657 0.8850 0.8900 0.8940 0.8960 0.8980
17.153000 0.8990 0.9010 0.9050 0.9060 0.9080
17.240657 0.9100 0.9140 0.9150 0.9150 0.9170
17.328000 0.9190 0.9190 0.9230 0.9280 0.9280
17.415657 0.9300 0.9300 0.9320 0.9320 0.9330
17.504000 0.9350 0.9400 0.9400 0.9420 0.9420
17.591657 0.9420 0.9440 0.9440 0.9440 0.9460
17.679000 0.9460 0.9460 0.9480 0.9480 0.9480
17.766657 0.9480 0.9490 0.9490 0.9490 0.9510
17.854000 0.9530 0.9530 0.9550 0.9550 0.9570
17.941657 0.9580 0.9620 0.9620 0.9640 0.9640
18.029000 0.9640 0.9640 0.9620 0.9620 0.9620
18.116657 0.9600 0.9580 0.9570 0.9510 0.9510
18.204000 0.9490 0.9460 0.9460 0.9440 0.9420
18.291657 0.9400 0.9370 0.9330 0.9280 0.9210
18.380000 0.9170 0.9120 0.9080 0.9010 0.8990
18.467657 0.8960 0.8900 0.8850 0.8800 0.8720
18.555000 0.8690 0.8650 0.8550 0.8490 0.8440
18.642657 0.8310 0.8210 0.8050 0.7970 0.7790
18.730000 0.7560 0.7490 0.7380 0.7040 0.6920
18.817657 0.6630 0.6270 0.5880 0.5430 0.4990
18.905000 0.4540 0.4090 0.3680 0.3300 0.3160
18.992657 0.2750 0.2340 0.1940 0.1620 0.1410
19.080000 0.1270 0.1090 0.1000 0.1000 0.1190
19.167657 0.1570 0.1940 0.2360 0.2700 0.3000
19.255000 0.3430 0.3880 0.4310 0.4830 0.5110
19.342657 0.5540 0.5990 0.6400 0.6850 0.7100
19.431000 0.7400 0.7560 0.7720 0.7900 0.8100
19.518657 0.8260 0.8400 0.8460 0.8510 0.8580
19.606000 0.8670 0.8780 0.8800 0.8850 0.8870
19.693657 0.8900 0.8920 0.8940 0.8980 0.8990
19.781000 0.9010 0.9030 0.9060 0.9060 0.9100
19.868657 0.9140 0.9150 0.9190 0.9210 0.9210
19.956000 0.9230 0.9230 0.9230 0.9240 0.9240
20.043657 0.9240 0.9260 0.9260 0.9280 0.9280
20.131000 0.9280 0.9280 0.9280 0.9280 0.9300
20.218657 0.9300 0.9320 0.9320 0.9320 0.9320
20.307000 0.9320 0.9320 0.9320 0.9330 0.9330
20.394657 0.9330 0.9320 0.9320 0.9320 0.9320
20.482000 0.9330 0.9330 0.9330 0.9330 0.9320
20.569657 0.9320 0.9300 0.9300 0.9300 0.9300
20.657000 0.9300 0.9300 0.9280 0.9280 0.9280
20.744657 0.9280 0.9280 0.9260 0.9240 0.9230
20.832000 0.9230 0.9230 0.9210 0.9190 0.9170
20.919657 0.9150 0.9150 0.9150 0.9140 0.9140
21.007000 0.9120 0.9120 0.9100 0.9080 0.9080
21.094657 0.9080 0.9100 0.9100 0.9120 0.9140
21.182000 0.9140 0.9140 0.9140 0.9120 0.9120
21.269657 0.9120 0.9100 0.9100 0.9100 0.9100
21.358000 0.9100 0.9100 0.9100 0.9120 0.9120
21.445657 0.9140 0.9140 0.9150 0.9150 0.9150
21.533000 0.9150 0.9140 0.9140 0.9140 0.9120
21.620657 0.9100 0.9100 0.9080 0.9060 0.9060
21.708000 0.9050 0.9050 0.9030 0.9010 0.9010
21.795657 0.8990 0.8980 0.8960 0.8960 0.8940
21.883000 0.8920 0.8900 0.8890 0.8870 0.8850
21.970657 0.8850 0.8830 0.8810 0.8800 0.8800
22.058000 0.8800 0.8780 0.8780 0.8780 0.8780
22.145657 0.8780 0.8780 0.8780 0.8780 0.8780
22.234000 0.8760 0.8760 0.8760 0.8760 0.8760
22.321657 0.8740 0.8740 0.8740 0.8720 0.8720
22.409000 0.8740 0.8740 0.8740 0.8740 0.8760
22.496657 0.8760 0.8760 0.8780 0.8780 0.8800
22.584000 0.8800 0.8800 0.8780 0.8780 0.8780
22.671657 0.8780 0.8760 0.8760 0.8780 0.8780
22.759000 0.8780 0.8800 0.8800 0.8800 0.8800
22.846657 0.8810 0.8810 0.8810 0.8830 0.8830
22.934000 0.8850 0.8850 0.8870 0.8870 0.8870
23.021657 0.8870 0.8890 0.8890 0.8890 0.8890
23.109000 0.8890 0.8890 0.8870 0.8870 0.8870
23.196657 0.8850 0.8850 0.8830 0.8830 0.8830
23.285000 0.8830 0.8830 0.8810 0.8810 0.8810
23.372657 0.8810 0.8810 0.8800 0.8800 0.8780
23.460000 0.8760 0.8760 0.8740 0.8740 0.8720
23.547657 0.8710 0.8690 0.8670 0.8650 0.8640
23.635000 0.8620 0.8600 0.8580 0.8560 0.8550
23.722657 0.8530 0.8510 0.8490 0.8470 0.8460
23.810000 0.8440 0.8420 0.8400 0.8380 0.8370
23.897657 0.8350 0.8310 0.8310 0.8260 0.8220
23.985000 0.8190 0.8150 0.8120 0.8100 0.8060
24.072657 0.8030 0.7990 0.7960 0.7920 0.7900
24.161000 0.7900 0.7870 0.7830 0.7810 0.7780
24.248657 0.7710 0.7650 0.7630 0.7600 0.7540
24.336000 0.7510 0.7490 0.7470 0.7350 0.7310
24.423657 0.7220 0.7170 0.7100 0.7080 0.7010
24.511000 0.6920 0.6810 0.6720 0.6630 0.6510
24.598657 0.6420 0.6310 0.6200 0.6060 0.6010
24.686000 0.5970 0.5810 0.5700 0.5540 0.5430
24.773657 0.5420 0.5360 0.5250 0.5150 0.5040
24.861000 0.4930 0.4830 0.4720 0.4610 0.4500
24.948657 0.4400 0.4290 0.4270 0.4150 0.4020
25.036000 0.3790 0.3610 0.3500 0.3380 0.3230
25.123657 0.3140 0.2980 0.2820 0.2680 0.2520
25.212000 0.2430 0.2230 0.2050 0.1980 0.1870
25.299657 0.1750 0.1620 0.1500 0.1410 0.1300
25.387000 0.1230 0.1120 0.1010 0.0930 0.0840
25.474657 0.0780 0.0730 0.0620 0.0570 0.0510
25.562000 0.0440 0.0390 0.0350 0.0320 0.0320
25.649657 0.0300 0.0300 0.0300 0.0300 0.0280
25.737000 0.0280 0.0260 0.0260 0.0260 0.0250
25.824657 0.0250 0.0250 0.0260 0.0260 0.0280
25.912000 0.0280 0.0280 0.0300 0.0300 0.0320
25.999657 0.0320 0.0330 0.0350 0.0370 0.0410
26.088000 0.0420 0.0460 0.0510 0.0620 0.0730
26.175657 0.0840 0.1010 0.1070 0.1230 0.1430
26.263000 0.1550 0.1770 0.1960 0.2090 0.2340
26.350657 0.2520 0.2680 0.2860 0.3040 0.3220
26.438000 0.3390 0.3570 0.3730 0.3890 0.4070
26.525657 0.4230 0.4400 0.4540 0.4720 0.4900
26.613000 0.5040 0.5180 0.5290 0.5470 0.5540
26.700657 0.5630 0.5720 0.5830 0.5970 0.6040
26.788000 0.6200 0.6440 0.6510 0.6520 0.6600
26.875657 0.6670 0.6760 0.6850 0.6970 0.6970
26.964000 0.7010 0.7100 0.7240 0.7440 0.7490
27.051657 0.7530 0.7620 0.7650 0.7710 0.7740
27.139000 0.7790 0.7830 0.7870 0.7900 0.7970
27.226657 0.8010 0.8030 0.8050 0.8080 0.8120
27.314000 0.8190 0.8220 0.8280 0.8350 0.8380
27.401657 0.8400 0.8460 0.8470 0.8490 0.8510
27.489000 0.8560 0.8600 0.8640 0.8650 0.8670
27.576657 0.8690 0.8720 0.8740 0.8780 0.8810
27.664000 0.8870 0.8890 0.8900 0.8920 0.8920
27.751657 0.8940 0.8960 0.8960 0.8980 0.8990
27.839000 0.9010 0.9010 0.9050 0.9050 0.9080
27.926657 0.9120 0.9150 0.9150 0.9170 0.9190
28.015000 0.9190 0.9210 0.9210 0.9210 0.9210
28.102657 0.9210 0.9230 0.9230 0.9240 0.9260
28.190000 0.9280 0.9280 0.9280 0.9280 0.9300
28.277657 0.9300 0.9320 0.9320 0.9320 0.9330
28.365000 0.9330 0.9330 0.9330 0.9350 0.9350
28.452657 0.9390 0.9420 0.9420 0.9440 0.9440
28.540000 0.9440 0.9440 0.9440 0.9440 0.9440
28.627657 0.9440 0.9440 0.9420 0.9420 0.9400
28.715000 0.9400 0.9400 0.9400 0.9400 0.9400
28.802657 0.9400 0.9390 0.9390 0.9390 0.9370
28.891000 0.9350 0.9350 0.9350 0.9350 0.9350
28.978657 0.9330 0.9330 0.9320 0.9320 0.9300
29.066000 0.9300 0.9300 0.9280 0.9260 0.9210
29.153657 0.9190 0.9170 0.9150 0.9140 0.9100
29.241000 0.9060 0.9050 0.9010 0.8990 0.8990
29.328657 0.8980 0.8900 0.8850 0.8810 0.8780
29.416000 0.8690 0.8620 0.8600 0.8510 0.8460
29.503657 0.8380 0.8310 0.8260 0.8170 0.8050
29.591000 0.7990 0.7870 0.7740 0.7670 0.7530
29.678657 0.7380 0.7220 0.7030 0.6860 0.6700
29.766000 0.6490 0.6270 0.6060 0.5880 0.5700
29.853657 0.5490 0.5310 0.5060 0.4950 0.4660
29.942000 0.4470 0.4360 0.4150 0.4000 0.3770
30.029657 0.3590 0.3520 0.3450 0.3380 0.3300
30.117000 0.3230 0.3180 0.3130 0.3110 0.3110
30.204657 0.3130 0.3180 0.3200 0.3230 0.3290
30.292000 0.3360 0.3470 0.3500 0.3550 0.3640
30.379657 0.3720 0.3840 0.3970 0.4070 0.4160
30.467000 0.4270 0.4360 0.4470 0.4570 0.4680
30.554657 0.4770 0.4840 0.4990 0.5060 0.5220
30.642000 0.5290 0.5450 0.5540 0.5610 0.5700
30.729657 0.5770 0.5930 0.6020 0.6170 0.6310
30.818000 0.6490 0.6650 0.6770 0.6900 0.6990
30.905657 0.7030 0.7080 0.7130 0.7190 0.7220
30.993000 0.7260 0.7290 0.7310 0.7330 0.7330
31.080657 0.7330 0.7330 0.7310 0.7290 0.7290
31.168000 0.7280 0.7260 0.7260 0.7220 0.7190
31.255657 0.7170 0.7150 0.7130 0.7110 0.7040
31.343000 0.7010 0.6990 0.6900 0.6860 0.6770
31.430657 0.6760 0.6720 0.6690 0.6630 0.6610
31.518000 0.6580 0.6490 0.6470 0.6400 0.6360
31.605657 0.6350 0.6330 0.6310 0.6290 0.6290
31.693000 0.6270 0.6270 0.6290 0.6290 0.6310
31.780657 0.6330 0.6330 0.6360 0.6360 0.6400
31.869000 0.6450 0.6490 0.6520 0.6600 0.6630
31.956657 0.6670 0.6740 0.6810 0.6860 0.6940
32.044000 0.7030 0.7100 0.7170 0.7240 0.7280
32.131657 0.7350 0.7420 0.7470 0.7490 0.7530
32.219000 0.7560 0.7600 0.7630 0.7690 0.7740
32.306657 0.7760 0.7810 0.7850 0.7880 0.7940
32.394000 0.7960 0.7970 0.7990 0.8010 0.8050
32.481657 0.8080 0.8120 0.8130 0.8130 0.8150
32.569000 0.8170 0.8190 0.8220 0.8240 0.8260
32.656657 0.8260 0.8280 0.8280 0.8300 0.8310
32.745000 0.8310 0.8330 0.8350 0.8370 0.8400
32.832657 0.8460 0.8490 0.8510 0.8550 0.8560
32.920000 0.8560 0.8580 0.8580 0.8580 0.8580
33.007657 0.8580 0.8560 0.8560 0.8560 0.8550
33.095000 0.8550 0.8530 0.8530 0.8510 0.8490
33.182657 0.8490 0.8470 0.8460 0.8460 0.8460
33.270000 0.8440 0.8440 0.8420 0.8420 0.8420
33.357657 0.8440 0.8440 0.8440 0.8440 0.8460
33.445000 0.8460 0.8460 0.8470 0.8490 0.8510
33.532657 0.8510 0.8530 0.8530 0.8550 0.8550
33.620000 0.8560 0.8560 0.8580 0.8580 0.8580
33.707657 0.8580 0.8580 0.8560 0.8550 0.8550
33.796000 0.8550 0.8550 0.8550 0.8550 0.8550
33.883657 0.8550 0.8550 0.8550 0.8550 0.8550
33.971000 0.8550 0.8550 0.8550 0.8530 0.8530
34.058657 0.8510 0.8510 0.8510 0.8510 0.8510
34.146000 0.8530 0.8530 0.8530 0.8530 0.8510
34.233657 0.8510 0.8490 0.8490 0.8470 0.8460
34.321000 0.8440 0.8380 0.8370 0.8330 0.8310
34.408657 0.8310 0.8300 0.8280 0.8260 0.8240
34.496000 0.8220 0.8190 0.8130 0.8100 0.8060
34.583657 0.8030 0.7990 0.7970 0.7900 0.7870
34.672000 0.7810 0.7780 0.7740 0.7710 0.7690
34.759657 0.7650 0.7630 0.7580 0.7540 0.7530
34.847000 0.7490 0.7420 0.7330 0.7240 0.7170
34.934657 0.7130 0.7040 0.7010 0.6940 0.6850
35.022000 0.6770 0.6690 0.6600 0.6520 0.6510
35.109657 0.6470 0.6350 0.6310 0.6290 0.6270
35.197000 0.6260 0.6260 0.6220 0.6220 0.6200
35.284657 0.6170 0.6150 0.6130 0.6110 0.6100
35.372000 0.6100 0.6100 0.6080 0.6060 0.6060
35.459657 0.6060 0.6040 0.6040 0.6020 0.6020
35.547000 0.6020 0.6020 0.6020 0.6020 0.6020
35.634657 0.6040 0.6040 0.6060 0.6080 0.6080
35.723000 0.6110 0.6110 0.6130 0.6130 0.6130
35.810657 0.6150 0.6150 0.6150 0.6170 0.6170
35.898000 0.6170 0.6170 0.6170 0.6170 0.6170
35.985657 0.6170 0.6170 0.6170 0.6170 0.6170
36.073000 0.6170 0.6170 0.6170 0.6170 0.6150
36.160657 0.6150 0.6130 0.6110 0.6110 0.6100
36.248000 0.6130 0.6130 0.6130 0.6130 0.6110
36.335657 0.6110 0.6100 0.6110 0.6130 0.6150
36.423000 0.6150 0.6150 0.6150 0.6150 0.6170
36.510657 0.6180 0.6180 0.6180 0.6180 0.6180
36.599000 0.6180 0.6170 0.6170 0.6170 0.6150
36.686657 0.6150 0.6170 0.6200 0.6200 0.6220
36.774000 0.6240 0.6220 0.6180 0.6180 0.6200
36.861657 0.6200 0.6220 0.6240 0.6240 0.6220
36.949000 0.6200 0.6180 0.6180 0.6170 0.6170
37.036657 0.6170 0.6150 0.6150 0.6170 0.6170
37.124000 0.6180 0.6180 0.6180 0.6180 0.6180
37.211657 0.6200 0.6200 0.6200 0.6220 0.6240
37.299000 0.6260 0.6270 0.6270 0.6270 0.6290
37.386657 0.6310 0.6310 0.6310 0.6350 0.6350
37.474000 0.6360 0.6360 0.6400 0.6420 0.6420
37.561657 0.6440 0.6440 0.6450 0.6470 0.6470
37.650000 0.6490 0.6490 0.6490 0.6490 0.6490
37.737657 0.6490 0.6490 0.6490 0.6490 0.6490
37.825000 0.6490 0.6490 0.6490 0.6490 0.6490
37.912657 0.6490 0.6490 0.6490 0.6490 0.6510
38.000000 0.6510
##END=
