##TITLE=1,1,2-TRICHLOROETHYLENE
##JCAMP-DX=4.24
##DATA TYPE=INFRARED SPECTRUM
##CLASS=COBLENTZ
##ORIGIN=W.T. BOLLETER
##OWNER=COBLENTZ SOCIETY
Collection (C) 2018 copyright by the U.S. Secretary of Commerce
on behalf of the United States of America. All rights reserved.
##DATE=Not specified, most likely prior to 1970
##CAS REGISTRY NO=79-01-6
##MOLFORM=C2 H Cl3
##SOURCE REFERENCE=COBLENTZ NO. 4470
##$NIST SOURCE=COBLENTZ
##$NIST IMAGE=cob4470
##SPECTROMETER/DATA SYSTEM=Not specified, most likely a prism, grating, or hybrid spectrometer.
##PATH LENGTH=0.0025 CM
##SAMPLING PROCEDURE=TRANSMISSION
##RESOLUTION=4
##DATA PROCESSING=DIGITIZED BY NIST FROM HARD COPY
##XUNITS=MICROMETERS
##YUNITS=TRANSMITTANCE
##XFACTOR=1.000000
##YFACTOR=1
##DELTAX=000.017480
##FIRSTX=14.577
##LASTX=38.0175
##FIRSTY=0.755
##MAXX=38.0175
##MINX=14.577
##MAXY=0.896
##MINY=0.041
##NPOINTS=1342
##XYDATA=(X++(Y..Y))
14.577000 0.7550 0.7520 0.7460 0.7430 0.7380
14.664465 0.7310 0.7290 0.7260 0.7190 0.7090
14.752000 0.7050 0.7030 0.6950 0.6830 0.6760
14.839465 0.6660 0.6570 0.6450 0.6330 0.6190
14.926000 0.5970 0.5850 0.5740 0.5550 0.5380
15.013465 0.5210 0.5110 0.5020 0.4920 0.4780
15.101000 0.4710 0.4640 0.4470 0.4380 0.4350
15.188465 0.4320 0.4260 0.4250 0.4230 0.4230
15.276000 0.4250 0.4260 0.4280 0.4300 0.4320
15.363465 0.4320 0.4330 0.4350 0.4350 0.4350
15.451000 0.4330 0.4320 0.4260 0.4210 0.4160
15.538465 0.4010 0.3880 0.3750 0.3660 0.3390
15.626000 0.3200 0.2900 0.2700 0.2540 0.2390
15.713465 0.2220 0.1970 0.1720 0.1480 0.1250
15.800000 0.1080 0.1010 0.0860 0.0610 0.0580
15.887465 0.0550 0.0510 0.0490 0.0480 0.0480
15.975000 0.0440 0.0440 0.0430 0.0430 0.0410
16.062465 0.0410 0.0410 0.0430 0.0430 0.0440
16.150000 0.0460 0.0510 0.0560 0.0600 0.0670
16.237465 0.0750 0.0890 0.1130 0.1230 0.1340
16.325000 0.1650 0.1720 0.2220 0.2370 0.2800
16.412465 0.3020 0.3200 0.3580 0.3800 0.3940
16.500000 0.4160 0.4330 0.4500 0.4680 0.4760
16.587465 0.4830 0.4920 0.4990 0.5120 0.5140
16.674000 0.5190 0.5260 0.5300 0.5330 0.5380
16.761465 0.5490 0.5540 0.5610 0.5640 0.5690
16.849000 0.5740 0.5880 0.6000 0.6110 0.6190
16.936465 0.6280 0.6360 0.6410 0.6500 0.6570
17.024000 0.6640 0.6710 0.6760 0.6780 0.6830
17.111465 0.6880 0.6910 0.6950 0.6970 0.7000
17.199000 0.7030 0.7070 0.7070 0.7090 0.7090
17.286465 0.7090 0.7090 0.7070 0.7070 0.7050
17.374000 0.7030 0.7020 0.6980 0.6970 0.6950
17.461465 0.6910 0.6900 0.6880 0.6810 0.6780
17.548000 0.6760 0.6740 0.6720 0.6710 0.6690
17.635465 0.6670 0.6670 0.6660 0.6660 0.6660
17.723000 0.6670 0.6690 0.6690 0.6710 0.6720
17.810465 0.6740 0.6780 0.6790 0.6830 0.6860
17.898000 0.6930 0.6980 0.7050 0.7070 0.7120
17.985465 0.7160 0.7210 0.7240 0.7280 0.7310
18.073000 0.7310 0.7330 0.7340 0.7340 0.7340
18.160465 0.7340 0.7340 0.7340 0.7330 0.7330
18.248000 0.7330 0.7330 0.7330 0.7310 0.7310
18.335465 0.7310 0.7310 0.7330 0.7330 0.7340
18.422000 0.7360 0.7380 0.7400 0.7410 0.7450
18.509465 0.7460 0.7550 0.7550 0.7570 0.7590
18.597000 0.7620 0.7670 0.7690 0.7690 0.7710
18.684465 0.7710 0.7710 0.7720 0.7720 0.7720
18.772000 0.7720 0.7720 0.7720 0.7720 0.7720
18.859465 0.7720 0.7710 0.7710 0.7710 0.7710
18.947000 0.7690 0.7690 0.7690 0.7710 0.7710
19.034465 0.7710 0.7710 0.7710 0.7720 0.7720
19.122000 0.7720 0.7720 0.7740 0.7740 0.7740
19.209465 0.7760 0.7760 0.7760 0.7760 0.7760
19.296000 0.7760 0.7770 0.7790 0.7790 0.7790
19.383465 0.7770 0.7770 0.7770 0.7760 0.7740
19.471000 0.7740 0.7740 0.7740 0.7720 0.7720
19.558465 0.7720 0.7720 0.7710 0.7710 0.7710
19.646000 0.7710 0.7690 0.7690 0.7690 0.7670
19.733465 0.7670 0.7620 0.7620 0.7600 0.7590
19.821000 0.7590 0.7570 0.7570 0.7550 0.7550
19.908465 0.7550 0.7550 0.7530 0.7530 0.7520
19.996000 0.7500 0.7500 0.7480 0.7480 0.7460
20.083465 0.7460 0.7450 0.7450 0.7410 0.7380
20.170000 0.7360 0.7340 0.7340 0.7330 0.7330
20.257465 0.7310 0.7310 0.7310 0.7290 0.7280
20.345000 0.7260 0.7240 0.7220 0.7210 0.7190
20.432465 0.7170 0.7160 0.7140 0.7100 0.7090
20.520000 0.7090 0.7070 0.6980 0.6980 0.6950
20.607465 0.6930 0.6900 0.6860 0.6830 0.6810
20.695000 0.6790 0.6760 0.6740 0.6720 0.6660
20.782465 0.6590 0.6590 0.6540 0.6500 0.6470
20.870000 0.6450 0.6410 0.6360 0.6310 0.6280
20.957465 0.6280 0.6240 0.6160 0.6120 0.6110
21.044000 0.6090 0.6020 0.5970 0.5900 0.5860
21.131465 0.5850 0.5810 0.5780 0.5740 0.5670
21.219000 0.5640 0.5610 0.5610 0.5540 0.5520
21.306465 0.5450 0.5380 0.5370 0.5310 0.5260
21.394000 0.5210 0.5140 0.5040 0.5000 0.4970
21.481465 0.4880 0.4800 0.4710 0.4640 0.4500
21.569000 0.4370 0.4260 0.4060 0.3940 0.3780
21.656465 0.3680 0.3490 0.3390 0.3200 0.2940
21.744000 0.2750 0.2540 0.2460 0.2370 0.2220
21.831465 0.1970 0.1790 0.1610 0.1490 0.1320
21.918000 0.1130 0.1060 0.1030 0.0980 0.0860
22.005465 0.0650 0.0600 0.0560 0.0560 0.0550
22.093000 0.0530 0.0530 0.0510 0.0510 0.0510
22.180465 0.0510 0.0530 0.0530 0.0550 0.0600
22.268000 0.0610 0.0650 0.0720 0.0750 0.0800
22.355465 0.0890 0.1220 0.1300 0.1370 0.1530
22.443000 0.1730 0.1870 0.2060 0.2320 0.2490
22.530465 0.2800 0.2960 0.3090 0.3230 0.3370
22.618000 0.3510 0.3680 0.3760 0.3850 0.3950
22.705465 0.4020 0.4180 0.4230 0.4350 0.4490
22.792000 0.4640 0.4690 0.4800 0.4870 0.4930
22.879465 0.5140 0.5190 0.5240 0.5330 0.5420
22.967000 0.5500 0.5570 0.5660 0.5760 0.5850
23.054465 0.5900 0.5980 0.6040 0.6120 0.6190
23.142000 0.6210 0.6260 0.6330 0.6360 0.6400
23.229465 0.6430 0.6470 0.6500 0.6520 0.6540
23.317000 0.6590 0.6590 0.6600 0.6620 0.6600
23.404465 0.6640 0.6660 0.6710 0.6740 0.6760
23.492000 0.6790 0.6810 0.6830 0.6830 0.6850
23.579465 0.6860 0.6880 0.6900 0.6930 0.6950
23.666000 0.6950 0.6970 0.6980 0.7020 0.7030
23.753465 0.7070 0.7090 0.7090 0.7090 0.7100
23.841000 0.7100 0.7120 0.7120 0.7140 0.7140
23.928465 0.7160 0.7190 0.7210 0.7210 0.7220
24.016000 0.7240 0.7260 0.7260 0.7260 0.7280
24.103465 0.7290 0.7330 0.7340 0.7340 0.7360
24.191000 0.7380 0.7400 0.7430 0.7450 0.7450
24.278465 0.7450 0.7450 0.7460 0.7460 0.7480
24.366000 0.7480 0.7520 0.7520 0.7520 0.7530
24.453465 0.7550 0.7550 0.7570 0.7570 0.7590
24.540000 0.7590 0.7600 0.7600 0.7620 0.7640
24.627465 0.7640 0.7670 0.7690 0.7690 0.7710
24.715000 0.7710 0.7710 0.7720 0.7720 0.7720
24.802465 0.7760 0.7770 0.7810 0.7950 0.8030
24.890000 0.8070 0.8080 0.8080 0.8080 0.8100
24.977465 0.8100 0.8120 0.8140 0.8140 0.8140
25.065000 0.8140 0.8150 0.8150 0.8150 0.8170
25.152465 0.8170 0.8170 0.8170 0.8170 0.8150
25.240000 0.8150 0.8120 0.8120 0.8120 0.8120
25.327465 0.8120 0.8100 0.8120 0.8120 0.8100
25.414000 0.8100 0.8100 0.8100 0.8120 0.8120
25.501465 0.8120 0.8100 0.8100 0.8100 0.8080
25.589000 0.8080 0.8080 0.8080 0.8080 0.8080
25.676465 0.8080 0.8080 0.8080 0.8080 0.8080
25.764000 0.8070 0.8070 0.8070 0.8070 0.8070
25.851465 0.8070 0.8070 0.8070 0.8070 0.8050
25.939000 0.8050 0.8030 0.8020 0.8000 0.7960
26.026465 0.7950 0.7950 0.7950 0.7950 0.7950
26.114000 0.7950 0.7950 0.7950 0.7950 0.7950
26.201465 0.7950 0.7950 0.7950 0.7950 0.7950
26.288000 0.7950 0.7950 0.7960 0.7960 0.7980
26.375465 0.7980 0.7980 0.8020 0.8030 0.8030
26.463000 0.8050 0.8070 0.8070 0.8080 0.8080
26.550465 0.8080 0.8100 0.8100 0.8120 0.8140
26.638000 0.8140 0.8150 0.8170 0.8190 0.8200
26.725465 0.8220 0.8240 0.8260 0.8270 0.8330
26.813000 0.8360 0.8390 0.8390 0.8390 0.8390
26.900465 0.8410 0.8430 0.8430 0.8450 0.8460
26.988000 0.8500 0.8510 0.8530 0.8530 0.8550
27.075465 0.8550 0.8550 0.8550 0.8570 0.8570
27.162000 0.8570 0.8570 0.8580 0.8580 0.8580
27.249465 0.8580 0.8600 0.8600 0.8620 0.8620
27.337000 0.8620 0.8640 0.8650 0.8670 0.8690
27.424465 0.8690 0.8690 0.8690 0.8700 0.8700
27.512000 0.8720 0.8720 0.8740 0.8740 0.8740
27.599465 0.8760 0.8770 0.8770 0.8790 0.8790
27.687000 0.8810 0.8810 0.8810 0.8810 0.8810
27.774465 0.8810 0.8810 0.8810 0.8810 0.8820
27.862000 0.8820 0.8820 0.8840 0.8840 0.8840
27.949465 0.8840 0.8840 0.8860 0.8880 0.8880
28.036000 0.8880 0.8880 0.8880 0.8890 0.8890
28.123465 0.8890 0.8910 0.8910 0.8910 0.8910
28.211000 0.8930 0.8930 0.8930 0.8930 0.8930
28.298465 0.8930 0.8910 0.8910 0.8910 0.8910
28.386000 0.8930 0.8930 0.8930 0.8930 0.8930
28.473465 0.8930 0.8930 0.8930 0.8930 0.8950
28.561000 0.8950 0.8950 0.8950 0.8950 0.8950
28.648465 0.8950 0.8950 0.8930 0.8930 0.8930
28.736000 0.8890 0.8890 0.8890 0.8890 0.8890
28.823465 0.8880 0.8880 0.8880 0.8880 0.8880
28.910000 0.8880 0.8880 0.8890 0.8910 0.8910
28.997465 0.8910 0.8910 0.8930 0.8930 0.8930
29.085000 0.8930 0.8930 0.8910 0.8910 0.8910
29.172465 0.8910 0.8890 0.8890 0.8890 0.8910
29.260000 0.8910 0.8910 0.8930 0.8910 0.8910
29.347465 0.8910 0.8910 0.8910 0.8910 0.8930
29.435000 0.8930 0.8930 0.8930 0.8950 0.8950
29.522465 0.8960 0.8960 0.8950 0.8930 0.8930
29.610000 0.8930 0.8930 0.8930 0.8930 0.8930
29.697465 0.8930 0.8930 0.8930 0.8930 0.8930
29.784000 0.8930 0.8930 0.8910 0.8910 0.8910
29.871465 0.8910 0.8910 0.8890 0.8890 0.8880
29.959000 0.8880 0.8880 0.8860 0.8840 0.8840
30.046465 0.8840 0.8820 0.8820 0.8820 0.8820
30.134000 0.8810 0.8810 0.8790 0.8790 0.8790
30.221465 0.8790 0.8790 0.8770 0.8770 0.8770
30.309000 0.8770 0.8770 0.8770 0.8760 0.8760
30.396465 0.8740 0.8740 0.8740 0.8740 0.8740
30.484000 0.8740 0.8720 0.8700 0.8700 0.8700
30.571465 0.8690 0.8670 0.8670 0.8650 0.8640
30.658000 0.8640 0.8640 0.8640 0.8640 0.8640
30.745465 0.8640 0.8640 0.8640 0.8640 0.8620
30.833000 0.8620 0.8620 0.8600 0.8600 0.8600
30.920465 0.8600 0.8580 0.8580 0.8580 0.8570
31.008000 0.8550 0.8530 0.8500 0.8480 0.8450
31.095465 0.8430 0.8410 0.8390 0.8390 0.8390
31.183000 0.8380 0.8380 0.8360 0.8340 0.8340
31.270465 0.8360 0.8360 0.8340 0.8340 0.8330
31.358000 0.8330 0.8330 0.8330 0.8310 0.8310
31.445465 0.8290 0.8290 0.8290 0.8270 0.8270
31.532000 0.8270 0.8270 0.8270 0.8260 0.8240
31.619465 0.8200 0.8190 0.8170 0.8170 0.8140
31.707000 0.8100 0.8100 0.8080 0.8070 0.8070
31.794465 0.8080 0.8080 0.8080 0.8080 0.8070
31.882000 0.8070 0.8070 0.8050 0.8050 0.8050
31.969465 0.8030 0.8030 0.8020 0.8000 0.7980
32.057000 0.7980 0.7960 0.7960 0.7950 0.7950
32.144465 0.7930 0.7930 0.7930 0.7930 0.7910
32.232000 0.7910 0.7910 0.7900 0.7900 0.7880
32.319465 0.7880 0.7880 0.7880 0.7860 0.7840
32.406000 0.7840 0.7840 0.7840 0.7840 0.7840
32.493465 0.7810 0.7770 0.7760 0.7760 0.7760
32.581000 0.7760 0.7740 0.7740 0.7740 0.7740
32.668465 0.7740 0.7740 0.7740 0.7740 0.7740
32.756000 0.7740 0.7740 0.7740 0.7740 0.7740
32.843465 0.7740 0.7740 0.7740 0.7740 0.7740
32.931000 0.7720 0.7720 0.7720 0.7710 0.7710
33.018465 0.7690 0.7650 0.7650 0.7640 0.7620
33.106000 0.7600 0.7590 0.7590 0.7570 0.7550
33.193465 0.7520 0.7500 0.7500 0.7500 0.7480
33.280000 0.7480 0.7460 0.7460 0.7460 0.7480
33.367465 0.7480 0.7530 0.7570 0.7570 0.7570
33.455000 0.7550 0.7550 0.7530 0.7520 0.7520
33.542465 0.7500 0.7500 0.7520 0.7520 0.7500
33.630000 0.7500 0.7500 0.7480 0.7460 0.7460
33.717465 0.7480 0.7500 0.7500 0.7480 0.7460
33.805000 0.7460 0.7450 0.7450 0.7450 0.7450
33.892465 0.7460 0.7460 0.7450 0.7450 0.7460
33.980000 0.7480 0.7500 0.7500 0.7480 0.7480
34.067465 0.7480 0.7480 0.7460 0.7450 0.7460
34.154000 0.7450 0.7450 0.7430 0.7430 0.7410
34.241465 0.7410 0.7400 0.7400 0.7380 0.7380
34.329000 0.7380 0.7380 0.7360 0.7340 0.7340
34.416465 0.7340 0.7330 0.7330 0.7310 0.7310
34.504000 0.7310 0.7290 0.7280 0.7260 0.7240
34.591465 0.7240 0.7210 0.7170 0.7160 0.7120
34.679000 0.7120 0.7100 0.7090 0.7070 0.7020
34.766465 0.7000 0.7000 0.6970 0.6970 0.6910
34.854000 0.6830 0.6780 0.6720 0.6690 0.6670
34.941465 0.6670 0.6660 0.6640 0.6620 0.6600
35.028000 0.6590 0.6540 0.6520 0.6500 0.6480
35.115465 0.6470 0.6450 0.6400 0.6400 0.6380
35.203000 0.6360 0.6350 0.6350 0.6310 0.6280
35.290465 0.6240 0.6230 0.6190 0.6160 0.6120
35.378000 0.6110 0.6090 0.6050 0.6040 0.6000
35.465465 0.5980 0.5970 0.5930 0.5920 0.5900
35.553000 0.5880 0.5830 0.5810 0.5800 0.5760
35.640465 0.5710 0.5660 0.5640 0.5620 0.5550
35.728000 0.5520 0.5500 0.5450 0.5400 0.5330
35.815465 0.5280 0.5240 0.5160 0.5140 0.5120
35.902000 0.5060 0.4990 0.4950 0.4900 0.4880
35.989465 0.4850 0.4810 0.4780 0.4750 0.4710
36.077000 0.4690 0.4660 0.4640 0.4540 0.4490
36.164465 0.4440 0.4400 0.4370 0.4330 0.4280
36.252000 0.4260 0.4230 0.4190 0.4180 0.4180
36.339465 0.4160 0.4110 0.4090 0.4070 0.4060
36.427000 0.4060 0.4040 0.4040 0.4020 0.4010
36.514465 0.4010 0.3990 0.3990 0.3970 0.3970
36.602000 0.3950 0.3940 0.3940 0.3940 0.3920
36.689465 0.3920 0.3920 0.3920 0.3920 0.3920
36.776000 0.3920 0.3940 0.3940 0.3940 0.3940
36.863465 0.3950 0.3950 0.3950 0.3950 0.3950
36.951000 0.3950 0.3950 0.3970 0.3970 0.3990
37.038465 0.3990 0.3990 0.4010 0.4020 0.4020
37.126000 0.4020 0.4020 0.4040 0.4040 0.4040
37.213465 0.4060 0.4070 0.4070 0.4090 0.4090
37.301000 0.4110 0.4110 0.4130 0.4130 0.4130
37.388465 0.4130 0.4130 0.4140 0.4140 0.4160
37.476000 0.4160 0.4160 0.4180 0.4180 0.4180
37.563465 0.4190 0.4190 0.4190 0.4190 0.4210
37.650000 0.4210 0.4230 0.4230 0.4230 0.4210
37.737465 0.4210 0.4210 0.4190 0.4190 0.4190
37.825000 0.4180 0.4180 0.4180 0.4180 0.4180
37.912465 0.4180 0.4180 0.4180 0.4160 0.4140
38.000000 0.4140 0.4140
##END=
