##TITLE=1,1,2-Trichloroethane
##JCAMP-DX=4.24
##DATA TYPE=INFRARED SPECTRUM
##CLASS=IUPAC A
##ORIGIN=NIST, Analytical Chemistry Division, 301-975-3108
##OWNER=COPYRIGHT (C) 2001 by the U.S. Secretary of Commerce
##DATE=01/06/01
##$SPECTRA VERSION=1.10
##$UNCERTAINTY IN Y=2.1 % relative (B=1.14E-04,C=1.89E-9,D=6.50E-14)
##CAS NAME=1,1,2-Trichloroethane
##CAS REGISTRY NO=79-00-5
##MOLFORM=Cl C H2 C H Cl2
##MP=-36.5 C
##BP=113.77 C
##$NIST SOURCE=QUANT-IR
##SPECTROMETER/DATA SYSTEM=IFS66V (Bruker)
##INSTRUMENT PARAMETERS=KBr Beam Splitter; MCT Detector; Multipass cell
##STATE=gas
##SAMPLE DESCRIPTION=1,1,2-Trichloroethane Primary Gas Standard
##PRESSURE=101.3 Pa
##TEMPERATURE=23 C
##SAMPLING PROCEDURE=1 L/min Flow
##RESOLUTION=1.9290
##DATA PROCESSING=Triangular Apodization
##XUNITS=cm-1
##YUNITS=(micromol/mol)-1m-1 (base 10)
##XFACTOR=1.0
##YFACTOR=9.0949E-13
##DELTAX=0.9645
##FIRSTX=575.652
##LASTX=3974.606
##FIRSTY=-1.19E-06
##MAXX=3973.64
##MINX=575.65
##MAXY=.0008341
##MINY=-2.27E-06
##NPOINTS=3526
##XYDATA=(X++(Y..Y))
575.65-1315576-1734252-1770457-1165174-806144-812209
580.47-354611-785028-1079888-68764-96945-1477743
586.26-1493025-108577 912912 744153-109542-273103
592.04-556749-549057 68523-221062-1193358-1254494
597.83-1263694-969065-861588-955598-145565 130575
603.62-252743-449694-681702-708600-350167-83704
609.40-145886-457942-920833-1147565-1137595-780817
615.19-556265-358834-92723-256633-331805-177967
620.97 50713-8297-91375-87197-92267-90520
626.76 294346 542206 736533 1026944 1084862 1413377
632.54 1819335 1829528 1853072 2282338 2875473 2946072
638.33 2999623 3591360 4492622 4907508 4797383 5800646
644.11 7109775 7862179 8906048 9909111 10951481 11797931
649.90 12255124 13345133 15494289 18154940 21397224 25280365
655.68 29341562 34194050 39895121 46474533 54082972 62663200
661.47 71800536 82155245 94226622 107302966 120872909 133150536
667.26 146514601 160001709 168992749 172498504 172369641 170621817
673.04 167297285 164836910 163551160 166757464 179042574 195874347
678.83 206324866 203918418 189885447 169369399 146760312 124649789
684.61 106211595 91071652 78439887 68172673 59150678 50991538
690.40 43597523 36952245 31079063 26127858 22250388 19404259
696.18 17218303 15976614 15650628 15561906 15746692 16768166
701.97 17949039 19238965 20853334 22473863 24024090 25591559
707.75 27120272 28801258 30691838 32130795 33306008 34626627
713.54 36617519 39461027 43043258 47889544 53281295 58035108
719.32 64107783 73165353 84202238 97820310 115285309 136682872
725.11 163464174 196615948 236506600 284522423 340437500 402749359
730.90 471296548 544520178 618256149 689156914 754028590 809406768
736.68 852662630 882151106 899653268 909138234 914995195 916505779
742.47 917145665 916672214 896412728 883645050 844042653 781075743
748.25 736906980 665567513 564654841 450103812 337900828 241044965
754.04 167045249 115987860 83703724 64787585 53379918 46467033
759.82 41829817 38538631 36272107 34739385 34184330 34198149
765.61 34673727 35940182 37537143 39106308 40832622 42567153
771.39 44205175 46274378 48849403 52831757 58497592 65049892
777.18 71597992 77439325 82282345 86844416 91648991 96949991
782.96 103150380 110234425 116672503 121168458 120768761 114104565
788.75 105106023 95297080 86996292 84940850 91914885 104889405
794.53 114140056 113906130 106489221 95273190 82398558 69429400
800.32 57641554 47488336 39311546 32699157 27242423 22939346
806.11 18728203 15139839 12231247 9636791 7612210 5977660
811.89 4705156 3881215 3424053 3092242 2841524 2562509
817.68 2421314 2476495 2671020 2741156 2857527 3008247
823.46 2989704 3163811 3280809 2987859 2501171 2426230
829.25 2544274 2485472 2721942 3066955 2811540 2570744
835.03 2938886 3086064 3041751 2943087 2771889 2772822
840.82 2768981 2612508 2805707 3045349 3036093 2884920
846.60 3009258 3234169 3106718 2926374 2527015 2438836
852.39 2477034 2541203 2612089 2397921 2048310 1982347
858.17 2143908 1944059 1550582 1458845 1497167 1362604
863.96 1178767 1175484 1234935 1168042 1210373 1345573
869.75 1495640 1503810 1363481 1229468 1407325 1669755
875.53 1688008 1825220 1938174 1920041 1962280 2079025
881.32 1965781 2153040 2534118 2611491 2818106 3012420
887.10 3198358 3449610 3815948 4143334 4367921 4531077
892.89 4716170 4882664 4975602 5112395 5312689 5431601
898.67 5620190 5959575 6452673 6982534 7502797 7999725
904.46 8213880 8488756 9133719 9931556 10829719 11827811
910.24 13114887 14771405 16567369 18631286 21069598 24019464
916.03 27110668 30625334 34833967 39595716 44830073 50615361
921.81 57369029 65124990 73633820 83157248 93930281 105572278
927.60 117779461 130570561 142977763 153505882 159804529 158908522
933.39 150536855 138482635 128457747 126194537 134958720 153584547
939.17 172654643 179613135 173511260 160187588 143936936 126922159
944.96 110583787 96695008 86608550 78651609 69897319 61128494
950.74 53518516 46579325 39966191 33999195 28672880 23837412
956.53 19902937 16777300 14329778 12601090 11180417 10017200
962.31 9066210 8122312 7378669 6961222 6568073 6278217
968.10 5940290 5563115 5369865 5214176 5134453 4868484
973.88 4580482 4630718 4728842 4531219 4158747 3702152
979.67 3193192 2887453 2663007 2548966 2437161 2336224
985.45 2418000 2496442 2568224 2678001 2740451 2777989
991.24 2720290 2688698 2799011 2833775 3011428 3091890
997.03 2983836 2952415 3031716 3159145 3168602 3094824
1002.81 3039503 2901359 2787461 2773072 2799430 2781155
1008.60 2815906 2961007 3064862 3057168 3324436 3459822
1014.38 2673313 2134914 2082150 2092112 2241555 2370185
1020.17 2590850 2793386 2823367 2914659 3134189 3260186
1025.95 3419885 3659012 3849440 4179317 4639747 5254167
1031.74 5987172 6747220 7465123 8189201 8953779 9822098
1037.52 10653115 11390217 12348764 13126315 13958876 14958110
1043.31 15886297 16843671 17753721 18563920 19416502 19959409
1049.09 19869037 19615320 19326573 18986997 18529926 18008035
1054.88 18034172 18713134 19368746 19233296 18138138 16557637
1060.67 15065389 13846865 12871485 11932202 11024840 10438262
1066.45 10040592 9678362 9117897 8248629 7396230 6682895
1072.24 6058846 5388109 4846353 4421542 3961741 3631011
1078.02 3283377 2948270 2634814 2430945 2391707 2162775
1083.81 1705974 1381795 1154707 1017656 1003244 983373
1089.59 887330 754760 719466 587545 547201 698266
1095.38 768278 581682 447647 442123 457481 458446
1101.16 400702 276550 306508 290307 257549 334483
1106.95 315995 448545 451418 375542 282407 337795
1112.73 435681 377622 498307 531293 485029 527730
1118.52 565734 665537 804880 771379 662978 654641
1124.31 784765 935129 1006772 894919 855554 953910
1130.09 975770 899795 947245 1069229 1099703 1171164
1135.88 1403096 1597727 1743674 2054160 2531901 3007186
1141.66 3454223 3978848 4682367 5607410 6626728 7646890
1147.45 8849187 10393868 12082793 13607382 15359744 17236751
1153.23 19480485 21564327 21594373 21410955 24586778 27327374
1159.02 25727841 25542000 26679957 26925078 26265522 23629820
1164.80 21989192 20915002 19515324 18158971 16413593 14348638
1170.59 12465558 10687653 9010528 7696981 6579927 5816848
1176.37 5297366 4645608 4312120 4256800 4161540 4173880
1182.16 4450187 4857450 5393399 5942193 6661549 7521779
1187.95 8470374 9534817 10966729 12758974 15175056 18074785
1193.73 21941691 26853535 33257449 41275720 51495279 63724631
1199.52 78330364 93743675 109068735 120992424 128284197 127627081
1205.30 119531084 103800676 114745545 145531966 121859562 103779548
1211.09 123367232 138377682 144929965 140290883 127307015 108340722
1216.87 87713600 68201439 52511959 40543684 32171237 26275354
1222.66 22083206 18832121 16532638 14704890 13275873 12174290
1228.44 11597575 11265603 11034806 11006276 11226300 11671549
1234.23 12552255 13957682 15043147 15024990 15291543 15888600
1240.01 16328684 16764496 16892370 16743600 16953973 17658445
1245.80 18769420 20592692 23113181 26169963 30214329 35409480
1251.59 41784959 49288232 57834489 67505034 77411382 86810378
1257.37 94944738 100677934 103202545 102255265 98881790 97152805
1263.16 97564511 95040767 94681619 97542493 98150863 95905222
1268.94 91250190 85153016 78085806 70455428 62342240 54034066
1274.73 46124608 39044367 32726982 27300715 22721304 18762761
1280.51 15481963 12923158 10780100 8939381 7526137 6525068
1286.30 5839241 5448654 5280881 5508729 6138380 7070116
1292.08 8279657 9869950 11785735 14139705 16834612 19882606
1297.87 23147260 26272879 29258095 32211616 34604050 36725047
1303.65 38396309 42643984 43771191 38414957 37160549 37988812
1309.44 37747220 38503064 39239158 39700287 39486585 37605297
1315.23 34279161 29941136 25260601 21057580 17371612 14192627
1321.01 11809524 10080783 8696120 7621535 6790158 6257490
1326.80 5893202 5705751 5802866 5793648 5620035 5437936
1332.58 5241643 5162887 5028044 4837629 4835669 4884497
1338.37 4811715 4800228 4826522 4830291 4852200 4947231
1344.15 5166699 5260308 4994087 4748972 4508615 4221874
1349.94 3763224 3693206 4117838 4348875 4174013 3841429
1355.72 3282891 2659536 2269049 1889377 1697914 1466596
1361.51 1491857 1546685 1369513 1380491 1214534 1008803
1367.29 942771 935249 929651 987353 962937 798470
1373.08 773156 803609 796147 724569 718501 834214
1378.87 936461 901814 849318 919343 981737 1007788
1384.65 815465 526883 450790 630891 772341 821381
1390.44 847909 827969 594264 439778 626126 808048
1396.22 725021 604861 611496 816924 920178 926991
1402.01 1097856 1188734 1094937 1242348 1437826 1576541
1407.79 1635503 1790504 1939021 2114515 2395667 2775628
1413.58 3030387 3482356 4022120 4806411 5567765 6667277
1419.36 8433667 10290556 12161769 14491041 16883236 19734438
1425.15 22639997 26220032 30147158 35216182 40755675 45468062
1430.93 47715803 50363969 50416668 50155377 46985555 68685539
1436.72 107967745 76583691 43805395 50311205 52151721 53420604
1442.51 51229842 48160721 43229878 38675804 33944032 29925561
1448.29 26042629 22459822 19068960 15969941 13100654 10729168
1454.08 8387052 6299833 4627369 4013403 3444311 2942177
1459.86 2629871 2315357 1934738 1675768 1341766 1370953
1465.65 1538392 1517077 1463785 1335824 1247468 1104642
1471.43 944637 895154 972217 1041533 913710 1104408
1477.22 1216734 1172889 1189952 1275297 1251101 1198088
1483.00 1115208 1158378 1163418 946928 944948 932123
1488.79 621302 645820 787650 693813 610277 584650
1494.57 171098-94932 98181-48543-97037-74114
1500.36-164931-115554-21305-194598-802814-1152093
1506.15-1023087-547326-307612-210142-123634-169566
1511.93-119637-44212-88242-107506-247791-243498
1517.72-98704-167809-505731-616078-352698-141901
1523.50-178898-357655-296871-161571-147096-169361
1529.29-157218-192952-265372-356061-356500-227614
1535.07-122976-123646-468918-1014824-940884-519255
1540.86-517263-361080-77625-153809-160657 24977
1546.64 117301 139785 65802 49402 96133 133159
1552.43-9984-165877-5785 56377-435324-962496
1558.21-964210-847223-323072 42143 56516 39345
1564.00-40333 50758 61148 31040-122362-244535
1569.79-59830 10192-84673-143812-162279-869319
1575.57-1035282-335858-203509-187867-199926-156541
1581.36-141930-202292-186278-131916-149418-124736
1587.14-71219-106535-232962-243940-185197-169951
1592.93-170798-60885 45772 55491 96152 32407
1598.71 18064 85417 150263 125743 89194 202085
1604.50 284217 246219 257905 288321 285258 273296
1610.28 277321 249906 231032 212126 135728-331672
1616.07-407302 165857 189846 118071 67942 15020
1621.85-220012-373411-111422-97338-256110-288754
1627.64-250909-304601-291603-236403-276698-309544
1633.43-555111-913967-625864-386115-417538-319654
1639.21-246536-228362-268537-228710-139108-368407
1645.00-690396-552316-464082-310467-219395-303483
1650.78-940602-1758599-1445877-687772-304733-231469
1656.57-204115-185399-207595-200048-282898-528274
1662.35-408278-216687-273753-270094-221487-369995
1668.14-647606-512467-456494-434481-260214-297508
1673.92-624014-626171-331938-261148-224374-286582
1679.71-307024-311661-454936-775217-1245172-826747
1685.49-158017-94901-55846-118154-191325-98399
1691.28-7574-158848-226407-826787-1139267-445273
1697.07-124617-474832-1168030-845611-183874-140832
1702.85-266000-346153-314037-299537-196026-211162
1708.64-189383-150726-127146-141672-197819-391828
1714.42-412685-492061-897328-683011-238173-32615
1720.21-59396-97355-119890-65000-34062-135122
1725.99-133781-109063-92955-156550-147557-145949
1731.78-517985-997622-869979-334945-211770-248116
1737.56-269896-555266-493598-254604-331817-398098
1743.35-308466-282323-356911-403258-518886-500001
1749.13-487687-716594-602493-400255-336617-377844
1754.92-533434-533618-421160-434152-393199-382628
1760.71-563751-480596-278749-208848-210699-294987
1766.49-434546-451161-307685-249604-369188-628262
1772.28-569692-314961-191448-161880-121566-77950
1778.06-79666-61896-85259-44180 103814 118294
1783.85-34834-25289 40248 29393 28846 38225
1789.63 3625-52243-98951 83746 243647 222438
1795.42 214013 254157 236561 147176 188201 205082
1801.20 138021 118944 189429 281811 279183 193291
1806.99 122879 130007 109906 35779 32877 96288
1812.77 130375 142904 163630 108986 85643 171239
1818.56 242418 324069 326451 318496 476151 488779
1824.35 602308 686530 383893 220969 153186 117323
1830.13 186320 246701 238973 179990 174938 148568
1835.92 55285-30347-658 13383-27023-136293
1841.70-290969-539622-548541-223320-184862-300505
1847.49-355503-366651-319076-350261-400089-308196
1853.27-308702-364648-350944-353074-372519-360962
1859.06-359972-448708-427887-386140-439943-538684
1864.84-513873-423000-421071-472451-425449-377646
1870.63-420829-374556-304943-301152-325494-332041
1876.41-331897-328323-309879-255600-287526-418413
1882.20-443583-371205-376997-384121-362996-370905
1887.99-383136-349078-277965-231911-258203-325815
1893.77-416950-422127-362535-288451-316731-339153
1899.56-288429-322874-344829-393645-413255-358312
1905.34-315959-386090-391556-340368-419470-394725
1911.13-360070-350435-281508-309899-314595-346143
1916.91-399881-312914-281680-317393-347026-347216
1922.70-257700-266317-282453-258050-274229-228169
1928.48-210874-185175-136103-135937-139093-150228
1934.27-147243-108114-73120-60787-75528-133702
1940.05-146347-92367-50111-122659-125124-76930
1945.84-58070-67947-166514-202628-147082-94461
1951.63-192303-322464-271975-233993-188493-175047
1957.41-232011-140692-146415-194851-204126-312084
1963.20-315341-274676-284715-239198-179861-120676
1968.98-92969-101322-40868 43238 6400 70058
1974.77 163452 167404 266471 316492 296318 331510
1980.55 374532 376817 342372 339802 393265 415395
1986.34 398019 355970 407904 438546 340737 276179
1992.12 202024 199994 190408 136669 132495 78022
1997.91 39907 88145 99928 69121 46158 24337
2003.69 11251 18543 32514 16096 38273 33886
2009.48 2833 11804 26743-38984-76881-62619
2015.27-46893-132090-202902-128846-120122-200850
2021.05-287603-197545-65640-80700-124690-161147
2026.84-211923-209393-159602-121508-76940-55572
2032.62-103448-162173-90695 29308 18777 14379
2038.41 29449 32132 43693 37502 91337 173445
2044.19 224250 248479 230899 198674 208290 178978
2049.98 192745 206606 136955 101306 140894 147630
2055.76 117198 145189 88197-32986-82347-64060
2061.55-13602-66558-212185-227172-181587-182288
2067.33-159709-98173-114661-138607-113376-151514
2073.12-90578-20953-8822-118164-164600 23991
2078.91 76158-43507-194819-97076 78941 117187
2084.69 30176-6997 146945 244798 316829 230410
2090.48 354778 545265 515502 296929 329992 598313
2096.26 750308 719891 503894 617201 737184 650038
2102.05 348722 387612 584015 680796 491637 462980
2107.83 690108 666946 457711 280127 545781 640310
2113.62 307568-22567 118405 285058 151131-176184
2119.40-139295 94246 66995-279319-358477-84503
2125.19-21253-250711-263996 11574-58125-292198
2130.97-374632-197564-139368-237321-223033-83816
2136.76-54452-216231-338451-246796-132630-138712
2142.55-139364-55094-37663-194293-297293-224098
2148.33-128346-240937-373662-192037-120405-378360
2154.12-432963-227597-267835-532038-419590-106816
2159.90-269606-595521-410418-128072-422384-650942
2165.69-331741-147985-446996-587561-205810-123116
2171.47-452761-305822-45641-218283-362059-76137
2177.26 110666-289409-348409 69326 64680-206024
2183.04-92360 180161-29828-145355 174433 149917
2188.83-28583 226667 394947 197517 185641 436537
2194.61 439870 303959 474963 567064 349097 340613
2200.40 512401 403078 249261 425798 496484 417034
2206.19 468238 442143 267222 139128 198393 186482
2211.97 164129 196600 91875 80217 98240 6257
2217.76-66842-92380-60329-98388-72020-52640
2223.54-66058-63362-136541-110525-9166-36207
2229.33-50725-4137-16733-92919-130859-36035
2235.11-69692-84077-17144-55821-25986-28104
2240.90-53973 33638 36134 22638 70505 52924
2246.68 137891 107151 52207 75682 93217 169677
2252.47 120649 90953 144819 133714 101412 94420
2258.25 42259 6191 32125 47395-12267-46743
2264.04 16519 52308 51876 27808 1571-76200
2269.83-86695-7632-60712-136753-137569-78526
2275.61-46825-35825-16700-53320-111836-169550
2281.40-132551-100992-157966-197695-193833-245458
2287.18-197867-92608-155658-171351-94748-174970
2292.97-227116-246405-265544-316357-350913-274363
2298.75-270357-193598-117146-194141-254198-301983
2304.54-226921-394813-393936-349835-444166-597996
2310.32-536003-475057-530165-674011-819466-766163
2316.11-899885-966977-1045780-1056477-1193712-1280867
2321.89-1432540-1492972-1571173-1669644-1838089-1877571
2327.68-1958466-2051641-2241789-2366567-2349531-2317976
2333.47-2334559-2437590-2502029-2425350-2303630-2224835
2339.25-2114207-1988937-1790027-1597634-1409605-1154356
2345.04-784336-395223-97341 162833 263836 165993
2350.82 11133-220277-478884-643167-760137-868433
2356.61-978528-1084880-1118975-1053107-959487-854831
2362.39-576698-453386-408128-247207-114823 21322
2368.18 193591 344093 432037 529011 509261 429490
2373.96 507608 678291 690652 681487 680267 622555
2379.75 595268 544299 516573 553876 602536 575416
2385.53 494551 433699 522064 566923 579942 650740
2391.32 762783 832919 834578 908578 987451 1023251
2397.11 1047743 1139367 1251949 1274008 1321484 1425658
2402.89 1501453 1818245 2205849 2021818 1590960 1318995
2408.68 1158076 1089531 1089454 1109718 1119669 1083599
2414.46 1001851 909373 658606 554795 732998 797795
2420.25 700757 541720 455329 391795 301647 260021
2426.03 228439 191382 122610 116600 83112 77103
2431.82 113727 76180 22341 78579 190550 244855
2437.60 286814 307331 412419 449323 482086 557446
2443.39 550061 608134 762694 943118 1093341 1167525
2449.17 1271166 1411183 1593633 1725171 1810396 1939132
2454.96 2081538 2205810 2318440 2474738 2519827 2507784
2460.75 2512318 2434173 2360381 2282935 2299785 2295561
2466.53 2123066 1914213 1775555 1752665 1700142 1550143
2472.32 1439892 1437042 1382073 1310429 1244219 1133035
2478.10 1094041 1031141 972221 977074 994399 1004682
2483.89 925305 962003 928853 846513 959035 1002930
2489.67 966192 888368 842942 778050 802696 844745
2495.46 821758 792435 753208 741812 740623 816889
2501.24 846598 870580 902629 964497 984388 1010399
2507.03 1130639 1218168 1274593 1314298 1404605 1531574
2512.81 1579527 1588937 1528886 1381385 1272117 1216216
2518.60 1263420 1284236 1283887 1285812 1273075 1174364
2524.39 972971 863831 763768 614393 470136 443227
2530.17 333549 134460 32900-18234 13546-45191
2535.96-184336-158802-155223-233036-187799-134865
2541.74-128851-45861-96651-214828-183028-123207
2547.53-65600-31904-35075 52074 126067-712
2553.31-98953-40335 16579 76255 263922 364483
2559.10 393828 437928 425011 419527 521327 605176
2564.88 556357 465478 459109 450022 541589 608898
2570.67 572552 499928 369661 390806 435486 417960
2576.45 368865 321004 352041 352260 282282 242601
2582.24 181770 186698 209880 265287 355695 352739
2588.03 329249 297053 302509 338268 390243 387129
2593.81 388848 418506 419353 502385 570366 446410
2599.60 368447 429986 480695 473458 431501 331309
2605.38 239517 207981 187636 257329 259727 227531
2611.17 208831 197431 221743 207684 72435 30787
2616.95 57857 14223 5183-86910-153244-114954
2622.74-115520-159387-150975-53786-42218-160775
2628.52-204165-139426-23858-82707-141293-94582
2634.31-80656-80276-6414-7066-22178 125703
2640.09 122818 42687-2569 61143 138392 98270
2645.88-14968-30630 86286 180748 73195-83238
2651.67-79613 26177 121354 33116-80449-36937
2657.45-76438-132956-14647 56474-33432-114054
2663.24-104796-62024-4130-25453-44561-129344
2669.02-113247 144 21383 12070 4719 41683
2674.81 113036 109740 54301 71852 8808 64894
2680.59 84101 44297 57228-590 14559 41709
2686.38 170595 317695 356614 498692 631137 690742
2692.16 810884 830265 872901 952108 938356 931969
2697.95 974074 993807 902079 914526 964492 1036811
2703.73 1106227 987551 895228 947243 893376 594778
2709.52 450693 397897 277911 217054 133697 49259
2715.31 7248-50666-15211 98637 35679-114275
2721.09-73609 17088 63897 147981 258208 271323
2726.88 188014 178028 267086 258490 237887 453293
2732.66 693490 723869 659546 675137 830719 972388
2738.45 859144 850591 951627 917115 793359 720449
2744.23 678308 775514 814421 608662 699571 777635
2750.02 645118 479893 372839 374798 265115 107497
2755.80 22891 5465 38738 64356 66289-34351
2761.59-56547 11735 7216 2797-35695-67152
2767.37-51636-24452-62115-107656-183440-67876
2773.16 58367-15433-22148-23112 24459 148163
2778.95 126227 45699 21644 33225 55729 39995
2784.73 54684 42467-3520 12660 193868 148484
2790.52-36004 40719 129813 182030 211347 96725
2796.30 6283 2347 7740 56221 226783 226124
2802.09 30093-17080 113578 84964-46038-595
2807.87 59918 121618 97497 75971 179623 144505
2813.66 100829 205475 200835 50305 178872 329773
2819.44 164205 112766 222090 178747 130014 122183
2825.23 128743 266113 429880 523945 481583 405360
2831.01 429231 408825 298686 324191 385208 559343
2836.80 782412 848685 817609 845512 999467 1263604
2842.59 1454277 1660202 2025941 2370325 2925231 3626994
2848.37 4352160 5145395 5953460 6640153 6908241 6699216
2854.16 6317711 6008510 6890669 8072872 6778584 5431613
2859.94 5841828 6545001 6744223 6513416 6073400 5253406
2865.73 4425982 3690255 3158134 2683587 2305601 1923069
2871.51 1580141 1401338 1029412 791465 1318838 1579588
2877.30 1380677 1347130 1280822 1282336 1209957 1185654
2883.08 1252832 1205275 1259458 1281246 1240289 1269612
2888.87 1176480 1219726 1207092 1159569 1228694 1350407
2894.65 1390367 1233745 1181744 1202148 1328459 1448884
2900.44 1375850 1393213 1448006 1283616 1172381 1174236
2906.23 1266797 1355881 1355599 1371583 1374112 1429323
2912.01 1438769 1411948 1381028 1313290 1480637 1684442
2917.80 1592138 1605289 1705782 1678102 1765414 1825721
2923.58 1995256 2024228 1999784 2103878 2075330 2101934
2929.37 2141251 2114153 2106483 2178144 2197102 2187848
2935.15 2186565 2264206 2416705 2477412 2448883 2288722
2940.94 2268921 2472037 2579402 2596773 2891985 3275509
2946.72 3316406 3442282 3825727 4101797 4456947 4831517
2952.51 5173983 5482431 5889953 6523972 7226822 8020773
2958.29 9414321 11581539 14624149 17837746 20225113 22976771
2964.08 27768541 33620807 39913862 45206146 48708671 49249496
2969.87 47403665 42829250 44299283 59311629 57098541 44988133
2975.65 44753158 47717056 51010638 51347996 48895250 44041432
2981.44 38046009 31970859 26934671 23466209 19783820 15554945
2987.22 12737799 10903135 9677715 8819139 8173742 7672020
2993.01 7295360 7131940 7374718 7973118 8852961 9856789
2998.79 10966109 11586524 11705646 11216779 10094896 8728681
3004.58 10346917 12798015 10760150 9160812 9894719 10850633
3010.36 11513385 11354803 10736849 9891994 9009315 8228832
3016.15 7671017 7245674 7012324 7067183 6993058 6466368
3021.93 5599866 5140977 5731952 5458097 4940289 5369528
3027.72 5922202 6200923 5859865 5393917 4852056 4108915
3033.51 3369456 2935213 2524204 2096790 1771680 1479496
3039.29 1355239 1153052 1029696 873273 752084 751545
3045.08 582695 562548 692993 604434 553178 584553
3050.86 519908 545963 441915 400905 422479 318747
3056.65 275334 230020 207575 295266 315500 292720
3062.43 399642 351003 203592 153745 305737 448498
3068.22 449004 305940 125943 235947 308939 333988
3074.00 344989 253654 286738 288062 257209 382959
3079.79 502783 551679 557353 445775 426060 312866
3085.57 359927 386879 321592 326519 170151 171137
3091.36 130100 124315 185717 162953 125100 181621
3097.15 124014-38536 36257-413-66417 14396
3102.93 84134 101738 198782 172455 26187 115945
3108.72 135084 171011 262950 155637 182864 170293
3114.50 198259 306646 155181 43547 40387 171042
3120.29 97528-32367 39270 38086 90104 108150
3126.07 4835-63803 1380 46863-81424-5344
3131.86 222819 271263 234423 92241 118544 74040
3137.64-1643 197181 294610 279495 272228 155012
3143.43 143442 349623 239118-34991 6592 257221
3149.21 362196 287674 285207 360981 280814 174143
3155.00 221311 197417 182503 257402 237441 158494
3160.79 87319 36762 99286 166221 96750 170644
3166.57 131853-12724 106518 148652 36597 66669
3172.36 106539 103677 168551 118178 4787 54258
3178.14 123548 105357 139752 99632 198359 264821
3183.93 76353-3995 106279 75491-77847-118301
3189.71 115676 267605 174403 207867 264333 198962
3195.50 173937 143577-29840-60793 160444 138286
3201.28 45852 184950 126410 116126 195108 101953
3207.07-31310-124734-243679-252548 1671 130921
3212.85 53678 3656 83462 71776-28605-95801
3218.64-132269-39254-40874-24189 48258 44702
3224.43 18029 25705 195566 167226 59477-78451
3230.21-91617 111551 267951 164939 25069 104598
3236.00 107643 172999 50233-68378-41617 90653
3241.78 190370 94825 78651 120861 33334-33520
3247.57 48519 58829 36178 93076 98281 31744
3253.35-67309-39396 43286 48237-133177-261430
3259.14-114312-18699-28956-56411-13787 106580
3264.92 87369-57593-139961-96315 11706 15828
3270.71-2069 65078-7844-56820-63627-83876
3276.49-119287-167841-66478-108185-178419-39049
3282.28-121037-199136-18463 2964 23247 2972
3288.07 35647 146873 88823 13448-83236-58566
3293.85-108656-35458 138376 20479 54608 180971
3299.64 110731-29525-69747-205869-95116 100113
3305.42-22532 3972 6369 86666 121444 21968
3311.21 24870-14723 85303 80456-84205-59446
3316.99-60226 3167 121816 49461-36841-27257
3322.78-99518-161446-2269 50051 27142-111582
3328.56-202384 13037 82408 18661-27156-88341
3334.35 195762 275012-32537-76631 7501-1107
3340.13-45478-197982-81487 45791 126587 135412
3345.92 72355 166123 141860-23218-51984 189617
3351.71 189450 116143 123134 127760 76734 98826
3357.49 196085 182004 121694 76517 187922 221896
3363.28 1025-99042-51968 4699 90039 126239
3369.06 170178 85250-82586 7017 141246 93858
3374.85 35659 43038-20374-51375-47434-87849
3380.63 141071 242816 67558 59291 29922 45445
3386.42 143574 294120 386199 330609 277076 273238
3392.20 285422 234308 240828 288206 250875 38148
3397.99 147965 381658 298741 187570 166491 375232
3403.77 435640 328414 152228 136665 320040 309554
3409.56 337722 191282 127492 346213 330293 310793
3415.35 473420 609954 519878 441413 382449 219919
3421.13 52107 30292 59668 90888 292708 222446
3426.92-47075-227775-75895 17246-264173-219114
3432.70 4790 18396-107708-101720 33980 44655
3438.49-104904-203297-317521-69062 160286 26359
3444.27 8021 35594 58151-77422-244121-64846
3450.06 188224 131471 132726 147821-90038-188843
3455.84-23725-30768-120683-100968 19889-35190
3461.63-132696-131027-118925-151273-204120-25058
3467.41 22503 53971-25766-236345-213851-291710
3473.20-280107-106617-100570-142585-77713-11344
3478.99-8118 3716-42888-168519-262795-238691
3484.77-88259-103095-117986-3374-25486-107737
3490.56-120816-175310-302513-142171-33658-107735
3496.34-31378-53515-177538-184865-129704-130013
3502.13-173130-309470-299880-121688-55693-121084
3507.91-162389-191153-152113-175053-281344-227642
3513.70-213822-210765-57411 14533-25985-163939
3519.48-142823-24500-113185-154534-120199-209184
3525.27-225854-176899-171046-139953-192164-253984
3531.05-242992-92007 24318 11443-156854-317142
3536.84-227312-242705-115868 49181 30494-75796
3542.63-288579-251714-203750-184967-78984-46910
3548.41-211049-297904-217469-90380-59667-111614
3554.20-279339-302128-122493-97689-104654-109052
3559.98-102658-53687-49826-68576-50775-67107
3565.77-152349-355039-388631-257856-124301 59701
3571.55-60413-157411-55997-133177-220844-182694
3577.34-86772-25597-68313-97563 276-1489
3583.12-91019-220705-307558-302040-332146-353892
3588.91-252271-195366-113298-152585-123166-119044
3594.69-296371-233172-155077-146504-179964-276111
3600.48-305446-212218-207897-273108-262452-278897
3606.27-258251-292840-631578-461449-150016-240559
3612.05-244956-164868-231374-360137-327877-221999
3617.84-259619-500812-486387-237004-108586-64279
3623.62-4551-141817-102488-236415-624500-552242
3629.41-219136-19687 92594-90300-115231-12357
3635.19-116136 47346 134165 10120 3296 89655
3640.98 43388 134103 245494 183022 180508-14888
3646.76-150248-233719-220140-169352-124827 27855
3652.55 79649 119619 14115 43024 268482 261646
3658.33 178285 179415 172127 226726 229083 217510
3664.12 261358 209424 137898 102607 51375-268172
3669.91-465506-231265-128014-37363-297745-551337
3675.69-212846 181126 226082 145209 227306 187405
3681.48 149242 168872 81067 40098 132644-3002
3687.26-470637-87315 179300-175783-92672 142962
3693.05 160087 93266 139040 183844 361976 356120
3698.83 333800 311135 109813 104177 192014 219403
3704.62 219297 147082 87977 103296 16302 123543
3710.40-157086-437742 26202 168047 19290 28669
3716.19 64043 14651-67152-5614-24207-99610
3721.97-68885-105864-92669-217777-308815-148313
3727.76-9601-121341-223204-390434-455755-296319
3733.55-429041-497075-652821-526349-265669-301824
3739.33-59306 243242 228883-206653-1043758-807724
3745.12 159839 154058-90515-465170-306637 134499
3750.90-333195-296695 288462 525135 426676 359048
3756.69 567947 682879 590951 644779 836695 856514
3762.47 877076 973110 998608 983932 891450 838365
3768.26 736977 672789 809946 836863 719065 665210
3774.04 628105 474721 468316 415673 239679 200716
3779.83 205067 230004 258123 214297 155406 227163
3785.61 307066 381248 385868 296400 336754 403416
3791.40 527716 526693 339322 260624 262910 379500
3797.19 523256 601186 456968 5510 19837 315319
3802.97 512666 633920 457351 134652 283234 709234
3808.76 678546 477593 470009 563562 638570 653396
3814.54 141988 123680 674511 728627 492589 70417
3820.33-83568 146424 344348 261921 280884 310331
3826.11 235284 237658 52442-34391-188004-345921
3831.90-165795-198204-414585-356588-589183-1079213
3837.68-701903-414657-544912-492790-536859-627816
3843.47-491502-526507-539316-332021-214898-259282
3849.25-252617-685421-1039396-1065560-1477706-802566
3855.04-288223-407849-218009-90552-153955-305743
3860.83-270508-206633-286270-451961-432597-225000
3866.61-195198-378122-759278-820662-418729-288997
3872.40-414264-477272-229611-163918-261709-231836
3878.18-427046-610482-474620-410384-312680-82352
3883.97-279393-512030-256390-72015-113272-81919
3889.75-175926-213821 23536 153309 133089 167833
3895.54 266548 362756 211144 90728 169272 112037
3901.32 135828 255383 242273 261341 254346 267214
3907.11 350471 211248 38123 89971 90011 90746
3912.89 157463 61117-49738-87539-159423-284338
3918.68-460859-427524-195310-207767-299442-226175
3924.47-90945-28249 5084 48273 21749 132471
3930.25 237135 131594 119753 307241 381096 257143
3936.04 381615 406702 350186 442596 538406 452565
3941.82 278974 509395 686093 574621 617365 818967
3947.61 759729 586905 538438 626588 788543 935736
3953.39 849442 595038 724271 1049827 927510 886284
3959.18 918255 665230 570333 679108 723763 557397
3964.96 381883 306322 324223 313677 212420 85005
3970.75 45947 17427-134325-143501
##END=
