##TITLE=ETHENE, 1,1,2-TRICHLORO-
##JCAMP-DX=4.24
##DATA TYPE=INFRARED SPECTRUM
##CLASS=COBLENTZ III
##ORIGIN=STANDARD OIL OF OHIO
##OWNER=COBLENTZ SOCIETY
Collection (C) 2018 copyright by the U.S. Secretary of Commerce
on behalf of the United States of America. All rights reserved.
##DATE=1976/12/09
##NAMES=1,1,2-trichloroethylene
TRICHLOROETHYLENE
##CAS REGISTRY NO=79-01-6
##MOLFORM=C2 H Cl3
##SOURCE REFERENCE=COBLENTZ NO. 10035
##$NIST SOURCE=COBLENTZ
##$NIST IMAGE=cob10035
##SPECTROMETER/DATA SYSTEM=PERKIN-ELMER 180 (GRATING)
##INSTRUMENT PARAMETERS=GRATING CHANGES AT 2000, 1000, 500, 250 CM^-^1
##STATE=LIQUID (NEAT)
##PATH LENGTH=CAPILLARY, KBr
##SAMPLING PROCEDURE=TRANSMISSION
##RESOLUTION=4
##DATA PROCESSING=DIGITIZED BY NIST FROM HARD COPY (FROM TWO SEGMENTS)
##XUNITS=1/CM
##YUNITS=TRANSMITTANCE
##XFACTOR=1.000000
##YFACTOR=1
##DELTAX=1.017813
##FIRSTX=297.201
##LASTX=3995.93
##FIRSTY=0.078
##MAXX=3995.93
##MINX=297.201
##MAXY=0.906
##MINY=0.002
##NPOINTS=3635
##XYDATA=(X++(Y..Y))
297.201000 0.0780 0.0850 0.0940 0.0970 0.1020
302.290065 0.1070 0.1100 0.1140 0.1190 0.1289
307.379131 0.1310 0.1340 0.1380 0.1480 0.1510
312.468196 0.1590 0.1610 0.1630 0.1690 0.1730
317.557261 0.1750 0.1810 0.1860 0.1910 0.1990
322.646327 0.2030 0.2090 0.2130 0.2210 0.2290
327.735392 0.2330 0.2400 0.2440 0.2560 0.2670
332.824457 0.2700 0.2780 0.2850 0.2969 0.3010
337.913523 0.3110 0.3190 0.3270 0.3350 0.3480
343.002588 0.3500 0.3580 0.3630 0.3720 0.3790
348.091653 0.3880 0.3960 0.4000 0.4100 0.4200
353.180719 0.4260 0.4310 0.4410 0.4490 0.4530
358.269784 0.4610 0.4650 0.4720 0.4790 0.4870
363.358849 0.4890 0.5049 0.5110 0.5150 0.5200
368.447915 0.5310 0.5390 0.5440 0.5500 0.5570
373.536980 0.5610 0.5660 0.5720 0.5780 0.5840
378.626045 0.5890 0.5910 0.5980 0.6030 0.6080
383.715111 0.6120 0.6200 0.6230 0.6310 0.6340
388.804176 0.6390 0.6440 0.6480 0.6500 0.6520
393.893241 0.6580 0.6590 0.6650 0.6680 0.6770
398.982307 0.6840 0.6920 0.6950 0.6990 0.7040
404.071372 0.7090 0.7120 0.7130 0.7160 0.7190
409.160437 0.7210 0.7250 0.7280 0.7340 0.7350
414.249503 0.7390 0.7410 0.7420 0.7480 0.7510
419.338568 0.7540 0.7550 0.7560 0.7580 0.7600
424.427633 0.7610 0.7630 0.7650 0.7650 0.7640
429.516699 0.7630 0.7620 0.7590 0.7530 0.7470
434.605764 0.7410 0.7360 0.7300 0.7250 0.7190
439.694829 0.7120 0.7020 0.6880 0.6341 0.5492
444.783895 0.5012 0.4512 0.3893 0.3273 0.1510
449.872960 0.1500 0.2369 0.3249 0.3280 0.3509
454.962025 0.5634 0.6168 0.6588 0.7018 0.7209
460.051091 0.7430 0.7580 0.7700 0.7800 0.7880
465.140156 0.7960 0.7980 0.8020 0.8070 0.8110
470.229221 0.8170 0.8200 0.8250 0.8290 0.8310
475.318287 0.8320 0.8360 0.8390 0.8420 0.8460
480.407352 0.8480 0.8490 0.8500 0.8520 0.8530
485.496417 0.8540 0.8560 0.8570 0.8570 0.8580
490.585483 0.8600 0.8610 0.8620 0.8620 0.8630
495.674548 0.8630 0.8640 0.8700 0.8770 0.8830
500.763613 0.8910 0.8980 0.8990 0.8990 0.8990
505.852679 0.8990 0.8990 0.8990 0.8990 0.8990
510.941744 0.8990 0.9000 0.9000 0.8990 0.8990
516.030809 0.8990 0.8990 0.9000 0.9010 0.9020
521.119875 0.9020 0.9030 0.9040 0.9040 0.9050
526.208940 0.9050 0.9050 0.9050 0.9060 0.9060
531.298005 0.9060 0.9060 0.9060 0.9050 0.9040
536.387071 0.9010 0.9010 0.9000 0.8990 0.8960
541.476136 0.8940 0.8930 0.8920 0.8920 0.8910
546.565201 0.8910 0.8920 0.8920 0.8920 0.8930
551.654267 0.8930 0.8920 0.8920 0.8910 0.8910
556.743332 0.8900 0.8890 0.8820 0.8820 0.8810
561.832397 0.8810 0.8810 0.8810 0.8810 0.8820
566.921463 0.8820 0.8820 0.8840 0.8850 0.8860
572.010528 0.8880 0.8890 0.8890 0.8900 0.8900
577.099593 0.8900 0.8890 0.8890 0.8890 0.8890
582.188659 0.8880 0.8880 0.8870 0.8870 0.8850
587.277724 0.8850 0.8830 0.8830 0.8820 0.8800
592.366789 0.8750 0.8730 0.8730 0.8720 0.8680
597.455855 0.8660 0.8630 0.8570 0.8510 0.8420
602.544920 0.8380 0.8300 0.8210 0.8110 0.8010
607.633985 0.7970 0.7820 0.7670 0.7282 0.6942
612.723051 0.6660 0.6280 0.5681 0.5321 0.4951
617.812116 0.3614 0.3022 0.2343 0.1315 0.0842
622.901181 0.0530 0.0370 0.0180 0.0180 0.0300
627.990247 0.0430 0.0460 0.1277 0.2455 0.5236
633.079312 0.5650 0.6030 0.6460 0.6819 0.7149
638.168377 0.7359 0.7519 0.7630 0.7789 0.7929
643.257443 0.7960 0.7990 0.8050 0.8100 0.8130
648.346508 0.8140 0.8150 0.8150 0.8150 0.8150
653.435573 0.8150 0.8150 0.8140 0.8140 0.8100
658.524639 0.8070 0.8060 0.8050 0.8050 0.8060
663.613704 0.8080 0.8110 0.8200 0.8290 0.8370
668.702770 0.8440 0.8490 0.8510 0.8600 0.8660
673.791835 0.8680 0.8690 0.8700 0.8710 0.8730
678.880900 0.8750 0.8760 0.8770 0.8770 0.8770
683.969966 0.8770 0.8770 0.8790 0.8790 0.8790
689.059031 0.8790 0.8780 0.8780 0.8780 0.8780
694.148096 0.8780 0.8780 0.8780 0.8780 0.8780
699.237162 0.8780 0.8780 0.8780 0.8780 0.8770
704.326227 0.8760 0.8750 0.8710 0.8700 0.8690
709.415292 0.8680 0.8680 0.8650 0.8640 0.8630
714.504358 0.8620 0.8600 0.8580 0.8560 0.8540
719.593423 0.8530 0.8500 0.8490 0.8440 0.8420
724.682488 0.8390 0.8360 0.8340 0.8330 0.8320
729.771554 0.8290 0.8280 0.8250 0.8240 0.8190
734.860619 0.8090 0.8020 0.7970 0.7920 0.7880
739.949684 0.7810 0.7730 0.7551 0.7520 0.7500
745.038750 0.7410 0.7330 0.7220 0.7150 0.6990
750.127815 0.6591 0.6251 0.5981 0.5811 0.5750
755.216880 0.5440 0.5290 0.5040 0.4930 0.4830
760.305946 0.4720 0.4451 0.4131 0.3961 0.3691
765.395011 0.3440 0.3040 0.2300 0.1661 0.1051
770.484076 0.0641 0.0341 0.0091 0.0070 0.0050
775.573142 0.0040 0.0030 0.0030 0.0040 0.0050
780.662207 0.0070 0.0130 0.0150 0.0250 0.0379
785.751272 0.0600 0.0850 0.1040 0.1290 0.1450
790.840338 0.1769 0.2039 0.2229 0.2359 0.2509
795.929403 0.2690 0.2810 0.2910 0.2960 0.3200
801.018468 0.3370 0.3520 0.3650 0.3809 0.3979
806.107534 0.4200 0.4490 0.4680 0.4810 0.4910
811.196599 0.4920 0.4910 0.4870 0.4770 0.4641
816.285664 0.4450 0.4230 0.3990 0.3680 0.3351
821.374730 0.2981 0.2621 0.2261 0.1921 0.1522
826.463795 0.1170 0.0640 0.0180 0.0080 0.0050
831.552860 0.0040 0.0040 0.0040 0.0030 0.0030
836.641926 0.0030 0.0030 0.0030 0.0030 0.0030
841.730991 0.0030 0.0040 0.0050 0.0100 0.0130
846.820056 0.0190 0.0460 0.0890 0.1310 0.1789
851.909122 0.2289 0.3088 0.3429 0.3579 0.3849
856.998187 0.4190 0.4330 0.4560 0.5010 0.5150
862.087252 0.5420 0.5570 0.5739 0.5899 0.6010
867.176318 0.6160 0.6250 0.6320 0.6390 0.6470
872.265383 0.6570 0.6610 0.6670 0.6740 0.6800
877.354448 0.6830 0.6840 0.6840 0.6840 0.6840
882.443514 0.6840 0.6830 0.6810 0.6780 0.6680
887.532579 0.6630 0.6550 0.6470 0.6320 0.6140
892.621644 0.5891 0.5641 0.5451 0.5261 0.5081
897.710710 0.4800 0.4530 0.3321 0.2321 0.2170
902.799775 0.2000 0.1811 0.1810 0.1979 0.2139
907.888840 0.2220 0.2400 0.2700 0.2700 0.2660
912.977906 0.2241 0.2051 0.1741 0.1391 0.1002
918.066971 0.0480 0.0290 0.0150 0.0060 0.0040
923.156036 0.0030 0.0020 0.0020 0.0020 0.0020
928.245102 0.0030 0.0030 0.0020 0.0020 0.0020
933.334167 0.0040 0.0070 0.0120 0.0170 0.0230
938.423232 0.0640 0.0860 0.1550 0.2040 0.2300
943.512298 0.2510 0.2839 0.3149 0.3509 0.4058
948.601363 0.4360 0.4560 0.5070 0.5270 0.5440
953.690428 0.5510 0.5630 0.5750 0.5969 0.6070
958.779494 0.6170 0.6260 0.6390 0.6490 0.6580
963.868559 0.6650 0.6720 0.6780 0.6830 0.6860
968.957624 0.6910 0.6970 0.7000 0.7020 0.7070
974.046690 0.7100 0.7110 0.7120 0.7140 0.7140
979.135755 0.7150 0.7160 0.7140 0.7120 0.7100
984.224820 0.7090 0.7080 0.7070 0.7070 0.7080
989.313886 0.7090 0.7110 0.7140 0.7190 0.7210
994.402951 0.7250 0.7290 0.7330 0.7380 0.7400
999.492016 0.7420 0.7610 0.7610 0.7600 0.7570
1004.581082 0.7520 0.7410 0.7320 0.7220 0.7110
1009.670147 0.7040 0.6960 0.6890 0.6860 0.6880
1014.759212 0.6920 0.7010 0.7150 0.7319 0.7519
1019.848278 0.7710 0.7870 0.7980 0.8080 0.8270
1024.937343 0.8310 0.8380 0.8410 0.8430 0.8480
1030.026408 0.8490 0.8510 0.8520 0.8520 0.8520
1035.115474 0.8520 0.8510 0.8500 0.8500 0.8500
1040.204539 0.8510 0.8500 0.8490 0.8480 0.8480
1045.293604 0.8480 0.8470 0.8470 0.8480 0.8480
1050.382670 0.8490 0.8510 0.8550 0.8570 0.8590
1055.471735 0.8600 0.8610 0.8640 0.8650 0.8660
1060.560800 0.8680 0.8680 0.8670 0.8670 0.8670
1065.649866 0.8670 0.8680 0.8680 0.8680 0.8670
1070.738931 0.8670 0.8660 0.8660 0.8660 0.8660
1075.827996 0.8660 0.8660 0.8660 0.8660 0.8670
1080.917062 0.8680 0.8680 0.8690 0.8700 0.8710
1086.006127 0.8710 0.8690 0.8680 0.8660 0.8660
1091.095192 0.8660 0.8650 0.8640 0.8630 0.8600
1096.184258 0.8600 0.8560 0.8510 0.8500 0.8480
1101.273323 0.8440 0.8350 0.8320 0.8310 0.8310
1106.362388 0.8310 0.8340 0.8340 0.8290 0.8300
1111.451454 0.8350 0.8370 0.8370 0.8360 0.8360
1116.540519 0.8460 0.8490 0.8490 0.8500 0.8570
1121.629584 0.8590 0.8600 0.8600 0.8600 0.8590
1126.718650 0.8590 0.8610 0.8610 0.8590 0.8580
1131.807715 0.8590 0.8590 0.8590 0.8590 0.8580
1136.896780 0.8560 0.8550 0.8540 0.8540 0.8540
1141.985846 0.8540 0.8550 0.8560 0.8580 0.8600
1147.074911 0.8640 0.8650 0.8650 0.8650 0.8660
1152.163976 0.8670 0.8660 0.8660 0.8670 0.8680
1157.253042 0.8680 0.8690 0.8700 0.8710 0.8690
1162.342107 0.8680 0.8680 0.8670 0.8660 0.8660
1167.431172 0.8660 0.8650 0.8650 0.8660 0.8660
1172.520238 0.8660 0.8650 0.8630 0.8620 0.8600
1177.609303 0.8590 0.8580 0.8570 0.8570 0.8570
1182.698368 0.8570 0.8570 0.8560 0.8560 0.8550
1187.787434 0.8540 0.8530 0.8520 0.8500 0.8480
1192.876499 0.8470 0.8460 0.8450 0.8430 0.8390
1197.965564 0.8360 0.8320 0.8300 0.8270 0.8240
1203.054630 0.8210 0.8160 0.8110 0.8030 0.8000
1208.143695 0.7980 0.7880 0.7820 0.7730 0.7650
1213.232760 0.7520 0.7410 0.7320 0.7190 0.7150
1218.321826 0.7110 0.7050 0.7010 0.6970 0.6880
1223.410891 0.6800 0.6670 0.6570 0.6450 0.6300
1228.499956 0.6160 0.5911 0.5910 0.5960 0.5960
1233.589022 0.5970 0.5960 0.5950 0.5910 0.5810
1238.678087 0.5570 0.5341 0.5101 0.4841 0.4123
1243.767152 0.3539 0.2890 0.2720 0.2250 0.2300
1248.856218 0.2550 0.2999 0.3289 0.3300 0.3539
1253.945283 0.3850 0.4000 0.4210 0.4360 0.4480
1259.034348 0.4620 0.5019 0.5459 0.6008 0.6319
1264.123414 0.6660 0.6910 0.7080 0.7350 0.7510
1269.212479 0.7610 0.7680 0.7800 0.7870 0.7970
1274.301544 0.7980 0.8000 0.8050 0.8080 0.8110
1279.390610 0.8190 0.8210 0.8230 0.8240 0.8250
1284.479675 0.8280 0.8280 0.8290 0.8300 0.8310
1289.568740 0.8320 0.8330 0.8330 0.8350 0.8360
1294.657806 0.8360 0.8370 0.8380 0.8370 0.8370
1299.746871 0.8360 0.8360 0.8340 0.8320 0.8300
1304.835936 0.8280 0.8260 0.8250 0.8210 0.8190
1309.925002 0.8160 0.8100 0.8100 0.8150 0.8170
1315.014067 0.8180 0.8190 0.8220 0.8250 0.8300
1320.103132 0.8320 0.8380 0.8390 0.8470 0.8500
1325.192198 0.8510 0.8520 0.8520 0.8520 0.8540
1330.281263 0.8550 0.8560 0.8570 0.8570 0.8580
1335.370328 0.8580 0.8570 0.8580 0.8580 0.8580
1340.459394 0.8580 0.8580 0.8580 0.8590 0.8590
1345.548459 0.8590 0.8600 0.8600 0.8600 0.8590
1350.637524 0.8590 0.8580 0.8580 0.8580 0.8580
1355.726590 0.8560 0.8550 0.8540 0.8530 0.8530
1360.815655 0.8530 0.8520 0.8520 0.8510 0.8500
1365.904720 0.8490 0.8480 0.8480 0.8460 0.8460
1370.993786 0.8450 0.8430 0.8410 0.8410 0.8420
1376.082851 0.8430 0.8440 0.8450 0.8450 0.8460
1381.171917 0.8480 0.8490 0.8490 0.8490 0.8490
1386.260982 0.8500 0.8510 0.8550 0.8560 0.8560
1391.350047 0.8540 0.8530 0.8520 0.8520 0.8510
1396.439113 0.8510 0.8500 0.8500 0.8500 0.8490
1401.528178 0.8470 0.8450 0.8430 0.8410 0.8400
1406.617243 0.8390 0.8390 0.8390 0.8400 0.8400
1411.706309 0.8410 0.8430 0.8450 0.8450 0.8450
1416.795374 0.8470 0.8480 0.8490 0.8490 0.8460
1421.884439 0.8460 0.8440 0.8420 0.8410 0.8400
1426.973505 0.8400 0.8380 0.8380 0.8380 0.8390
1432.062570 0.8400 0.8410 0.8440 0.8450 0.8470
1437.151635 0.8470 0.8480 0.8490 0.8500 0.8500
1442.240701 0.8490 0.8460 0.8460 0.8460 0.8450
1447.329766 0.8460 0.8470 0.8480 0.8490 0.8490
1452.418831 0.8480 0.8480 0.8440 0.8420 0.8400
1457.507897 0.8400 0.8390 0.8390 0.8390 0.8410
1462.596962 0.8410 0.8390 0.8370 0.8360 0.8370
1467.686027 0.8390 0.8390 0.8410 0.8420 0.8440
1472.775093 0.8460 0.8470 0.8480 0.8480 0.8480
1477.864158 0.8470 0.8460 0.8450 0.8430 0.8400
1482.953223 0.8410 0.8420 0.8440 0.8480 0.8500
1488.042289 0.8500 0.8500 0.8500 0.8510 0.8510
1493.131354 0.8520 0.8520 0.8520 0.8510 0.8510
1498.220419 0.8500 0.8500 0.8480 0.8470 0.8470
1503.309485 0.8450 0.8450 0.8430 0.8420 0.8420
1508.398550 0.8410 0.8400 0.8400 0.8390 0.8370
1513.487615 0.8370 0.8360 0.8350 0.8340 0.8310
1518.576681 0.8300 0.8280 0.8260 0.8210 0.8160
1523.665746 0.8140 0.8110 0.8050 0.8000 0.7980
1528.754811 0.7910 0.7840 0.7800 0.7710 0.7600
1533.843877 0.7540 0.7400 0.7310 0.7180 0.7070
1538.932942 0.6950 0.6760 0.6610 0.6390 0.6130
1544.022007 0.5980 0.5760 0.5471 0.5261 0.5041
1549.111073 0.4840 0.4650 0.4420 0.4210 0.4050
1554.200138 0.3890 0.3770 0.3640 0.3520 0.3470
1559.289203 0.3450 0.3450 0.3480 0.3600 0.3680
1564.378269 0.3780 0.3990 0.4080 0.4200 0.4300
1569.467334 0.4400 0.4490 0.4570 0.4580 0.4540
1574.556399 0.4490 0.4271 0.4091 0.3851 0.3591
1579.645465 0.3210 0.3040 0.2540 0.1860 0.1490
1584.734530 0.0981 0.0980 0.1369 0.1400 0.1798
1589.823595 0.1982 0.3392 0.5020 0.5520 0.6040
1594.912661 0.6350 0.6689 0.6949 0.7119 0.7299
1600.001726 0.7520 0.7550 0.7630 0.7730 0.7830
1605.090791 0.7870 0.7910 0.7930 0.8000 0.8040
1610.179857 0.8080 0.8100 0.8140 0.8180 0.8190
1615.268922 0.8210 0.8220 0.8230 0.8240 0.8250
1620.357987 0.8250 0.8250 0.8270 0.8290 0.8300
1625.447053 0.8300 0.8310 0.8310 0.8320 0.8330
1630.536118 0.8340 0.8350 0.8370 0.8380 0.8380
1635.625183 0.8380 0.8380 0.8390 0.8410 0.8410
1640.714249 0.8400 0.8400 0.8400 0.8400 0.8410
1645.803314 0.8420 0.8420 0.8430 0.8440 0.8450
1650.892379 0.8450 0.8450 0.8460 0.8460 0.8470
1655.981445 0.8470 0.8460 0.8460 0.8450 0.8450
1661.070510 0.8440 0.8440 0.8440 0.8440 0.8440
1666.159575 0.8440 0.8430 0.8420 0.8410 0.8410
1671.248641 0.8400 0.8390 0.8380 0.8380 0.8380
1676.337706 0.8370 0.8360 0.8360 0.8360 0.8360
1681.426771 0.8370 0.8380 0.8380 0.8390 0.8410
1686.515837 0.8420 0.8420 0.8430 0.8440 0.8440
1691.604902 0.8480 0.8490 0.8480 0.8460 0.8450
1696.693967 0.8460 0.8480 0.8480 0.8480 0.8510
1701.783033 0.8510 0.8490 0.8470 0.8460 0.8460
1706.872098 0.8460 0.8460 0.8480 0.8480 0.8480
1711.961163 0.8480 0.8480 0.8460 0.8460 0.8450
1717.050229 0.8450 0.8450 0.8450 0.8460 0.8470
1722.139294 0.8470 0.8470 0.8460 0.8450 0.8420
1727.228359 0.8390 0.8380 0.8370 0.8350 0.8320
1732.317425 0.8270 0.8250 0.8230 0.8190 0.8180
1737.406490 0.8170 0.8160 0.8160 0.8160 0.8180
1742.495555 0.8200 0.8220 0.8230 0.8250 0.8280
1747.584621 0.8290 0.8290 0.8290 0.8310 0.8320
1752.673686 0.8310 0.8300 0.8290 0.8290 0.8280
1757.762751 0.8260 0.8250 0.8240 0.8240 0.8240
1762.851817 0.8250 0.8250 0.8260 0.8270 0.8280
1767.940882 0.8290 0.8290 0.8290 0.8270 0.8270
1773.029947 0.8320 0.8320 0.8330 0.8340 0.8340
1778.119013 0.8380 0.8380 0.8390 0.8390 0.8390
1783.208078 0.8390 0.8380 0.8370 0.8350 0.8340
1788.297143 0.8320 0.8310 0.8290 0.8280 0.8280
1793.386209 0.8270 0.8260 0.8260 0.8270 0.8280
1798.475274 0.8290 0.8300 0.8310 0.8320 0.8350
1803.564339 0.8370 0.8400 0.8420 0.8420 0.8420
1808.653405 0.8430 0.8440 0.8450 0.8460 0.8470
1813.742470 0.8470 0.8470 0.8470 0.8480 0.8480
1818.831535 0.8480 0.8480 0.8480 0.8480 0.8480
1823.920601 0.8480 0.8480 0.8480 0.8480 0.8470
1829.009666 0.8450 0.8450 0.8450 0.8430 0.8430
1834.098731 0.8420 0.8400 0.8390 0.8390 0.8390
1839.187797 0.8390 0.8390 0.8400 0.8400 0.8390
1844.276862 0.8380 0.8340 0.8330 0.8320 0.8310
1849.365927 0.8290 0.8250 0.8200 0.8150 0.8100
1854.454993 0.8050 0.8040 0.8030 0.8030 0.8030
1859.544058 0.8040 0.8060 0.8080 0.8110 0.8190
1864.633123 0.8200 0.8250 0.8300 0.8350 0.8370
1869.722189 0.8370 0.8370 0.8370 0.8380 0.8380
1874.811254 0.8390 0.8400 0.8400 0.8410 0.8410
1879.900319 0.8410 0.8410 0.8410 0.8430 0.8440
1884.989385 0.8440 0.8440 0.8430 0.8430 0.8430
1890.078450 0.8440 0.8480 0.8490 0.8480 0.8460
1895.167515 0.8450 0.8450 0.8450 0.8480 0.8480
1900.256581 0.8490 0.8490 0.8490 0.8490 0.8480
1905.345646 0.8480 0.8480 0.8480 0.8480 0.8480
1910.434711 0.8470 0.8460 0.8450 0.8440 0.8440
1915.523777 0.8440 0.8440 0.8450 0.8480 0.8480
1920.612842 0.8480 0.8490 0.8490 0.8460 0.8470
1925.701907 0.8470 0.8470 0.8470 0.8470 0.8470
1930.790973 0.8460 0.8460 0.8460 0.8480 0.8480
1935.880038 0.8480 0.8480 0.8480 0.8450 0.8440
1940.969103 0.8440 0.8440 0.8440 0.8440 0.8440
1946.058169 0.8440 0.8440 0.8440 0.8440 0.8440
1951.147234 0.8440 0.8440 0.8440 0.8440 0.8440
1956.236299 0.8440 0.8450 0.8450 0.8450 0.8440
1961.325365 0.8430 0.8420 0.8410 0.8410 0.8400
1966.414430 0.8400 0.8400 0.8400 0.8400 0.8400
1971.503495 0.8400 0.8410 0.8440 0.8450 0.8450
1976.592561 0.8450 0.8450 0.8450 0.8440 0.8440
1981.681626 0.8440 0.8450 0.8450 0.8450 0.8450
1986.770691 0.8450 0.8450 0.8440 0.8440 0.8430
1991.859757 0.8420 0.8420 0.8420 0.8430 0.8430
1996.948822 0.8440 0.8450 0.8460 0.8460 0.8465
2002.037887 0.8470 0.8475 0.8480 0.8495 0.8510
2007.126953 0.8520 0.8530 0.8535 0.8540 0.8540
2012.216018 0.8540 0.8530 0.8520 0.8510 0.8500
2017.305083 0.8500 0.8500 0.8495 0.8490 0.8490
2022.394149 0.8490 0.8485 0.8480 0.8475 0.8470
2027.483214 0.8470 0.8470 0.8460 0.8450 0.8450
2032.572279 0.8450 0.8460 0.8470 0.8480 0.8490
2037.661345 0.8495 0.8500 0.8505 0.8510 0.8515
2042.750410 0.8519 0.8509 0.8500 0.8495 0.8490
2047.839475 0.8485 0.8480 0.8480 0.8480 0.8480
2052.928541 0.8480 0.8475 0.8470 0.8470 0.8469
2058.017606 0.8459 0.8450 0.8445 0.8440 0.8445
2063.106671 0.8450 0.8455 0.8460 0.8460 0.8460
2068.195737 0.8455 0.8450 0.8445 0.8438 0.8418
2073.284802 0.8400 0.8395 0.8390 0.8384 0.8379
2078.373867 0.8374 0.8369 0.8359 0.8347 0.8322
2083.462933 0.8300 0.8300 0.8302 0.8317 0.8330
2088.551998 0.8330 0.8331 0.8336 0.8344 0.8374
2093.641064 0.8401 0.8406 0.8412 0.8427 0.8441
2098.730129 0.8446 0.8450 0.8450 0.8450 0.8450
2103.819194 0.8451 0.8456 0.8462 0.8472 0.8480
2108.908260 0.8480 0.8481 0.8486 0.8492 0.8507
2113.997325 0.8520 0.8520 0.8518 0.8508 0.8500
2119.086390 0.8500 0.8500 0.8500 0.8500 0.8500
2124.175456 0.8500 0.8500 0.8500 0.8500 0.8500
2129.264521 0.8500 0.8501 0.8506 0.8509 0.8504
2134.353586 0.8499 0.8494 0.8489 0.8484 0.8479
2139.442652 0.8474 0.8471 0.8476 0.8481 0.8486
2144.531717 0.8488 0.8478 0.8469 0.8464 0.8460
2149.620782 0.8460 0.8457 0.8442 0.8430 0.8430
2154.709848 0.8436 0.8461 0.8480 0.8480 0.8480
2159.798913 0.8480 0.8478 0.8468 0.8458 0.8448
2164.887978 0.8439 0.8434 0.8429 0.8424 0.8420
2169.977044 0.8420 0.8419 0.8414 0.8407 0.8397
2175.066109 0.8389 0.8384 0.8383 0.8393 0.8401
2180.155174 0.8406 0.8410 0.8410 0.8407 0.8397
2185.244240 0.8390 0.8390 0.8391 0.8396 0.8401
2190.333305 0.8406 0.8411 0.8416 0.8421 0.8426
2195.422370 0.8430 0.8430 0.8431 0.8436 0.8440
2200.511436 0.8440 0.8437 0.8427 0.8417 0.8407
2205.600501 0.8398 0.8393 0.8384 0.8364 0.8348
2210.689566 0.8343 0.8342 0.8347 0.8356 0.8376
2215.778632 0.8395 0.8410 0.8422 0.8427 0.8430
2220.867697 0.8430 0.8432 0.8437 0.8440 0.8440
2225.956762 0.8442 0.8447 0.8453 0.8463 0.8470
2231.045828 0.8470 0.8467 0.8457 0.8450 0.8450
2236.134893 0.8450 0.8450 0.8448 0.8443 0.8440
2241.223958 0.8440 0.8447 0.8467 0.8480 0.8480
2246.313024 0.8478 0.8473 0.8470 0.8470 0.8468
2251.402089 0.8463 0.8462 0.8467 0.8470 0.8470
2256.491154 0.8468 0.8463 0.8458 0.8453 0.8446
2261.580220 0.8436 0.8430 0.8430 0.8434 0.8444
2266.669285 0.8454 0.8464 0.8472 0.8477 0.8480
2271.758350 0.8480 0.8478 0.8473 0.8466 0.8456
2276.847416 0.8448 0.8443 0.8440 0.8440 0.8440
2281.936481 0.8440 0.8438 0.8433 0.8426 0.8416
2287.025546 0.8408 0.8403 0.8400 0.8400 0.8398
2292.114612 0.8393 0.8390 0.8390 0.8388 0.8383
2297.203677 0.8380 0.8380 0.8380 0.8380 0.8380
2302.292742 0.8380 0.8380 0.8380 0.8389 0.8409
2307.381808 0.8420 0.8420 0.8415 0.8405 0.8398
2312.470873 0.8393 0.8392 0.8397 0.8400 0.8400
2317.559938 0.8400 0.8400 0.8400 0.8400 0.8400
2322.649004 0.8400 0.8400 0.8400 0.8402 0.8407
2327.738069 0.8410 0.8410 0.8410 0.8410 0.8415
2332.827134 0.8425 0.8430 0.8430 0.8428 0.8423
2337.916200 0.8415 0.8405 0.8400 0.8400 0.8395
2343.005265 0.8385 0.8380 0.8380 0.8388 0.8403
2348.094330 0.8410 0.8410 0.8410 0.8410 0.8407
2353.183396 0.8402 0.8400 0.8400 0.8397 0.8392
2358.272461 0.8390 0.8390 0.8387 0.8382 0.8380
2363.361526 0.8380 0.8383 0.8388 0.8390 0.8390
2368.450592 0.8396 0.8406 0.8410 0.8410 0.8407
2373.539657 0.8402 0.8397 0.8392 0.8384 0.8374
2378.628722 0.8370 0.8370 0.8364 0.8354 0.8350
2383.717788 0.8350 0.8356 0.8366 0.8370 0.8370
2388.806853 0.8370 0.8370 0.8367 0.8362 0.8360
2393.895918 0.8360 0.8360 0.8360 0.8357 0.8352
2398.984984 0.8350 0.8350 0.8347 0.8342 0.8337
2404.074049 0.8332 0.8327 0.8322 0.8317 0.8312
2409.163114 0.8307 0.8302 0.8297 0.8292 0.8284
2414.252180 0.8274 0.8270 0.8270 0.8267 0.8262
2419.341245 0.8263 0.8268 0.8276 0.8286 0.8296
2424.430310 0.8306 0.8316 0.8326 0.8330 0.8330
2429.519376 0.8330 0.8330 0.8333 0.8338 0.8340
2434.608441 0.8340 0.8337 0.8332 0.8330 0.8330
2439.697506 0.8327 0.8322 0.8317 0.8312 0.8307
2444.786572 0.8302 0.8300 0.8300 0.8300 0.8300
2449.875637 0.8297 0.8292 0.8283 0.8273 0.8263
2454.964702 0.8253 0.8247 0.8242 0.8233 0.8223
2460.053768 0.8217 0.8212 0.8196 0.8176 0.8160
2465.142833 0.8145 0.8126 0.8106 0.8093 0.8083
2470.231898 0.8076 0.8071 0.8063 0.8053 0.8046
2475.320964 0.8041 0.8051 0.8066 0.8077 0.8087
2480.410029 0.8094 0.8099 0.8111 0.8126 0.8137
2485.499094 0.8147 0.8150 0.8150 0.8150 0.8150
2490.588160 0.8150 0.8150 0.8146 0.8141 0.8140
2495.677225 0.8140 0.8125 0.8105 0.8096 0.8091
2500.766290 0.8086 0.8081 0.8084 0.8089 0.8094
2505.855356 0.8099 0.8119 0.8144 0.8158 0.8168
2510.944421 0.8174 0.8179 0.8188 0.8198 0.8208
2516.033486 0.8218 0.8228 0.8238 0.8244 0.8249
2521.122552 0.8250 0.8250 0.8254 0.8259 0.8268
2526.211617 0.8278 0.8284 0.8289 0.8290 0.8290
2531.300682 0.8294 0.8299 0.8300 0.8300 0.8300
2536.389748 0.8300 0.8304 0.8309 0.8318 0.8328
2541.478813 0.8330 0.8330 0.8322 0.8312 0.8310
2546.567878 0.8310 0.8310 0.8310 0.8310 0.8310
2551.656944 0.8310 0.8310 0.8310 0.8310 0.8310
2556.746009 0.8310 0.8306 0.8301 0.8296 0.8291
2561.835074 0.8290 0.8290 0.8298 0.8308 0.8314
2566.924140 0.8319 0.8320 0.8320 0.8320 0.8320
2572.013205 0.8320 0.8320 0.8311 0.8301 0.8296
2577.102270 0.8291 0.8290 0.8290 0.8290 0.8290
2582.191336 0.8299 0.8309 0.8323 0.8338 0.8340
2587.280401 0.8340 0.8327 0.8312 0.8306 0.8301
2592.369466 0.8300 0.8300 0.8300 0.8300 0.8300
2597.458532 0.8300 0.8300 0.8300 0.8304 0.8309
2602.547597 0.8310 0.8310 0.8306 0.8301 0.8296
2607.636662 0.8291 0.8290 0.8290 0.8281 0.8271
2612.725728 0.8270 0.8270 0.8279 0.8289 0.8290
2617.814793 0.8290 0.8285 0.8280 0.8280 0.8280
2622.903858 0.8275 0.8270 0.8279 0.8289 0.8290
2627.992924 0.8290 0.8290 0.8290 0.8290 0.8290
2633.081989 0.8290 0.8290 0.8290 0.8290 0.8290
2638.171054 0.8290 0.8290 0.8290 0.8290 0.8290
2643.260120 0.8285 0.8280 0.8285 0.8290 0.8290
2648.349185 0.8290 0.8285 0.8280 0.8280 0.8280
2653.438250 0.8285 0.8290 0.8290 0.8290 0.8295
2658.527316 0.8300 0.8300 0.8300 0.8300 0.8300
2663.616381 0.8300 0.8300 0.8300 0.8300 0.8300
2668.705446 0.8300 0.8300 0.8300 0.8300 0.8300
2673.794512 0.8300 0.8300 0.8300 0.8300 0.8290
2678.883577 0.8280 0.8280 0.8280 0.8280 0.8280
2683.972642 0.8275 0.8270 0.8270 0.8270 0.8265
2689.061708 0.8260 0.8255 0.8250 0.8255 0.8260
2694.150773 0.8265 0.8270 0.8270 0.8270 0.8275
2699.239838 0.8280 0.8280 0.8280 0.8280 0.8280
2704.328904 0.8280 0.8280 0.8275 0.8270 0.8270
2709.417969 0.8270 0.8270 0.8270 0.8265 0.8260
2714.507034 0.8260 0.8260 0.8265 0.8270 0.8275
2719.596100 0.8280 0.8285 0.8290 0.8290 0.8290
2724.685165 0.8290 0.8290 0.8290 0.8289 0.8274
2729.774230 0.8260 0.8265 0.8271 0.8276 0.8281
2734.863296 0.8286 0.8290 0.8290 0.8290 0.8290
2739.952361 0.8290 0.8290 0.8290 0.8290 0.8290
2745.041426 0.8290 0.8289 0.8279 0.8269 0.8264
2750.130492 0.8260 0.8260 0.8260 0.8260 0.8260
2755.219557 0.8260 0.8260 0.8260 0.8260 0.8260
2760.308622 0.8261 0.8266 0.8270 0.8270 0.8269
2765.397688 0.8259 0.8249 0.8239 0.8230 0.8230
2770.486753 0.8230 0.8230 0.8229 0.8224 0.8219
2775.575818 0.8214 0.8209 0.8204 0.8199 0.8194
2780.664884 0.8190 0.8190 0.8187 0.8172 0.8159
2785.753949 0.8154 0.8149 0.8144 0.8139 0.8134
2790.843014 0.8127 0.8112 0.8098 0.8088 0.8076
2795.932080 0.8056 0.8036 0.8016 0.7997 0.7982
2801.021145 0.7966 0.7946 0.7926 0.7906 0.7887
2806.110211 0.7872 0.7859 0.7854 0.7849 0.7844
2811.199276 0.7835 0.7810 0.7787 0.7772 0.7759
2816.288341 0.7754 0.7741 0.7701 0.7661 0.7621
2821.377407 0.7590 0.7590 0.7616 0.7731 0.7822
2826.466472 0.7832 0.7843 0.7858 0.7877 0.7907
2831.555537 0.7937 0.7967 0.7991 0.7996 0.8005
2836.644603 0.8025 0.8043 0.8053 0.8060 0.8060
2841.733668 0.8063 0.8073 0.8083 0.8093 0.8104
2846.822733 0.8119 0.8133 0.8143 0.8150 0.8150
2851.911799 0.8151 0.8156 0.8160 0.8160 0.8160
2857.000864 0.8160 0.8160 0.8160 0.8160 0.8160
2862.089929 0.8160 0.8160 0.8159 0.8154 0.8149
2867.178995 0.8144 0.8139 0.8134 0.8127 0.8117
2872.268060 0.8109 0.8103 0.8100 0.8100 0.8100
2877.357125 0.8100 0.8098 0.8093 0.8090 0.8090
2882.446191 0.8090 0.8090 0.8088 0.8083 0.8080
2887.535256 0.8080 0.8088 0.8113 0.8132 0.8137
2892.624321 0.8140 0.8140 0.8138 0.8133 0.8127
2897.713387 0.8117 0.8108 0.8103 0.8098 0.8093
2902.802452 0.8088 0.8083 0.8075 0.8060 0.8050
2907.891517 0.8050 0.8046 0.8036 0.8028 0.8023
2912.980583 0.8016 0.8006 0.7998 0.7993 0.7986
2918.069648 0.7976 0.7970 0.7970 0.7968 0.7963
2923.158713 0.7958 0.7953 0.7950 0.7950 0.7950
2928.247779 0.7950 0.7950 0.7950 0.7952 0.7957
2933.336844 0.7962 0.7967 0.7970 0.7970 0.7974
2938.425909 0.7984 0.7992 0.7997 0.8002 0.8007
2943.514975 0.8010 0.8010 0.8010 0.8010 0.8010
2948.604040 0.8010 0.8008 0.8003 0.8000 0.8000
2953.693105 0.7998 0.7993 0.7990 0.7990 0.7983
2958.782171 0.7968 0.7949 0.7924 0.7903 0.7888
2963.871236 0.7878 0.7873 0.7868 0.7863 0.7856
2968.960301 0.7846 0.7840 0.7840 0.7838 0.7833
2974.049367 0.7830 0.7830 0.7832 0.7837 0.7842
2979.138432 0.7847 0.7852 0.7857 0.7865 0.7875
2984.227497 0.7882 0.7887 0.7892 0.7897 0.7905
2989.316563 0.7915 0.7925 0.7935 0.7945 0.7955
2994.405628 0.7965 0.7975 0.7982 0.7987 0.7992
2999.494693 0.7998 0.8003 0.8007 0.8010 0.8010
3004.583759 0.8010 0.8010 0.8013 0.8018 0.8020
3009.672824 0.8020 0.8020 0.8020 0.8017 0.8012
3014.761889 0.8010 0.8010 0.8007 0.8002 0.7997
3019.850955 0.7992 0.7987 0.7982 0.7975 0.7965
3024.940020 0.7955 0.7945 0.7935 0.7925 0.7917
3030.029085 0.7912 0.7905 0.7895 0.7882 0.7867
3035.118151 0.7852 0.7837 0.7824 0.7814 0.7796
3040.207216 0.7771 0.7746 0.7721 0.7690 0.7655
3045.296281 0.7615 0.7570 0.7542 0.7527 0.7489
3050.385347 0.7434 0.7379 0.7324 0.7269 0.7214
3055.474412 0.7153 0.7087 0.7025 0.6965 0.6896
3060.563477 0.6821 0.6660 0.6440 0.6184 0.5904
3065.652543 0.5731 0.5631 0.5424 0.5144 0.4857
3070.741608 0.4567 0.4215 0.3819 0.3054 0.2039
3075.830673 0.1482 0.1234 0.0988 0.0743 0.0498
3080.919739 0.0253 0.0160 0.0160 0.0288 0.0493
3086.008804 0.0701 0.0911 0.1237 0.1632 0.1915
3091.097869 0.2130 0.2407 0.2723 0.3138 0.3613
3096.186935 0.3850 0.3946 0.4126 0.4351 0.4788
3101.276000 0.5339 0.5657 0.5852 0.5943 0.5978
3106.365065 0.6033 0.6098 0.6127 0.6137 0.6183
3111.454131 0.6248 0.6313 0.6378 0.6443 0.6508
3116.543196 0.6550 0.6580 0.6610 0.6640 0.6681
3121.632261 0.6726 0.6771 0.6816 0.6837 0.6847
3126.721327 0.6850 0.6850 0.6850 0.6850 0.6850
3131.810392 0.6850 0.6850 0.6850 0.6847 0.6842
3136.899457 0.6830 0.6814 0.6806 0.6801 0.6768
3141.988523 0.6723 0.6678 0.6633 0.6584 0.6534
3147.077588 0.6488 0.6443 0.6387 0.6327 0.6263
3152.166653 0.6198 0.6122 0.6042 0.5905 0.5745
3157.255719 0.5613 0.5491 0.5453 0.5443 0.5522
3162.344784 0.5632 0.5969 0.6384 0.6550 0.6630
3167.433849 0.6743 0.6868 0.7012 0.7162 0.7267
3172.522915 0.7357 0.7429 0.7494 0.7544 0.7589
3177.611980 0.7627 0.7662 0.7682 0.7697 0.7715
3182.701045 0.7735 0.7744 0.7749 0.7769 0.7794
3187.790111 0.7812 0.7827 0.7853 0.7883 0.7890
3192.879176 0.7890 0.7894 0.7899 0.7900 0.7900
3197.968241 0.7908 0.7918 0.7924 0.7929 0.7946
3203.057307 0.7966 0.7974 0.7979 0.7980 0.7980
3208.146372 0.7984 0.7989 0.7994 0.7999 0.8000
3213.235437 0.8000 0.8004 0.8009 0.8010 0.8010
3218.324503 0.8010 0.8010 0.8014 0.8019 0.8020
3223.413568 0.8020 0.8016 0.8011 0.8010 0.8010
3228.502633 0.8010 0.8010 0.8010 0.8010 0.8010
3233.591699 0.8010 0.8010 0.8010 0.8010 0.8010
3238.680764 0.8010 0.8010 0.8010 0.8010 0.8010
3243.769829 0.8010 0.8006 0.8001 0.8000 0.8000
3248.858895 0.8000 0.8000 0.8000 0.8000 0.8000
3253.947960 0.8000 0.8000 0.8000 0.8004 0.8009
3259.037025 0.8010 0.8010 0.8010 0.8010 0.8014
3264.126091 0.8019 0.8024 0.8029 0.8034 0.8039
3269.215156 0.8044 0.8049 0.8045 0.8040 0.8040
3274.304221 0.8040 0.8049 0.8059 0.8060 0.8060
3279.393287 0.8060 0.8060 0.8060 0.8060 0.8060
3284.482352 0.8060 0.8060 0.8060 0.8055 0.8050
3289.571417 0.8055 0.8060 0.8060 0.8060 0.8065
3294.660483 0.8070 0.8070 0.8070 0.8075 0.8080
3299.749548 0.8080 0.8080 0.8075 0.8070 0.8070
3304.838613 0.8070 0.8070 0.8070 0.8070 0.8070
3309.927679 0.8065 0.8060 0.8065 0.8070 0.8075
3315.016744 0.8080 0.8080 0.8080 0.8080 0.8080
3320.105809 0.8080 0.8080 0.8080 0.8080 0.8080
3325.194875 0.8080 0.8080 0.8080 0.8075 0.8070
3330.283940 0.8070 0.8070 0.8065 0.8060 0.8055
3335.373005 0.8050 0.8045 0.8040 0.8040 0.8040
3340.462071 0.8040 0.8040 0.8040 0.8040 0.8045
3345.551136 0.8050 0.8050 0.8050 0.8055 0.8060
3350.640201 0.8060 0.8060 0.8060 0.8060 0.8065
3355.729267 0.8070 0.8070 0.8070 0.8070 0.8070
3360.818332 0.8070 0.8070 0.8075 0.8080 0.8080
3365.907397 0.8080 0.8085 0.8090 0.8085 0.8080
3370.996463 0.8080 0.8079 0.8069 0.8060 0.8060
3376.085528 0.8060 0.8060 0.8060 0.8060 0.8060
3381.174593 0.8060 0.8060 0.8060 0.8060 0.8055
3386.263659 0.8050 0.8045 0.8040 0.8040 0.8040
3391.352724 0.8045 0.8051 0.8066 0.8080 0.8080
3396.441789 0.8080 0.8085 0.8090 0.8095 0.8100
3401.530855 0.8100 0.8099 0.8094 0.8089 0.8079
3406.619920 0.8070 0.8070 0.8070 0.8070 0.8069
3411.708985 0.8064 0.8060 0.8060 0.8060 0.8060
3416.798051 0.8062 0.8082 0.8100 0.8100 0.8097
3421.887116 0.8072 0.8050 0.8050 0.8051 0.8056
3426.976181 0.8060 0.8060 0.8060 0.8060 0.8061
3432.065247 0.8071 0.8081 0.8086 0.8089 0.8084
3437.154312 0.8077 0.8057 0.8040 0.8040 0.8039
3442.243377 0.8034 0.8030 0.8030 0.8033 0.8048
3447.332443 0.8059 0.8054 0.8050 0.8050 0.8049
3452.421508 0.8044 0.8040 0.8040 0.8039 0.8034
3457.510573 0.8030 0.8030 0.8030 0.8030 0.8030
3462.599639 0.8030 0.8030 0.8030 0.8030 0.8030
3467.688704 0.8031 0.8036 0.8040 0.8040 0.8041
3472.777769 0.8046 0.8050 0.8050 0.8050 0.8050
3477.866835 0.8050 0.8050 0.8051 0.8056 0.8061
3482.955900 0.8066 0.8070 0.8070 0.8070 0.8070
3488.044965 0.8070 0.8070 0.8071 0.8076 0.8080
3493.134031 0.8080 0.8080 0.8080 0.8080 0.8080
3498.223096 0.8080 0.8080 0.8081 0.8086 0.8090
3503.312161 0.8090 0.8090 0.8090 0.8090 0.8090
3508.401227 0.8090 0.8090 0.8090 0.8090 0.8090
3513.490292 0.8090 0.8090 0.8090 0.8090 0.8090
3518.579358 0.8089 0.8084 0.8080 0.8080 0.8079
3523.668423 0.8074 0.8069 0.8064 0.8057 0.8047
3528.757488 0.8039 0.8034 0.8030 0.8030 0.8030
3533.846554 0.8030 0.8030 0.8030 0.8031 0.8036
3538.935619 0.8041 0.8046 0.8052 0.8056 0.8062
3544.024684 0.8067 0.8072 0.8077 0.8080 0.8080
3549.113750 0.8080 0.8080 0.8080 0.8080 0.8080
3554.202815 0.8080 0.8077 0.8067 0.8060 0.8060
3559.291880 0.8062 0.8067 0.8073 0.8083 0.8092
3564.380946 0.8097 0.8096 0.8086 0.8080 0.8080
3569.470011 0.8078 0.8073 0.8070 0.8070 0.8070
3574.559076 0.8070 0.8068 0.8063 0.8065 0.8080
3579.648142 0.8092 0.8097 0.8100 0.8100 0.8095
3584.737207 0.8079 0.8070 0.8070 0.8070 0.8070
3589.826272 0.8070 0.8070 0.8070 0.8070 0.8070
3594.915338 0.8070 0.8068 0.8063 0.8060 0.8060
3600.004403 0.8064 0.8074 0.8086 0.8101 0.8114
3605.093468 0.8124 0.8130 0.8130 0.8124 0.8109
3610.182534 0.8102 0.8107 0.8110 0.8110 0.8108
3615.271599 0.8103 0.8098 0.8093 0.8086 0.8076
3620.360664 0.8070 0.8070 0.8076 0.8091 0.8102
3625.449730 0.8107 0.8110 0.8110 0.8114 0.8124
3630.538795 0.8130 0.8130 0.8123 0.8108 0.8098
3635.627860 0.8093 0.8092 0.8097 0.8100 0.8100
3640.716926 0.8102 0.8107 0.8110 0.8110 0.8108
3645.805991 0.8103 0.8100 0.8100 0.8100 0.8100
3650.895056 0.8102 0.8107 0.8108 0.8103 0.8100
3655.984122 0.8100 0.8100 0.8100 0.8100 0.8100
3661.073187 0.8100 0.8100 0.8100 0.8100 0.8100
3666.162252 0.8100 0.8097 0.8092 0.8087 0.8082
3671.251318 0.8080 0.8080 0.8080 0.8080 0.8077
3676.340383 0.8072 0.8070 0.8070 0.8070 0.8070
3681.429448 0.8065 0.8055 0.8045 0.8035 0.8030
3686.518514 0.8030 0.8027 0.8022 0.8017 0.8012
3691.607579 0.8010 0.8010 0.8007 0.8002 0.7995
3696.696644 0.7985 0.7977 0.7972 0.7965 0.7955
3701.785710 0.7942 0.7927 0.7915 0.7905 0.7884
3706.874775 0.7853 0.7820 0.7785 0.7770 0.7770
3711.963840 0.7773 0.7778 0.7797 0.7827 0.7854
3717.052906 0.7879 0.7899 0.7914 0.7929 0.7944
3722.141971 0.7961 0.7981 0.7996 0.8006 0.8013
3727.231036 0.8018 0.8020 0.8020 0.8023 0.8028
3732.320102 0.8030 0.8030 0.8033 0.8038 0.8040
3737.409167 0.8040 0.8040 0.8040 0.8043 0.8048
3742.498232 0.8059 0.8074 0.8080 0.8080 0.8071
3747.587298 0.8056 0.8044 0.8034 0.8030 0.8030
3752.676363 0.8027 0.8022 0.8023 0.8028 0.8036
3757.765428 0.8046 0.8053 0.8058 0.8063 0.8068
3762.854494 0.8073 0.8078 0.8080 0.8080 0.8083
3767.943559 0.8088 0.8087 0.8082 0.8073 0.8063
3773.032624 0.8060 0.8060 0.8057 0.8052 0.8050
3778.121690 0.8050 0.8047 0.8042 0.8040 0.8040
3783.210755 0.8040 0.8040 0.8040 0.8040 0.8040
3788.299820 0.8040 0.8040 0.8040 0.8040 0.8040
3793.388886 0.8040 0.8040 0.8040 0.8040 0.8040
3798.477951 0.8040 0.8040 0.8040 0.8043 0.8048
3803.567016 0.8053 0.8058 0.8057 0.8052 0.8043
3808.656082 0.8033 0.8030 0.8030 0.8026 0.8021
3813.745147 0.8024 0.8029 0.8030 0.8030 0.8034
3818.834212 0.8039 0.8036 0.8031 0.8026 0.8021
3823.923278 0.8020 0.8020 0.8013 0.8003 0.8000
3829.012343 0.8000 0.8000 0.8000 0.8000 0.8000
3834.101408 0.7996 0.7991 0.7986 0.7981 0.7972
3839.190474 0.7962 0.7945 0.7925 0.7897 0.7867
3844.279539 0.7837 0.7807 0.7789 0.7774 0.7766
3849.368604 0.7761 0.7764 0.7769 0.7778 0.7788
3854.457670 0.7802 0.7817 0.7843 0.7873 0.7888
3859.546735 0.7898 0.7904 0.7909 0.7918 0.7928
3864.635800 0.7934 0.7939 0.7948 0.7958 0.7960
3869.724866 0.7960 0.7964 0.7969 0.7974 0.7979
3874.813931 0.7980 0.7980 0.7984 0.7989 0.7990
3879.902996 0.7990 0.7990 0.7990 0.7986 0.7981
3884.992062 0.7980 0.7980 0.7984 0.7989 0.7990
3890.081127 0.7990 0.7994 0.7999 0.8000 0.8000
3895.170192 0.8000 0.8000 0.8000 0.8000 0.8000
3900.259258 0.8000 0.8000 0.8000 0.8000 0.8000
3905.348323 0.7996 0.7991 0.7990 0.7990 0.7986
3910.437388 0.7981 0.7971 0.7961 0.7943 0.7923
3915.526454 0.7916 0.7911 0.7910 0.7910 0.7897
3920.615519 0.7882 0.7867 0.7852 0.7846 0.7841
3925.704584 0.7844 0.7849 0.7863 0.7878 0.7893
3930.793650 0.7909 0.7919 0.7929 0.7953 0.7978
3935.882715 0.7985 0.7990 0.7990 0.7990 0.7990
3940.971780 0.7990 0.7990 0.7990 0.7995 0.8000
3946.060846 0.8000 0.8000 0.8000 0.8000 0.8005
3951.149911 0.8010 0.8005 0.8000 0.8000 0.8000
3956.238976 0.7995 0.7990 0.7990 0.7990 0.7990
3961.328042 0.7990 0.7990 0.7990 0.7990 0.7990
3966.417107 0.7995 0.8000 0.8005 0.8010 0.8010
3971.506172 0.8010 0.8005 0.8000 0.7995 0.7990
3976.595238 0.7990 0.7990 0.7985 0.7980 0.7980
3981.684303 0.7980 0.7970 0.7960 0.7960 0.7960
3986.773368 0.7960 0.7960 0.7960 0.7960 0.7955
3991.862434 0.7950 0.7945 0.7940 0.7940 0.7940
##END=
