##TITLE=1,1,2-Trichloroethane
##JCAMP-DX=4.24
##DATA TYPE=INFRARED SPECTRUM
##CLASS=IUPAC A
##ORIGIN=NIST, Analytical Chemistry Division, 301-975-3108
##OWNER=COPYRIGHT (C) 2001 by the U.S. Secretary of Commerce
##DATE=01/06/01
##$SPECTRA VERSION=1.10
##$UNCERTAINTY IN Y=2.1 % relative (B=1.14E-04,C=1.89E-9,D=6.50E-14)
##CAS NAME=1,1,2-Trichloroethane
##CAS REGISTRY NO=79-00-5
##MOLFORM=Cl C H2 C H Cl2
##MP=-36.5 C
##BP=113.77 C
##$NIST SOURCE=QUANT-IR
##SPECTROMETER/DATA SYSTEM=IFS66V (Bruker)
##INSTRUMENT PARAMETERS=KBr Beam Splitter; MCT Detector; Multipass cell
##STATE=gas
##SAMPLE DESCRIPTION=1,1,2-Trichloroethane Primary Gas Standard
##PRESSURE=101.3 Pa
##TEMPERATURE=23 C
##SAMPLING PROCEDURE=1 L/min Flow
##RESOLUTION=1.9290
##DATA PROCESSING=Happ Genzel Apodization
##XUNITS=cm-1
##YUNITS=(micromol/mol)-1m-1 (base 10)
##XFACTOR=1.0
##YFACTOR=9.0949E-13
##DELTAX=0.9645
##FIRSTX=575.652
##LASTX=3974.606
##FIRSTY=-1.39E-06
##MAXX=3973.64
##MINX=575.65
##MAXY=.0008538
##MINY=-2.36E-06
##NPOINTS=3526
##XYDATA=(X++(Y..Y))
575.65-1535955-1975560-1998682-1354634-950054-886170
580.47-496960-952031-1217393-161375-256039-1714074
586.26-1821737-229854 897788 754330-238196-455323
592.04-813312-667635-98385-344424-1446980-1546249
597.83-1561556-1196655-1159924-1139532-352878 11162
603.62-433281-678045-980771-960298-606549-256825
609.40-360174-697009-1257515-1507537-1511786-1114218
615.19-873109-631923-396154-567253-681647-520997
620.97-290166-359768-474150-502953-542563-536157
626.76-166855 104665 292095 557317 601687 939039
632.54 1313091 1304663 1265784 1717221 2277126 2329090
638.33 2292992 2914230 3799753 4166711 3974598 4965672
644.11 6257760 7067323 8015509 9033237 9988843 10726846
649.90 10976997 11959340 13986107 16692326 19899381 23809524
655.68 27824987 32709881 38399434 45117393 52838503 61612860
661.47 70929053 81619665 94129748 107902359 121975701 135003319
667.26 149154466 163569173 173017505 176491844 175745097 173330754
673.04 169210640 166019453 164081493 167765937 181635213 200995717
678.83 213249363 211154364 195827767 173406065 148693321 125031433
684.61 105383750 89668900 76674423 66296538 57113607 48917546
690.40 41305068 34594377 28491488 23516534 19494561 16706360
696.18 14440195 13343462 12982794 13042640 13193331 14351584
701.97 15509036 16946149 18491692 20220735 21661634 23254728
707.75 24621935 26329279 28018090 29380298 30178874 31281405
713.54 32875475 35537820 38814131 43575930 48495637 52869290
719.32 58266784 66923759 77412694 90755731 107677028 129010500
725.11 155624181 189227337 229741009 279281869 336925571 401998651
730.90 473490091 550591107 628012868 702984237 770980794 829389109
736.68 873970540 904367262 921084126 930519396 935287328 937544380
742.47 938860697 938685748 920555395 907205504 866292399 802713326
748.25 756351312 682924063 576516830 452879632 333186294 229766363
754.04 152821214 100448718 69358013 51721521 42440268 36823207
759.82 33728096 31196043 29917130 28825386 29004688 29306394
765.61 30398154 31900254 34017789 35758914 37851512 39619900
771.39 41489649 43481129 46266989 50375868 56545166 63517794
777.18 70635258 76703803 81827921 86417898 91463570 96960657
782.96 103751773 111416298 118785465 123752045 123383396 115972393
788.75 105852819 94633709 85414851 83170129 91533653 106456256
794.53 117423686 117577103 109613724 97276892 83408729 69433741
800.32 56976493 46292282 37910306 31137357 25755943 21393160
806.11 17264663 13614483 10759712 8150087 6208046 4559007
811.89 3406955 2598840 2295832 1995026 1867862 1577602
817.68 1542957 1606920 1917630 1995339 2211159 2339047
823.46 2421561 2590658 2786067 2425713 1961099 1830275
829.25 2012120 1947766 2287245 2596958 2393605 2098682
835.03 2532092 2682698 2700828 2528418 2409697 2360107
840.82 2394254 2210794 2462634 2699542 2726834 2545908
846.60 2714754 2942098 2857740 2611636 2211898 2087342
852.39 2166395 2250362 2352033 2096112 1747223 1664566
858.17 1869880 1636950 1248281 1113280 1192296 1024662
863.96 862513 825329 919071 825246 899587 1022959
869.75 1221663 1195331 1050632 876377 1089050 1340409
875.53 1402282 1511332 1641925 1597103 1657337 1718157
881.32 1630859 1788867 2204514 2270521 2492897 2647642
887.10 2864543 3084632 3498174 3803511 4056456 4176714
892.89 4378833 4497318 4598296 4687951 4886196 4954787
898.67 5133609 5439400 5950688 6468165 7007079 7449016
904.46 7614991 7810404 8413937 9178411 10040106 10986072
910.24 12243745 13868313 15642597 17672433 20106284 23039866
916.03 26125916 29631935 33862740 38667052 43945300 49789031
921.81 56665922 64584807 73339058 83178793 94396111 106587784
927.60 119516659 133149284 146567212 158022324 164795443 163454747
933.39 153691574 139626770 127929717 125085649 135160035 156471193
939.17 178230079 186468623 179937800 165126828 147335097 128863467
944.96 111378313 96775879 86487883 78478896 69658482 60657467
950.74 52852256 45774577 39057400 32954042 27524770 22604975
956.53 18632528 15506297 13137520 11478125 10166453 9081155
962.31 8195792 7294262 6611200 6236892 5929479 5675506
968.10 5383274 5024319 4869717 4752131 4712901 4442921
973.88 4189303 4266888 4429444 4250501 3874510 3373599
979.67 2854215 2520018 2318460 2201902 2108119 2009914
985.45 2118998 2208197 2318739 2426869 2526972 2545721
991.24 2504588 2456048 2585069 2629182 2841457 2909452
997.03 2816015 2756514 2868636 2996898 3030965 2941689
1002.81 2886753 2724209 2613272 2586697 2626125 2600543
1008.60 2651950 2805416 2916197 2940806 3253984 3361493
1014.38 2529939 1900283 1821167 1855957 2018123 2162927
1020.17 2408961 2604861 2640175 2715716 2935796 3055374
1025.95 3215216 3430030 3622331 3931797 4409686 5038023
1031.74 5814245 6590749 7343135 8062650 8868835 9741655
1037.52 10608326 11358411 12342235 13128139 14003827 15012357
1043.31 16009504 16993271 17959617 18823065 19747418 20300798
1049.09 20205255 19881085 19560902 19168032 18651808 18073284
1054.88 18144238 18943254 19757249 19654148 18485762 16747851
1060.67 15137382 13842389 12839430 11857946 10940850 10344533
1066.45 9995476 9660630 9105281 8193975 7304189 6558229
1072.24 5922064 5233443 4687646 4249763 3803827 3463339
1078.02 3124637 2777115 2465542 2277592 2263646 2027211
1083.81 1559616 1193532 970432 832169 846978 827736
1089.59 747949 602071 570672 421185 407819 564952
1095.38 660768 452209 313483 294210 334629 330121
1101.16 270214 139894 164597 149706 122894 192099
1106.95 193172 327203 335855 241999 142171 196188
1112.73 296456 247305 368032 394793 354848 375593
1118.52 428851 532751 684953 634786 513425 485688
1124.31 635139 795938 868428 734081 687454 775643
1130.09 793627 700801 738475 849152 868925 931276
1135.88 1152549 1338729 1465624 1771745 2248881 2731669
1141.66 3158204 3673591 4372003 5323154 6348508 7388295
1147.45 8607690 10220759 11948687 13555892 15330065 17356138
1153.23 19772516 21905700 21744258 21642513 25001910 27887432
1159.02 26300589 25940842 27154001 27603339 26774065 23989355
1164.80 22150972 21015844 19642692 18218064 16383354 14213275
1170.59 12190364 10321715 8547525 7171377 6000065 5243190
1176.37 4669108 4025514 3639407 3593616 3454211 3468936
1182.16 3689058 4123281 4596273 5153580 5790121 6642395
1187.95 7473822 8500485 9777919 11543271 13796019 16686185
1193.73 20404015 25388082 31757283 40088749 50561973 63616031
1199.52 78977658 95824291 112103501 125402889 132662633 132001275
1205.30 120355869 104331107 117244740 148609330 124280655 104498762
1211.09 123853208 143147706 150827613 146256667 132009364 111316237
1216.87 88820198 67782502 51083643 38601448 30130363 24279138
1222.66 20268221 17139371 15012809 13266576 11963768 10907353
1228.44 10453466 10159756 10031330 10002879 10303904 10763622
1234.23 11819348 13334357 14525386 14469528 14725011 15270242
1240.01 15786262 16145996 16228930 15916814 16036610 16595208
1245.80 17688008 19428312 21966139 24989349 29120556 34406064
1251.59 41056677 48836868 57903110 68099483 78737597 88756890
1257.37 97530381 103551678 106138256 104613332 100807806 98748041
1263.16 98954390 96378332 96216838 99405728 100581226 98327652
1268.94 93461549 86975448 79537503 71481089 62950126 54194979
1274.73 45913500 38510291 31990618 26404581 21735182 17705862
1280.51 14410915 11840622 9718140 7874894 6475783 5485595
1286.30 4832360 4447145 4301795 4548044 5221594 6196031
1292.08 7462806 9105284 11110184 13562268 16401427 19619987
1297.87 23063677 26359112 29517970 32588880 35125801 37177131
1303.65 39314397 43806670 44813998 39108761 37418368 38168212
1309.44 38262701 38990365 40025563 40633295 40589288 38618771
1315.23 35121554 30382689 25422924 20877966 17040109 13684411
1321.01 11286076 9502275 8185373 7079020 6321241 5772387
1326.80 5490024 5322306 5518584 5521318 5410420 5186730
1332.58 5042616 4933044 4837250 4619468 4663547 4693386
1338.37 4671144 4630051 4698755 4679842 4741563 4837486
1344.15 5127087 5205572 4968222 4665008 4444127 4080398
1349.94 3629400 3540002 4068018 4321671 4214154 3793819
1355.72 3238244 2516961 2139353 1702991 1546984 1278739
1361.51 1374563 1387769 1289313 1233872 1116570 848001
1367.29 825652 772672 839164 850244 879104 650852
1373.08 677071 654996 708349 569203 625903 695424
1378.87 868247 771406 774894 788193 931895 895343
1384.65 736100 350704 326703 460927 692549 688247
1390.44 785454 676474 481400 242657 512466 639162
1396.22 622703 394813 476324 608025 794485 724056
1402.01 970453 961024 944163 984237 1276274 1311819
1407.79 1452406 1483259 1714382 1763558 2143145 2378729
1413.58 2734679 3013335 3673704 4273075 5150208 6095186
1419.36 8048394 9773178 11869283 14009775 16674846 19318506
1425.15 22546418 25911172 30330795 35384415 41710856 46176924
1430.93 49143300 50901840 51569597 48658076 47152426 72797563
1436.72 113412299 80698042 44513702 48357370 53149085 54515707
1442.51 52592740 49252619 44032871 39184525 34172785 30048604
1448.29 25969263 22360372 18787602 15677945 12670210 10315027
1454.08 7834690 5742834 3998361 3491238 2935541 2566049
1459.86 2221123 2007511 1588047 1376206 1012576 1125181
1465.65 1290597 1358884 1266045 1191936 1059669 956547
1471.43 747182 751063 803681 919385 769119 1011279
1477.22 1098566 1109823 1085977 1222443 1167950 1143987
1483.00 1030489 1119460 1082990 909965 870755 873541
1488.79 536754 588914 718417 672708 572976 541701
1494.57 84484-167503-8026-99904-175575-134432
1500.36-234640-139142-52017-226682-929263-1302534
1506.15-1178375-618185-359088-217657-172193-186881
1511.93-164368-60678-119343-137173-302768-270323
1517.72-128173-196749-580419-693772-410352-158344
1523.50-207997-397767-343086-191901-167389-189769
1529.29-181080-216955-303072-402318-398708-248579
1535.07-112495-117011-528892-1115346-1044839-598169
1540.86-552715-382224-101070-165859-183171 8941
1546.64 123065 138167 58801 34669 98641 127321
1552.43-23133-185782 11876 55129-467300-1073568
1558.21-1100157-940733-349610 49175 88521 30912
1564.00-40083 38879 70695 20453-148014-275359
1569.79-72867 7479-75359-124440-211042-957242
1575.57-1134985-399548-200463-183185-221131-158784
1581.36-168079-212416-215194-145077-171980-130197
1587.14-85837-117726-264992-273625-219393-196926
1592.93-198199-77870 35600 56974 85405 17687
1598.71-1651 71996 141074 110744 74838 193761
1604.50 281854 248288 253463 287419 284551 275757
1610.28 275621 254909 233752 235966 101548-385987
1616.07-462932 147501 213655 141353 70186 10319
1621.85-260260-399646-135563-99624-266706-311777
1627.64-272653-321221-301575-245285-265021-318957
1633.43-610233-973998-686090-408362-421613-325905
1639.21-250131-222962-277034-204818-138650-376995
1645.00-734923-595013-481615-284499-171043-273791
1650.78-1029732-1904671-1592164-731200-277320-196390
1656.57-185954-172297-196471-187824-307833-547879
1662.35-438956-216851-274074-251403-227654-380363
1668.14-687171-545588-491364-423234-261072-299184
1673.92-664566-659620-359062-238570-222015-272817
1679.71-305629-294731-467117-856739-1349679-893070
1685.49-165416-40157-31350-111263-184844-82267
1691.28 13472-106514-252019-897878-1222451-462110
1697.07-89238-493908-1257574-908985-195001-93327
1702.85-261293-356884-334345-304759-203017-210073
1708.64-190575-145522-118911-123411-207560-389654
1714.42-435494-543723-971115-739220-255601 3308
1720.21-42839-88822-122420-55619-33302-131443
1725.99-139218-105270-88696-146901-122306-136202
1731.78-560445-1086670-938958-359090-179537-222514
1737.56-283467-580481-513007-269033-326605-406835
1743.35-310738-282061-349920-424018-528625-518736
1749.13-517098-752006-632198-411196-319160-387789
1754.92-549589-558595-439646-438895-394968-405960
1760.71-587399-507963-282473-193508-197147-304992
1766.49-455837-476591-310060-245496-389220-675455
1772.28-615550-338635-190143-158707-122503-77582
1778.06-81715-68154-100144-41531 109422 127862
1783.85-40887-33601 28028 32566 21295 37471
1789.63-10839-76975-124521 77314 249006 236861
1795.42 220379 260845 235830 146309 183288 200714
1801.20 129308 106024 187008 291817 289911 193416
1806.99 116202 121030 97941 18872 15251 83015
1812.77 125623 141406 156502 94284 69496 154913
1818.56 244041 324398 324746 324035 476679 514690
1824.35 644610 717441 404854 205879 126574 100777
1830.13 179135 251532 246550 184594 181141 149166
1835.92 51202-40466-4130 19084-17768-134875
1841.70-323019-591670-587078-237528-176077-300206
1847.49-376564-378153-333403-364020-410510-318520
1853.27-313953-371142-361251-363863-377790-368130
1859.06-369463-461656-437073-395550-451995-562132
1864.84-533136-435574-431682-483737-438342-389354
1870.63-430934-381697-309308-298815-331526-337300
1876.41-342430-333759-311934-248706-293242-429443
1882.20-464151-384071-387230-390013-375810-379730
1887.99-398627-355493-279418-222185-254859-332320
1893.77-436804-441715-372142-292199-319178-342042
1899.56-293200-324248-352638-409982-425828-365914
1905.34-322288-393010-399102-355636-427841-411288
1911.13-372300-353348-286115-309548-319887-362754
1916.91-409904-324887-283323-325556-361947-358222
1922.70-265754-271325-287698-271991-280704-239793
1928.48-216085-188892-136540-136943-141064-159535
1934.27-151332-113895-68219-58995-74482-144694
1940.05-152667-96438-50025-127187-130521-79972
1945.84-49846-69614-174329-215977-148349-93414
1951.63-201363-340728-297170-243637-193163-184843
1957.41-234302-146496-146209-193726-220204-328508
1963.20-338837-297620-302937-256968-191738-126207
1968.98-103748-110038-47306 34069 2104 63638
1974.77 157666 172640 272033 322985 305293 336144
1980.55 384881 383091 345421 340711 399948 425254
1986.34 403306 362642 419553 451734 352988 272114
1992.12 197528 194364 186005 134543 125011 65627
1997.91 31787 78838 100337 64668 41726 12757
2003.69 5288 8890 28840 10418 38429 27443
2009.48 3330 8306 27099-45613-83565-67474
2015.27-50699-144871-215314-139704-125184-219560
2021.05-311183-212385-66669-74885-126811-175422
2026.84-228745-228809-173135-128561-76690-58804
2032.62-115538-180752-100752 24779 23410 10179
2038.41 25360 25698 35675 26331 88197 173659
2044.19 237846 256611 240057 201074 209374 179200
2049.98 199040 206391 136650 95749 139375 147921
2055.76 125952 149871 89941-43430-98838-71992
2061.55-12613-75537-228241-253051-200931-198316
2067.33-166440-108649-118149-149246-127485-165401
2073.12-97259-19962-10750-137504-177694 19534
2078.91 85674-58150-221580-123362 79842 114543
2084.69 20458-31560 138375 246814 317383 223897
2090.48 363627 564843 524306 284850 308784 614234
2096.26 782629 745138 506155 634757 756932 665226
2102.05 328982 371633 592478 695439 498417 465564
2107.83 716235 687742 461864 267249 577422 661554
2113.62 322122-62210 114166 286284 159791-212961
2119.40-153175 93429 75164-311726-388866-97405
2125.19-22419-264203-275846 16789-51943-309396
2130.97-407146-209560-148730-242653-234968-74039
2136.76-49014-224433-365357-263766-139859-136831
2142.55-137275-41959-30460-199104-316508-228947
2148.33-129912-251526-384388-190607-121689-387900
2154.12-450132-231741-282313-554127-430858-96875
2159.90-276304-617054-423493-127160-438786-678535
2165.69-345796-143723-469025-609304-216315-126374
2171.47-461246-317969-49133-225738-377201-66859
2177.26 111788-302341-370654 65628 68822-213718
2183.04-100143 177715-38176-150514 160490 145450
2188.83-32728 227901 402145 201552 182318 442855
2194.61 447923 318050 487884 580960 356585 346172
2200.40 516023 405344 247940 423801 509842 439792
2206.19 487153 455723 266185 127740 185316 183556
2211.97 170139 191440 93762 76717 96103-635
2217.76-81091-108665-74711-108850-80530-60112
2223.54-67244-76656-149952-119644-16185-35337
2229.33-52910-3056-19940-103340-140818-47597
2235.11-75621-87889-27761-56401-32926-38916
2240.90-56555 25950 36285 21469 63796 58806
2246.68 139514 110290 48501 68266 96161 174250
2252.47 121718 95889 143067 142194 103950 95578
2258.25 35548 2493 27682 46805-20951-53408
2264.04 10135 58732 56408 35290-4627-82326
2269.83-93007-7855-64758-145613-152378-82438
2275.61-46836-27482-11634-48133-119285-176251
2281.40-136995-100853-159973-202201-209360-254803
2287.18-200758-92180-151558-163857-94309-166437
2292.97-232188-248906-274952-327198-363297-285452
2298.75-270348-180812-103304-178040-254573-289021
2304.54-232377-384066-398045-335871-456991-589516
2310.32-556940-439301-538976-649296-849353-744457
2316.11-932755-940618-1085642-1024527-1233550-1258493
2321.89-1487355-1475078-1625278-1659539-1900074-1877264
2327.68-2016713-2059160-2323758-2401014-2433958-2339281
2333.47-2406954-2479850-2595529-2477998-2385352-2264774
2339.25-2190741-2026684-1853738-1625353-1462722-1164652
2345.04-795246-347761-42615 261285 340621 256670
2350.82 50609-187806-491612-653450-795647-891682
2356.61-1031162-1133135-1186437-1104429-1021381-879656
2362.39-606758-457537-425557-254249-128680 32639
2368.18 196845 373059 454160 563986 514211 440426
2373.96 507436 701849 712266 709525 688832 639047
2379.75 592474 543268 507277 555565 604733 578423
2385.53 477281 418418 500663 557162 565000 645761
2391.32 759152 837550 832470 912865 987090 1029026
2397.11 1044947 1149407 1256582 1287208 1325508 1426486
2402.89 1520189 1892266 2303039 2119677 1630166 1315348
2408.68 1136839 1077191 1078760 1119884 1129818 1104578
2414.46 1016582 907415 630719 533531 721940 818170
2420.25 708562 541087 437877 376622 278880 242134
2426.03 204985 171739 96471 90815 53153 55584
2431.82 86984 46859-13984 44584 166261 227397
2437.60 265877 289826 393952 433450 468402 533304
2443.39 523895 577239 741124 936628 1092113 1166215
2449.17 1266625 1414947 1605366 1742163 1827820 1959891
2454.96 2107012 2239519 2363344 2526773 2576155 2564357
2460.75 2558859 2477875 2389348 2314866 2338137 2338347
2466.53 2153181 1924431 1775234 1760266 1704162 1551403
2472.32 1433315 1433329 1382299 1312681 1234910 1126839
2478.10 1077344 1016363 953191 963870 987023 996042
2483.89 921484 952270 913738 837798 952663 1009760
2489.67 972222 884745 828025 763386 789636 839293
2495.46 815713 784174 734584 723887 720870 806078
2501.24 834694 864222 892914 959312 973150 1006729
2507.03 1127679 1228043 1282076 1325375 1423410 1561748
2512.81 1621019 1630682 1559149 1397252 1270084 1215949
2518.60 1267688 1301027 1304950 1317567 1305040 1200984
2524.39 985516 870675 761119 609152 460889 436350
2530.17 319240 113367-5267-43270-8388-69692
2535.96-210492-188913-186470-257988-216611-156428
2541.74-135449-54911-111234-239016-213241-144398
2547.53-76264-48591-41325 50408 127183-15977
2553.31-123249-77478-8166 59985 263055 370493
2559.10 409957 440154 427706 418004 533901 620056
2564.88 570633 464713 448601 447044 548513 626262
2570.67 589910 499813 361236 383202 433117 422787
2576.45 361302 318319 346722 352795 277229 228699
2582.24 162781 166363 192579 260951 355797 357536
2588.03 325929 287916 292452 334139 388144 387320
2593.81 387055 413569 421593 517379 580972 453190
2599.60 360966 429766 488628 492422 436189 333472
2605.38 223923 193552 173992 256413 256761 231420
2611.17 200159 201656 224979 209920 64939 21105
2616.95 45225 15015-5825-101504-172217-132199
2622.74-131582-176865-163686-56458-46312-174726
2628.52-229149-149582-30485-86278-155289-108510
2634.31-97307-82801-20871-11709-27504 133262
2640.09 124784 44008-20223 64532 138675 103828
2645.88-33845-41108 85057 196187 70382-98659
2651.67-105079 27696 125346 35039-89248-52662
2657.45-96568-144871-21725 59538-36975-131122
2663.24-124535-70885-9165-25417-60370-148547
2669.02-133291-9140 15865 7174-11004 41029
2674.81 107063 113211 46810 59202-4959 55211
2680.59 70507 38007 33397-22114-21830 13580
2686.38 150608 303308 352713 497982 635280 709436
2692.16 821701 848748 889741 970354 953317 949046
2697.95 989074 1007213 909470 916990 974687 1067022
2703.73 1134573 1011101 918270 975225 914246 601991
2709.52 436970 378725 265058 196975 110217 24283
2715.31-28431-82662-35363 86585 15634-143585
2721.09-112619-9970 44931 142128 256835 270473
2726.88 171061 163040 242608 234755 210263 450289
2732.66 704866 747826 655948 679587 843781 997126
2738.45 875726 870226 966844 941680 799822 711806
2744.23 676929 787289 816440 620151 706484 798797
2750.02 663149 477647 366264 369466 253470 86783
2755.80-12740-21210 16476 58521 48824-49649
2761.59-80892-1631-4382-3719-56325-79104
2767.37-70970-31278-78745-133131-213191-81390
2773.16 46114-16253-43567-41092 17611 148359
2778.95 127816 37236 5071 19233 43701 29572
2784.73 44674 24626-25936 4474 192102 140898
2790.52-51627 13388 121897 189481 211747 88182
2796.30-16230-27983-20457 48137 230145 227683
2802.09 12155-37155 93252 70946-72411-30255
2807.87 40141 109718 76234 65472 158804 129658
2813.66 84404 193286 173217 31520 158177 318893
2819.44 145723 91770 187057 162032 88580 80844
2825.23 78785 241358 411415 527375 458245 390190
2831.01 387373 373276 236029 260717 311831 520485
2836.80 739082 819336 751174 773861 917696 1196057
2842.59 1375631 1591874 1935354 2306361 2868678 3619896
2848.37 4384154 5249220 6115415 6871383 7122246 6876894
2854.16 6347482 6074829 7088591 8318770 6933084 5443969
2859.94 5817940 6680947 6955575 6733555 6240582 5359307
2865.73 4454479 3668603 3108838 2626193 2235994 1840501
2871.51 1498685 1293244 885846 682599 1237934 1562961
2877.30 1363724 1309145 1235411 1246334 1156396 1154399
2883.08 1197960 1184362 1215969 1261946 1206503 1242386
2888.87 1136554 1191452 1157589 1128338 1187176 1342787
2894.65 1363799 1211242 1123390 1164479 1296696 1433337
2900.44 1353945 1384026 1415427 1258106 1108134 1125401
2906.23 1214338 1328663 1314403 1341012 1328213 1401441
2912.01 1393259 1378914 1307946 1261689 1425667 1651056
2917.80 1549231 1565065 1641014 1638381 1695823 1792620
2923.58 1942750 1994789 1947657 2063248 2012997 2062249
2929.37 2064907 2063261 2019632 2118967 2105506 2115176
2935.15 2074218 2187559 2316024 2413456 2324856 2167191
2940.94 2099732 2333010 2395044 2444863 2709191 3127559
2946.72 3119880 3262548 3585144 3911100 4207062 4613053
2952.51 4876313 5189864 5502977 6147580 6726058 7521711
2958.29 8811204 11133070 14257566 17629054 19912320 22795431
2964.08 27674820 34142854 40820187 46766779 50255760 50937992
2969.87 47950571 42890868 45313966 61097032 58934453 45988358
2975.65 44650754 48496608 52477424 53108386 50586002 45255467
2981.44 38781527 32155837 26938042 23263825 19494807 15041181
2987.22 12115743 10227829 9119465 8258047 7713247 7180528
2993.01 6862702 6667597 7001111 7637037 8669116 9777145
2998.79 11046672 11731045 11890876 11291297 9907394 8535084
3004.58 10397621 12947054 10897848 9045984 9750680 10954375
3010.36 11728116 11588466 10917000 9971932 9026092 8173513
3016.15 7600532 7146837 6968873 7047664 7033102 6424840
3021.93 5495101 5038585 5655031 5389313 4877350 5314471
3027.72 6000858 6327638 5992847 5485947 4894542 4095393
3033.51 3317602 2850435 2442182 1999125 1667057 1373721
3039.29 1256867 1060302 941411 777367 674859 657688
3045.08 503499 489186 627758 553066 501243 527588
3050.86 482289 495338 399412 354970 377155 272922
3056.65 225697 167844 164341 245101 282937 261983
3062.43 379826 317648 161977 98768 277386 438251
3068.22 447079 269421 88729 186869 289204 315538
3074.00 324446 225731 260404 246678 235635 353666
3079.79 507176 553397 564242 438866 408414 292392
3085.57 345358 373013 321059 304848 154179 139597
3091.36 102342 103490 167765 144877 118270 166271
3097.15 106641-61978 7089-34337-91307-18281
3102.93 66878 95046 196233 156397 13737 85597
3108.72 123022 167909 253325 153812 165479 158455
3114.50 202078 305880 150077 18754 24440 160364
3120.29 85768-49854 12111 25774 87140 97681
3126.07-10627-89750-14358 17918-104358-29536
3131.86 224565 287001 237116 85062 99938 42869
3137.64-19013 182579 301737 294043 264827 140828
3143.43 141803 353115 231157-66343-29942 250318
3149.21 371820 294786 290918 363216 280235 167441
3155.00 206422 187368 180110 255907 241038 152600
3160.79 66439 17459 87771 154372 101138 164626
3166.57 119334-23977 95449 136818 34256 46527
3172.36 99866 100461 172573 103500-2824 30795
3178.14 120465 98255 133658 91910 213776 262226
3183.93 77792-22630 100682 60045-105402-151063
3189.71 110053 270206 189569 210011 270565 206886
3195.50 180218 129812-53934-78020 148614 137305
3201.28 50559 174978 131042 123824 201863 108018
3207.07-37794-158048-286204-286512-5729 138360
3212.85 61109 1377 84429 73906-35046-120019
3218.64-149529-58987-49510-31857 45131 38358
3224.43 7603 24833 203273 182102 51419-107230
3230.21-119050 116311 278486 179459 13598 97934
3236.00 109274 183166 35587-84863-69661 97166
3241.78 190145 106341 75617 120570 21136-39888
3247.57 32615 58771 32374 99343 99642 29915
3253.35-84511-45463 46514 52218-155876-287113
3259.14-139551-19837-34112-64307-14747 118670
3264.92 94292-64261-165334-108919 3911 18818
3270.71 2599 66267-6723-62101-72341-92239
3276.49-136236-176040-78127-121811-179433-56604
3282.28-133420-212707-32998 7615 21764-2193
3288.07 41669 154684 101107 6403-93229-84820
3293.85-124532-39468 135433 23761 63853 186887
3299.64 125801-32904-98984-231810-106571 91876
3305.42-13600-10394 4761 90746 126002 23609
3311.21 12676-17764 91566 74404-85235-87337
3316.99-69447 1780 132222 50641-31551-47639
3322.78-113318-182441-4758 55675 34316-141944
3328.56-213494-6521 97994 14432-45731-97038
3334.35 217519 283780-19434-103972 2807-5937
3340.13-62660-224891-104090 41882 137087 137575
3345.92 78486 174576 135298-37646-69999 189627
3351.71 196247 125067 115289 124608 65943 98399
3357.49 197127 190743 113707 77025 197146 229118
3363.28-6459-125844-80274-3933 86387 139981
3369.06 178572 77522-99821-4813 139848 101565
3374.85 33753 33268-31946-67416-80368-96423
3380.63 141158 253495 73466 41626 6754 27537
3386.42 134335 307481 404227 344971 280577 273661
3392.20 284410 231646 242646 295040 235483 21336
3397.99 134338 388899 306957 175248 154564 385639
3403.77 457051 335063 132047 123376 310063 329926
3409.56 334089 177265 114847 335678 327713 317811
3415.35 486972 643459 550713 465816 390034 214171
3421.13 31112 2383 37384 99702 312241 242255
3426.92-66266-253369-92775 2532-286614-240024
3432.70-6053 28148-121559-104487 33413 57785
3438.49-112073-242551-349330-77153 168935 43413
3444.27 7897 38916 64442-104239-268363-82377
3450.06 199650 154145 160452 145090-95951-211710
3455.84-33043-37956-125801-109086 23785-34499
3461.63-138173-143732-129291-171491-212762-32871
3467.41 43980 71888-24636-244434-242632-321936
3473.20-292705-120570-98236-149176-78401-9747
3478.99 7529 11364-36895-185604-287092-257777
3484.77-95915-106989-111823-1588-16162-105397
3490.56-126073-200610-316303-157542-31944-97916
3496.34-23288-57210-178092-201816-128240-131441
3502.13-180621-338513-314411-130484-40945-119042
3507.91-166401-199456-152595-190013-288714-251819
3513.70-228405-219746-51356 29956-19441-172569
3519.48-144269-28833-107362-156300-130734-217120
3525.27-239552-187439-171832-142384-202972-274293
3531.05-259512-90104 47257 28056-165677-335902
3536.84-262931-254402-116300 70698 53523-75331
3542.63-308687-273034-226935-179952-75494-36484
3548.41-224512-317812-235944-83475-46152-114585
3554.20-300880-322187-134293-93164-102501-115791
3559.98-100803-55031-43614-65429-41062-59660
3565.77-162144-385698-426113-286184-110319 69594
3571.55-47653-156718-60529-141896-232275-203056
3577.34-80912-26040-61505-98891 14327 9434
3583.12-79921-238579-319698-331041-350382-378195
3588.91-264403-195893-110211-145525-114468-127701
3594.69-303687-247282-156966-135700-185342-286612
3600.48-318926-216209-211873-271624-275799-275861
3606.27-253858-323146-663922-490344-157272-227914
3612.05-237006-167569-228621-381549-331180-227959
3617.84-264625-542761-513253-263927-86373-49256
3623.62 13618-128210-86705-273363-667594-619442
3629.41-235272 3914 110759-85218-119577-34545
3635.19-113745 48786 139048 14745-1576 77776
3640.98 48094 140615 263116 211895 191494-17015
3646.76-175901-266974-253877-195286-140241 26491
3652.55 87234 121629-2161 47080 268688 285688
3658.33 180214 179672 168965 235930 229774 237160
3664.12 266144 229807 140021 127459 34135-294732
3669.91-522372-261743-126461-29541-350029-598147
3675.69-257403 202502 247211 175789 225652 207670
3681.48 150301 179791 68166 60001 131123-32781
3687.26-507308-108152 160142-170819-121644 139844
3693.05 167455 91496 124569 193020 372145 384313
3698.83 354601 314978 99870 94144 182009 237505
3704.62 219574 155697 81876 97221 29433 117060
3710.40-201138-466904-2040 184594 34414 26553
3716.19 65432 11072-69670-12031-27787-101600
3721.97-78892-102527-101814-238785-331250-150374
3727.76-2034-97070-242599-410647-482659-311197
3733.55-445047-535126-709931-555544-306381-296835
3739.33-46289 307868 294203-253355-1151973-884783
3745.12 152704 227987-106500-510023-328465 96172
3750.90-367650-339806 274167 565941 437592 363390
3756.69 571636 695140 597058 651537 845853 880063
3762.47 898617 998540 1032271 1010590 913748 843706
3768.26 731812 672878 822123 854194 740380 672240
3774.04 629204 475722 466608 402640 225666 170261
3779.83 184592 216995 248488 194902 137395 204913
3785.61 307151 383065 386828 285993 326125 405081
3791.40 550643 535093 341185 229400 245838 370351
3797.19 553919 633734 454472-38098-32700 289846
3802.97 546824 664450 450466 100919 265358 726903
3808.76 709648 489124 460011 577333 681139 648679
3814.54 114936 96803 693279 792329 518462 28671
3820.33-125378 117564 354098 276152 296261 317576
3826.11 264728 240493 69645-49989-211378-366258
3831.90-169329-210869-393390-380601-639313-1144050
3837.68-750799-437619-523946-515868-552972-645830
3843.47-514509-548107-549414-327696-194491-201476
3849.25-249668-688030-1102308-1188862-1569036-850565
3855.04-300855-360839-211200-57574-141634-302425
3860.83-273682-199976-293473-473630-446702-216341
3866.61-166130-394950-814384-877756-439965-286905
3872.40-422053-492946-230180-154310-237490-240260
3878.18-450560-646447-519897-433106-301729-79480
3883.97-294986-539812-285507-71317-99605-92709
3889.75-201921-233266 11796 162251 140118 172727
3895.54 287109 380666 217162 87159 149640 103988
3901.32 130884 252786 252121 264106 256978 284948
3907.11 362192 213178 29540 70077 83885 96842
3912.89 161966 65033-53776-99555-171563-322154
3918.68-509676-466263-218626-224675-324445-255213
3924.47-105727-34430 1776 32727 14568 129704
3930.25 234434 119118 110155 303028 381253 262457
3936.04 374236 403179 346774 447821 542024 441530
3941.82 258626 505231 683278 589009 621221 841328
3947.61 771391 584605 508972 619427 801658 970751
3953.39 848918 588399 723247 1069125 967184 920397
3959.18 927103 670475 562647 687253 744766 567979
3964.96 371433 291662 319168 315309 206113 73590
3970.75 31779-4038-156281-167641
##END=
