##TITLE=1,1,2-Trichloroethane
##JCAMP-DX=4.24
##DATA TYPE=INFRARED SPECTRUM
##CLASS=IUPAC A
##ORIGIN=NIST, Analytical Chemistry Division, 301-975-3108
##OWNER=COPYRIGHT (C) 2001 by the U.S. Secretary of Commerce
##DATE=01/06/01
##$SPECTRA VERSION=1.10
##$UNCERTAINTY IN Y=2.1 % relative (B=1.14E-04,C=1.89E-9,D=6.50E-14)
##CAS NAME=1,1,2-Trichloroethane
##CAS REGISTRY NO=79-00-5
##MOLFORM=Cl C H2 C H Cl2
##MP=-36.5 C
##BP=113.77 C
##$NIST SOURCE=QUANT-IR
##SPECTROMETER/DATA SYSTEM=IFS66V (Bruker)
##INSTRUMENT PARAMETERS=KBr Beam Splitter; MCT Detector; Multipass cell
##STATE=gas
##SAMPLE DESCRIPTION=1,1,2-Trichloroethane Primary Gas Standard
##PRESSURE=101.3 Pa
##TEMPERATURE=23 C
##SAMPLING PROCEDURE=1 L/min Flow
##RESOLUTION=0.9640
##DATA PROCESSING=Happ Genzel Apodization
##XUNITS=cm-1
##YUNITS=(micromol/mol)-1m-1 (base 10)
##XFACTOR=1.0
##YFACTOR=9.0949E-13
##DELTAX=0.4820
##FIRSTX=575.17
##LASTX=3974.606
##FIRSTY=-4.39E-07
##MAXX=3974.12
##MINX=575.17
##MAXY=.0008602
##MINY=-3.86E-06
##NPOINTS=7052
##XYDATA=(X++(Y..Y))
575.17-482783-2258626-1829855-1238341-2720314-2454643
577.58-1662630-941394-939437-1369425-501515-775549
580.47-1582482-211493 750195-1297665-2197448-1569107
583.37-598551 302175 233598 73654-276325-2365811
586.26-3175743-1968158-808476-190797 432563 1155534
589.15 1568322 1104462-47510-757811-462731 17972
592.04-720211-1039412-842723-915830-598173 343498
594.94 279862 39364-995266-2120907-1792396-1274384
597.83-1211802-2094870-1521056-1092740-777103-964600
600.72-1569956-1463333-1034216-127789 590208-142590
603.62-178669-330226-822288-677121-613468-1021637
606.51-1259100-1152132-745541-386099-638586-166028
609.40 129605-474455-690534-428431-781975-1656496
612.29-1471636-1420222-1623886-1524049-1609685-1152407
615.19-462677-896615-1253915-518579-243920-337991
618.08-354613-658325-812223-566030-651410-822269
620.97-214837-66042-249773-547380-430183-263136
623.86-713564-565121-297479-601503-587152-696592
626.76-516741-88900 211575 126998 75707 34957
629.65 663746 852674 409792 269804 1012719 895569
632.54 779526 1736207 1830525 711428 1189368 1611671
635.44 1041116 1519615 2288124 2380357 2612124 2316597
638.33 1994042 2230136 2486649 2724047 3386769 3890985
641.22 4309264 4604383 3889672 3472662 3988756 4840094
644.11 6039020 6474642 6678679 6849376 7432291 8105804
647.01 8594745 9113802 9257160 10053597 10704222 10822975
649.90 10957405 10666815 11129140 11752614 12668527 13845855
652.79 15326653 16681800 18009725 19525609 21854001 24066880
655.68 25726602 27379715 29985887 32751695 35254041 38152519
658.58 41471564 44965594 48687900 52536121 56908308 61802350
661.47 66023444 70681798 75776997 80921502 87523410 94184195
664.36 100574607 107565075 115180527 122376603 129284822 134697036
667.26 140311726 148921469 157787910 164684072 169912306 174108072
670.15 176833010 177317488 176585955 175483847 175364118 174129736
673.04 171429019 168571393 166972296 166176515 164957727 163104777
675.93 162895755 165592967 171344396 180147070 191497071 202517594
678.83 211296278 216096279 216834029 213604577 206706324 197099142
681.72 185592623 173543826 161383973 148710929 136079219 123967564
684.61 113405512 104930703 96970489 89054255 82133736 76305166
687.50 70985133 65899979 61687312 56953453 52587863 48916651
690.40 45052361 40927671 37756983 34616185 31277058 28191608
693.29 25728322 23369551 21251493 19031739 17866646 16863591
696.18 15334958 14063628 13615011 13184461 12937656 12973118
699.08 13052037 13077277 13002933 12764126 13514621 14467438
701.97 15096352 15477510 15991302 16845526 17790142 18543688
704.86 19261330 20188572 21220354 21563218 22298111 23302971
707.75 24199068 24497374 25170711 26351520 27292392 28114105
710.65 28903456 29465421 29915752 29933653 30751186 31295175
713.54 31576969 32610046 34249558 35376018 36816310 38522565
716.43 40845767 43322802 46191348 49001065 51073050 52378897
719.32 54574192 57718858 61648421 66586310 72011432 76932184
722.22 82876504 89981043 98094443 107010936 117181045 128015566
725.11 140085177 154461220 170732531 187798572 207175183 228263971
728.00 251639477 277576017 305979749 335878890 367533368 400669056
730.90 435585182 472479302 511081777 550473020 589841245 628621386
733.79 666742536 703816183 739833707 772781885 803607806 831509304
736.68 856371031 876651980 893565054 906624334 916461896 922015323
739.57 927325013 931456863 933241526 935278184 938614549 938824456
742.47 936035050 934477951 944611082 945867694 935764881 918905679
745.36 899088902 908332576 924797002 876308910 810257897 794756545
748.25 785560147 765040048 731258655 689245013 637868214 579503519
751.14 515936578 452269826 389790509 330070932 274239433 225134668
754.04 182820824 148421390 119582000 97055644 79507182 66721587
756.93 57432732 50914773 45378752 41556697 38705212 36808465
759.82 34869880 33414597 32293671 31119100 30187774 29954116
762.72 29248884 28563444 28494502 29040393 29189592 29251686
765.61 29544308 30255092 30885337 31989564 32836115 34139006
768.50 34928939 35731132 36657419 37930253 38766518 39759318
771.39 40642298 41187732 42224916 43739065 44646636 45787531
774.29 47614044 50156621 52977397 56321057 59815561 63704798
777.18 67197207 70721210 74033007 77033793 79573669 81879453
780.07 83933160 86370495 88955998 91395218 93714974 96891629
782.96 100080692 103346386 107232302 111645271 115754394 119005941
785.86 121839890 124833042 126153276 125090489 121187605 116097603
788.75 111055223 106196631 100586908 94478814 88613401 84123988
791.64 81333921 81173079 83893557 89965937 98192736 107441602
794.54 115280182 119693760 120744840 118986139 115261577 110308576
797.43 104186396 97572673 90560005 83401891 76133942 69212337
800.32 62596011 56601243 51135006 45914500 41303782 37515054
803.21 34347280 31036771 27880164 25410606 23364293 21624281
806.11 19443496 17063704 14917868 13496140 12339475 10673835
809.00 9108384 8186696 7049489 6032329 5313695 4577306
811.89 3822591 3260290 2908161 2534023 2279325 2395852
814.78 2127609 1923553 1895300 1985725 1736986 1481842
817.68 1478166 1539268 1518662 1593964 1604314 2130829
820.57 1976727 2030224 1925599 2150914 2513676 2334149
823.46 2330700 2433630 2356989 2537664 2915377 2911666
826.36 2646584 2557962 2217668 1762128 1632303 1835521
829.25 1988662 2170363 1911992 1856081 1963510 2218383
832.14 2515182 2865220 2767957 2343382 2040868 1785043
835.03 2238781 2683663 2774848 2792011 2583152 2588381
837.93 2898141 2565159 2230426 2419257 2475199 2237388
840.82 2339653 2641340 2335723 1973903 2084781 2551990
843.71 2760087 2734403 2686881 2840066 2659656 2502022
846.60 2412954 2537699 2998483 3312122 2843513 2587712
849.50 2924627 2875238 2381106 1925026 1997176 2249030
852.39 2110603 2069129 2220563 2242791 2331259 2453856
855.28 2367688 2075071 1953725 1678146 1468973 1594394
858.18 1846456 1950141 1963061 1711711 1357704 1171658
861.07 1009943 1075827 1259323 1213171 1129365 1145243
863.96 854168 771032 826264 772945 897310 1028708
866.85 854980 816784 769572 814858 1054260 1059547
869.75 954531 1323221 1404421 1164950 1078321 1109671
872.64 957355 820885 699458 1048354 1468148 1403168
875.53 1324255 1359644 1425144 1517609 1589857 1745323
878.42 1643540 1534522 1582226 1622313 1720000 1804939
881.32 1780836 1570222 1403645 1662650 2162738 2435857
884.21 2252947 2074083 2304828 2682313 2551021 2563433
887.10 2790427 2852512 2984549 3015569 3182608 3576203
890.00 3783002 3736869 3901846 4160073 4167819 4084075
892.89 4225756 4459681 4457459 4525446 4512029 4599112
895.78 4685841 4582537 4771560 4967134 4985192 4947727
898.67 4857003 5153241 5367888 5291630 5567963 6106050
901.57 6140914 6518490 6705454 6964130 7292385 7594529
904.46 7642900 7564545 7553953 7784680 7966215 8367325
907.35 8828035 9194159 9529464 10017939 10504150 10984225
910.24 11435337 12094487 12970926 13994446 14732701 15446916
913.14 16554606 17753456 18750375 19825141 21398529 23258748
916.03 24612523 25893345 27629827 29586410 31536242 33741070
918.92 36069820 38639797 41219521 43850153 46568834 49657002
921.82 52895221 56362528 60356334 64570118 68747308 73053117
924.71 77868236 82924243 88396501 94214714 100251418 106564715
927.60 112870774 119219712 126103983 133291805 140144499 146846681
930.49 153122913 158749945 163384924 166359983 167008255 165078073
933.39 160835396 154555887 146950437 139160224 132161287 126305629
936.28 122793652 122711222 125996290 132950055 142942309 155888953
939.17 169989892 181537645 187923642 189190593 186613121 181242772
942.06 174022133 165479329 156533785 147503099 138061991 128791644
944.96 119508370 110838828 102983958 95886056 90115272 85950500
947.85 82555509 79019703 74500873 69583358 64869011 60370321
950.74 56276811 52800815 49299241 45704448 42266471 38971627
953.64 35774966 32746037 30061455 27670025 24804046 22283695
956.53 20335944 18562268 16817482 15372011 14127066 12980716
959.42 12061173 11434843 10921875 10102805 9357068 9141650
962.31 8686268 8171351 7704407 7290420 6916578 6428910
965.21 6258235 6445909 6092278 5802569 5770417 5678349
968.10 5672962 5446036 5038753 4946333 5010469 4872580
970.99 4722823 4741656 4758031 4763524 4666093 4495860
973.88 4243249 4027821 4076177 4327237 4441017 4452440
976.78 4448830 4368501 4036575 3826711 3713798 3438162
979.67 3074242 2746293 2598618 2535417 2474245 2267955
982.56 2119225 2242232 2291546 2098132 1890032 2009794
985.46 2085353 2069047 2168865 2266150 2259222 2248226
988.35 2372222 2474502 2522227 2493361 2507968 2624531
991.24 2576123 2501234 2398721 2377274 2531675 2661140
994.13 2628082 2539142 2643544 2883625 3000399 3043337
997.03 2777394 2761678 2800800 2777422 2672758 2850528
999.92 3019863 3044170 2959639 3131537 3011239 2888445
1002.81 2862843 2962126 2915396 2641286 2585337 2638645
1005.70 2619045 2503416 2615070 2658737 2677820 2552931
1008.60 2531372 2687132 2668191 2828941 2921166 2936838
1011.49 2953677 2882907 2863381 3212686 3623547 3725529
1014.38 3253896 2374256 1703444 1870736 1984188 1747193
1017.28 1688348 1925616 1918198 2011474 2104840 2119960
1020.17 2271248 2386178 2535280 2708699 2699467 2568046
1023.06 2581050 2708349 2818361 2998571 2990684 3083314
1025.95 3109346 3120086 3318139 3560254 3507994 3511089
1028.85 3749166 3899531 4160216 4404799 4592617 4995553
1031.74 5498896 5818459 6088778 6653166 7070517 7294190
1034.63 7648131 8047414 8494958 8921644 9108989 9713018
1037.52 10419936 10656414 10803248 11295289 11865675 12370029
1040.42 12862841 13178784 13367850 13882670 14605443 15123280
1043.31 15415590 15959663 16570156 17006929 17444660 18023288
1046.20 18424403 18778154 19223013 19806080 20245496 20533418
1049.10 20469380 20042694 20049015 20035362 19622234 19523213
1051.99 19476939 19179516 18916749 18745902 18340545 17935129
1054.88 17710315 18001066 18453657 18919746 19444510 19954605
1057.77 20198140 19798225 19271905 18716529 17624980 16664530
1060.67 15852040 15063958 14423278 13782732 13237706 12830733
1063.56 12451537 11895461 11222459 10917131 10523721 10270766
1066.45 10185787 9976340 9797757 9777214 9446054 9189016
1069.34 8833776 8099777 7574036 7429996 6896707 6405651
1072.24 6284288 5974842 5644512 5140318 4810662 4750906
1075.13 4458904 4277900 4005261 3765010 3599428 3435225
1078.02 3364935 3164108 2881885 2691994 2742402 2497339
1080.92 2136569 2248076 2335985 2286953 2248819 2124967
1083.81 1811068 1519077 1289388 1083190 1198260 997832
1086.70 722958 790437 883693 915310 766968 782465
1089.59 930970 829500 544303 486512 689521 670914
1092.49 415629 417824 399007 291318 416946 644925
1095.38 697554 712990 652082 450704 235261 271390
1098.27 377675 253265 262375 373606 406274 242642
1101.16 357595 376732 102014 143938 71355 117697
1104.06 302525 225677-1538 2218 232141 328444
1106.95 154287 77437 159940 443596 542984 226129
1109.84 177179 396154 238735 22504-2680 269243
1112.74 338133 328297 298185 133006 222524 445268
1115.63 483802 399498 363020 274695 366905 421480
1118.52 383159 408105 432730 522256 643045 702802
1121.41 766335 703339 467517 491469 518179 434705
1124.31 433045 694031 785197 757908 824318 989008
1127.20 925771 627728 568574 726192 728746 776198
1130.09 806237 885144 756529 620602 652671 719256
1132.98 811148 924453 864888 844081 855435 921066
1135.88 944711 1172345 1326430 1416066 1311518 1393844
1138.77 1606405 1734378 1921051 2275246 2551922 2764261
1141.66 2872137 3180703 3401160 3584188 3991614 4307306
1144.56 4748431 5343354 5857843 6339292 6862416 7364105
1147.45 7898564 8522751 9253966 10201580 11150235 12032825
1150.34 12755318 13516188 14275394 15303634 16370590 17280394
1153.23 18323140 19661237 21060499 22791492 22938490 21584614
1156.13 20717636 20906571 22018211 24407672 28194280 30358103
1159.02 27612680 25115584 24742318 25651099 27095847 27626399
1161.91 27237505 27404384 28090094 27836278 25575922 23242490
1164.80 22306391 22207101 21889194 21099070 20184504 19591116
1167.70 19081927 18320784 17395040 16504108 15406545 14084570
1170.59 13030670 12200493 11320635 10359148 9285253 8403595
1173.48 7754389 7269268 6475296 5879960 5480511 5188689
1176.38 4978184 4741615 4417989 3940777 3563060 3587132
1179.27 3671331 3619953 3537259 3444499 3366136 3398221
1182.16 3521503 3687623 3855950 4080725 4364419 4637536
1185.05 4812140 5135316 5451020 5699122 6186358 6685673
1187.95 7034394 7498550 7863041 8414215 9074000 9759253
1190.84 10432552 11425739 12531366 13744902 15050149 16496624
1193.73 18180742 20260252 22519814 25056807 28156951 31436992
1196.62 35244221 39739765 44558243 50196974 56342526 63056070
1199.52 70596587 78840714 87233915 95803255 104305139 112743320
1202.41 120221124 126428437 131074205 134007141 135043482 134129618
1205.30 129864060 122073555 111938037 101478145 93528678 99275423
1208.20 138662325 183017907 159339531 109972742 92145692 97367907
1211.09 111508812 125581920 137018040 145279485 150730948 152779105
1213.98 152038723 148233039 141613775 132922766 122866067 111769771
1216.87 100117483 88382509 77247881 67013495 58017332 50252553
1219.77 43627962 37936335 33341612 29612883 26530764 24064148
1222.66 21969917 20019199 18447420 17051651 15780898 14899270
1225.55 14117884 13225814 12484326 11919852 11308856 10797154
1228.44 10537396 10396508 10250727 10234951 10118174 9885366
1231.34 9915770 10031924 10111955 10215989 10456695 10658976
1234.23 11132338 11699534 12356263 13309059 14464241 14955822
1237.12 14688096 14264217 14261301 14652283 15090263 15341085
1240.02 15560740 15725908 15952533 16267417 16442353 16236547
1242.91 16087701 15866316 15721361 15939736 16214008 16531791
1245.80 17030482 17543290 18197510 19309556 20623503 21881021
1248.69 23254764 24803643 26653424 28913696 31373206 34224438
1251.59 37334512 40785902 44646967 48681030 52983851 57612357
1254.48 62585765 68117867 73617652 78751688 83920782 88981243
1257.37 93782876 97974310 101506861 104235091 105924023 106870350
1260.26 106732761 105157577 102833340 100534225 98594888 97295574
1263.16 98583563 101392664 99203972 94626707 93757998 95658721
1266.05 98120281 99993431 100993229 101259020 100455735 98801416
1268.94 96414409 93719248 90667007 87099685 83403065 79678592
1271.84 75682542 71534661 67364376 63005208 58575324 54132128
1274.73 49747365 45693855 42007202 38385381 34943490 31840785
1277.62 28914596 26199443 23830526 21670146 19570803 17569458
1280.51 15761268 14300982 12923910 11780440 10704818 9689124
1283.41 8701556 7784584 7005463 6398636 5914615 5404800
1286.30 5071190 4791109 4533262 4461988 4309844 4202125
1289.19 4240869 4492961 4811370 5152317 5578735 6236021
1292.08 6725305 7333424 8159009 9104794 10019875 10964174
1294.98 12162896 13574269 14873025 16293821 17937467 19521350
1297.87 21288309 23203474 24813244 26331307 27921393 29517360
1300.76 31121901 32734284 34090717 35143524 36259253 37332168
1303.66 38142446 38836460 39922598 43195182 48765237 48543690
1306.55 41041286 36587672 36475422 37324273 38272944 38644111
1309.44 38180346 37879666 38096091 39019954 40048965 39968198
1312.33 40069517 40846646 41149121 40965828 40194085 38873661
1315.23 37257988 35378767 33002305 30453428 27811243 25319886
1318.12 22892507 20737730 18849175 17025142 15128533 13425887
1321.01 12229528 11207832 10218043 9432539 8780127 8180561
1323.90 7463223 7044904 6697339 6228715 5918202 5737481
1326.80 5660578 5496915 5254015 5209394 5369000 5631632
1329.69 5596359 5529732 5527078 5397210 5265193 5216390
1332.58 5160584 4944220 4909862 4999159 4982399 4841966
1335.48 4666414 4584697 4560853 4643733 4714828 4751554
1338.37 4737693 4618225 4569824 4654205 4695517 4690384
1341.26 4702957 4638238 4717654 4801622 4649595 4761911
1344.15 5092100 5067731 5208462 5434587 5210786 4853290
1347.05 4709278 4691921 4683802 4438444 4106488 4250389
1349.94 4056668 3446660 3166382 3414144 3873755 4170061
1352.83 4228227 4349274 4600204 4252526 3754706 3901780
1355.72 3846646 3237323 2585505 2488721 2405570 2119416
1358.62 1929883 1549835 1551253 1738574 1410509 1077661
1361.51 1235325 1398939 1420419 1581017 1360467 1075041
1364.40 1218097 1331115 1382781 1098790 792022 829269
1367.29 952731 771044 629889 876825 927068 725993
1370.19 673300 1022445 1003019 807969 771853 684025
1373.08 516091 662063 749274 640454 641221 794043
1375.97 674546 495783 551771 621628 604099 702249
1378.87 842025 886863 857031 824054 744619 644736
1381.76 751769 935026 799709 826078 1057683 987025
1384.65 812634 844155 477525 305533 246739 198622
1387.54 337218 578478 592267 640493 782026 750735
1390.44 580418 855740 818676 724770 614417 491898
1393.33 305972 52917 221518 639581 677023 631845
1396.22 721199 713322 405514 349407 404316 414311
1399.11 491714 615476 786056 964523 615535 617556
1402.01 859278 1026581 960904 1126698 986814 745167
1404.90 833426 1106595 1111637 1299183 1270878 1381880
1407.79 1437240 1374348 1339052 1611300 1634691 1632166
1410.69 1706288 1840350 1845351 2062528 2270092 2598209
1413.58 2470760 2616184 2832132 3085479 3246987 3591874
1416.47 3953423 4307790 4658441 5254617 5379862 5745669
1419.36 6878922 8245115 8986327 9792920 10594193 11785700
1422.26 12864694 14157403 15128563 16564740 17933995 19424778
1425.15 20763807 22429667 23982526 25940381 27859928 30125031
1428.04 32396070 35282734 38261091 41988710 44974281 46918918
1430.93 47655527 49072323 50094900 51369279 52031732 52275922
1433.83 50738511 49335244 46668386 45165798 44927868 55191249
1436.72 95090394 154838763 135274585 59896462 36885088 40370066
1439.61 45385588 48953113 52351546 53840500 54940867 54577807
1442.51 54316097 53053161 51534510 49306108 47010227 43980004
1445.40 41517428 38968054 36783473 34070962 31880516 29836320
1448.29 28070515 26029588 24151432 22088917 20493229 18855091
1451.18 17284257 15486026 14005022 12564592 11474396 10320083
1454.08 9126821 7614832 6781654 5925758 4447652 3388216
1456.97 3807518 3537075 3227837 2975328 2729943 2394673
1459.86 2355496 2326445 2162538 1958106 1831780 1517143
1462.75 1494256 1391426 1277883 852901 861746 1078963
1465.65 1301409 1395729 1395917 1264156 1299001 1357944
1468.54 1319923 1065273 1094558 1054337 1165480 1023336
1471.43 610488 689151 1010928 590202 563830 865637
1474.33 1070623 981036 774602 596455 831331 1068961
1477.22 1146689 1120315 1197336 1003419 1048118 1079838
1480.11 1220957 1174303 1251331 1238441 1108524 1103717
1483.00 1159980 1011677 951423 1066730 1296225 1152106
1485.90 1016108 830336 697707 871649 1090446 981338
1488.79 677366 419086 424093 453815 792317 879911
1491.68 690929 639148 567562 546241 651561 573878
1494.57 479026 281759-469035-520639 129830 146418
1497.47 117428-237059-352205-96647-31697-158255
1500.36-195067-286937-230432-151571-109681 33469
1503.25 24233-133359-302069-1113033-1615418-1022426
1506.15-1371703-1631799-789359-377655-421450-371585
1509.04-307182-236048-93994-171533-154359-197316
1511.93-280747-168886-48410-36775-22977-197440
1514.82-150585-38070-186244-297297-473167-397232
1517.72-40721-63714-100403-167775-272536-487218
1520.61-1057768-874438-337199-493642-262289-84276
1523.50-57877-101998-326527-643610-378494-269185
1526.39-313157-232551-8744-147588-296293-198358
1529.29-102097-214963-188706-194092-229963-338979
1532.18-335795-381482-496239-509244-220642-275574
1535.07-210660-87474 32635-97895-216487-357869
1537.97-713196-1650381-1293883-931310-1023622-338362
1540.86-224870-806892-785305-234866-141736-99872
1543.75 62638-135869-441082-231669-10126 42894
1546.64 61856 119990 198689 187799 61011 46066
1549.54 54698-11632 567 139423 229379 55660
1552.43 87393 162807-151986-565511-88454 174925
1555.32 119573 121412 93925-479449-820121-1371313
1558.21-1475438-667958-944023-1506668-792033-257
1561.11 31830 24959 64459 153141 105755 31295
1564.00-50405-112007-6620 57150 73944 144544
1566.89 26573-8516 19468-47565-303868-568154
1569.79-177488 104800 16600-18432 9084-19639
1572.68-209055-186183-80694-38797-144138-922849
1575.57-2076448-1442918-367934-222300-181307-251297
1578.46-173750-140234-206361-276763-212504-131627
1581.36-121240-161025-165694-237662-287079-228251
1584.25-116201-152182-144326-153021-216214-161100
1587.14-60514-51865-89078-89029-125332-358797
1590.03-337134-285206-229015-179373-212661-205979
1592.93-193625-197240-215198-147430 92196 132762
1595.82-10603-23964 107327 186257 82403-73566
1598.71-28328 31048-3560 53308 133128 166087
1601.61 193467 108894 16254 68221 84523 144503
1604.50 363384 325525 247855 223381 234642 235218
1607.39 289048 305422 295174 273640 266730 312338
1610.28 239804 273236 293328 292076 191387 194758
1613.18 276111 278329 199438 130014 103585-232816
1616.07-1172235-786430 146323 348053 373730 154260
1618.96 90801 154092 183922 49430-32170 63602
1621.85 62965-218396-592620-646005-202367-13761
1624.75 23141-83429-197060-312533-308971-385522
1627.64-295236-174330-251421-401706-385696-280234
1630.53-227891-239593-226831-300528-267686-263235
1633.43-382422-494705-758613-1362767-1215147-448264
1636.32-251184-422855-504459-442834-353315-318104
1639.21-313290-249075-146324-213041-289772-284561
1642.10-293521-229524-120631-102000-107588-173500
1645.00-683428-1194309-620113-369325-632108-509976
1647.89-442102-265999-121663-136605-198028-183243
1650.78-277401-793925-1857648-2222545-2315799-1573167
1653.67-930442-841981-260810-128079-214766-264414
1656.57-176259-154046-179376-184749-156044-220538
1659.46-198095-188271-174586-219220-375665-710127
1662.35-789589-401150-110946-159833-300965-261913
1665.25-262298-340312-214583-129968-236865-315304
1668.14-475754-950457-887394-348606-278708-571462
1671.03-667419-410242-243793-262637-220183-176289
1673.92-304288-808161-1072621-671080-365553-296257
1676.82-291606-272673-146088-210638-252965-263099
1679.71-326590-325224-300411-253712-246883-445334
1682.60-723170-704867-869904-1833860-1899474-627465
1685.49-169819-97071-77142 20529-29084-70751
1688.39-34719-22039-198308-297010-208207-52927
1691.28 64617 74658-28252-127478-219992-160495
1694.17-225391-670656-1770982-1858802-658052-189019
1697.07-117162-41036-33927-171433-958104-1772457
1699.96-1605384-925499-242190 3466-31220-155270
1702.85-83694-200408-469337-488351-198286-246281
1705.74-510485-337180-143860-194648-204520-193965
1708.64-230844-233090-149164-106638-119758-179590
1711.53-88887-55502-164444-215346-251521-343209
1714.42-559707-624301-258827-168831-746076-1602690
1717.31-1012313-497375-615754-260391 76098 75323
1720.21 11747-49024-152713-47744-55383-181108
1723.10-177308-48062 59626 42178-108698-227405
1725.99-151810-77807-143479-169935-54927-3066
1728.89-95515-276672-149776-50762-147914-79215
1731.78-68865-412577-1188920-1151121-1147009-1306403
1734.67-554556-118164-76733-186332-290240-264583
1737.56-132070-196234-318749-738213-897932-447258
1740.46-267473-231635-170125-312108-496174-461067
1743.35-349689-312915-216542-254190-332925-344814
1746.24-397558-433574-396146-540829-707400-535222
1749.13-352259-421611-546488-993525-940899-492223
1752.03-448705-420283-366416-288289-226357-398428
1754.92-505253-526288-661419-667626-409735-390547
1757.81-412188-445396-495858-427013-286380-295002
1760.71-459272-782435-674205-483649-368436-251589
1763.60-176350-206989-175819-153295-230085-305052
1766.49-364807-444043-614578-551461-302333-361428
1769.38-240839-103873-282649-458421-351635-743415
1772.28-1100488-519422-304176-438937-237207-100245
1775.17-145618-191348-179364-132342-55625-32127
1778.06-109528-131884-52409 11809-115209-168881
1780.95-48139-93911-3852 137609 239898 202321
1783.85 67331-181889-122053 31954 8001 10138
1786.74 68075 60124-12715-20467 82859 39218
1789.63 39742 5897-118439-13831-11193-374908
1792.53-135566 220259 232321 243517 296914 238838
1795.42 200900 184996 233474 280042 312745 250404
1798.31 182502 105729 83768 189549 291509 225089
1801.20 133487 110555 124678 77459 74580 198065
1804.10 287985 285324 335281 329337 248058 188513
1806.99 121728 93252 115794 89154 172215 145985
1809.88 13688 405-2209-15791 47121 77424
1812.77 156012 130011 101248 135536 184297 164248
1815.67 148278 118300 20782 10761 93245 205871
1818.56 214006 190542 294836 357381 386235 326891
1821.45 269233 261754 345382 543653 623291 511242
1824.35 349779 583208 982653 844671 549908 363723
1827.24 183039 193060 206337 118028 92090 8463
1830.13 146915 235718 185970 246341 326140 258276
1833.02 209689 138567 161446 216325 195881 130167
1835.92 135687 85134-56583-80611-54814-305
1838.81 62304 29767-9517-17143 6949-146072
1841.70-241964-289220-406974-556317-907591-738764
1844.59-314972-141694-48845-185087-240996-305336
1847.49-402259-349026-373159-463589-340623-275855
1850.38-322794-352081-410654-477210-429377-263751
1853.27-195603-321676-410216-386458-337235-380536
1856.17-362680-325998-391232-394575-357640-409109
1859.06-350669-279081-395415-562493-514934-402792
1861.95-364593-409291-385337-420887-508146-598826
1864.84-656129-522693-460222-413151-370832-465182
1867.74-453909-428331-605137-490127-246784-359411
1870.63-463437-487775-407910-351142-383546-312071
1873.52-210549-286148-390196-335241-252202-407814
1876.41-349012-308658-351971-327409-347160-330371
1879.31-275692-236797-193581-261406-386604-429201
1882.20-502896-563532-390547-291365-393037-427989
1885.09-377326-367417-431856-373800-302803-404945
1887.99-430642-384170-383876-383901-337816-252692
1890.88-216722-230859-210799-217275-313654-337085
1893.77-332787-486732-518289-433870-391301-387926
1896.66-352156-262371-208284-325177-410438-394879
1899.56-285644-209466-310207-386370-318655-316355
1902.45-379772-426071-450088-448429-390512-390911
1905.34-323536-258177-313439-422432-497707-414363
1908.23-313223-303904-387075-442839-501000-461370
1911.13-283457-320324-459840-421327-243990-229151
1914.02-305611-331268-327109-318587-294077-359178
1916.91-380631-501958-446270-221672-264563-293952
1919.81-284054-348081-342579-342327-378533-449222
1922.70-311417-185854-228961-269528-344339-301003
1925.59-238811-253247-299044-296324-273990-257946
1928.48-170888-194245-270814-221864-105667-96370
1931.38-173579-147128-99494-143298-185738-123668
1934.27-175243-182507-113972-135048-80401-38521
1937.16-65788-91936-10923-52839-137338-125071
1940.05-203528-178581-105893-110296-85510 35842
1942.95-27655-198171-215515-105638-93534-48438
1945.84-82899-92709 17691-11819-140065-227553
1948.73-196919-230077-243531-152771-56888-49400
1951.63-129243-132038-319203-445513-368198-271167
1954.52-203903-246294-293391-209991-60496-155004
1957.41-276638-298418-226147-94796-58469-144394
1960.30-209846-238851-175946-155348-232926-413578
1963.20-418757-305284-290475-286317-304842-311938
1966.09-323680-244537-209912-202237-165576-115791
1968.98-83137-93703-116919-118530-126111-73940
1971.87 35563 92642 43373-23254-67214 24731
1974.77 199912 247035 98263 97328 245453 287064
1977.66 329177 350909 322239 280393 275085 331242
1980.55 420806 368441 372383 427485 373436 335390
1983.45 287112 336123 389239 381769 433734 455993
1986.34 417415 394075 402468 341842 310485 414049
1989.23 519898 515687 406519 296170 303615 313535
1992.12 242144 145466 155435 195607 255737 208470
1995.02 113738 106100 169149 109398 119282 107941
1997.91-20749-19757 70414 104263 90762 126180
2000.80 96919 41087 38642 66180 37487-21964
2003.69 9376 16989 10413-29211 17056 87896
2006.59 27646-43935-22336 113637 73434-40110
2009.48 38179 28008-43791-15834 57932 59726
2012.37 21937-66740-113134-90106-68779-64642
2015.27-80917-12424-21492-135192-269790-288280
2018.16-172215-109087-67280-127739-187268-132648
2021.05-300195-440004-301819-198064-125347-12483
2023.94-10450-73210-145678-117134-125817-186116
2026.84-201453-225894-292748-224769-183529-190423
2029.73-155522-93631-120729-112742-19440 2656
2032.62-115333-116969-124891-219635-243442-116483
2035.51 19242 86247 44985 2373-6627 19615
2038.41 12683 28746 43007 6933 16177 64808
2041.30 49490-7846-2271 93142 177874 166249
2044.19 173403 274159 298294 202595 275486 272217
2047.09 213618 165311 170346 248320 269764 118910
2049.98 91395 266789 254133 189847 197248 128976
2052.87 94875 62474 80490 179902 163687 178828
2055.76 125470 64080 122110 241315 142529 60364
2058.66 91280-79004-173956-63618-74327-119297
2061.55-68778 45261 57564-86931-156237-270198
2064.44-288972-294416-213677-143973-187266-257578
2067.33-182996-140268-188507-82756-29807-133162
2070.23-168905-191459-129044-58076-128027-251598
2073.12-183011-75401-18156-3347-23594-545
2076.01 42110-118305-333695-292658-38281 67506
2078.91 132135 114006 66034-32440-170499-319554
2081.80-281216-147815 6327 206757 94667 78217
2084.69 178509 75553-176434-137618 107384 154457
2087.58 247146 204187 267829 404654 422227 74679
2090.48 49542 393196 653373 576395 556268 566002
2093.37 559903 252902-100300 285193 603487 650350
2096.26 691847 732441 919566 973148 543850 167432
2099.15 569602 744806 720092 720851 841626 772256
2102.05 604367 97907 45885 514937 540948 538781
2104.94 670123 796393 771034 533685 90506 350494
2107.83 767590 850300 716792 646965 665966 657755
2110.73 157443-100685 471590 677185 782519 754078
2113.62 558752 400823 112564-447962-90463 239394
2116.51 282455 340338 284005 244360 125113-438634
2119.40-540336-67127 90636 127969 106064 198623
2122.30 111560-414544-806620-400616-123530-68258
2125.19-19382 69619 17693-261099-671567-386471
2128.08 45151 139632 87734-72262-155162-226522
2130.97-607444-518680-256240-176309-104551-101559
2133.87-176706-244412-373148-296679-76620-81808
2136.76-14026 33064-58396-263931-377910-429919
2139.65-360238-269887-188765-54039-110339-182399
2142.55-119015-198546-116119-21490 62213-5436
2145.44-106695-120669-371123-453143-239072-203874
2148.33-186570-143290-763-151380-550201-523769
2151.22-287493-143106-53587-66623-66653-438458
2154.12-780389-481368-202023-218278-184469-188199
2157.01-265971-752435-903146-361189-65334-38598
2159.90-79435-126416-367302-1029844-827485-223460
2162.79-105284-111728-92175-202118-887258-1120563
2165.69-451530-132229-212920-111376-22619-343696
2168.58-1076448-807587-243413-223015-16078 90151
2171.47-128959-785411-844831-130640 97981-100494
2174.37-106153 10895-426134-810617-205006 67611
2177.26 117393 249397 168662-294700-950500-531785
2180.15 98759 166113 152799 189436 76902-508097
2183.04-464324 23794 133656 245056 272722 92475
2185.94-452803-439745 141837 320992 273981 199985
2188.83 76820-314501-119683 415103 479569 447436
2191.72 389947 204335-66205 86929 372964 505161
2194.61 584105 514911 360489 120018 301065 546041
2197.51 692441 665990 535423 284793 130519 318569
2200.40 496515 582816 590807 475695 203889 55261
2203.29 312476 463364 584605 591803 454433 300956
2206.19 457660 573246 499064 486278 402312 286272
2209.08 111531 39700 115712 238165 272779 176581
2211.97 95588 134722 249945 239359 163799 72636
2214.86 135 48121 124659 210727 39851-95372
2217.76 8304-65446-136468-181238-72198 12472
2220.65-91143-168571-122504-88296-4073-40341
2223.54-114071-81025-53034-4505-108048-237754
2226.43-153693-138830-98324 58431 70351-97233
2229.33-88867-62891-40309 52501 10247-40089
2232.22-35672-56463-180258-283582-63116 74633
2235.11-50938-96075-104051-161021-65684 93597
2238.01-6545-175951-62630 9308 14536-25483
2240.90-115642-84420-20582 25240 107456 84989
2243.79-59638-36499 95600 111601 72831-27642
2246.68 48087 202515 251020 112686-31857 10480
2249.58 117246 109126 2115 60881 148400 256383
2252.47 208970 51744 93127 63097 116376 157948
2255.36 198006 138925 101846 90123 108376 91717
2258.25 131681 18891-66155 29939 45793-54835
2261.15 74304 124852 17588-57406-65223-63508
2264.04-54980-3014 99881 75373 20093 67986
2266.93 90271 6454 13452 6897-3334-71061
2269.83-193351-162636 26220 37926-8541-39344
2272.72-141590-195399-127412-175499-171923-46480
2275.61-25490-30898-72486-80373 73431 10649
2278.50-100268-4378-15924-188612-166911-152402
2281.40-223070-158576-61653-59436-102083-204784
2284.29-199676-200247-204154-207240-190595-272424
2287.18-323201-246235-89987-11827-51084-207379
2290.07-241954-186786-92228-53560-63330-169017
2292.97-270438-274028-182104-218875-313407-307261
2295.86-208768-310594-415175-445260-319107-211007
2298.75-231721-345685-300143-159655-79564-41039
2301.65-99585-271963-185508-207507-300937-436358
2304.54-227896-92303-196816-467104-591540-430934
2307.43-219181-212048-476569-520145-392655-602451
2310.32-795437-646317-299255-307697-503417-778959
2313.22-409015-461514-786425-1295819-770984-365196
2316.11-627834-1425441-1071127-549987-768550-1603379
2319.00-1310070-483850-720556-1886978-1615022-605949
2321.89-902438-2277162-1947880-677764-1048833-2531289
2324.79-2097176-595841-1336346-3137023-2283476-564776
2327.68-1666126-3419243-2119941-546974-2267426-3879960
2330.57-2029254-927511-3191678-3794474-1314697-1206141
2333.47-3665044-3194447-874032-2085114-4247715-2528192
2336.36-1001197-3084573-3766953-1294940-1419177-3631168
2339.25-2571818-784161-2390703-3222825-1191665-1165019
2342.14-2723606-1713376-642418-1868883-1922984-562597
2345.04-883647-1374713-374237 24543-420335-164956
2347.93 244616 383670 354458 199509 479038 464373
2350.82-187157 43168 456275-586956-564045 174819
2353.71-1099036-970213 169444-1364317-1264411 164468
2356.61-1611732-1434619 31450-1968413-1430055-110859
2359.50-2205281-1001478-184875-2125723-420069-614097
2362.39-1774729 374054-663301-887453 333730-1267840
2365.29-36452 124769-930797 537349-351222-71787
2368.18 446986-250175 708056 189515 412099 603903
2371.07 249993 862206 404586 686270 365732 371793
2373.96 485777 389690 684138 677876 890904 652194
2376.86 664644 656369 801881 736175 603826 576812
2379.75 686293 635237 505410 509864 601964 463982
2382.64 446146 573759 649400 590324 610469 604416
2385.53 539122 483930 424828 338185 398716 556268
2388.43 609581 529183 526819 564274 605022 625916
2391.32 661031 792717 860444 833343 835997 831380
2394.21 799672 911598 1024375 963268 1007285 1058611
2397.11 1017205 1045763 1040270 1122142 1256348 1304389
2400.00 1270955 1274612 1290675 1293029 1373951 1459564
2402.89 1477869 1465430 1523997 1807082 2258524 2505438
2405.78 2432383 2151767 1836443 1569153 1393932 1337747
2408.68 1186481 1071306 1135794 1045132 1031078 1116475
2411.57 1086210 1110850 1151244 1128447 1131730 1146077
2414.46 1045402 1004272 972801 972367 861635 596661
2417.35 386681 421480 653288 775361 822534 852639
2420.25 826116 733276 576606 547478 466226 387784
2423.14 432951 438813 306052 210548 268869 285244
2426.03 188444 197408 204044 190043 172724 22170
2428.93 44297 165138 100599 6958 34888 35948
2431.82 64413 149637 105596 5977 739 15886
2434.71-65072-26750 143456 269285 160044 180946
2437.60 263514 341342 288840 138443 339126 511592
2440.50 440199 376123 423609 495605 485815 564129
2443.39 563866 506474 507355 504786 660776 783498
2446.28 815319 897920 1050917 1186884 1122732 1077567
2449.17 1239319 1301603 1298958 1368334 1522780 1643119
2452.07 1693073 1756480 1785551 1789690 1908493 1944917
2454.96 2007434 2153209 2187468 2197075 2322094 2378175
2457.85 2358798 2590470 2658197 2564092 2545188 2526013
2460.75 2575131 2657938 2516669 2386407 2493118 2433013
2463.64 2279251 2291282 2332332 2262399 2433169 2418819
2466.53 2274602 2127312 2041899 1940624 1775131 1731718
2469.42 1763939 1738912 1818917 1724142 1600588 1609350
2472.32 1434030 1335968 1458662 1481154 1409563 1394784
2475.21 1344479 1279331 1282753 1309925 1159949 1059469
2478.10 1101766 1082057 1095132 1024752 919226 942175
2480.99 967068 965872 958034 971246 1025565 1048196
2483.89 966788 877211 851242 961383 1062922 986037
2486.78 747744 730671 891566 1013949 1037150 988872
2489.67 999554 1017586 947924 837321 812648 881299
2492.57 843516 693145 689220 797101 906105 846995
2495.46 787794 813306 846284 812371 683920 726347
2498.35 785284 713079 672498 695477 786191 786149
2501.24 849276 905327 755874 842388 981881 835442
2504.14 856755 1035849 990547 976645 972734 896376
2507.03 1097312 1189980 1160684 1200682 1297070 1315554
2509.92 1262944 1311836 1351556 1417977 1500418 1551901
2512.81 1666041 1636552 1591450 1620211 1682956 1617008
2515.71 1428611 1371347 1353695 1257769 1199458 1189575
2518.60 1208371 1272476 1342354 1319946 1249168 1285615
2521.49 1376980 1328345 1236907 1344250 1356364 1245941
2524.39 1014932 989955 913788 812194 873377 789272
2527.28 682698 602671 521361 430906 404146 409718
2530.17 509689 411930 117466 29293 110638-7604
2533.06-70965-99229-34295 72989-11032-61379
2535.96-95616-291673-335580-133083-61449-213548
2538.85-244463-268663-309850-239007-98237-130851
2541.74-228932-108744-122741-54860 35885-34742
2544.63-264310-323179-278883-119626-195133-231226
2547.53-58081-19289-80413-97581 24607-37532
2550.42-119556 32471 186548 234980 92353-82800
2553.31-118060-97265-204187-102446 62139-7352
2556.21-26147-11597 128003 324598 420768 333823
2559.10 359736 442037 437399 434171 443834 448968
2561.99 439829 324171 389149 628046 651013 549615
2564.88 657289 665626 482199 351318 441109 557663
2567.78 419688 349226 476033 574354 634283 669502
2570.67 615331 556940 584307 567229 416263 258920
2573.56 303196 435684 423885 436758 446710 426472
2576.45 420421 347457 318362 315913 277888 352072
2579.35 421349 362498 329340 236008 232412 288078
2582.24 197636 105333 143700 165881 205859 188659
2585.13 167449 271330 290390 407028 447252 282752
2588.03 307551 412503 319550 193372 278158 362372
2590.92 272458 292087 376174 429628 435609 332647
2593.81 358933 439308 351689 435203 456093 369269
2596.70 403010 526799 624510 633848 570247 459798
2599.60 313454 272754 436785 447060 429228 512269
2602.49 554150 462900 468427 462480 397865 381384
2605.38 203417 175085 263792 182855 170759 130518
2608.27 159710 322940 328131 241680 183601 268504
2611.17 243209 166651 179834 199964 234578 192843
2614.06 239215 309116 148951 11793-14037-30701
2616.95 47995 181279-41506-59169 81391 11410
2619.85-38032-64434-237606-207209-101425-187581
2622.74-94358-41405-220526-209068-153252-199538
2625.63-159288-40000 55767 6596-114638-245356
2628.52-214709-220147-274586-173632-56739 37084
2631.42 19093-86132-197285-200775-146273-41351
2634.31-93732-150981-60119-74740-112719-56988
2637.20 120127 59267-163344-132185 76919 220410
2640.09 227670 94031 34413 113339-3759-107836
2642.99-31174 98767 144078 154192 140358 147675
2645.88 81316-105628-132039-52600 53119 13790
2648.77 170993 322385 209157 48997-36198-174775
2651.67-139597-107940-93685 27314 121955 202447
2654.56 138991 24990-44629-158470-158595 24646
2657.45 24749-91531-220803-204581-96557-2138
2660.34 49211 120402 98129-91722-124594-151528
2663.24-134776-129469-128366-51622-62316 30945
2666.13 47886-64394-91552-2953-18988-218490
2669.02-261191-160066-7830 33437-14103 28350
2671.91 36146 368-7908-44704 3665 58285
2674.81 46854 104774 188761 158104 33355-8629
2677.70 36141 142865 84120-105706-84367 102442
2680.59 199357 58771-20045 25553 54734 98037
2683.49 12580-100670-50844 35043-3536-54817
2686.38 26212 164006 263739 359156 337216 297720
2689.27 379211 480546 618650 728254 621564 627084
2692.16 789480 900735 864859 816411 831188 852307
2695.06 985450 1009648 949223 983378 918292 908297
2697.95 992278 977817 1016200 1053009 1024084 856553
2700.84 777468 941270 1037075 936990 947556 1051053
2703.73 1190656 1210044 1106380 974411 934499 869388
2706.63 890959 990166 1083246 995004 796133 550324
2709.52 355852 425091 491262 413620 273015 238127
2712.41 249698 197802 159810 112713 81039-2077
2715.31-65406 46824-25443-147476-174815 16128
2718.20 40313 83651 159627 110559-131087-261821
2721.09-187491-62488-58870-21622 34604 73923
2723.98 22634 115568 257047 271145 282742 333626
2726.88 245338 113497 103616 164804 187682 244359
2729.77 344351 245322 160008 124046 218267 472384
2732.66 670730 735830 757748 848917 708238 525458
2735.55 663780 720129 634348 822920 1006918 1119019
2738.45 1033094 785834 706356 888209 1001817 945230
2741.34 980122 1044689 858199 734044 759768 694361
2744.23 701733 678767 576881 779326 992935 933063
2747.13 684238 502115 477965 727589 948904 842694
2750.02 689623 687554 612071 461718 344131 292277
2752.91 428456 385206 363491 294068 124364 56071
2755.80 43055-45554-48463-18539-4452-5562
2758.70 55891 100367 10710 85665 103741-101964
2761.59-187916-93832-268 22720 38878-66197
2764.48-9756 73401-27873-115495-68399-26492
2767.37-136890-114354-12069 40601-58330-143888
2770.27-62954-73824-208062-287125-243681-100158
2773.16 87207 129763 61273-88516-119082 28878
2776.05 14903-123256-73311 26027 128576 103444
2778.95 244314 226540-24438-22231 78788 17972
2781.84-56301 3736 83350 51003 45444 23695
2784.73-46750 106961 130672-60943-37179 59769
2787.62-11656-198764 20391 449405 291866 81549
2790.52 39278-114239-153564 10470 163798 155225
2793.41 80647 187004 253604 278915 203292 46162
2796.30-55756 40976-27691-127897 47113 20169
2799.19-96988 16261 123762 237034 442071 268324
2802.09 44915 27669-77919-165314-1906 224317
2804.98 160958 117071-84817-76891-167492-13608
2807.87 90946-1230 17348 172896 201109 24019
2810.77 9502 33930 80283 228293 246020 113563
2813.66 26732 46037 90392 263420 253909 221073
2816.55 153482-114745-94713 193255 364121 432195
2819.44 329603 55562-42205 118042 147145 150346
2822.34 348601 173557-16180 86558 147178 118827
2825.23 554-23853 193211 286780 228249 464276
2828.12 546722 533779 556689 440259 420215 357777
2831.01 351037 361623 472633 450010 264324 143068
2833.91 223692 279197 302926 264833 332901 495744
2836.80 691737 808295 802333 840466 813202 776686
2839.69 647247 722305 900003 871908 933158 1276481
2842.59 1426329 1332784 1372701 1538570 1796270 1960278
2845.48 2126318 2194936 2531928 2811786 3219603 3685341
2848.37 3971576 4320110 4804307 5266845 5702265 6087130
2851.26 6543837 7029095 7216802 7166903 7137723 6929573
2854.16 6632993 6371788 6015410 5885207 5897527 6640241
2857.05 8300553 9391220 8668087 6657270 5286216 5045134
2859.94 5257262 5799390 6353031 6750643 7173106 7083890
2862.83 6778345 6724094 6691306 6382828 5839304 5303136
2865.73 4887766 4463138 4001552 3624035 3269864 3108151
2868.62 2974187 2566382 2262599 2325812 2158893 1769354
2871.51 1563766 1475755 1383960 1372176 1209776 896869
2874.41 560664 444714 600399 1396991 1891808 1657943
2877.30 1339246 1278675 1334204 1399057 1250969 1132283
2880.19 1255458 1332493 1206921 1142733 1089283 1104740
2883.08 1205325 1264990 1212988 1145214 1118383 1210812
2885.98 1325021 1339227 1184968 1106432 1180275 1477010
2888.87 1231938 847853 1184689 1341303 1158865 1143219
2891.76 1161577 1058385 1100590 1236692 1240302 1300161
2894.65 1446414 1506924 1292586 1107180 1103387 1165914
2897.55 1149242 1082562 1178889 1318122 1406556 1529305
2900.44 1437008 1289215 1307432 1339967 1437209 1573429
2903.33 1374358 1191158 1130235 1066563 1144720 1090298
2906.23 1086082 1232042 1351792 1340339 1323995 1284612
2909.12 1349112 1361061 1278098 1382393 1308919 1352459
2912.01 1537080 1413780 1270904 1410425 1433186 1263415
2914.90 1297080 1207713 1159048 1426037 1687873 1703469
2917.80 1713068 1506488 1397736 1538795 1648287 1772057
2920.69 1628489 1523392 1602372 1796865 1828399 1628756
2923.58 1752068 2144266 2051561 1976195 1933360 1824766
2926.47 2014016 2258040 1970154 1964308 2044313 2035514
2929.37 2097916 2089992 2076315 2058600 2009048 2005052
2932.26 2039854 2115747 2191516 2147055 2020116 2094622
2935.15 2202765 2043303 1963407 2232795 2282617 2331896
2938.05 2402785 2389429 2438800 2421747 2199323 2150264
2940.94 2058413 1988324 2167594 2409437 2469643 2413740
2943.83 2366412 2393352 2422781 2657774 3004418 3270694
2946.72 3281350 3046082 3028789 3161379 3425138 3714402
2949.62 3745285 3850960 4008226 4241493 4417962 4627367
2952.51 4751272 4883556 5058122 5198543 5236136 5437609
2955.40 5802807 6121439 6448768 6791772 7051896 7321283
2958.29 7876189 8739016 9713761 10844850 12381053 14331299
2961.19 16079418 17877164 19193630 20028321 20588124 22105991
2964.08 24652664 27630206 30630064 33963209 37411079 41153381
2966.97 44372132 47042793 49203622 51044031 51601290 51436656
2969.87 50374266 48684159 45845702 42665140 39512887 38813908
2972.76 47665423 70404745 75798964 57500985 46281591 43837779
2975.65 43142329 43605901 45958382 48672765 51274883 53010775
2978.54 53914167 53817969 52806795 50898049 48565729 45582226
2981.44 42221544 38674588 35206149 32081346 29057315 26344965
2984.33 24533013 23444310 22200138 19721392 16824125 14600364
2987.22 13195955 11861672 10950468 10163710 9545774 8985313
2990.11 8606018 8301843 7943590 7633658 7421110 7179139
2993.01 7032106 6823549 6587962 6596125 6767848 6914857
2995.90 7108753 7642249 8167901 8565673 9183555 9715119
2998.79 10469039 11157717 11621268 11858685 11972552 11940537
3001.69 11799610 11567619 10900625 9894753 8979217 8103668
3004.58 7632084 9142777 13361070 15373180 12945919 10023177
3007.47 8749666 8655619 9066984 9653629 10419236 11106783
3010.36 11498353 11928727 12012794 11618086 11326845 10953746
3013.26 10516048 9975456 9458851 9021685 8532213 8104307
3016.15 7829606 7580897 7327249 7133929 6981430 6826830
3019.04 6916285 7132464 7204576 7087402 6960666 6497122
3021.93 5983955 5496118 4943073 4522807 5026840 6124459
3024.83 6396140 5359625 4460054 4661726 5076245 5257045
3027.72 5618281 6064979 6395671 6515296 6352647 5948456
3030.61 5651629 5514683 5348450 4887422 4510254 4134116
3033.51 3735159 3117730 2885316 3008360 2735664 2338711
3036.40 2251482 1926861 1795942 1790264 1436430 1221285
3039.29 1340772 1345419 1189048 1005672 911543 966653
3042.18 1005286 704964 647912 624138 664621 787601
3045.08 647264 409459 349588 451122 625564 680305
3047.97 694810 521008 467555 412848 545112 636093
3050.86 548049 327290 416399 693672 524563 274267
3053.75 304077 344950 426563 450370 312199 211160
3056.65 255380 259101 151870 204928 148234 90240
3059.54 185678 270007 323671 341610 221808 142888
3062.43 315922 496060 439164 283956 247318 176835
3065.33 36159 36142 137253 259723 417798 561888
3068.22 384005 454067 530766 268509 50430 45365
3071.11 29828 154633 390534 376637 140855 250420
3074.00 531882 353811 201939 132147 278480 295088
3076.90 224076 294852 255596 147735 213205 350219
3079.79 536078 547142 459407 523800 697953 587938
3082.68 487218 375027 403075 462936 437520 190555
3085.57 206007 333973 432897 570617 252986 66108
3088.47 451584 586246 105563-31462 141816 268360
3091.36 154344 11142 34275 159368 163160 89713
3094.25 243571 219915 39196 35249 201979 181324
3097.15 163245 234916 21350-281622-102657 145343
3100.04 113411-75966-174443-92595-60074-22897
3102.93 831 139882 110760-5543 130530 213327
3105.82 317628 226768 20549-109852-48211 189144
3108.72 215829 45690 79635 147256 255579 337900
3111.61 291447 61587 5411 233389 296961 124022
3114.50 83806 53392 401740 480508 241185 35576
3117.39 98082 38205-84506 8670 32410 230193
3120.29 310304 130965-159259-147035 53349 31600
3123.18 709 84394-55387 66152 242329 115675
3126.07 7519 14516-90166-96033-174756 2441
3128.97 124372 67831-46904-147983-191292-124057
3131.86 109252 380584 330053 187169 304746 324393
3134.75 229849-47659-73735 167329 325794-204
3137.64-220646-22832 109205 108801 315053 464021
3140.54 251676 174971 332178 400274 195761 67832
3143.43 46039 109994 197257 385254 602301 324685
3146.32-106715-216423-29011-103129-19474 335145
3149.21 507020 402380 251996 325901 268896 227211
3152.11 317325 414081 434541 348913 55768 89893
3155.00 259745 229165 194984 180881 210382 106285
3157.89 151591 345946 350134 197570 172569 165301
3160.79 138699 55501 25814-91974 93270 127331
3163.68 3341 276595 293141-69129-72616 296509
3166.57 410533 62997-113413-39744-4123 76845
3169.46 195346 236772 138361-123663-39901 121685
3172.36 109585 108577 73363 49387 135796 263536
3175.25 152986 122669 61220-46735-127081 45556
3178.14 180088 137266 97839 34578 131158 212008
3181.03 86106 89949 15867 175118 431932 364136
3183.93 133841 74546-48815-128192 18955 162805
3186.82 215494 64097-39411-122280-201490-196942
3189.71-200589 156795 383880 339802 250333 79233
3192.61 123927 285135 260553 216760 367366 235928
3195.50 14171 183237 315990 145959 22470-95056
3198.39-100143-220202-76565 320207 373135 96621
3201.28-75351 34172 61735 237747 345264 70132
3204.18-51869 130195 232115 263771 198650 73848
3207.07 56143-11643-191778-145257-84977-389798
3209.96-405407-334106-220828 53643 149444 264721
3212.85 114797-31736 39562 3067-32370 28326
3215.75 258112 193284-154888-105406 112734-149775
3218.64-296583-142295-76101-66627 12928-29034
3221.53-138018-35272 16894 68511 120825-1970
3224.43-49589 129047-15517-149438 79265 347147
3227.32 348968 167568-26061 107572 142994-209926
3230.21-337507-114312 65517 14934 266139 413458
3233.10 260486 279620 33856-234657 69000 288406
3236.00 105746-55567 108922 384721 239462-77636
3238.89-148072-34994-50436-197640-45571 167267
3241.78 214132 230418 202094 60265 31917 41108
3244.67 119694 171795 157265 146-116320-71601
3247.57 24145-1098 99717 135250-9760-35010
3250.46 32544 189828 147602 41248 60370 174007
3253.35-86145-209966-55825-48267-16570 77705
3256.25 96754 81411 53902-129675-397367-388668
3259.14-230722-99465-39441 10903 23491-85108
3262.03-37049-30443-143386-67254 133512 108939
3264.92 171579 192016-6008-114569-148546-167593
3267.82-172430-209133 7108 76848 14556 25626
3270.71 14228-90095 66764 98034 104229 40006
3273.60-162870-127453 20847 25902-191833-216676
3276.49 104430-88222-344808-223164-85353-52274
3279.39 24137-136349-257748-187824-176564-94639
3282.28 193345-38728-496944-356134 12615 64177
3285.17-5660-69998 30891 137034-83125-10138
3288.07 52752-34082 4611 322703 305280-78258
3290.96-22687 182043-11550-274058-150461 34135
3293.85-24261-150633-294997-114233 211963 296576
3296.74 98813-114073-43098 118660 81420 227598
3299.64 317330 161864-77211-74862-15104-42141
3302.53-195729-246735-331366-250173 150739 308451
3305.42 104030-215047-145417 168869 57317-95328
3308.31-98867 181988 246927 140252 26381-10926
3311.21-28702 118972-6613-148993 11202 155293
3314.10 135625 207608-19325-255332-119947-40400
3316.99 7829-135430-119098-25903 130893 207782
3319.89 157037 29471-49183-40461-27859-90800
3322.78-3817-16681-265121-351374-77796 55735
3325.67 132217 69019-93628 154282 152339-308481
3328.56-318867-190394-200857-79392 300443 176974
3331.46-33461-94385 83670 96368-221941-275016
3334.35-47316 315661 511638 383993 146348-141894
3337.24-189660-142406-67136 157386 11752-171712
3340.13 93904 70144-189451-393653-261873-72155
3343.03 38291 127252-26989 97281 296545 256248
3345.92-33277-79922 179463 308314 175188 79464
3348.81 141982 23246-232791-304426 131092 347618
3351.71 322683 143090 53757 228375 66250 76158
3354.60 154561 148978 127755 61439-40329 73364
3357.49 208111 273143 141192 208382 254990 44836
3360.38 25678 81884 130713 65468 373174 440949
3363.28 59417-100082-97647-198973-78636-88697
3366.17-62881-177 52097 66671 165646 145433
3369.06 92701 232489 250405 88496-31205-200739
3371.95-219802 57349 134985 183453 137312 158125
3374.85 6728-4685 29401 48302 122302-117063
3377.74-119687-46899-20694-64332-148562-108819
3380.63-186354 157450 483138 335188 112648 1909
3383.53-40658 104627 118578-55013-89935 38901
3386.42 152047 65543 122385 387752 481945 350429
3389.31 422837 378614 260071 254659 302878 228939
3392.20 269602 378478 266656 134547 245817 256284
3395.10 242969 287812 362956 319387 134416-48068
3397.99-211303 110480 444770 422504 526379 247311
3400.88 83984 332668 143000-84209 210465 510294
3403.77 623539 431468 281634 455529 371822-12199
3406.67-95491 144799 257637 403314 298565 331349
3409.56 381990 245282 395372 335771-106919-145106
3412.45 290077 586774 455363 78467 299374 507853
3415.35 183813 335451 845067 748642 515860 603733
3418.24 404440 528974 448143 343496 406755 251273
3421.13 16706-9193 21909-55165 6831 140077
3424.02 13345-40541 199588 352192 608137 228874
3426.92-62253 10973-117220-476799-358872-8481
3429.81 121324 185197-95248-504571-446007-241496
3432.70-46889-4906 109103 141948-113468-147299
3435.59-190735-180335 19534 40768 83786 203490
3438.49-51965-181682-168149-222239-276657-432435
3441.38-494614-131247 350348 390416 21587-158884
3444.27 137004 78941-166665 65374 190936 26284
3447.17 40489-14678-299713-346497-343853-159576
3450.06 228347 318507 246645 103162 25373 190441
3452.95 258939 175694 120712-107440-315395-368678
3455.84-126662 138710 17882-67977-84595-109980
3458.74-231453-113603-58155 51621 148529 40261
3461.63-298213-163224 1228-219452-207755-71962
3464.52-73436-146223-292111-293565-179175 31597
3467.41 98041 104789-76531 31073 249283 87866
3470.31-266205-411022-257662-120030-186584-454754
3473.20-408328-276343-223765-109420 10607-11783
3476.09-276952-172601-85995-107406-17050-502
3478.99 23069 12790-16345 8126 25781 56820
3481.88-126749-286876-188269-246512-437335-299274
3484.77-161274 1576-21797-158120-121938-217707
3487.66-48964 75757 60744-8640-101371-113896
3490.56-141150-119656-101673-186986-225471-437119
3493.45-419500-171097 189301-576-160055-156446
3496.34-104021 84333-3906-72144-56912-203651
3499.23-335322-191855-101862-133650-118543-147088
3502.13-114649-109119-283703-355842-444335-396592
3505.02-161461-154534 4741 54486-147104-114121
3507.91-111520-240100-140247-212543-228215-164495
3510.81-91064-61488-351198-387365-245438-280038
3513.70-140360-211645-343722-205501-195694-54210
3516.59 110838 71487-40112 11188 10098-233377
3519.48-341508-216950 82135 41919-87274-81785
3522.38-216822-182660-111924-127038-64165-237715
3525.27-384265-233114-150063-166252-202866-212859
3528.16-153639-48452-184527-185808-297382-268814
3531.05-220752-406318-269259 57671 28615-42812
3533.95 144129 93840-12309-180542-358607-341488
3536.84-412658-286282-23684-278611-496563-131308
3539.73 197364 197633-62259-33039 226142 31617
3542.63-356490-442338-308243-198322-287034-222147
3545.52-165618-212637-235065-19008 71663-19637
3548.41-98738-222327-322449-464156-280127-120728
3551.30-302218-80134 151557-111090-128629-37491
3554.20-110876-308871-582375-361788-123674-120683
3557.09-61363-82082-120575-121152-47786-172565
3559.98-112110-76671-140605-34088 40764-86915
3562.87-86027-19211-112584-32276 14413-52568
3565.77-133281-98627-169507-461864-646888-393277
3568.66-271245-349320-248976-108830 33117 93537
3571.55 192117 40742-357573-290449 6202 55509
3574.45-99009-160207-202518-256148-281631-215745
3577.34-131753-98012 14506 19977-118805 33499
3580.23-49112-315372-73900 205142 67037-108192
3583.12 8243 21453-177103-293058-351224-247518
3586.02-364022-391519-269868-294110-404579-520000
3588.91-319952-159152-213235-286468-161193-35542
3591.80-20844-200456-273695-101704-14409 60802
3594.69-310367-502855-245094-261461-158844-139050
3597.59-141917-143913-96469-186690-250637-260451
3600.48-345981-424097-284654-102163-202717-197662
3603.37-243510-298396-302706-273693-252743-229481
3606.27-348237-327019-112438-198611-375501-914428
3609.16-1002037-427192-76902-60122-142642-258364
3612.05-393951-172369-162331-249841-68892-98380
3614.94-424016-494847-400709-235475-315000-328482
3617.84-84833-17385-506160-772535-503191-581983
3620.73-504153-160300-80503-64666-84806-129256
3623.62 34074 128173 12580-215244-325674-20138
3626.51 148242-171451-602700-931277-627184-753162
3629.41-576622-696-25874-101556 40047 306248
3632.30 188296-182055-391046-167838 125214 112907
3635.19-172293-311031-29270 103177 142104 233553
3638.09 130905-49040-104127-41486 91374 165033
3640.98 73026-41729 48573 107269 232001 408539
3643.87 287341 39749 214892 307841 207594-25543
3646.76-318118-202905 3726-277756-629673-129793
3649.66-13385-268981-329474-155766 42671 63792
3652.55 14041 55881 200967 160371 50663 32771
3655.44-103311-143832 270606 363431 346322 327266
3658.33 199685 89758 186677 255685 145648 97066
3661.23 190721 284476 314394 168806 176772 290892
3664.12 252691 212781 340815 294858 97947 116631
3667.01 96444 220084 124451-69288 115394-162997
3669.91-725937-904590-218658-85418-222149-273837
3672.80 8648 125284 28319-420543-626565-779816
3675.69-685399-147600 27006 317279 371569 248547
3678.58 206613 78989 105155 355913 322321 129598
3681.48 155715 86945 205107 258619 154488-7202
3684.37 36107 30908 70837 149993 212694 157609
3687.26-115599-1014748-944856 221686 535409 256027
3690.15-33747-409185-270000-93843-71735 270412
3693.05 301189 159344 72626 7368 147845 174149
3695.94 87876 120679 294222 395804 529805 414425
3698.83 236740 300013 427604 510681 184908-129563
3701.73 60776 215432 35711 149363 346740 225663
3704.62 172693 259260 233737 188999 65902-42330
3707.51 134425 280346-24795-116884 82646 178500
3710.40 242638 38515-777631-943570-146219 175302
3713.30 301487 217949 112493-11515-80533 20373
3716.19 157600 34885 9332 142561-76866-203507
3719.08-24693-12338 89266 8606-120982-200371
3721.97-79393 31421-96788-218949-45793-61049
3724.87-110073-171200-430790-503052-168634-163579
3727.76-74773 92969 125719-183108-272703-196488
3730.65-212949-374273-680716-623648-305447-160644
3733.55-223662-585289-648353-400257-391059-920508
3736.44-1016795-455511-233960-242156-294795-400427
3739.33-347875-26537 195297 368736 508852 306206
3742.22 197767-62762-603195-1439637-1932392-1111799
3745.12 39486 489825 434669 305802-54432-168886
3748.01 9868-616058-1158513-344143 281625 343398
3750.90 243564-601061-1099057-276864 141222 223796
3753.79 584676 708751 594467 425685 242200 243469
3756.69 506133 583085 628283 893066 681290 461632
3759.58 526090 629668 771193 904881 943849 867591
3762.47 819212 887063 952353 972770 1147234 1008591
3765.37 899290 1185025 990219 814471 855910 874717
3768.26 859226 769559 539412 596997 770157 854389
3771.15 907696 890303 832386 726368 612290 671819
3774.04 689383 729740 550187 342355 461666 471975
3776.94 484531 524573 288172 112623 132410 263757
3779.83 152070 121743 225115 228622 253543 219796
3782.72 260216 288959 88033 12302 230276 204507
3785.61 224826 325480 381123 348927 401678 523951
3788.51 322621 147379 270723 374604 406911 319786
3791.40 416760 630849 680579 557786 444683 311906
3794.29 192340 246284 273068 100258 309050 449666
3797.19 347786 605716 694341 634967 614920 578672
3800.08 436565-283530-607472 144201 321646 197210
3802.97 284408 640313 851472 602871 537776 658539
3805.86 425263-302810-166303 411303 545853 798468
3808.76 881880 870594 546080 286953 418593 563669
3811.65 488918 454375 735528 706320 653349 827592
3814.54 668437 103933-655808-124035 703060 903659
3817.43 820754 787739 753714 666079 309868-164613
3820.33-279859-24344-167415-4356 451829 516637
3823.22 319033 193635 174937 326478 425223 323728
3826.11 223639 277345 253644 239754 329252 40092
3829.01-200884-29935 76201-125206-542057-518416
3831.90-271509-70831 5962-234383-290506-534044
3834.79-460775-326796-293796-372771-922657-1755651
3837.68-1346891-374751-311492-446667-490675-550554
3840.58-587779-495778-488967-429978-662184-815292
3843.47-678123-346529-330234-671221-711602-513945
3846.36-508130-320451-124306-183473-219190-161500
3849.25-247533-261829-120597-488829-1334525-1532187
3852.15-840617-683002-1407043-2358201-1778496-356755
3855.04-110987-294293-337708-450530-451454-116336
3857.93-48345-62882-11196-60525-308661-347755
3860.83-378599-285235-154537-181658-190024-283028
3863.72-356912-469536-724594-442901-255203-233180
3866.61-143678-5066-213320-457196-530006-674938
3869.50-1309539-1117173-535408-327023-171529-341596
3872.40-319921-279482-618045-713580-372380-131143
3875.29-41529-66764-305028-350031-137355-200824
3878.18-230372-455337-619821-769713-776773-361393
3881.07-314821-529194-544318-269587-133462-20004
3883.97 51601-168168-706238-733941-491236-257165
3886.86 30554-61019-109278-61418-155226-129182
3889.75 33492-134559-489611-331397-55194 51851
3892.65 89029 263327 229278 15542 91933 275079
3895.54 181302 179279 446952 479942 355681 258608
3898.43 39024-119656 244061 257678 41521 176107
3901.32 33146 2684 269940 349352 290190 139637
3904.22 292659 267370 278055 311861 153927 244172
3907.11 397613 398224 401380 260413 17744-85287
3910.00 12206 138993 111901 106732 4023 70739
3912.89 158114 212910 210672 48198-71396-52756
3915.79-91012-48171-174546-142938-168180-380858
3918.68-361608-550939-676243-514595-322128-168423
3921.57 4790-261756-378850-348107-294510-286706
3924.47-259820-291 18198-125994-33800 72942
3927.36-11112 27802 108094-57057-43609 114829
3930.25 312746 315062 193844 90956 8073 62353
3933.14 176442 314508 425689 554062 280963 111514
3936.04 221039 390768 602781 469904 182631 272904
3938.93 478967 487308 382152 569079 736575 486683
3941.82 184156 130023 218002 577577 783096 674183
3944.71 742603 576229 393062 540995 830012 944607
3947.61 866993 821208 695038 455874 545604 495883
3950.50 488037 597419 722110 800857 905635 998004
3953.39 1078343 953667 622101 483549 446907 656919
3956.29 948819 1257969 1256731 873438 691021 900637
3959.18 1111148 1052316 785553 606572 487953 560859
3962.07 573483 663285 805707 859891 724848 461605
3964.96 467086 427046 249777 176156 373465 379238
3967.86 236557 364194 378886 134216 116047 113188
3970.75-55683 63299 36100 27969 7385-204860
3973.64-379481-125499
##END=
