##TITLE=1,1,2-Trichloroethane
##JCAMP-DX=4.24
##DATA TYPE=INFRARED SPECTRUM
##CLASS=IUPAC A
##ORIGIN=NIST, Analytical Chemistry Division, 301-975-3108
##OWNER=COPYRIGHT (C) 2001 by the U.S. Secretary of Commerce
##DATE=01/06/01
##$SPECTRA VERSION=1.10
##$UNCERTAINTY IN Y=2.1 % relative (B=1.14E-04,C=1.89E-9,D=6.50E-14)
##CAS NAME=1,1,2-Trichloroethane
##CAS REGISTRY NO=79-00-5
##MOLFORM=Cl C H2 C H Cl2
##MP=-36.5 C
##BP=113.77 C
##$NIST SOURCE=QUANT-IR
##SPECTROMETER/DATA SYSTEM=IFS66V (Bruker)
##INSTRUMENT PARAMETERS=KBr Beam Splitter; MCT Detector; Multipass cell
##STATE=gas
##SAMPLE DESCRIPTION=1,1,2-Trichloroethane Primary Gas Standard
##PRESSURE=101.3 Pa
##TEMPERATURE=23 C
##SAMPLING PROCEDURE=1 L/min Flow
##RESOLUTION=1.9290
##DATA PROCESSING=3-Term B-H Apodization
##XUNITS=cm-1
##YUNITS=(micromol/mol)-1m-1 (base 10)
##XFACTOR=1.0
##YFACTOR=9.0949E-13
##DELTAX=0.9645
##FIRSTX=575.652
##LASTX=3974.606
##FIRSTY=-1.43E-06
##MAXX=3973.64
##MINX=575.65
##MAXY=.0008538
##MINY=-2.26E-06
##NPOINTS=3526
##XYDATA=(X++(Y..Y))
575.65-1578237-1899409-1879856-1396473-1016133-818991
580.47-653970-920252-972668-372267-500850-1472275
586.26-1514289-320619 680031 591998-84605-494541
592.04-715154-596650-237153-509561-1251590-1546830
597.83-1482667-1261844-1162538-999917-428449-137481
603.62-389885-695265-918640-904571-603446-342059
609.40-396121-742494-1196480-1469823-1434942-1146556
615.19-871434-631253-471516-554748-634200-506508
620.97-346204-365759-459894-503700-537039-468456
626.76-186294 88979 309263 513373 657635 944299
632.54 1244975 1298216 1354624 1736414 2186192 2311505
638.33 2413492 2957937 3712482 4057470 4195255 5014396
644.11 6170573 7094149 8027618 9020596 9954628 10633186
649.90 11112496 12140972 14109337 16774804 20032136 23817646
655.68 27987629 32844878 38586717 45289135 53030581 61701971
661.47 71174074 81943327 94348846 107963306 121778053 135207055
667.26 149215657 162673668 171972115 175731364 175473985 173003433
673.04 169399780 166219217 165079183 169571518 182624815 199723426
678.83 210712186 208807427 194582792 173002102 148876765 125745204
684.61 106081532 90140188 77147584 66495948 57297282 49010697
690.40 41474154 34691205 28701046 23674017 19724627 16785245
696.18 14658671 13463644 13067089 13044957 13387107 14337211
701.97 15569464 16955853 18533841 20159153 21699374 23204129
707.75 24691588 26318731 27967562 29271135 30242686 31357390
713.54 33077124 35631332 39091487 43593805 48404386 53037042
719.32 58863935 67226575 77930535 91376095 108466882 129926918
725.11 156877924 190422706 231358105 280692050 338253765 403107510
730.90 474510762 550613141 627609024 701720227 769319542 826910643
736.68 871501707 901903148 919850609 929642484 934918612 937260483
742.47 938808352 935218886 921694375 902213870 862111469 806127627
748.25 751278401 677226425 573366261 453661913 335987021 234510728
754.04 157107529 104250981 71694322 53225222 43055219 37296264
759.82 33797927 31445487 29922179 29076428 29002689 29465482
765.61 30453367 32026590 33932978 35837844 37779979 39648991
771.39 41501243 43630075 46490673 50752699 56675595 63553750
777.18 70439725 76544679 81724862 86508435 91533180 97198309
782.96 103900400 111371335 118354646 122822932 122111987 115519054
788.75 105642500 94992625 86639140 85058440 92697562 105758554
794.53 115490087 116156236 108834264 97016687 83380481 69712213
800.32 57280414 46707542 38188228 31385818 25935812 21433400
806.11 17346613 13761375 10794428 8276677 6251686 4654017
811.89 3460426 2696067 2287798 2034011 1830483 1630801
817.68 1552858 1658432 1868447 2026467 2190811 2334263
823.46 2433715 2600305 2681938 2411426 2016511 1891731
829.25 1960121 2026897 2277416 2509465 2370513 2238427
835.03 2471789 2666777 2661175 2543038 2417017 2381142
840.82 2347648 2295912 2454160 2666653 2685390 2611813
846.60 2724128 2885514 2831303 2581846 2262573 2123448
852.39 2165375 2256706 2285160 2082176 1791744 1720306
858.17 1787129 1612300 1291220 1154658 1144211 1029220
863.96 881380 852838 880446 860166 903818 1040639
869.75 1177706 1177990 1041454 948789 1093904 1306874
875.53 1410557 1516610 1608397 1617865 1656682 1691780
881.32 1672851 1839453 2135155 2305499 2474898 2663680
887.10 2860247 3123849 3474461 3798243 4029019 4195142
892.89 4360631 4497166 4593168 4710934 4859254 4977596
898.67 5153324 5478309 5949652 6473244 6989710 7399895
904.46 7619075 7885093 8440264 9196879 10053756 11041476
910.24 12309647 13892984 15689090 17742043 20197305 23064013
916.03 26200696 29760893 33963063 38751484 44043217 49973148
921.81 56849742 64731641 73529838 83424078 94567054 106717140
927.60 119642438 133112472 146220399 157200206 163357132 161963412
933.39 152928326 140046362 129492992 127373836 137151164 156567194
939.17 175810975 183859775 178476599 164607785 147212434 129039288
944.96 111884173 97544343 86893210 78326426 69627084 60872952
950.74 52978620 45837969 39165270 33075209 27611071 22775495
956.53 18780329 15640219 13263527 11538894 10205852 9117883
962.31 8191044 7333633 6666390 6247863 5939066 5669603
968.10 5369054 5063800 4872839 4769506 4668997 4447001
973.88 4247828 4283236 4366818 4217115 3851912 3370063
979.67 2887624 2543248 2333136 2206934 2105133 2049484
985.45 2112840 2213869 2316828 2426927 2510981 2537029
991.24 2500381 2491640 2565210 2663504 2812754 2882454
997.03 2820731 2788561 2870071 2981601 3007120 2950368
1002.81 2865167 2735302 2626731 2599948 2612887 2615334
1008.60 2669483 2798617 2899264 2993012 3220616 3188782
1014.38 2569881 1998179 1839047 1880735 2012683 2182775
1020.17 2399164 2576553 2646642 2743133 2915921 3063702
1025.95 3224809 3425533 3643296 3961806 4435628 5065196
1031.74 5813103 6587608 7335844 8079689 8878691 9743528
1037.52 10582929 11405740 12301709 13147504 14025831 15011097
1043.31 16006150 16991771 17939162 18836393 19681086 20184944
1049.09 20165479 19882667 19546935 19147914 18637554 18190735
1054.88 18272465 18947530 19592900 19466516 18383717 16772545
1060.67 15191898 13895466 12841993 11869130 10998084 10388499
1066.45 9997373 9622819 9040003 8199920 7328244 6579319
1072.24 5910759 5259996 4706708 4247350 3823632 3462905
1078.02 3123188 2783692 2486506 2310247 2222846 1986174
1083.81 1577975 1219376 984025 861193 838894 819111
1089.59 733447 625943 546097 447911 436397 556246
1095.38 603675 467315 333009 306126 325251 321891
1101.16 255642 169553 156411 147030 141988 176944
1106.95 220038 302481 319062 240150 169575 205848
1112.73 266763 281063 348763 384107 365223 381780
1118.52 436856 543103 647099 623542 528839 518623
1124.31 635575 782030 829663 751169 710952 763554
1130.09 772869 724976 751334 832539 876360 960161
1135.88 1145977 1327494 1498171 1801756 2250125 2720838
1141.66 3174748 3705030 4417884 5335338 6351341 7419158
1147.45 8678605 10240896 11926051 13586074 15375162 17422563
1153.23 19731547 21488560 21753103 22264445 24929490 27061129
1159.02 26545478 26215091 27011650 27389856 26408799 24173955
1164.80 22269340 20973049 19635760 18144066 16323700 14239980
1170.59 12218632 10335544 8621619 7203796 6076146 5274462
1176.37 4656318 4070379 3702524 3573036 3484550 3502873
1182.16 3729320 4127550 4613624 5164616 5831927 6634752
1187.95 7511621 8541682 9866969 11626652 13911028 16828856
1193.73 20631744 25627574 32108746 40461602 51023014 64018774
1199.52 79247148 95716952 111588280 124321871 131283092 130040026
1205.30 119570457 109361496 120904444 138221459 125334931 111499421
1211.09 123728093 141138342 148632270 144569867 130852250 111015058
1216.87 89063230 68565909 51815023 39321835 30582107 24613350
1222.66 20413431 17326102 15071025 13352505 11999522 11021420
1228.44 10475290 10194102 10043687 10066784 10325701 10874637
1234.23 11895798 13285230 14291792 14536038 14770296 15268625
1240.01 15755348 16101344 16152714 15999443 16109564 16693159
1245.80 17798140 19574916 22044538 25191522 29318873 34652200
1251.59 41251419 49067482 58100120 68181970 78621903 88545345
1257.37 97035735 102953812 105401900 104215306 101105535 99184640
1263.16 98414990 96831301 96814432 99039282 99976605 97865467
1268.94 93176663 86807608 79428469 71397700 62908954 54279687
1274.73 46068834 38666203 32154859 26567929 21846256 17836530
1280.51 14538736 11920063 9766031 7954521 6547421 5545255
1286.30 4879746 4488907 4371304 4623679 5274581 6247119
1292.08 7529979 9168209 11190202 13629769 16468941 19659944
1297.87 23037478 26332987 29506998 32488395 35047710 37178233
1303.65 39747084 43204917 43568493 39878635 37826025 38052377
1309.44 38376773 39047171 39943870 40527858 40238171 38357540
1315.23 34894827 30349592 25491781 21008662 17118268 13860300
1321.01 11389261 9589140 8217926 7144940 6353794 5824161
1326.80 5504526 5393262 5478376 5505600 5386816 5204143
1332.58 5045690 4939046 4810961 4670720 4657219 4686917
1338.37 4664932 4652982 4679455 4697716 4743968 4875513
1344.15 5087203 5150662 4955564 4681606 4416922 4066228
1349.94 3690442 3655160 4013460 4262180 4154493 3775459
1355.72 3201588 2586805 2119340 1762226 1517574 1351469
1361.51 1354248 1370960 1294988 1225781 1085115 897390
1367.29 814403 799409 823600 860037 825650 704171
1373.08 660921 675651 666747 611070 621503 720593
1378.87 813354 795633 770922 816988 894372 879462
1384.65 689192 421712 348570 484353 643724 713469
1390.44 742299 667699 465842 341866 478795 620944
1396.22 577674 457538 477703 625760 739307 790605
1402.01 915844 967202 947071 1037258 1221573 1339633
1407.79 1423596 1528847 1671140 1833305 2106928 2410198
1413.58 2710195 3092627 3650295 4335929 5145186 6293442
1419.36 7988155 9856068 11860991 14118760 16653848 19439863
1425.15 22550271 26119906 30416771 35641885 41349930 45938581
1430.93 48901491 50750627 50882605 48957902 51779026 75956179
1436.72 99794690 80381987 51687165 48371503 52626245 53875916
1442.51 52390711 48879014 44134932 39125695 34355263 30035311
1448.29 26069839 22351121 18884105 15680874 12801369 10277069
1454.08 7918086 5788062 4234978 3466678 2980175 2560809
1459.86 2253591 1961203 1635072 1338883 1106082 1128035
1465.65 1277782 1326397 1273300 1177738 1069254 932433
1471.43 790704 753620 822178 862952 848415 975818
1477.22 1091067 1098117 1120470 1182412 1179151 1122589
1483.00 1071490 1093610 1060759 931573 882733 806354
1488.79 612422 598440 689817 660073 589964 461142
1494.57 122943-92673-55595-96250-152802-163479
1500.36-195553-144526-93412-327118-864411-1219868
1506.15-1095068-677763-375613-237284-180844-182512
1511.93-146622-93732-107437-167935-264157-252726
1517.72-163784-255328-530688-623283-416318-211823
1523.50-233835-352875-326460-214695-175699-183762
1529.29-189394-225636-305582-384279-372037-251851
1535.07-136433-189490-561633-997194-976298-673808
1540.86-527808-361888-164713-156342-145163-6235
1546.64 106557 120520 69155 50343 92270 96009
1552.43-27354-118656-17280-44295-485466-964684
1558.21-1074206-858129-387452-13781 72109 27294
1564.00-11769 29238 56665-144-142777-213317
1569.79-97771-19319-71877-125994-334162-855242
1575.57-966750-503724-226098-197389-199620-174288
1581.36-172403-206758-200056-164858-157542-131372
1587.14-97744-140270-238395-263729-224236-202192
1592.93-175650-79223 18383 59721 66868 27190
1598.71 14558 71381 123269 109265 103259 187927
1604.50 259747 255790 258448 280746 283542 277452
1610.28 271775 254927 237848 212707 37525-315131
1616.07-333804 42089 195345 137879 75253-29249
1621.85-237338-325175-178853-134821-245076-296028
1627.64-289654-308092-295225-259128-270692-360095
1633.43-626920-853339-690487-461124-399779-331548
1639.21-256836-239531-252569-207097-190944-402607
1645.00-640073-605989-462180-302507-206461-390771
1650.78-1054203-1689021-1496694-804487-343223-208504
1656.57-184972-179715-189900-210489-330715-484587
1662.35-417857-269716-256395-253892-255648-413199
1668.14-600815-566732-485828-408004-294509-360845
1673.92-595984-607344-392369-256111-234063-270307
1679.71-295913-329869-501881-881251-1175536-845909
1685.49-275767-57172-49033-109283-154101-81823
1691.28-27981-106703-343821-843581-1021574-539247
1697.07-220653-565999-1051776-847230-305061-139898
1702.85-248909-334719-335027-289692-224552-203798
1708.64-186785-148477-124531-137293-225272-366004
1714.42-443066-607406-846980-698908-293091-53388
1720.21-40171-88528-103285-63757-55638-114076
1725.99-132837-107409-103084-131472-128470-209707
1731.78-579830-965660-861212-432399-218954-222832
1737.56-329618-512472-482156-323834-330262-374548
1743.35-323569-299124-350606-429795-508732-517775
1749.13-563666-684516-616851-433086-347994-404469
1754.92-522453-534863-462289-430226-404077-438370
1760.71-539141-482397-307480-209086-216149-312274
1766.49-433523-441776-329850-280714-417014-611778
1772.28-577665-361872-210774-157896-120355-87334
1778.06-77247-77613-83144-25520 86788 92533
1783.85-7235-25411 18592 28947 27423 24571
1789.63-12393-75843-78018 70793 216268 236371
1795.42 230648 249389 223397 170066 179169 184794
1801.20 138038 124504 191455 272582 273221 196718
1806.99 131159 115922 87611 32651 27873 78506
1812.77 120571 141960 142091 101080 89472 155017
1818.56 242803 310387 323267 353644 453839 532171
1824.35 635913 645800 427984 225807 136076 119658
1830.13 177638 238230 235670 196033 175308 138031
1835.92 51388-16464-7545 9185-32604-146691
1841.70-338153-543757-523180-291706-207617-291910
1847.49-363272-369796-346769-367724-384354-335217
1853.27-324819-358609-364106-365431-374145-368957
1859.06-387363-439193-435062-412335-462440-536537
1864.84-521222-452264-441963-465988-437393-406622
1870.63-413552-378288-319921-306988-326050-337856
1876.41-339341-332226-303578-268530-309388-411655
1882.20-442766-400246-386182-387501-378607-383009
1887.99-386952-350229-282077-238966-261859-338157
1893.77-418167-429252-369592-311811-318543-328225
1899.56-308865-322416-358816-402020-412703-368243
1905.34-343469-381152-389476-377834-410676-407743
1911.13-376482-343437-303717-306061-326054-364048
1916.91-385417-333224-298366-323892-355824-341026
1922.70-284545-272611-281782-277035-271115-243357
1928.48-215492-183879-146687-136832-144265-154284
1934.27-146586-111903-75379-62470-85282-132638
1940.05-142140-96997-73577-112762-121478-83618
1945.84-58303-85353-162687-196646-150392-122530
1951.63-207603-306851-296564-243844-200102-196658
1957.41-207817-163577-154365-189176-236054-310126
1963.20-329784-306569-293065-254121-191278-134088
1968.98-108854-97902-43161 12509 19752 69545
1974.77 142409 189087 262603 310835 314159 339350
1980.55 375731 376851 350994 352658 393283 417426
1986.34 399282 380611 415314 427508 357397 272184
1992.12 210937 193297 177761 142989 115261 70506
1997.91 46247 74310 89748 67610 39964 17262
2003.69 6464 12805 20731 20032 30391 25868
2009.48 7808 11810 9551-38396-74638-66657
2015.27-71014-140854-188344-151511-143970-219829
2021.05-276612-204001-94766-82035-126312-176352
2026.84-219345-218604-175618-126829-82914-71894
2032.62-117510-154513-92441 1481 21758 15423
2038.41 22165 28186 31262 39879 91743 170356
2044.19 229294 251010 235144 210741 201200 189095
2049.98 196453 192619 141687 111200 132840 142208
2055.76 134814 134612 76614-29038-84721-65686
2061.55-34610-91891-204962-239319-210371-192654
2067.33-161929-120443-122760-138272-140157-144674
2073.12-96928-31083-35600-122532-133879-5257
2078.91 49173-62553-174195-104593 48902 92866
2084.69 25991 10931 123899 243788 284232 268676
2090.48 372974 522705 487797 332056 360335 587079
2096.26 749665 704311 577227 628969 723048 616843
2102.05 401031 400195 573700 640098 527842 518611
2107.83 662782 656556 462332 363300 532136 589854
2113.62 309676 43157 108624 237054 111336-131462
2119.40-122799 48576 6599-254539-323197-136457
2125.19-79302-223581-218897-51005-83163-282916
2130.97-352098-236077-175404-225153-206562-99122
2136.76-84273-218968-321087-260565-161310-137691
2142.55-119593-56984-62895-189913-279662-226961
2148.33-169248-254681-324230-213523-182457-350852
2154.12-399201-280517-322595-482949-391955-190337
2159.90-305029-520969-403831-238454-425002-575201
2165.69-369508-239054-435807-512493-270943-204823
2171.47-372548-296344-129756-221102-293989-89321
2177.26 2996-239097-278826-14201 18313-142806
2183.04-69001 86613-18855-72940 100383 115386
2188.83 48131 211388 334391 234486 233338 396061
2194.61 423287 373052 474148 522611 396234 378629
2200.40 465186 396203 309468 406389 481506 462273
2206.19 472190 427962 274532 164068 173402 181674
2211.97 177306 168803 109075 83433 74379 3447
2217.76-72890-96237-88594-96296-82664-65022
2223.54-67012-88946-131036-106237-38817-34779
2229.33-40387-15602-31159-96225-115826-70875
2235.11-72251-74220-45049-45765-38791-41338
2240.90-37813 12457 31485 32982 53374 76195
2246.68 118481 104769 63818 68223 106991 149145
2252.47 127617 108591 134635 135033 110220 85413
2258.25 40984 12472 27100 30713-14416-36121
2264.04 7218 49691 53166 32004-11355-70987
2269.83-74525-34814-67865-133170-138022-89227
2275.61-49443-27955-21179-54003-117200-158695
2281.40-137589-118170-156755-195607-216856-236940
2287.18-190224-123395-142597-148493-120865-164398
2292.97-223606-250809-279103-325480-341284-298512
2298.75-255987-182728-131623-176583-249325-269654
2304.54-272967-357240-384704-369556-457867-561719
2310.32-538695-482787-534560-673320-784997-807824
2316.11-889479-976076-1037610-1084201-1189190-1306144
2321.89-1433461-1514465-1594433-1706579-1842968-1915762
2327.68-1990500-2106947-2283269-2399283-2405731-2373358
2333.47-2403071-2492256-2549352-2486674-2376935-2276232
2339.25-2171785-2027982-1840942-1640312-1435553-1155050
2345.04-778094-376671-39106 218488 314083 233051
2350.82 47208-202080-463643-652460-785346-901340
2356.61-1022872-1126118-1160916-1105435-1010812-855882
2362.39-628675-479905-398172-265042-120098 31115
2368.18 201235 353564 462168 533169 511656 463854
2373.96 532416 666411 712046 705258 684188 639355
2379.75 592304 545066 522840 555393 591452 565075
2385.53 484468 444193 495643 548122 578705 650803
2391.32 753947 821175 849370 910437 982386 1023296
2397.11 1061716 1149323 1243211 1288011 1337858 1423350
2402.89 1570644 1900389 2195727 2065630 1662546 1338307
2408.68 1158737 1087144 1086638 1113375 1124735 1091992
2414.46 1014911 875440 663579 584758 704909 781524
2420.25 698586 552315 446007 368874 291127 240677
2426.03 207109 162599 110587 83647 61110 60561
2431.82 74227 42919 7454 56105 154644 224412
2437.60 262021 305561 381292 433002 474236 519221
2443.39 535517 596871 746484 929922 1076990 1171556
2449.17 1274628 1422872 1595635 1732793 1836624 1962085
2454.96 2104894 2237202 2371501 2505677 2565452 2566143
2460.75 2544586 2477365 2391083 2332736 2334355 2304538
2466.53 2146280 1937802 1800025 1752215 1687270 1557022
2472.32 1455391 1423162 1379518 1311339 1228994 1137873
2478.10 1075027 1015575 967130 965023 985905 979334
2483.89 942026 939195 906155 873659 940643 994110
2489.67 962381 891344 825496 780235 793814 825590
2495.46 815294 779826 742852 723553 738444 794189
2501.24 836313 862856 900762 949089 976866 1022577
2507.03 1123663 1219937 1280103 1335005 1431060 1547077
2512.81 1612682 1616384 1542596 1404111 1282293 1235522
2518.60 1263808 1295879 1306778 1312747 1289641 1179715
2524.39 1005150 870319 754538 608531 484442 418901
2530.17 303392 129472 8374-29732-25572-84808
2535.96-180176-193032-200059-237236-213334-164250
2541.74-123544-79995-124332-210619-206560-143990
2547.53-83748-52213-26434 48813 86450-8438
2553.31-96468-72803-9860 85979 244339 359360
2559.10 407992 432975 427328 441465 527836 596499
2564.88 559717 482072 449661 466453 544010 605460
2570.67 581562 489528 391487 387038 422916 413378
2576.45 364731 330998 343138 337307 283352 224291
2582.24 176190 169674 200152 266166 338464 352344
2588.03 324237 295937 298640 336758 378001 387470
2593.81 392268 409465 437831 511881 546206 459731
2599.60 390246 427170 479411 481304 428615 331193
2605.38 239550 193420 194334 239826 253633 229372
2611.17 206785 204778 219301 185310 84060 33087
2616.95 34822 17684-19878-97028-151923-139837
2622.74-139528-166759-146415-73856-71545-160812
2628.52-205984-141587-62668-88370-133941-115806
2634.31-96176-74717-29369-18348 7219 99946
2640.09 114372 44931 8176 61152 120558 84070
2645.88-9285-18443 83654 152687 63425-69907
2651.67-80197 21440 91886 28288-59006-68329
2657.45-97313-113704-29391 27521-36311-112885
2663.24-116813-68626-24065-27596-70793-129932
2669.02-113154-28112 11122 4359 2577 42517
2674.81 97683 98318 63613 42495 19830 45624
2680.59 62315 43649 23234-11126-16499 31984
2686.38 153884 283578 371090 496131 623480 717383
2692.16 805547 851516 897486 951842 956607 956102
2697.95 986425 984822 929841 924931 980953 1063416
2703.73 1099425 1017217 944979 954928 867767 629868
2709.52 455645 368038 274122 193004 110515 30400
2715.31-29123-64669-21307 51569-354-108928
2721.09-100189-18964 52933 145086 239222 249614
2726.88 188038 178431 227316 230382 259151 451712
2732.66 667873 722881 677820 703163 844108 945175
2738.45 898863 887399 945667 920090 810529 720192
2744.23 703230 773926 773324 673688 706114 758030
2750.02 655035 489924 388085 346827 245209 98400
2755.80 3649-13240 17325 49450 32842-38042
2761.59-59927-18123-1872-14873-49550-75025
2767.37-63694-48694-77887-140007-173639-82659
2773.16 11487-8932-38736-31460 31486 120394
2778.95 115777 47830 12940 21603 35973 35756
2784.73 37631 19843-12726 34314 148422 115051
2790.52-3984 19815 114780 182100 184923 92199
2796.30 163-24602-10222 69394 196922 189092
2802.09 42493-5025 66005 48102-37246-27212
2807.87 41488 90339 80431 84813 136223 126494
2813.66 113015 169748 150763 80124 165286 256802
2819.44 169090 117879 165478 152875 101743 79643
2825.23 110365 240514 403936 492375 460281 400314
2831.01 387459 348253 268296 262090 342349 520541
2836.80 715921 791243 769183 793538 943527 1176642
2842.59 1382859 1614760 1939370 2340395 2903035 3620392
2848.37 4403875 5247626 6098274 6779989 7035644 6825738
2854.16 6392620 6300964 7139211 7837476 6922420 5777306
2859.94 5902228 6575894 6867128 6688135 6168878 5357822
2865.73 4473474 3710675 3120630 2643802 2234407 1849451
2871.51 1524516 1256039 920173 821313 1195157 1467225
2877.30 1394228 1301373 1254343 1225003 1174363 1161373
2883.08 1188208 1191636 1220455 1240609 1227210 1212151
2888.87 1169947 1171937 1160711 1142393 1205791 1318096
2894.65 1332885 1222915 1146676 1179568 1299505 1392112
2900.44 1375837 1383443 1381846 1258994 1139052 1136421
2906.23 1220986 1303058 1324685 1331007 1346457 1384389
2912.01 1394205 1367460 1313048 1298027 1439169 1589009
2917.80 1573344 1574575 1626755 1649657 1702355 1802160
2923.58 1926353 1974298 1981169 2028623 2035406 2050047
2929.37 2067681 2051968 2049325 2094653 2113527 2102463
2935.15 2104989 2187405 2313153 2377887 2315134 2179881
2940.94 2157638 2298037 2396109 2479628 2741766 3045384
2946.72 3151750 3291465 3588023 3902618 4230802 4582857
2952.51 4890405 5183790 5568424 6129219 6769786 7602995
2958.29 9000474 11267825 14311781 17422837 20026026 23145022
2964.08 27962453 34170272 40704023 46316364 49779761 50264160
2969.87 47614605 44129850 47850586 57773335 57032104 48117953
2975.65 45514935 48551363 51857116 52570999 50073954 45066420
2981.44 38744557 32412546 27208284 23252506 19358461 15328184
2987.22 12287035 10374617 9154726 8321262 7708389 7224997
2993.01 6877504 6767968 7047885 7713755 8675246 9813878
2998.79 10935465 11644854 11751277 11158453 9898009 9115434
3004.58 10536114 12098888 10952110 9500095 9833852 10881609
3010.36 11562376 11497887 10866163 9974383 9039918 8225976
3016.15 7618617 7197793 7012659 7034067 6923848 6371927
3021.93 5571641 5241372 5487310 5348024 5049117 5355485
3027.72 5939653 6207088 5965227 5470315 4857805 4098345
3033.51 3374114 2860316 2434798 2020975 1670906 1408570
3039.29 1239045 1077081 931379 788867 690889 631789
3045.08 528818 517682 587782 558143 515817 513074
3050.86 494824 474183 409168 367788 352705 285102
3056.65 222222 178412 178706 238493 270274 289822
3062.43 345026 302920 176707 143564 272877 411912
3068.22 413905 267948 139918 186616 275197 314171
3074.00 302771 252225 249688 248154 257888 361218
3079.79 485993 550073 536462 459824 389215 325479
3085.57 339534 358192 329704 277808 181463 133350
3091.36 110038 114909 151658 144506 131520 148051
3097.15 84636-16019-15653-35656-68691-15530
3102.93 55491 109467 170749 136887 54027 77940
3108.72 124197 177017 217511 176379 160533 167335
3114.50 214771 256868 156869 41185 49616 121455
3120.29 74537-12680 1105 36037 77282 76784
3126.07-5815-61658-21990-10544-69013 3769
3131.86 187997 269739 216174 117507 85635 41310
3137.64 29780 166348 279530 290779 247527 162272
3143.43 181576 291752 200082-6347 13595 221580
3149.21 336210 308246 304950 335019 274511 195827
3155.00 194795 189736 195478 239143 228204 153129
3160.79 72751 38744 87817 131322 123774 144802
3166.57 100321 25334 79903 111282 55041 54304
3172.36 88904 115364 145605 97901 21292 42330
3178.14 97873 111798 116475 123930 199349 221035
3183.93 91999 19248 69327 39216-85631-94639
3189.71 91150 226667 208600 217291 247478 214358
3195.50 176063 105492-25892-31687 104688 123277
3201.28 90826 142188 138890 139509 170142 99622
3207.07-33508-159160-264889-234350-31809 99700
3212.85 63649 28008 66870 56425-30130-111279
3218.64-126734-74715-47755-20507 28925 35591
3224.43 14013 56428 165050 164444 45616-81410
3230.21-73974 102132 233242 165081 62336 80028
3236.00 125251 139596 43332-62669-41331 83380
3241.78 158539 115803 90158 93397 28734-16121
3247.57 24475 48366 50716 85829 88742 20227
3253.35-55517-37334 32398 13046-142082-236577
3259.14-145349-43720-36571-50706 1253 89677
3264.92 70801-54227-137027-99073-13365 12356
3270.71 18739 39929-2263-54460-74241-95906
3276.49-136875-149607-104716-124629-145472-93646
3282.28-134534-163917-60878 5181 13745 9992
3288.07 55168 123188 95702 3729-72172-94853
3293.85-102487-21123 80666 53910 77271 154832
3299.64 107060-13969-113608-184542-92368 34446
3305.42 9338-10813 18657 81932 99819 42497
3311.21 6350 9588 67908 48478-55801-84725
3316.99-60345 14010 92297 52276-20751-55232
3322.78-116546-134908-29147 43968 4823-122768
3328.56-163390-24833 62966 21639-48429-27382
3334.35 170772 217937 20143-68901-20261-11259
3340.13-85346-170744-102256 33943 120439 125495
3345.92 108593 148336 113061-14960-14262 140641
3351.71 184953 134719 119863 111200 82925 110291
3357.49 177926 178603 120341 105485 181986 179867
3363.28 15674-96884-75229-977 79312 137878
3369.06 153950 62549-49630 3257 107101 96254
3374.85 46597 20802-26317-62796-82713-49466
3380.63 118797 199280 103051 38547 18074 41905
3386.42 146690 293900 375971 344736 290299 277585
3392.20 271939 244035 249285 276333 205877 80919
3397.99 160558 326191 300997 192175 202501 354611
3403.77 424242 319811 166458 159873 277552 329828
3409.56 303932 193395 168145 291487 329399 348710
3415.35 486147 597095 553853 466935 372290 212604
3421.13 58794 14108 40388 129213 259872 200707
3426.92-45144-191192-102801-70078-222758-208749
3432.70-40565-6196-90079-84134 14513 21083
3438.49-102123-241748-279340-81964 100438 62409
3444.27 17625 39774 28476-103185-206169-63722
3450.06 138281 166031 155969 104682-74508-156730
3455.84-68695-50807-108685-86400-12178-41681
3461.63-120553-140669-138506-173329-170617-53693
3467.41 36562 50336-48941-201442-260340-301112
3473.20-267236-147678-111633-126512-79534-18585
3478.99 4959 2770-55781-176113-265240-232264
3484.77-128669-105131-90710-24571-29312-92854
3490.56-135360-209478-265796-163614-68030-69935
3496.34-44762-71623-161595-183172-143733-137480
3502.13-202263-304440-286797-146591-72100-111819
3507.91-165472-183819-168343-201224-263824-254373
3513.70-232270-189281-68740 8338-39465-139238
3519.48-128403-64613-101449-142357-151922-205036
3525.27-226029-194947-168046-159603-203992-259893
3531.05-231098-96354 19589-2586-162912-290015
3536.84-277300-229921-107115 32585 36441-97425
3542.63-257081-274130-225243-170772-85466-79091
3548.41-205781-287894-222273-105234-63616-136654
3554.20-271426-283628-162422-100689-103959-110338
3559.98-95544-60824-50256-56112-49778-73220
3565.77-185305-352079-394036-281032-107614 14988
3571.55-46082-118108-94766-141759-212109-185435
3577.34-94047-40919-63606-69571-9121-3593
3583.12-93849-223447-308318-331379-353822-350462
3588.91-275223-190201-133984-132396-121735-159088
3594.69-259482-243221-168311-148744-194163-275080
3600.48-293631-234905-222825-261732-274802-273016
3606.27-267160-376254-568486-462374-231757-214283
3612.05-224218-189777-246879-342959-323986-250172
3617.84-311331-484533-476475-274829-114334-40196
3623.62-27963-90617-129892-310505-588447-558479
3629.41-263991-16171 53684-54555-97427-67022
3635.19-67330 34235 100793 34260 16242 56826
3640.98 70613 146951 229602 220983 154669-5644
3646.76-165349-247980-245392-197629-117766 4656
3652.55 85690 90604 30292 77739 231920 263152
3658.33 200836 175540 185050 220962 233457 240395
3664.12 255126 219281 155117 112264-6723-279958
3669.91-429930-290577-127206-108324-335533-493253
3675.69-235589 126746 227696 197676 213629 199304
3681.48 168511 151282 89680 71296 94083-96425
3687.26-343025-135418 51445-99690-85138 98127
3693.05 148388 112618 128593 215140 340560 377338
3698.83 354443 280823 140011 108821 177460 223262
3704.62 212967 151677 101093 77997 62029 41777
3710.40-193423-331757-55938 125563 60763 34281
3716.19 49177 5472-43717-25799-38757-82733
3721.97-89192-96139-127753-230855-281768-156507
3727.76-45773-105705-245641-396586-434014-372083
3733.55-430979-555586-647931-539288-350989-252346
3739.33-27270 240895 202563-320992-941978-743825
3745.12-26594 161768-122445-405594-279721-71634
3750.90-273140-237218 216409 490829 447527 414503
3756.69 556224 654724 625030 676947 816230 877616
3762.47 913834 985722 1023523 996198 919490 835906
3768.26 740326 711689 799762 828871 748068 678138
3774.04 607212 503687 455810 382135 248136 182144
3779.83 187762 217150 233070 194037 160038 210924
3785.61 302060 371413 366221 313461 330757 418807
3791.40 521060 503308 356202 252149 264434 381913
3797.19 533975 590641 394171 54669 21671 278113
3802.97 522719 605507 425146 193119 319900 638693
3808.76 675247 522592 487235 572599 661012 554558
3814.54 208540 209277 599386 730795 476293 91218
3820.33-56568 118318 294992 296508 295408 303822
3826.11 271538 212512 80040-57019-213056-299334
3831.90-215363-234688-358608-426441-690269-975438
3837.68-770802-507719-506293-523518-565182-602455
3843.47-546914-541341-509211-343925-219908-207294
3849.25-319096-687591-1034470-1255750-1359653-888604
3855.04-408657-321208-211515-99607-155906-267697
3860.83-266018-229802-309169-436856-409487-249588
3866.61-214671-429694-751883-785466-494348-335740
3872.40-413044-430247-265923-182396-221525-278472
3878.18-448549-587127-528783-425437-283172-159652
3883.97-300400-448828-293950-115443-91242-114835
3889.75-188182-182860-5938 131178 150774 186415
3895.54 284802 333489 223386 122845 128457 117659
3901.32 148491 229487 255707 260044 263012 294900
3907.11 320882 206773 70845 64050 83721 107260
3912.89 131837 61817-40649-104449-185278-329220
3918.68-468880-428335-265755-240580-294243-240862
3924.47-119997-40681 1517 22910 39018 128429
3930.25 193678 139225 145692 283645 343452 306914
3936.04 357433 387953 375945 445512 508963 423600
3941.82 339107 490469 635337 610808 657112 786890
3947.61 752480 603206 543214 630760 800915 917987
3953.39 824099 658555 763420 985165 979885 930265
3959.18 878181 698506 603569 675727 702141 565306
3964.96 391789 311078 313383 296504 201990 89673
3970.75 33632-26333-129963-155527
##END=
