##TITLE=1,1,2-Trichloroethane
##JCAMP-DX=4.24
##DATA TYPE=INFRARED SPECTRUM
##CLASS=IUPAC A
##ORIGIN=NIST, Analytical Chemistry Division, 301-975-3108
##OWNER=COPYRIGHT (C) 2001 by the U.S. Secretary of Commerce
##DATE=01/06/01
##$SPECTRA VERSION=1.10
##$UNCERTAINTY IN Y=2.1 % relative (B=1.14E-04,C=1.89E-9,D=6.50E-14)
##CAS NAME=1,1,2-Trichloroethane
##CAS REGISTRY NO=79-00-5
##MOLFORM=Cl C H2 C H Cl2
##MP=-36.5 C
##BP=113.77 C
##$NIST SOURCE=QUANT-IR
##SPECTROMETER/DATA SYSTEM=IFS66V (Bruker)
##INSTRUMENT PARAMETERS=KBr Beam Splitter; MCT Detector; Multipass cell
##STATE=gas
##SAMPLE DESCRIPTION=1,1,2-Trichloroethane Primary Gas Standard
##PRESSURE=101.3 Pa
##TEMPERATURE=23 C
##SAMPLING PROCEDURE=1 L/min Flow
##RESOLUTION=0.9640
##DATA PROCESSING=Triangular Apodization
##XUNITS=cm-1
##YUNITS=(micromol/mol)-1m-1 (base 10)
##XFACTOR=1.0
##YFACTOR=9.0949E-13
##DELTAX=0.4820
##FIRSTX=575.17
##LASTX=3974.606
##FIRSTY=-3.47E-07
##MAXX=3974.12
##MINX=575.17
##MAXY=.0008485
##MINY=-3.76E-06
##NPOINTS=7052
##XYDATA=(X++(Y..Y))
575.17-382145-2200861-1736500-1039827-2627668-2185805
577.58-1574618-902121-872407-1340996-457062-637226
580.47-1552235-206266 706666-1229039-1964280-1320903
583.37-597978 302812 127307 2606-195367-2110689
586.26-2835793-1670107-707408-152236 412056 1055809
589.15 1440010 1035809 38450-622834-359040 91333
592.04-623403-916364-655958-795887-532920 363479
594.94 190457 61410-872774-1888812-1606083-1133130
597.83-1085115-1914037-1358639-969932-753951-804561
600.72-1443836-1209226-927648-91611 592159-139270
603.62-115778-197511-733542-539025-498535-877707
606.51-1064990-979171-627597-255199-561301-96379
609.40 195073-388275-592409-316493-640217-1480281
612.29-1255425-1216679-1453629-1281392-1411117-1013351
615.19-326804-742405-1087678-344209-146346-238049
618.08-212078-476595-647806-361288-463005-636468
620.97-56800 65957-99844-346363-268569-34897
623.86-537818-335429-97411-387305-347482-412259
626.76-297674 153796 374535 360376 306366 293715
629.65 836940 1087575 636898 549100 1254359 1186331
632.54 968052 1962209 2052917 980149 1489717 1962327
635.44 1316635 1865224 2553450 2603465 2870886 2647744
638.33 2340671 2640177 2868169 3094018 3731719 4201847
641.22 4554952 4947093 4286239 4001395 4512847 5276977
644.11 6405447 6831843 7075470 7299071 7868886 8547669
647.01 8994951 9597435 9696005 10538353 11148074 11316282
649.90 11545007 11354872 11862311 12555036 13424101 14646954
652.79 16056518 17470082 18791524 20338625 22584475 24807263
655.68 26481378 28205335 30789964 33560761 36030101 38962282
658.58 42246806 45706443 49412394 53231278 57496879 62381897
661.47 66507311 71195924 76275651 81317238 87773726 94304654
664.36 100492025 107349243 114710178 121653651 128470219 133939617
667.26 139383284 147699948 156015101 162578438 167586677 171721524
670.15 174410361 175108127 174621865 173737212 173689600 172667399
673.04 170205547 167743698 166265271 165645644 164603308 163129515
675.93 163123255 165864322 171174866 179256936 189546419 199503421
678.83 207389900 211700890 212247834 209220544 202698207 193737493
681.72 182857428 171452365 159859314 147752436 135694025 124115814
684.61 113831399 105565773 97681275 89943415 83093536 77356159
687.50 71997724 66924744 62697750 58031551 53620655 50048543
690.40 46152696 42126589 38938667 35881949 32521674 29567123
693.29 27065058 24769390 22655118 20488545 19246081 18286168
696.18 16711785 15525947 15028178 14600264 14268328 14326207
699.08 14308561 14373926 14307538 14106231 14792569 15709930
701.97 16259100 16708022 17181588 18061721 18928369 19727252
704.86 20390657 21340633 22344231 22745161 23462964 24499501
707.75 25370316 25766227 26418080 27664419 28518437 29424612
710.65 30185288 30850679 31362493 31502289 32356381 33073170
713.54 33369600 34555946 36172496 37414223 38898645 40735194
716.43 43031757 45582489 48367531 51293037 53478672 55099639
719.32 57484962 60873366 64797892 69854852 75325194 80457969
722.22 86527153 93830551 101960154 111023844 121221508 132270282
725.11 144320845 158778287 174917440 191946842 211176072 232170049
728.00 255181157 280793317 308600660 337992987 368980329 401549879
730.90 435630482 471716377 509182702 547571017 585729425 623574203
733.79 660527308 696655191 731548970 763707706 793570347 820908335
736.68 845018738 865116349 881664698 894893307 904797835 910837879
739.57 916196964 920896883 922538048 924947613 927844516 928467287
742.47 925907840 923718310 932813434 933039570 923001709 908678272
745.36 888425954 893713039 909456541 862758363 801007532 787125790
748.25 775107342 752537944 719583779 678074652 629022584 572562257
751.14 512135112 450777018 391178857 333433322 279913981 232128682
754.04 191068660 157038641 128607885 105824396 88190936 74705114
756.93 64987840 57695172 51742172 47278617 44062024 41601752
759.82 39411602 37512899 36254385 34735552 33677645 33163616
762.72 32391388 31494773 31368895 31646044 31753093 31623875
765.61 31933655 32441010 33041173 33955020 34754617 35874286
768.50 36681676 37340601 38287194 39415029 40258653 41134468
771.39 42111258 42568262 43659508 45093136 46066701 47175121
774.29 49055221 51440265 54211173 57354674 60741238 64412083
777.18 67811951 71140443 74412164 77261022 79833880 82085710
780.07 84202731 86549710 89156831 91520978 93844200 96908191
782.96 100048959 103121229 106880163 110949881 114875338 117850818
785.86 120495790 123169735 124336426 123285092 119759144 115005296
788.75 110373162 105740869 100544962 94823267 89489091 85343525
791.64 82856572 82691051 85195079 90657274 98060946 106314413
794.54 113410332 117304454 118306376 116643182 113200388 108531879
797.43 102757764 96448720 89781397 82906188 75950971 69277739
800.32 62894825 57045351 51743378 46621415 42116041 38316358
803.21 35170303 31852406 28745384 26257779 24155741 22350068
806.11 20189438 17847141 15756864 14268337 13117314 11420827
809.00 9885769 8954072 7808319 6757254 6056513 5272124
811.89 4545107 3935217 3603212 3172273 2905421 2965853
814.78 2698814 2449193 2431509 2452862 2249151 1943359
817.68 1995483 1968572 1995383 2012544 2021771 2495980
820.57 2341725 2385560 2316167 2456520 2857708 2612976
823.46 2656637 2742725 2669880 2799955 3167232 3123720
826.36 2884327 2799846 2516847 2064288 1979986 2125850
829.25 2257983 2417829 2189434 2131766 2253091 2456884
832.14 2713437 3028712 2941968 2555344 2331369 2061091
835.03 2484247 2878417 2921431 2980839 2774544 2759347
837.93 3078643 2749616 2437475 2626428 2681429 2430166
840.82 2529021 2809767 2535945 2197086 2322759 2717176
843.71 2917782 2870308 2842429 2983381 2825800 2676556
846.60 2628724 2698599 3115050 3411007 2972272 2724233
849.50 3058214 2981551 2547312 2128633 2189485 2426620
852.39 2267636 2235064 2381648 2385272 2451222 2568849
855.28 2481540 2205009 2111269 1863561 1656453 1774154
858.18 1985636 2054370 2072140 1840496 1517887 1361911
861.07 1205626 1241542 1424079 1349091 1274318 1303463
863.96 1027506 944334 1024771 931161 1062924 1177504
866.85 1013897 986502 964058 966849 1224292 1211969
869.75 1105895 1450622 1537227 1287537 1244119 1262209
872.64 1131586 1022132 907159 1210207 1616522 1523683
875.53 1485183 1517959 1586635 1669013 1729451 1883964
878.42 1794864 1693360 1761059 1781778 1879872 1949431
881.32 1947251 1767410 1629483 1858625 2315817 2560034
884.21 2419933 2258589 2481259 2847659 2712525 2739107
887.10 2978886 3015801 3171807 3206440 3358738 3734707
890.00 3936916 3892015 4064340 4310155 4334163 4256952
892.89 4408780 4630304 4625327 4709588 4706010 4784965
895.78 4906302 4783423 4997023 5165260 5203052 5188135
898.67 5121767 5390682 5652057 5537938 5851094 6354858
901.57 6390614 6762540 6980268 7196255 7558150 7816023
904.46 7927274 7858240 7910214 8141229 8349280 8725351
907.35 9210572 9558124 9931658 10410570 10925696 11409128
910.24 11904314 12558149 13430309 14433776 15205484 15923308
913.14 17055131 18234975 19273399 20350257 21908428 23731679
916.03 25108809 26407269 28186697 30115137 32071872 34259998
918.92 36582480 39116724 41697789 44321950 47048468 50126188
921.82 53358175 56782128 60723135 64871241 69004385 73266175
924.71 78032497 82993361 88356778 94047147 99923680 106081174
927.60 112246084 118408557 125075577 131988665 138545565 144955258
930.49 150927863 156227825 160583415 163362769 164002206 162257025
933.39 158419575 152712651 145802890 138705194 132404443 127105031
936.28 124004184 124051704 127148952 133615611 142775189 154521042
939.17 167330294 177779555 183613203 184818857 182538484 177582393
942.06 170901118 162847764 154392062 145780233 136735966 127860608
944.96 118963071 110596196 103053330 96116172 90436742 86167990
947.85 82622517 78980327 74509972 69684113 65123542 60690940
950.74 56649036 53167961 49687723 46101914 42734797 39452973
953.64 36327358 33303804 30635623 28259742 25447082 22955124
956.53 21041333 19234550 17503270 16039178 14798356 13620399
959.42 12690522 11991822 11468287 10622758 9868052 9622489
962.31 9133767 8595891 8145566 7693855 7352799 6840303
965.21 6642981 6802056 6424887 6130354 6105974 5955418
968.10 5948312 5721782 5327938 5227037 5279695 5119319
970.99 4974725 4977142 4974040 4957704 4861542 4692795
973.88 4472629 4256646 4295643 4503079 4593135 4578586
976.78 4570294 4492389 4173098 3967699 3860929 3585210
979.67 3251928 2937846 2795613 2712372 2654976 2453180
982.56 2305452 2407039 2449094 2265005 2069866 2184423
985.46 2249806 2216478 2316390 2400242 2397469 2380603
988.35 2503144 2583627 2636851 2604090 2617599 2726248
991.24 2678415 2611518 2533512 2496554 2650461 2750481
994.13 2743089 2642600 2762076 2955286 3068438 3105261
997.03 2875113 2846420 2913629 2863838 2791400 2925243
999.92 3107696 3101209 3032255 3191225 3085872 2962628
1002.81 2947945 3022506 2994590 2727733 2686355 2734035
1005.70 2713965 2596539 2710767 2733489 2765732 2645210
1008.60 2627913 2784049 2749149 2899269 2994197 2986680
1011.49 3034585 2961227 2950150 3242960 3608956 3666568
1014.38 3273578 2478027 1871409 2016567 2125816 1866089
1017.28 1831897 2051992 2031895 2116143 2225077 2216949
1020.17 2384837 2475725 2618421 2777330 2788045 2662061
1023.06 2701933 2812141 2916669 3089839 3085915 3178785
1025.95 3229716 3228480 3425935 3661520 3623024 3634821
1028.85 3892133 4019694 4287541 4533690 4721496 5105456
1031.74 5599242 5908154 6173049 6721731 7136971 7347806
1034.63 7730287 8102706 8545972 8980745 9165851 9739278
1037.52 10437718 10662457 10843786 11329216 11883804 12349589
1040.42 12849966 13173101 13385700 13878385 14581558 15075272
1043.31 15376727 15902858 16509834 16917118 17355257 17911887
1046.20 18310869 18651935 19083389 19626497 20027343 20294707
1049.10 20282435 19864130 19905496 19899461 19493716 19406502
1051.99 19375828 19065148 18834777 18670521 18307431 17942406
1054.88 17741289 17998086 18405435 18797705 19267834 19688255
1057.77 19922091 19509221 19019580 18516011 17475261 16579080
1060.67 15822400 15037804 14438063 13794097 13270562 12838171
1063.56 12473522 11925967 11279526 10986334 10600601 10313663
1066.45 10244612 9993347 9810216 9771862 9429805 9156852
1069.34 8846660 8126934 7622652 7491459 6958292 6470606
1072.24 6364468 6017943 5722588 5228986 4904248 4845330
1075.13 4530327 4360377 4092836 3851498 3694629 3512115
1078.02 3439925 3241376 2975752 2772978 2826178 2591870
1080.92 2233158 2347514 2402489 2332241 2289644 2174266
1083.81 1870226 1608037 1399654 1172995 1295205 1094538
1086.70 828201 900358 962120 993160 848945 849693
1089.59 993138 890771 635654 568666 761838 735329
1092.49 489199 504851 496418 376963 498936 700311
1095.38 734216 747005 696865 521246 317112 352085
1098.27 452377 324328 333017 431875 472299 293577
1101.16 417118 439976 163025 232859 156628 175809
1104.06 366808 281500 88705 81849 298970 378153
1106.95 223920 162981 233647 474639 593915 274960
1109.84 247492 453436 305061 111317 90197 340168
1112.74 391943 376003 377544 212447 298708 505784
1115.63 529507 456291 440229 348713 442068 492754
1118.52 452797 486948 510407 585856 708528 741904
1121.41 816524 761319 547351 571220 614760 522651
1124.31 529623 764773 856835 816956 891177 1029146
1127.20 999072 706919 679592 816811 818592 855000
1130.09 890006 957706 860548 720090 784166 819275
1132.98 920315 1015076 981182 952462 994624 1045036
1135.88 1085665 1285132 1446090 1529613 1463391 1534276
1138.77 1774592 1876331 2080325 2407234 2685062 2897760
1141.66 3016822 3329262 3566889 3738409 4173354 4471706
1144.56 4912232 5490811 5996873 6467702 7006344 7497584
1147.45 8052795 8663290 9392439 10291259 11223498 12066445
1150.34 12808179 13556178 14331849 15302309 16384711 17229668
1153.23 18283221 19532026 20796602 22411051 22652620 21446743
1156.13 20858566 21065432 22174043 24169114 27586897 29637779
1159.02 27141769 25018363 24840756 25507522 26858033 27274921
1161.91 26936451 27027208 27628852 27367303 25319053 23181206
1164.80 22343268 22147499 21796733 21006213 20139457 19534668
1167.70 19026736 18253647 17356183 16483057 15449849 14164126
1170.59 13169958 12334024 11478882 10536706 9526779 8656800
1173.48 8024513 7535839 6770849 6187128 5811386 5485669
1176.38 5281793 5020150 4731073 4278741 3928064 3937493
1179.27 4008629 3938217 3880004 3794470 3740886 3771987
1182.16 3906304 4061713 4244469 4456857 4750843 5023187
1185.05 5215438 5539347 5890765 6122723 6641934 7126371
1187.95 7503300 7987068 8397560 8951807 9658765 10351486
1190.84 11077003 12076360 13218500 14430706 15792375 17257546
1193.73 18982986 21067542 23364887 25875644 29019073 32251500
1196.62 36059496 40490656 45244591 50751633 56802364 63282277
1199.52 70630744 78518796 86628008 94792630 102959720 110930492
1202.41 118105970 123928223 128468324 131183512 132299375 131397379
1205.30 127767883 120651504 112089510 102925124 97135177 100748694
1208.20 134630662 175762266 153613465 109647908 96116543 100068742
1211.09 112349342 124586054 134815249 142292311 147266027 149070934
1213.98 148295983 144688718 138405554 130215586 120684797 110172454
1216.87 99101455 87942469 77307544 67489080 58786353 51233121
1219.77 44740102 39126655 34551235 30810396 27667246 25144279
1222.66 22993365 20986021 19376608 17945911 16624339 15697042
1225.55 14873638 13947606 13189019 12605593 11980487 11453234
1228.44 11169501 10998672 10809062 10776436 10647614 10414606
1231.34 10432632 10541025 10595010 10704716 10935429 11133430
1234.23 11577081 12132514 12721733 13594815 14646669 15121449
1237.12 14904225 14581223 14598291 14979427 15375351 15621978
1240.02 15839447 16023094 16228843 16541399 16721499 16548405
1242.91 16459772 16303883 16190011 16448574 16733156 17067467
1245.80 17598924 18144018 18815699 19925423 21230182 22479943
1248.69 23885812 25446536 27299203 29546831 31973020 34788609
1251.59 37853462 41226346 45019042 48952523 53165301 57685087
1254.48 62484596 67823164 73122645 78066619 83066262 87919278
1257.37 92526907 96538373 99931351 102579679 104217310 105170672
1260.26 105145681 103766582 101747827 99695640 98055835 96763585
1263.16 97718982 100351326 98323651 94151205 93561865 95167067
1266.05 97265332 98853126 99673355 99848384 99028431 97429239
1268.94 95134939 92524827 89590920 86125509 82547541 78926190
1271.84 75030200 70986106 66932650 62683876 58383678 54079911
1274.73 49818577 45859033 42252546 38693311 35316626 32268124
1277.62 29388439 26696477 24354176 22190812 20119655 18134817
1280.51 16348651 14885565 13501030 12338385 11259028 10229391
1283.41 9256429 8339895 7569074 6944506 6464584 5932485
1286.30 5606470 5312041 5047635 4967688 4824239 4713054
1289.19 4766677 4987063 5309033 5624182 6044419 6681812
1292.08 7172021 7763766 8586029 9492266 10409977 11330535
1294.98 12507186 13880888 15148877 16526799 18147616 19666730
1297.87 21375124 23229839 24791202 26279011 27844111 29390842
1300.76 30939812 32499955 33831323 34868057 35975713 37047545
1303.66 37872892 38645228 39690001 42361314 47473166 47380245
1306.55 40511342 36760288 36751583 37278842 38102872 38405331
1309.44 37988347 37752103 37944244 38726482 39706529 39562886
1312.33 39645903 40343800 40530894 40294391 39551814 38249754
1315.23 36712337 34894459 32631534 30194377 27682157 25285716
1318.12 22956236 20847265 19009694 17219200 15395268 13721611
1321.01 12554310 11514221 10528133 9728714 9066882 8464585
1323.90 7744822 7317141 6970185 6483598 6185964 5974453
1326.80 5886256 5712170 5477949 5420610 5540778 5769731
1329.69 5714852 5641335 5644367 5510158 5381132 5327782
1332.58 5278859 5062919 5026745 5099367 5070088 4939315
1335.48 4777512 4704156 4672518 4742238 4798442 4822583
1338.37 4816253 4703876 4656226 4736870 4765084 4755475
1341.26 4777686 4707990 4776654 4876670 4715694 4817946
1344.15 5140920 5082779 5205528 5424900 5206445 4881125
1347.05 4762038 4715685 4713372 4483803 4147273 4290918
1349.94 4117077 3547599 3314449 3524301 3925021 4182778
1352.83 4229669 4309629 4568756 4237602 3757039 3900139
1355.72 3833498 3265743 2657760 2575165 2477104 2176732
1358.62 2032827 1649936 1632941 1818257 1496374 1182713
1361.51 1342157 1474613 1454874 1630335 1419218 1147936
1364.40 1295416 1363940 1417112 1160307 875276 905559
1367.29 1027672 843868 711534 935862 991135 790258
1370.19 743362 1063180 1045311 838917 844375 750763
1373.08 594708 722107 815695 690814 700233 840160
1375.97 736882 559208 633479 686486 670949 753876
1378.87 889826 917297 900887 864457 815692 703313
1381.76 810932 978363 855192 851075 1104061 996457
1384.65 845812 888912 550514 383258 369361 279487
1387.54 432779 628377 661763 668841 844554 792709
1390.44 638089 896654 862790 753938 686241 545849
1393.33 426819 158123 331520 697517 735355 668461
1396.22 783477 765847 499252 437933 526587 489835
1399.11 609970 677435 859277 1020035 723170 701218
1402.01 973667 1079469 1046001 1179406 1111458 836542
1404.90 984458 1196128 1223540 1380808 1393237 1455695
1407.79 1575759 1474541 1491631 1716289 1787504 1741374
1410.69 1884864 1968536 2037092 2201159 2443206 2730764
1413.58 2668826 2783266 3065062 3261087 3495245 3781200
1416.47 4211732 4510442 4914216 5480001 5715080 6022533
1419.36 7195563 8422960 9220417 9976190 10870787 11962688
1422.26 13107519 14310316 15367749 16698899 18152818 19523091
1425.15 20968645 22522448 24174838 25994029 28010618 30110360
1428.04 32461531 35122821 38074871 41437018 44436936 46191419
1430.93 47161937 48439806 49659511 50660199 51576171 51665732
1433.83 50646286 49380883 47633133 46617685 47739132 56544548
1436.72 89088489 144953045 127214390 58040620 40935231 43530254
1439.61 46095180 49531562 51835538 53499238 54055834 53979745
1442.51 53382457 52423100 50680225 48780619 46383485 43676547
1445.40 41135282 38817949 36537693 34049964 31766948 29891851
1448.29 27993239 26107096 24154638 22241947 20554728 19032619
1451.18 17380797 15721175 14177776 12842873 11647262 10579931
1454.08 9336604 7933969 7006593 6293653 4780011 3805553
1456.97 4121061 3827288 3425846 3256650 2924520 2655412
1459.86 2524990 2543288 2293652 2152412 1974968 1711063
1462.75 1629986 1563440 1417953 1058900 1017946 1255407
1465.65 1381022 1510160 1462933 1383039 1363288 1456773
1468.54 1379794 1171116 1173724 1149390 1201614 1141705
1471.43 684762 801374 1085417 695108 645852 965174
1474.33 1083968 1052972 836397 712564 885598 1141314
1477.22 1155342 1172673 1221675 1070747 1085705 1143252
1480.11 1239667 1220027 1256128 1289904 1121477 1156040
1483.00 1179885 1070053 985367 1104981 1294998 1166192
1485.90 1031157 899604 735178 915341 1078128 997065
1488.79 704376 493869 494842 503316 800615 891814
1491.68 685080 676693 589894 564855 658665 574149
1494.57 456398 351939-390019-420184 177783 136063
1497.47 130844-172864-313601-40840-25305-128553
1500.36-159423-242187-200038-117592-111652 28832
1503.25 6816-173840-268687-1015383-1527464-889083
1506.15-1263038-1535947-709887-375320-432232-341893
1509.04-296725-224738-89615-163944-146598-161917
1511.93-264786-137876-46957-37496-11890-179135
1514.82-143336-19934-190060-248889-428671-365046
1517.72-31487-77644-110677-160487-286520-406617
1520.61-992601-789648-293879-480060-262628-69839
1523.50-104947-83258-309934-584721-351924-227988
1526.39-315447-209515-25330-125583-296715-164793
1529.29-108668-195781-192417-170175-234051-303664
1532.18-335484-330832-476310-462886-215684-250536
1535.07-229820-75748-19033-95093-262549-352874
1537.97-644045-1547956-1183467-824709-1028799-327586
1540.86-226739-774990-728794-208663-154832-128780
1543.75 56715-124887-407185-196304-2102 35178
1546.64 62928 112670 185185 184213 57972 59424
1549.54 61162 10669 1804 142242 211651 61545
1552.43 56864 175039-130968-511529-76055 171976
1555.32 56722 89680 62486-484279-746696-1238262
1558.21-1413661-596099-874140-1422690-716091-17627
1561.11-17395 4763 49575 133046 93444 26600
1564.00-31334-102525 7485 55370 60821 141832
1566.89 19089-6516 11595-42766-256000-525350
1569.79-150001 93990-4049-25563 1885-22481
1572.68-198516-188602-86386-103632-164452-813679
1575.57-1918173-1302151-334384-276613-192546-254740
1578.46-182215-135817-206945-256161-207932-123976
1581.36-127552-155062-161934-215708-271630-211102
1584.25-112182-147924-142841-134115-208310-145008
1587.14-65550-48655-98594-87061-115167-335078
1590.03-307119-258149-223712-162366-207039-187042
1592.93-181881-173940-191323-136599 85308 126301
1595.82-9733-9891 101911 177044 84203-58111
1598.71-10762 48404 3779 65163 134143 159555
1601.61 189300 120448 26015 95172 97826 145471
1604.50 354341 313915 242798 233510 239419 238651
1607.39 289529 300102 296082 272238 267913 311462
1610.28 242544 268816 292663 284283 201204 187268
1613.18 277580 251662 199645 99187 87709-158281
1616.07-1066173-689099 163561 275626 339451 142944
1618.96 84926 153439 166792 56551-41146 61422
1621.85 37859-188256-539076-581910-187520-26796
1624.75-12923-81907-200982-289278-292202-358546
1627.64-296773-167032-256248-376537-373029-265461
1630.53-236585-240341-231038-298422-281148-264032
1633.43-401572-492680-696752-1262980-1140106-424487
1636.32-286385-431175-488559-428434-349629-313619
1639.21-312102-254817-155482-218253-289114-270154
1642.10-290230-230064-137972-122909-154521-181398
1645.00-625252-1139736-566855-362877-637191-481061
1647.89-434831-292106-139053-187808-221050-256317
1650.78-320115-782147-1753373-2022227-2156628-1480653
1653.67-883728-872063-282986-170158-252996-264140
1656.57-197704-156551-198763-185145-166497-220413
1659.46-206264-192340-193945-229914-360859-655642
1662.35-740729-381661-133969-177630-308546-256344
1665.25-256300-339422-224522-142550-262381-326798
1668.14-441175-890612-841672-339757-297502-555593
1671.03-637876-396470-254189-282027-240405-210918
1673.92-302444-754513-1004960-619015-369327-309921
1676.82-295235-285654-154682-224985-260003-260388
1679.71-327041-322579-305545-276986-265912-447478
1682.60-712307-716182-781496-1703668-1760137-572940
1685.49-213087-156510-94485-19154-36547-97180
1688.39-42047-40181-186148-286040-189217-72323
1691.28 42825 37155-44755-142500-230860-195465
1694.17-270749-610479-1625003-1722854-592349-241987
1697.07-184457-86353-121354-194165-904223-1625224
1699.96-1463948-864012-279710-46543-79681-177889
1702.85-109993-194580-452240-468075-199946-235263
1705.74-502591-315726-149014-204805-208630-187255
1708.64-229717-224262-154820-111332-125359-181019
1711.53-103145-62164-183769-210013-266665-320334
1714.42-539173-593948-296511-191616-689703-1504219
1717.31-924391-445664-631485-252880 42369 31469
1720.21-9271-50822-157304-50281-55335-175801
1723.10-164963-52898 38381 26595-106771-214487
1725.99-146559-74766-144133-165754-64372-20143
1728.89-92834-276177-145672-63794-168403-117104
1731.78-110882-387734-1144153-1048477-1038623-1248810
1734.67-524037-152918-136392-191960-303692-265539
1737.56-154187-225031-311127-683494-852946-409832
1740.46-284671-258521-185147-310897-481799-437647
1743.35-342110-320073-228368-260083-342312-336583
1746.24-396877-431842-395467-513960-690793-515325
1749.13-367387-445213-518494-939016-897443-460400
1752.03-467776-418271-374039-306981-242276-401114
1754.92-504381-494849-638103-641592-404115-393241
1757.81-422524-424169-494955-413889-309178-304061
1760.71-447109-738930-637449-454239-378542-254151
1763.60-192778-215769-192260-160823-243163-300160
1766.49-365716-413134-588093-526560-288969-365366
1769.38-262347-115435-293790-470381-330170-682608
1772.28-1051461-467892-299467-447914-230176-112899
1775.17-156541-186233-173336-131021-64152-34925
1778.06-109229-122218-60592 16257-114847-153701
1780.95-35429-82209-8076 132273 204411 184313
1783.85 67077-157059-108177 47510-1246 16404
1786.74 59782 65351-11727-12712 81449 38380
1789.63 29604 28604-123885-2601 14704-340220
1792.53-112054 228618 199051 236410 280706 235927
1795.42 197784 193513 227183 274512 297239 246642
1798.31 182490 124925 91777 192514 278767 220811
1801.20 135143 121752 133002 95232 83036 203967
1804.10 279441 273344 319651 320139 236190 196281
1806.99 126169 104520 124970 90887 166774 151305
1809.88 14653 22716 10011 284 56564 80956
1812.77 152904 134335 101767 140650 180832 162522
1815.67 145861 129694 35471 34570 101664 210636
1818.56 215195 194073 294397 347599 375764 327371
1821.45 279011 279557 345344 528864 596811 515171
1824.35 357052 562009 933168 786989 522370 381827
1827.24 191788 213896 212784 128982 114192 28281
1830.13 151618 244658 174372 246169 311612 249310
1833.02 208170 146497 158151 213920 186982 125331
1835.92 129601 90493-49921-60141-46293-79
1838.81 54063 23614-15550-28700 859-153167
1841.70-236404-281419-400512-502053-847652-683313
1844.59-300729-174214-71214-201867-245453-289589
1847.49-399932-332645-360013-451856-333367-275956
1850.38-329974-343670-398077-453946-419925-267533
1853.27-209418-321745-401502-375348-332199-375397
1856.17-363493-317726-391332-386867-350404-404034
1859.06-357630-281700-393572-540880-498322-396377
1861.95-368357-412834-386494-420487-498723-571769
1864.84-635259-503222-457426-420752-367066-465643
1867.74-453078-405574-592500-480912-251109-369511
1870.63-452639-468490-404504-339664-386595-311648
1873.52-223847-282827-390270-329520-248953-405910
1876.41-343372-299424-357487-315223-345178-324258
1879.31-277104-247562-207471-265327-386745-412328
1882.20-477961-545838-384063-293599-395092-418976
1885.09-373078-359105-427411-371620-300148-401956
1887.99-420570-372273-377502-373446-335080-255284
1890.88-224523-238765-222134-219073-318079-335403
1893.77-324165-470404-499434-415197-387463-377578
1896.66-352692-269219-218649-323759-397606-380851
1899.56-292813-214273-313961-380484-316171-315410
1902.45-379158-411793-437471-436509-380181-387380
1905.34-328181-265973-318680-409310-480460-404300
1908.23-317456-309032-387658-425390-481420-453277
1911.13-286170-317458-450156-407635-249810-235913
1914.02-312922-321192-326887-316372-294558-359249
1916.91-363803-478464-439854-215165-279668-295547
1919.81-280204-344521-336893-335016-361575-435171
1922.70-305648-191515-240485-262574-335452-294391
1925.59-236758-252171-292591-286404-263875-257856
1928.48-171255-191194-262328-216324-109354-101606
1931.38-173286-147588-98562-142606-184916-115391
1934.27-171358-177762-105712-135573-82863-41402
1937.16-67267-97794-13308-57768-137864-113352
1940.05-191999-172572-95357-111890-90009 21395
1942.95-29067-191911-197655-97524-98387-49822
1945.84-80720-99615 9147-22883-137308-217610
1948.73-182028-217852-231244-152296-66119-61671
1951.63-143618-128825-303115-418996-342399-265452
1954.52-204685-236507-285038-209437-70231-158761
1957.41-267221-274928-223750-99162-73622-147009
1960.30-204228-230574-178914-161596-225898-393414
1963.20-395666-290345-286095-280495-293000-298169
1966.09-309517-235872-201543-198974-158427-117647
1968.98-82604-93744-110128-108070-112338-69366
1971.87 33321 82611 42066-10970-47277 30673
1974.77 190016 240149 100905 106831 249256 276691
1977.66 316877 343145 314740 285276 278165 326521
1980.55 415663 359537 364836 422623 364833 341145
1983.45 292212 339001 389701 374801 425930 447803
1986.34 409305 389698 401445 348240 313772 410924
1989.23 497772 496292 396777 298898 301627 313993
1992.12 242241 158375 164288 198218 246402 210666
1995.02 116168 112926 173082 107461 117257 117213
1997.91-10225-4654 77439 103407 86364 124153
2000.80 96074 45074 41367 68817 40834-15606
2003.69 16217 19872 16826-22210 17091 86316
2006.59 27714-31603-21555 111187 70789-41456
2009.48 43305 31453-40954-9892 53035 50123
2012.37 19827-60886-102089-82096-64767-60863
2015.27-82642-19009-28659-129768-247383-268600
2018.16-158730-117056-71469-128289-192467-124482
2021.05-279491-415326-270321-192569-129318-25237
2023.94-22052-78222-141432-117489-119135-186913
2026.84-188886-213604-276487-214393-171071-188304
2029.73-148232-93843-113442-116396-22147-4720
2032.62-114647-113808-109620-204020-217686-107520
2035.51 14969 72041 40198 2123-1701 22293
2038.41 15002 28025 47215 10282 19592 66642
2041.30 52782 4607 8642 97662 173074 167314
2044.19 164914 268180 288688 194517 269647 266842
2047.09 208258 174745 169437 240552 266518 125913
2049.98 94582 267583 241680 180057 200692 126342
2052.87 106500 71708 85177 178979 155327 171848
2055.76 131319 66847 117575 231093 132309 49538
2058.66 98702-68730-160332-45917-70417-106813
2061.55-70044 37427 41598-89800-146701-248731
2064.44-268646-271179-210733-137226-182677-244752
2067.33-175912-126997-191567-80620-36486-132949
2070.23-157657-176933-131403-55755-123811-232337
2073.12-168900-68440-28720-2885-31485-7481
2076.01 30605-100724-304708-257312-31966 55254
2078.91 109731 100759 51554-28591-148349-285003
2081.80-243386-125707-3993 199634 81128 70916
2084.69 169077 88239-153920-100964 116940 151936
2087.58 238235 214358 249569 393215 410368 107658
2090.48 72607 403349 620036 549140 536737 541159
2093.37 546255 293593-60511 327266 592066 626624
2096.26 677080 712656 860283 948730 546883 205801
2099.15 585386 738564 685040 709521 803381 735206
2102.05 612160 145777 86461 541253 530098 523760
2104.94 663563 748982 744953 547627 133797 373636
2107.83 754608 800800 692420 631528 626710 663239
2110.73 191643-50796 492337 645777 712657 732456
2113.62 500138 403102 149706-386298-47120 253526
2116.51 237427 333096 249196 214932 142524-390269
2119.40-480382-37856 73111 103839 89716 147967
2122.30 111505-379809-731205-356373-110201-97174
2125.19-22423 28665 8824-235575-612032-356513
2128.08 45126 82653 74173-95798-155901-201851
2130.97-567228-480907-231231-194102-111138-113138
2133.87-181651-224114-351705-281329-74100-95823
2136.76-35729 15777-74425-251973-352101-397121
2139.65-340309-251749-201184-54778-122046-180733
2142.55-110195-192538-115364-32133 38196-16212
2145.44-128220-104408-353590-424782-221738-204812
2148.33-188692-158943-28357-143476-527526-476299
2151.22-275940-156586-76550-103140-82297-403541
2154.12-741731-438866-209895-237586-201936-215341
2157.01-255977-694342-852107-327618-105346-73083
2159.90-120578-157121-329396-966430-767027-212730
2162.79-148473-148474-138847-196118-818885-1053213
2165.69-406432-160204-241910-149601-62430-310780
2168.58-1015546-739282-219676-259193-51665 38783
2171.47-127140-718031-791359-112745 56013-123656
2174.37-138325 13820-385584-764150-163184 42193
2177.26 68769 201038 127720-242704-876076-467675
2180.15 94883 119958 116986 149874 92072-467295
2183.04-413374 45481 100720 209837 231711 106103
2185.94-400671-388410 152047 284953 237468 183817
2188.83 106173-268072-91408 410807 431152 412798
2191.72 373598 223374-34594 119872 368528 478331
2194.61 547279 496994 368474 148908 314482 535192
2197.51 648005 632491 518164 308892 153982 340654
2200.40 479688 557325 555559 473910 224785 90989
2203.29 330206 454019 550016 574487 449635 307349
2206.19 453210 558113 470641 472694 388459 289716
2209.08 131440 64744 129797 233436 263679 178349
2211.97 105858 138186 242944 225398 159735 82728
2214.86 12254 59584 108975 204189 36768-88141
2217.76 18969-59564-121773-160780-74243 16502
2220.65-93405-152099-109329-86932-7737-38101
2223.54-112622-69278-62111-4710-101261-223109
2226.43-134139-123648-103557 51718 60688-97329
2229.33-76863-52639-47412 51119 1107-40049
2232.22-38958-51383-158097-264599-59486 68606
2235.11-63670-87251-89981-147057-70328 88014
2238.01-9078-166386-50155 6730 5289-16842
2240.90-107958-69383-14712 20038 95450 86875
2243.79-55020-23765 92561 103362 75440-15264
2246.68 50071 190168 229957 111805-20188 21430
2249.58 115386 112199 5579 75280 134871 244453
2252.47 196812 54360 100870 73039 110069 158678
2255.36 180985 142082 94020 99082 101917 89703
2258.25 123327 32498-66458 43716 47304-51118
2261.15 68407 121085 8129-42944-58167-47887
2264.04-49770-500 90010 74404 11164 68766
2266.93 82187 5257 11179 7740-11541-55460
2269.83-179144-148275 21739 27290-24032-33145
2272.72-136147-183533-115101-162157-169128-39217
2275.61-38982-29383-69281-84647 64385 8310
2278.50-111741-3187-20810-184799-159218-135896
2281.40-221326-147897-73059-67333-108209-196527
2284.29-196802-188926-206513-200823-191704-253818
2287.18-311294-229666-105221-26609-67229-197417
2290.07-234434-174933-106412-63537-83132-162591
2292.97-267697-261144-190772-211010-315626-297592
2295.86-216724-301256-404411-416851-322287-209196
2298.75-241245-327438-301990-151714-114491-51820
2301.65-119652-266606-198430-201310-301942-415576
2304.54-245301-108732-225347-440275-574983-412156
2307.43-256268-216420-495618-505404-407316-567850
2310.32-789822-605597-355756-309542-536575-745116
2313.22-462466-450001-798672-1209521-811579-371192
2316.11-676645-1348422-1090725-547718-810719-1517697
2319.00-1331538-505063-769758-1806549-1613141-633752
2321.89-938514-2184925-1926492-713222-1083310-2439635
2324.79-2088859-649135-1345827-3025933-2256984-626071
2327.68-1669250-3315091-2118538-617254-2236447-3766781
2330.57-2018894-950756-3120243-3700290-1341361-1238948
2333.47-3587522-3145772-912717-2066710-4142754-2480340
2336.36-1007063-3032846-3694942-1291849-1417292-3575789
2339.25-2522077-779160-2366778-3171850-1154147-1161368
2342.14-2708055-1674506-623122-1863636-1885068-529406
2345.04-890992-1373944-364149-19866-464817-166894
2347.93 194133 307504 314552 141451 407996 442248
2350.82-220802-11677 462435-608050-600555 240160
2353.71-1102517-1005179 255364-1380090-1300514 272502
2356.61-1644027-1463447 177107-2020152-1423316 56540
2359.50-2296414-950282-52950-2260574-293344-538494
2362.39-1902749 526414-745230-953055 502529-1397545
2365.29 35878 171761-1049717 674453-430178-69779
2368.18 514971-355820 783362 117402 411871 615379
2371.07 193185 879983 349463 687057 373015 368798
2373.96 519096 377210 687238 648387 860463 648146
2376.86 647803 665409 763765 741514 584690 591794
2379.75 665063 643948 497364 522280 599549 479195
2382.64 448864 583136 635127 586602 599318 606003
2385.53 531880 495793 440103 366054 411819 561684
2388.43 604506 534150 537288 575592 611345 637726
2391.32 662731 789766 851360 825584 835162 841217
2394.21 804271 910222 1022428 953146 1005914 1057745
2397.11 1013767 1054222 1047035 1119973 1247213 1290019
2400.00 1262108 1272485 1293861 1294125 1371907 1454374
2402.89 1474943 1478282 1533134 1784172 2187751 2402032
2405.78 2334978 2088163 1808158 1568866 1394943 1350461
2408.68 1200779 1082353 1156149 1054618 1038902 1125124
2411.57 1083441 1105573 1148311 1114454 1120572 1133253
2414.46 1035738 998554 963095 955237 859847 619473
2417.35 434669 457637 669339 763454 805637 830378
2420.25 807325 725325 576135 555323 480554 395065
2423.14 439917 440216 319408 225527 282534 295576
2426.03 195540 212286 211890 191681 189678 40985
2428.93 59439 177007 108218 22131 58599 51423
2431.82 72828 152932 115339 17897 23915 37921
2434.71-32023-4581 154633 271839 166573 196185
2437.60 269534 339561 310479 155020 353636 509062
2440.50 438521 388951 436482 507702 487885 571460
2443.39 571525 520804 537365 527709 677447 794279
2446.28 821111 906270 1040057 1179909 1121570 1083570
2449.17 1245415 1303194 1302281 1375687 1516160 1634045
2452.07 1674924 1747237 1778981 1781576 1904839 1937574
2454.96 1992774 2138543 2172463 2176519 2306771 2363258
2457.85 2330505 2558610 2618152 2525677 2526836 2504601
2460.75 2538140 2629531 2489873 2368882 2472053 2421564
2463.64 2259702 2292312 2321034 2242054 2399833 2385235
2466.53 2239685 2118718 2026233 1948014 1777143 1745414
2469.42 1769542 1727597 1808369 1715857 1587761 1618111
2472.32 1444514 1347640 1467432 1474557 1403249 1393796
2475.21 1347077 1281244 1278219 1309792 1164158 1070532
2478.10 1116990 1081034 1098147 1034512 931843 958440
2480.99 976529 971687 967986 972954 1023764 1041224
2483.89 970784 890657 867742 957762 1050768 985429
2486.78 768726 757767 903653 1003736 1028062 980965
2489.67 991983 1009983 945205 847562 817555 884741
2492.57 848310 711065 709432 802622 901350 844500
2495.46 791620 817128 842045 820539 692075 738083
2498.35 792531 721523 691065 707864 798561 788152
2501.24 843992 916370 759431 846111 990551 838480
2504.14 860778 1044065 978024 982298 990452 905007
2507.03 1102071 1186445 1152252 1199426 1286278 1310892
2509.92 1256483 1317203 1346369 1412051 1488542 1528797
2512.81 1640878 1613277 1570873 1597700 1650373 1595941
2515.71 1415136 1369828 1354048 1259167 1209171 1199559
2518.60 1213026 1265126 1331015 1308562 1246623 1270868
2521.49 1364875 1310187 1224025 1320097 1325804 1226228
2524.39 1006108 992713 919131 806224 872360 782420
2527.28 678204 612247 526946 447496 415197 409480
2530.17 491279 414215 126843 55492 130683 7399
2533.06-45807-72022-29678 80456-16125-57749
2535.96-77310-260587-309504-120025-60443-209883
2538.85-223298-244764-283840-230101-88528-127965
2541.74-217468-96676-113675-69121 32074-44577
2544.63-240278-293255-258079-108388-178753-222458
2547.53-47545-22611-72159-95009 32256-27723
2550.42-106444 38917 168082 211184 89487-71248
2553.31-98745-67061-183054-84452 71766-901
2556.21-5133 14791 131808 317153 404822 327741
2559.10 353541 441165 424410 433072 437374 444668
2561.99 446035 340944 389801 621299 632997 532775
2564.88 641349 650674 483222 366936 444023 559162
2567.78 423890 362804 486506 565492 616166 653354
2570.67 603738 547524 573280 557375 425030 278653
2573.56 319289 441918 417191 433827 443842 419091
2576.45 421160 349674 323423 329890 281120 353351
2579.35 414299 352526 332655 244463 233708 295028
2582.24 203979 120495 163521 172461 215378 200246
2585.13 175287 284418 285089 393132 444251 278462
2588.03 309587 409596 323538 203050 287895 367459
2590.92 275731 300173 378605 416092 438512 331289
2593.81 363308 445740 347823 434990 460273 371962
2596.70 411626 519198 602993 611753 551456 464349
2599.60 329725 287883 443313 446894 420901 504836
2602.49 542719 450211 462405 456616 383440 388710
2605.38 211426 185142 277901 181682 188080 146195
2608.27 164977 317744 318038 240977 186299 268646
2611.17 243911 167594 190019 196120 238617 186711
2614.06 228362 296210 147470 18312 14428-22313
2616.95 45237 180866-38023-57389 91888-1631
2619.85-37787-49290-221487-192306-80944-189035
2622.74-93023-34510-217080-191411-137773-187801
2625.63-149689-44050 38679-5796-107814-231956
2628.52-195067-199907-256881-159806-59779 19956
2631.42 9898-85497-179473-181371-140532-38147
2634.31-89362-145563-51215-67388-101524-57613
2637.20 108732 60194-147232-107994 77966 195768
2640.09 211912 88342 32503 117277 5554-90499
2642.99-15201 98186 132391 147495 126067 140494
2645.88 81127-84964-110820-35335 60421 16822
2648.77 150734 304317 180372 49034-19400-154624
2651.67-116320-86964-84913 32258 106258 182422
2654.56 126557 17302-26980-139902-144876 23705
2657.45 16852-85438-195925-182130-84602-1585
2660.34 35490 103651 90338-91224-106053-137687
2663.24-121572-115724-121927-40308-65083 24962
2666.13 44924-61486-86903-4717-15087-200232
2669.02-230174-142180-8494 32467-19093 31543
2671.91 35878 1715 3694-35859 11265 64532
2674.81 48304 99900 178969 150821 39498 6805
2677.70 38363 137657 89172-86053-63565 100997
2680.59 191117 57563-7362 39986 53910 99725
2683.49 25749-81606-30029 47981 15547-31159
2686.38 50636 174543 260808 355264 342985 305788
2689.27 396225 479290 605175 718266 618790 628932
2692.16 781610 881328 849566 811390 835241 843289
2695.06 972385 995198 929489 982307 912262 905602
2697.95 988526 967390 1000924 1036081 1011391 869262
2700.84 784315 946081 1025889 934046 946297 1042035
2703.73 1156843 1181331 1081050 968372 934082 874208
2706.63 884832 968734 1046584 959054 782435 566664
2709.52 378793 439654 491868 412960 285322 248969
2712.41 263084 199999 174624 115779 100806 13148
2715.31-45486 53925-3950-126265-142138 26485
2718.20 49509 68347 155620 100506-102665-230964
2721.09-149848-49289-41794-14669 46763 83011
2723.98 38631 118869 259959 259338 273624 325242
2726.88 247771 128621 123836 183457 197031 244185
2729.77 346616 250379 187610 161554 243652 474906
2732.66 655034 713326 730059 827525 710924 526657
2735.55 681490 727233 639135 821567 980049 1074169
2738.45 1015687 787946 723016 884953 990736 922919
2741.34 957812 1026495 848343 733118 774717 691332
2744.23 709459 695030 587646 770308 963707 899386
2747.13 686198 531594 502044 717853 919765 813331
2750.02 670644 683181 600252 470556 360961 304539
2752.91 431458 378001 350415 302836 128972 77689
2755.80 62492-24075-27800-631 9710 4621
2758.70 57456 108839 7182 83965 105972-86689
2761.59-162173-70601 2565 19814 45456-59736
2764.48-7738 74815-24230-103782-58317-15964
2767.37-124997-101002-11701 36138-52383-136142
2770.27-55862-65969-191250-251111-216087-89700
2773.16 75521 112808 55768-69539-111651 40751
2776.05 16797-104672-56187 33707 128927 92043
2778.95 224744 225061-23893-5147 86119 25328
2781.84-42927 12822 88303 48141 49919 40083
2784.73-43690 107287 133988-55796-21504 63331
2787.62 14917-170891 21240 428628 259500 72253
2790.52 66528-90901-118539 21225 164787 151550
2793.41 85684 185485 243745 257191 201551 56783
2796.30-41703 57648-6096-118547 65524 34319
2799.19-82536 41139 129575 209941 421652 247002
2802.09 50637 45535-39677-145700 21742 206589
2804.98 151667 113054-63290-50528-134945-8779
2807.87 109599 674 31881 165742 203732 27021
2810.77 35753 53389 86932 221653 243241 116210
2813.66 51784 69889 98334 263552 244299 210135
2816.55 178647-80144-55048 208879 341650 405412
2819.44 325121 80415-13732 149096 160616 144100
2822.34 352175 182181 4939 117539 156916 138234
2825.23 40349 6149 219092 306663 230682 474938
2828.12 534242 521941 556512 445169 433029 382002
2831.01 369353 380932 471094 466194 287433 190685
2833.91 262401 313521 337186 309060 375318 523791
2836.80 702373 812331 807169 852694 829811 813661
2839.69 695715 766284 948509 921587 971153 1309211
2842.59 1441678 1373934 1422765 1596316 1827685 2000505
2845.48 2167343 2247443 2580694 2854995 3227606 3699212
2848.37 3960206 4314540 4775613 5216892 5634875 6004299
2851.26 6423259 6885519 7062861 7017926 7019787 6829568
2854.16 6567561 6356170 6030997 5959041 5971286 6595587
2857.05 8059363 9014173 8380695 6592492 5399582 5210897
2859.94 5344390 5823798 6305533 6632195 7032963 6948052
2862.83 6656849 6613438 6561626 6264092 5758077 5253498
2865.73 4864453 4452716 4010960 3654063 3305428 3125352
2868.62 3005558 2602104 2305227 2355242 2190698 1804197
2871.51 1632234 1526910 1431281 1398598 1259724 959988
2874.41 680551 578166 692260 1397335 1855088 1613030
2877.30 1362487 1305821 1354319 1407866 1281044 1154804
2880.19 1282466 1339912 1223525 1169278 1128558 1127611
2883.08 1227722 1269734 1231977 1166640 1151701 1221217
2885.98 1332012 1337352 1207898 1139314 1181972 1474150
2888.87 1256869 872674 1221494 1346535 1160768 1165593
2891.76 1191046 1084143 1129306 1257000 1254876 1303233
2894.65 1436991 1493700 1301332 1135274 1139148 1188972
2897.55 1181884 1110757 1209979 1331734 1400165 1521817
2900.44 1441859 1301199 1338267 1353301 1429235 1568899
2903.33 1371863 1216037 1171333 1097124 1180703 1127671
2906.23 1116012 1257418 1359946 1347230 1344576 1299771
2909.12 1367986 1382660 1290860 1412387 1332207 1360846
2912.01 1550655 1429518 1289595 1436388 1452451 1284336
2914.90 1338400 1264034 1202182 1458990 1689758 1686466
2917.80 1725047 1532907 1441470 1576268 1660284 1781702
2920.69 1658087 1559658 1645447 1803528 1867339 1657900
2923.58 1783506 2149789 2051185 1980073 1988752 1846255
2926.47 2037791 2269429 1987002 1995322 2088242 2048919
2929.37 2132657 2108203 2108187 2090354 2051904 2046337
2932.26 2084875 2141815 2222257 2181227 2070562 2128953
2935.15 2255614 2093592 2026597 2286438 2323149 2358147
2938.05 2451672 2411807 2477818 2462478 2258417 2226290
2940.94 2160569 2078952 2259504 2467993 2533702 2484809
2943.83 2462643 2500796 2534811 2751254 3070276 3309907
2946.72 3350854 3136503 3163839 3280042 3531397 3807650
2949.62 3849526 3961006 4133410 4350104 4536445 4736874
2952.51 4883715 5010020 5207678 5356954 5426784 5630645
2955.40 6012099 6316265 6665439 7016768 7329978 7620622
2958.29 8218671 9057008 10058937 11138979 12653593 14496475
2961.19 16186005 17897153 19263049 20154393 20873077 22367904
2964.08 24895057 27680349 30609176 33750206 37076119 40560083
2966.97 43685412 46148561 48283247 49977101 50616969 50431137
2969.87 49622176 48038151 45703414 42875179 40556636 40051653
2972.76 46959917 67735943 72680041 55602053 46510202 44552365
2975.65 43496153 43899473 45874891 48302211 50525969 52108955
2978.54 52824076 52742550 51722272 49933156 47695430 44889110
2981.44 41678815 38350733 35005891 32054529 29125425 26518012
2984.33 24662323 23495526 22185481 19827293 17061738 14981570
2987.22 13583334 12256125 11314348 10531793 9870049 9315782
2990.11 8887640 8587921 8194331 7893208 7663105 7417060
2993.01 7260371 7071410 6832897 6848733 6995760 7147705
2995.90 7302656 7825385 8301523 8675840 9268587 9760081
2998.79 10449503 11098728 11509143 11748868 11846722 11831691
3001.69 11669389 11477254 10852942 9960458 9151584 8449676
3004.58 8030937 9242175 13018608 14828033 12572970 10080748
3007.47 9005105 8892907 9233176 9728947 10407952 11038891
3010.36 11355988 11765476 11840551 11464112 11208896 10856059
3013.26 10436204 9935597 9432603 9031782 8552037 8148143
3016.15 7871971 7633395 7371108 7193043 7037175 6888311
3019.04 6938013 7133536 7160340 7040779 6915693 6489174
3021.93 6000651 5582449 5082001 4690821 5093574 6067815
3024.83 6301571 5377426 4567861 4795298 5142877 5284711
3027.72 5608221 6015709 6286071 6405023 6245639 5891632
3030.61 5595501 5472435 5289853 4858414 4487410 4139579
3033.51 3761102 3188892 2926029 3060292 2753983 2378793
3036.40 2310886 1985356 1834236 1856813 1489359 1297325
3039.29 1391815 1387265 1221040 1073378 956515 1010559
3042.18 1040347 752309 704943 689020 686016 824593
3045.08 670368 474831 407528 508826 642911 697575
3047.97 703317 554417 503921 458275 559494 651908
3050.86 568081 370971 431400 707874 529303 306483
3053.75 349060 369228 436852 462517 334396 238048
3056.65 284432 286035 174136 236435 183267 120849
3059.54 219061 284263 329404 354176 249692 172427
3062.43 330217 489420 435574 289203 269674 204216
3065.33 78313 75619 177901 270023 412903 557658
3068.22 377154 441323 532164 272844 87718 95526
3071.11 68848 172925 385629 389978 152467 265031
3074.00 525518 349963 222387 162928 289060 315804
3076.90 222571 318513 268462 181152 238122 364461
3079.79 521251 552094 451436 526037 677738 578359
3082.68 484563 396866 402999 464422 444329 211469
3085.57 234931 350637 408986 564448 274051 77233
3088.47 449738 568308 114007 6022 164547 265360
3091.36 163908 35558 54461 172402 172418 92849
3094.25 242244 227294 49964 54866 207184 181877
3097.15 145805 235704 41283-244411-73298 143462
3100.04 105879-58589-146386-64436-44817-3030
3102.93 2585 145735 116731 5611 142402 203180
3105.82 295873 224256 32909-65723-34172 196894
3108.72 209744 56940 95989 160443 240491 326286
3111.61 280744 89321 13715 248524 280301 134672
3114.50 109041 65527 378738 457025 226887 48289
3117.39 115942 56982-65634 37708 38094 211935
3120.29 292323 126606-124461-127144 78348 26924
3123.18 6892 98727-42050 57926 245815 94097
3126.07 20738 22506-72083-71270-149719 4647
3128.97 123709 55497-29156-121266-150532-93558
3131.86 103274 364126 307625 180347 293920 308260
3134.75 226143-15609-53123 165815 311245 16870
3137.64-188906 13967 125222 106511 300438 446776
3140.54 245444 177670 326272 385432 194273 91100
3143.43 70385 133058 198457 354588 558844 312891
3146.32-79337-169911 15303-70081-1717 326658
3149.21 475925 383503 247641 330240 277479 227652
3152.11 323169 392798 412012 351654 71106 110546
3155.00 267238 224652 197745 185109 218275 123745
3157.89 148895 343072 328643 198458 171278 174916
3160.79 136309 67563 49601-75916 102221 147589
3163.68-10614 271714 286522-49909-53163 283433
3166.57 383388 61522-89066-4803 5126 83444
3169.46 180803 219098 145959-105663-17569 128569
3172.36 103434 108860 87417 52468 136302 251360
3175.25 144986 117090 75694-27355-99979 51844
3178.14 180423 121849 114314 34969 136474 207757
3181.03 85074 107849 35238 161362 411718 333121
3183.93 125496 89645-22702-105054 34169 147350
3186.82 203377 54928-24023-99790-170794-150046
3189.71-178407 156459 356393 304765 250610 90398
3192.61 128008 287163 251239 202182 354161 241999
3195.50 13477 191456 297325 136140 33859-75329
3198.39-64584-181389-67676 300293 341324 93323
3201.28-55807 62022 62592 214922 335512 68780
3204.18-33197 141118 213786 243078 188142 67837
3207.07 53349 4503-183971-136042-63698-369467
3209.96-355570-292525-208878 57427 115634 243852
3212.85 105239-31193 51619 10203-20425 22715
3215.75 230898 190090-151897-96054 118969-142094
3218.64-272293-115605-69677-70794 15278-23159
3221.53-127605-22869 20914 52320 124605-592
3224.43-47481 133902 1203-133443 89139 315262
3227.32 315876 164782-24331 103903 145873-183784
3230.21-295851-85339 80076 6220 248828 392527
3233.10 216474 276052 56908-211239 83452 274446
3236.00 102269-37527 101704 359287 217794-63518
3238.89-124906-17284-31432-173888-32552 167436
3241.78 186991 216498 191031 65527 41281 52385
3244.67 111577 161775 144807 12379-99519-53851
3247.57 36344-5080 95525 130441-3804-21671
3250.46 36724 174020 144011 34848 52881 170921
3253.35-75482-194195-29044-47972-15841 70984
3256.25 82952 61420 44085-114754-362382-345205
3259.14-209570-93872-47414 3040 21462-83670
3262.03-36765-13214-135704-57050 129830 91211
3264.92 145402 184535-18717-92813-137208-145243
3267.82-151938-192318 2778 77388-5871 33636
3270.71 16383-84489 65796 87648 81198 51257
3273.60-157706-107963 7331 31202-181168-212809
3276.49 100212-82605-333141-187355-88020-63762
3279.39 14216-126202-248993-157705-165541-111857
3282.28 169843-31708-463114-314694 17872 39593
3285.17-977-71265 27021 136094-83825-6314
3288.07 66358-27799 884 292408 292127-84271
3290.96-15310 174405-5993-254238-126426 29629
3293.85-28161-127723-257983-104600 196671 256526
3296.74 100773-104087-21632 121569 74488 200308
3299.64 297375 142268-61584-67376-7527-42456
3302.53-180285-215548-284489-238651 141006 261004
3305.42 103571-198808-123971 160609 55736-84856
3308.31-77660 163586 233788 114567 41039-4802
3311.21-23916 113578 9232-142481 26376 145624
3314.10 103876 198476-14989-231263-96982-37956
3316.99 7430-118218-106141-12796 109709 192337
3319.89 133585 35894-48054-28113-23934-86051
3322.78-14943-3815-243898-315995-61419 42593
3325.67 106405 81199-114748 146665 142287-289596
3328.56-287552-144983-191514-78911 272935 156262
3331.46-33301-78662 70364 105411-204012-224058
3334.35-35419 286832 456152 338761 142010-120165
3337.24-157726-109586-79689 157584 10135-171810
3340.13 92849 58819-170519-352616-224405-62732
3343.03 26198 128734-25197 89619 276128 239611
3345.92-17197-61684 176181 288948 158883 76518
3348.81 135485 38661-190185-268161 141365 310544
3351.71 298955 141032 52120 236712 67188 75646
3354.60 165209 132081 135137 69186-19509 80989
3357.49 198240 266609 128410 201896 250457 50961
3360.38 36494 96009 138909 60906 335571 423804
3363.28 34694-67898-72870-176548-62227-69930
3366.17-60218 13812 50967 64621 158197 146205
3369.06 81846 219720 235105 72667-4822-170788
3371.95-188293 64746 125073 165672 125982 154921
3374.85 10082 5384 37720 33918 130474-113957
3377.74-97968-38455-16630-53845-132932-70145
3380.63-166356 142206 452221 291870 114031 23928
3383.53-29349 108148 120520-38293-67096 52798
3386.42 157391 82603 120215 380800 455673 330659
3389.31 407665 377105 252718 263231 303445 235504
3392.20 258010 378056 262495 143112 254607 257948
3395.10 240228 281267 345088 307946 137287 4052
3397.99-174130 131551 432875 371858 511247 251665
3400.88 77469 354050 158223-54281 232565 477642
3403.77 588100 416654 269837 439598 374401 7331
3406.67-48430 168671 246919 396014 287586 319306
3409.56 389839 225048 381361 346257-72655-93646
3412.45 291314 547973 450508 83725 307887 520708
3415.35 193888 323260 829097 692055 493415 604914
3418.24 387735 518197 446018 317775 406500 247435
3421.13 33647 15139 43815-33504 6378 159644
3424.02 14596-14728 197746 309045 559952 215429
3426.92-73617 35577-96557-427008-323184 4841
3429.81 73070 161380-89530-461656-391598-220094
3432.70-44784-20851 84234 132832-120202-125290
3435.59-162441-177159 31895 24381 58521 189820
3438.49-60867-172279-147813-216765-248615-381867
3441.38-447486-123135 303736 345668 18651-154501
3444.27 143173 82875-167717 69302 181344 1594
3447.17 36463-5861-280495-294800-298995-151518
3450.06 214411 275671 223127 107122 23668 184016
3452.95 236283 145929 116084-99167-268861-334340
3455.84-115074 120273 6525-77720-68865-104839
3458.74-208820-106451-47622 21762 131527 35708
3461.63-281481-157751 18397-227626-186932-76413
3464.52-77139-143761-262381-271902-160685 16766
3467.41 77643 94560-74869 11473 223066 64443
3470.31-247130-375357-242383-127377-177238-433712
3473.20-373194-257361-216793-120082-6648-13475
3476.09-270565-156683-74425-117100-11604-13515
3478.99 18151 5902-19428 2353 8995 44422
3481.88-118064-282373-169046-227081-414591-266200
3484.77-167271-9175-33276-160137-102787-208094
3487.66-52577 65864 33286-6847-109189-97570
3490.56-146849-111624-111230-181446-213922-392194
3493.45-391122-169277 162570-20144-158795-131851
3496.34-116814 78978-21034-84140-52781-190664
3499.23-317564-177734-102393-142735-114875-152005
3502.13-124337-107547-284124-323352-413061-376676
3505.02-145767-167534-18293 50108-167727-104789
3507.91-107684-241767-128413-207331-221567-159888
3510.81-113890-56368-343960-364291-219193-289754
3513.70-133698-203388-334457-179187-191775-64754
3516.59 92629 53939-53322 1136 5566-217096
3519.48-307917-208839 70815 21285-102492-67599
3522.38-213254-173295-105602-145277-61674-228454
3525.27-363678-219048-147326-175136-187828-213820
3528.16-153070-56343-191799-176165-283097-266099
3531.05-190850-386464-259267 54343 9075-62886
3533.95 130237 62153-25632-167605-343592-303169
3536.84-385503-291740-17695-264890-463998-119575
3539.73 162465 167409-66656-53701 205964 9205
3542.63-331113-406929-284767-191196-279005-219421
3545.52-155847-204443-229514-28598 48931-42231
3548.41-101542-218084-289436-438536-268908-99492
3551.30-308526-89551 141230-135487-126734-47306
3554.20-122857-275081-548282-328429-120540-134957
3557.09-70238-81975-124522-120601-44764-170916
3559.98-110620-64913-145580-38293 37226-95575
3562.87-83783-15553-115948-39922 7549-65073
3565.77-135277-112875-161866-428733-605289-361336
3568.66-255838-341037-231106-113562 21233 57123
3571.55 158866 39068-334484-266958 4901 31204
3574.45-105987-155885-188221-241418-260602-206495
3577.34-120464-109366 5185 17527-133693 29584
3580.23-33888-305344-68259 182275 48456-119301
3583.12 4979 5096-177309-273876-340079-231369
3586.02-351918-380686-262639-291811-380945-492810
3588.91-310195-158674-217153-276518-161477-54519
3591.80-31873-195505-263423-95488-54112 54388
3594.69-302464-474779-215213-261985-165094-136620
3597.59-154448-146638-107010-186856-251282-250042
3600.48-324871-406317-277966-108039-216845-200657
3603.37-237046-295486-291696-269712-260140-220862
3606.27-344689-328230-127848-233437-351713-842923
3609.16-932583-396997-105497-102931-153571-249415
3612.05-385508-170714-156576-274418-75588-114447
3614.94-407860-464474-383208-234170-305459-335392
3617.84-114442-34385-489168-734556-445840-552672
3620.73-490407-150518-109098-76533-86288-135234
3623.62 15729 101298-9142-189169-324557-28206
3626.51 95720-181824-556874-875946-549814-699646
3629.41-564917 6364-55772-107873 20876 261583
3632.30 161754-166876-349295-151564 104106 96100
3635.19-154061-284609-11287 93772 113266 217147
3638.09 117090-36932-83474-27036 81572 157655
3640.98 71737-29526 61869 112519 203798 384791
3643.87 273501 33174 212633 276550 183744-12728
3646.76-284452-200193 16575-250841-596450-108344
3649.66-13756-265650-288980-144819 39038 56006
3652.55 13193 52083 185624 154620 36711 58673
3655.44-76407-123530 268039 338564 308282 322619
3658.33 193925 102897 182258 258855 141631 112533
3661.23 188865 273292 303877 171028 172792 291781
3664.12 243961 201034 324737 287033 86323 139019
3667.01 73525 219039 107179-77903 87060-129691
3669.91-670153-817512-204435-79656-240736-244049
3672.80-22962 95948 1599-399516-561856-690439
3675.69-637546-110209-5231 282356 337268 216310
3678.58 208909 90920 94500 349075 295094 126832
3681.48 162680 94842 186017 255704 138463 10392
3684.37 39243 48649 54732 146907 170413 120693
3687.26-70986-898670-870015 237768 442740 199901
3690.15-8166-375288-223171-59907-84944 262302
3693.05 270011 147451 88043 17026 151135 181685
3695.94 92958 134899 292087 368297 502129 400332
3698.83 235295 302655 395734 484410 195564-106897
3701.73 85783 227290 37203 147953 343208 209206
3704.62 170394 254798 219735 183107 84663-33725
3707.51 127008 274169-23065-100301 90166 146732
3710.40 187249 66180-703632-845683-103051 140369
3713.30 250154 199856 92338 11035-75968 26265
3716.19 147194 35680-11703 155144-81196-180190
3719.08-13587-18106 69919 12222-119822-172601
3721.97-91416 37880-104535-205857-49724-61130
3724.87-136272-140757-409583-462002-154179-157736
3727.76-100569 73164 93203-181745-270177-187194
3730.65-230446-342788-645938-578881-307451-188655
3733.55-234375-559033-627519-398760-375164-862666
3736.44-955617-418712-254045-258470-280643-371163
3739.33-328572-20900 158300 308542 450747 239467
3742.22 151193-92917-558315-1278956-1747425-1004984
3745.12 19460 387180 345001 265913-56543-197479
3748.01 34321-544840-1070259-287832 243149 234165
3750.90 241785-528559-998428-195445 145900 183202
3753.79 558816 651662 560710 425039 272544 257152
3756.69 521904 572229 597424 870729 668565 470362
3759.58 556745 631997 763439 881358 922879 858108
3762.47 816781 882699 950463 938048 1135518 990602
3765.37 875807 1169184 972036 802592 869733 853090
3768.26 852527 773488 562378 613237 777800 828930
3771.15 891720 861419 822425 722407 617035 673288
3774.04 672774 714121 559266 346612 484963 464257
3776.94 470364 516659 297327 137958 153591 278392
3779.83 163789 135143 240050 227502 258863 224727
3782.72 249996 301406 102716 35690 249750 211269
3785.61 227494 329658 375341 349397 381660 519250
3788.51 322420 169485 289084 375022 408998 330368
3791.40 411268 613012 645491 537569 438196 330475
3794.29 206196 261046 302236 110763 325936 459661
3797.19 332706 595256 665822 596673 595074 523006
3800.08 457304-213459-528285 197633 318614 201131
3802.97 297036 605819 814711 570325 512379 627483
3805.86 455369-244542-88778 442228 513984 761332
3808.76 829363 828299 552656 302809 441231 560979
3811.65 499854 437725 736907 669920 626883 771396
3814.54 643352 163130-542217-60289 701852 816201
3817.43 779788 733900 717133 617770 329474-124899
3820.33-220595 27700-126830-325 443677 468588
3823.22 308471 202801 186053 313931 409202 309399
3826.11 217041 275768 245491 209825 318750 41536
3829.01-184811-24396 54326-111732-508622-461694
3831.90-264749-89470-22936-249304-278696-508231
3834.79-456679-323726-344775-387733-845560-1634512
3837.68-1256340-364230-362468-473597-476717-551271
3840.58-569199-496589-493765-435816-633897-782559
3843.47-652335-369753-331483-664445-676106-486191
3846.36-503360-333705-141367-211916-240652-175662
3849.25-268528-303001-173049-480006-1262379-1450386
3852.15-827806-708879-1310457-2188508-1663511-354792
3855.04-193448-352415-326807-446425-439306-132253
3857.93-67054-105473-27594-83100-302381-331840
3860.83-355409-293481-151380-212978-185991-302136
3863.72-343046-442301-685123-427899-242513-266774
3866.61-158418-53382-220147-475009-517778-620696
3869.50-1228740-1041116-500007-371498-184619-362851
3872.40-336328-265674-591925-670293-353141-151476
3875.29-84739-75464-308247-343345-140696-227921
3878.18-235605-449870-582706-711598-745534-353806
3881.07-312149-518591-510256-266765-144742-67159
3883.97 17190-167194-661933-665939-444385-270368
3886.86 20537-84375-117599-56130-149974-140372
3889.75 28931-121953-449852-292562-39947 42692
3892.65 74368 241142 225023 18064 97240 278685
3895.54 178209 173248 426403 449401 321877 263516
3898.43 67648-105592 252696 256053 23149 205534
3901.32 43113 19508 266783 331485 284060 139152
3904.22 297530 263120 262145 324117 151253 248149
3907.11 386032 365405 380893 252196 39725-59984
3910.00 32918 136665 107946 110694 15639 72689
3912.89 157167 184359 204123 39603-58485-41695
3915.79-92275-38108-177922-140171-158334-376091
3918.68-334250-503544-638421-461422-318162-182928
3921.57-9873-259635-357455-316188-278452-256384
3924.47-257051 1396 14253-123705-29142 80164
3927.36-16742 29818 115914-43498-22061 117457
3930.25 294053 294693 189379 106639 36291 81404
3933.14 192254 305571 398554 534397 284095 133008
3936.04 252916 370642 583398 462119 200564 291050
3938.93 480176 485081 380861 548379 713204 476672
3941.82 214723 189913 240487 575677 759857 639587
3944.71 731918 590080 411569 563114 805102 919010
3947.61 824976 810554 695815 469407 567825 520338
3950.50 500547 616680 718559 792792 888380 961461
3953.39 1040817 932672 634300 526578 491681 675288
3956.29 928295 1194349 1217485 860076 712021 890751
3959.18 1078139 1010996 778478 622720 511482 580372
3962.07 582809 655691 780156 824502 709969 458544
3964.96 472243 438145 268889 192588 378940 381154
3967.86 228259 355708 378492 124184 132429 128814
3970.75-48532 77431 38113 18158 15576-173122
3973.64-353944-108464
##END=
