##TITLE=1,1,2-Trichloroethane
##JCAMP-DX=4.24
##DATA TYPE=INFRARED SPECTRUM
##CLASS=IUPAC A
##ORIGIN=NIST, Analytical Chemistry Division, 301-975-3108
##OWNER=COPYRIGHT (C) 2001 by the U.S. Secretary of Commerce
##DATE=01/06/01
##$SPECTRA VERSION=1.10
##$UNCERTAINTY IN Y=2.1 % relative (B=1.14E-04,C=1.89E-9,D=6.50E-14)
##CAS NAME=1,1,2-Trichloroethane
##CAS REGISTRY NO=79-00-5
##MOLFORM=Cl C H2 C H Cl2
##MP=-36.5 C
##BP=113.77 C
##$NIST SOURCE=QUANT-IR
##SPECTROMETER/DATA SYSTEM=IFS66V (Bruker)
##INSTRUMENT PARAMETERS=KBr Beam Splitter; MCT Detector; Multipass cell
##STATE=gas
##SAMPLE DESCRIPTION=1,1,2-Trichloroethane Primary Gas Standard
##PRESSURE=101.3 Pa
##TEMPERATURE=23 C
##SAMPLING PROCEDURE=1 L/min Flow
##RESOLUTION=1.9290
##DATA PROCESSING=Boxcar Apodization
##XUNITS=cm-1
##YUNITS=(micromol/mol)-1m-1 (base 10)
##XFACTOR=1.0
##YFACTOR=9.0949E-13
##DELTAX=0.9645
##FIRSTX=575.652
##LASTX=3974.606
##FIRSTY=-1.11E-06
##MAXX=3973.64
##MINX=575.65
##MAXY=.0008704
##MINY=-2.62E-06
##NPOINTS=3526
##XYDATA=(X++(Y..Y))
575.65-1227234-2198283-2204001-1319829-586500-1428896
580.47 81005-914114-2073575 477841 258761-2191552
586.26-2572387 300259 875273 1547903-1218993 265120
592.04-1373344-584488-156031 522302-2555954-827652
597.83-2213928-772662-1169085-1525794-208373 482741
603.62-870070-329735-1299062-888836-788355 100124
609.40-558500-357524-1627958-1292805-1888361-851751
615.19-952733-708603-132127-700000-692516-637927
620.97-76537-441062-453235-556062-428703-794842
626.76-39786 164524 109392 846139 331064 988931
632.54 1430552 1363080 1042411 1689887 2455832 2447233
638.33 1926570 2994061 3715538 4802041 3134879 5107249
644.11 6465988 6922231 8007328 9127888 9838204 11201437
649.90 10507683 11848045 13670768 16860260 19321890 24286530
655.68 27183739 32860306 37884935 45139602 52298098 61798977
661.47 70493348 81076349 94014472 107452577 122840573 134480419
667.26 148386953 165620577 173963354 178206783 175017314 174982277
673.04 167789199 166757033 162528014 165032102 179385301 203490877
678.83 216782693 214760564 197108752 173905827 148538070 123844514
684.61 104296313 89461903 75525058 66570092 56429642 49253815
690.40 40620627 34954077 27728568 23809802 18619959 17220874
696.18 13591755 13639984 12402993 13679007 12196842 15033700
701.97 14914096 17373118 17981543 20801095 21105227 23820979
707.75 24082460 26682167 27752366 29974301 29621683 31684080
713.54 32001172 36107718 37744188 44018080 48375630 53253396
719.32 56466358 67482885 76076190 90462489 106120172 128526374
725.11 153031953 188774729 226481927 278318921 334335518 401585946
730.90 470634743 552071152 627105484 706085127 771635813 834356279
736.68 875553769 909892418 920285065 934141510 932298968 943408926
742.47 929100620 957095519 905300408 919625882 880120065 780693317
748.25 776714365 684484470 585511164 447584195 332642580 220084337
754.04 149508063 93299845 68080056 48400071 43116368 34902293
759.82 35013979 29552325 31214977 27252427 30107481 28182745
765.61 31128197 30909444 34985126 34868137 38612012 39059699
771.39 41935453 42878976 46432391 49268903 56903314 62985502
777.18 71374896 76558623 82371688 85827980 91841169 96217790
782.96 103814244 111140023 119663395 124381720 126370999 115411473
788.75 106883355 93888895 84122905 79956519 89718616 107347814
794.53 121113383 118887221 110982883 97144585 83880154 68572871
800.32 56997173 45332095 37828872 30678690 25516549 21392023
806.11 17272465 13119111 11112833 7576052 6527286 4094853
811.89 3674183 2095273 2698946 1555418 2317263 1131292
817.68 1879745 1168468 2357551 1639910 2462787 2195042
823.46 2551459 2344859 3203618 2252614 2051873 1457684
829.25 2478398 1478149 2513333 2568589 2746820 1394125
835.03 3095146 2355759 3033413 2269559 2627671 2041025
840.82 2837363 1713160 2745821 2551076 2999826 2265363
846.60 2746849 3089226 2793924 2775214 2047524 2032265
852.39 2255723 2092010 2614635 1999083 1804082 1362629
858.17 2229839 1536903 1277603 891205 1467336 851378
863.96 986479 584273 1226867 535400 1100200 795488
869.75 1476693 1052535 1247297 589664 1174711 1388482
875.53 1393899 1435646 1805438 1466526 1693568 1763574
881.32 1636740 1484407 2651678 1880833 2798991 2390459
887.10 3096625 2796886 3744309 3624923 4279587 3967145
892.89 4563030 4360558 4750842 4479951 5110582 4768669
898.67 5233439 5265517 6051245 6401135 7041550 7532557
904.46 7661485 7588894 8476373 9093234 10079273 10895552
910.24 12104166 13917749 15517069 17660463 19855740 23136943
916.03 25997410 29414870 33773162 38519739 43904854 49465327
921.81 56428880 64419931 73125730 82756305 94218260 106451345
927.60 119276111 133143830 147035594 158897651 166966109 165626546
933.39 154874115 138996705 125850559 121716032 132186133 155546301
939.17 182916517 189975531 181835054 165471861 147613869 128548332
944.96 110849363 95443523 85812707 79108373 69675893 60168141
950.74 52781375 45701924 38937469 32692899 27580244 22227201
956.53 18511553 15320254 12935317 11426771 10140806 8965999
962.31 8290303 7204976 6506636 6261496 5909714 5643594
968.10 5515789 4813633 5024640 4564170 4918368 4382025
973.88 4109621 4182568 4620978 4229239 3929660 3391047
979.67 2776809 2498061 2314477 2148153 2214792 1819082
985.45 2250482 2111997 2390468 2358046 2623923 2469588
991.24 2645236 2211280 2838208 2367972 3029885 2875104
997.03 2869203 2632769 2932676 2955014 3158892 2808304
1002.81 3035840 2617198 2662367 2494746 2725665 2525154
1008.60 2651396 2780038 3018678 2813145 3160917 3912068
1014.38 2276912 1738432 1901445 1716512 2135966 2044658
1020.17 2465957 2640222 2661226 2590988 3061347 2987536
1025.95 3207750 3460321 3581606 3879399 4404296 4952551
1031.74 5871263 6542844 7422060 7959193 8944736 9601301
1037.52 10866199 11013413 12655934 12938813 14042278 14979084
1043.31 16060107 16921802 18093265 18685470 19874047 20513790
1049.09 20230386 19838058 19632218 19117278 18822322 17788320
1054.88 17989414 18861542 20087832 19881308 18690235 16612942
1060.67 15120386 13701494 12893273 11851682 10837241 10271860
1066.45 10021457 9658444 9304909 8086145 7334748 6450901
1072.24 6032241 5136049 4661986 4299137 3722292 3498840
1078.02 3121518 2757714 2478000 2144290 2388342 2091937
1083.81 1515001 1131436 1017010 700701 954207 742955
1089.59 899169 399958 776754 260340 441067 477687
1095.38 892538 302847 360527 214302 414422 268700
1101.16 389193-5998 231139 179869-2136 357771
1106.95-382 480376 297249 281450 94663 113785
1112.73 490062 27205 518312 358069 356998 346605
1118.52 461854 434057 834023 587887 545027 365194
1124.31 707612 735914 1024378 636917 670588 777355
1130.09 876703 615981 722889 897350 862912 854535
1135.88 1178767 1389363 1380502 1740580 2235733 2787873
1141.66 3096412 3672774 4252673 5349778 6331490 7386965
1147.45 8448205 10200692 12040157 13483179 15241354 17384033
1153.23 19405805 23017015 21811566 20314403 24573525 30689445
1159.02 24660889 25739191 27691470 27314250 28190030 22928730
1164.80 22264439 21108343 19551346 18390266 16482836 14144244
1170.59 12104856 10436089 8271604 7303028 5763846 5248492
1176.37 4710154 3993921 3414612 3809615 3268425 3532479
1182.16 3521116 4237654 4458466 5276573 5561591 6837114
1187.95 7268674 8589399 9524742 11557420 13528767 16658460
1193.73 19908320 25306674 31057906 39840502 49699201 63297633
1199.52 78276456 96295029 112273898 127514810 133602453 135616896
1205.30 121960590 101349920 93660262 188198011 111158337 90999789
1211.09 129349354 143879077 155239364 147478350 134422641 110908028
1216.87 89163792 65931366 50722942 37078252 30035647 23403620
1222.66 20566332 16436966 15352000 12796896 12277504 10398301
1228.44 10725453 9873742 10261692 9651193 10564989 10347173
1234.23 11934348 13023073 15460996 13843779 14938711 15107404
1240.01 15981885 16008486 16631101 15510613 16150698 16296287
1245.80 17737473 18964252 22202385 24416574 29113323 33841446
1251.59 41016822 48365026 57758442 67779055 79188721 88643336
1257.37 98590344 103943376 107598796 104923944 100902900 96469686
1263.16 101911411 94536794 95143855 100401435 101343453 98981847
1268.94 93784872 87186630 79673195 71571774 63077454 54031428
1274.73 45694421 38307070 31800618 26117733 21678160 17485761
1280.51 14247351 11717871 9720429 7713069 6407100 5398818
1286.30 4766645 4419295 4192652 4439056 5157837 6152953
1292.08 7334777 9071508 10954634 13511954 16287356 19557185
1297.87 23099231 26487205 29320017 33010826 34872847 37831247
1303.65 37954568 43971681 49273733 35246479 37959358 38327408
1309.44 38005502 38798332 40423491 40323934 41565238 38576567
1315.23 35770868 30150936 25535545 20432062 17261266 13131938
1321.01 11397172 9180883 8357593 6787855 6480098 5483807
1326.80 5738294 4916713 5853070 5339682 5613555 5006988
1332.58 5179471 4758786 5093381 4317839 4849632 4574883
1338.37 4813758 4434506 4902795 4486722 4907681 4608639
1344.15 5301478 5238464 5032898 4547005 4572567 4041436
1349.94 3679183 3101148 4425208 4201119 4499542 3561022
1355.72 3631512 1997483 2615000 1170945 2032912 788745
1361.51 1668332 1274649 1371267 1112668 1379404 506949
1367.29 1112696 474319 1129082 527263 1325330 189345
1373.08 1053648 285769 1118218 174193 942242 339194
1378.87 1280137 435845 1045960 481205 1247020 647003
1384.65 1123362-78767 580540 139647 1091269 314738
1390.44 1157092 388672 867666-327518 948578 334455
1396.22 1041020-65506 823109 208661 1325162 141575
1402.01 1482608 603834 1273219 516384 1787347 843190
1407.79 1930198 946330 2289654 1139604 2693932 1861008
1413.58 3272030 2354029 4293634 3546300 5949005 4889512
1419.36 9055717 8855937 12631729 13102885 17504756 18309586
1425.15 23487363 24586848 31426336 33517484 43700479 45260038
1430.93 50793718 49174048 55043182 45856956 48811734 44574039
1436.72 162674669 67274699 30065013 55479721 50025092 58110672
1442.51 50614924 51691577 42197282 40658962 32730123 31054190
1448.29 25019828 23100591 17973083 16375930 11753550 11104214
1454.08 7034356 6433360 2839453 4268534 2328623 3019250
1459.86 1745582 2533033 1042740 1915946 449786 1422897
1465.65 1105628 1590070 1072492 1393826 840116 1238007
1471.43 415982 1029460 436290 1435487 197774 1436411
1477.22 832422 1381975 751949 1569683 882394 1432780
1483.00 731467 1326190 1024894 975409 642264 1299457
1488.79 110630 768723 647473 833722 322095 897847
1494.57-70016-368235 203554-141691-305826 94578
1500.36-497604 49963-222106 243039-1327694-1171531
1506.15-1583181-240306-535248-66662-252527-90202
1511.93-346912 187566-353910 121284-523738-211025
1517.72-155330 18076-739618-807308-382912-77448
1523.50-122604-537873-345894-141749-154975-222006
1529.29-149313-214305-290780-420528-471349-207326
1535.07-122103 4763-396163-1372363-1234604-274364
1540.86-717566-446269 102611-231307-281560 94622
1546.64 99445 206643 17052 8411 113579 154001
1552.43 78788-438182 138802 165661-286539-1522201
1558.21-813383-1347515-118562 108976 77333 94181
1564.00-163189 113007 67919 34862-60642-534839
1569.79 115608-50844 35497-358644 262311-1168348
1575.57-1684030 179970-467792 43116-426826-5234
1581.36-249168-141638-340882 4637-298741-52706
1587.14-142539 13391-398972-230636-248627-139907
1592.93-278320-69470 102970-16584 182682-39668
1598.71-13424 63843 176445 135740-13303 219677
1604.50 340332 207531 251380 304259 284149 265778
1610.28 290658 250365 229764 226449 264385-403445
1616.07-995617 720988-48027 317158-79639 172947
1621.85-279332-648950 61964-83248-299434-373771
1627.64-179411-389184-304390-207394-274625-300231
1633.43-406996-1394638-559136-273882-571490-219497
1639.21-328703-97360-410406-145385-137966-133504
1645.00-1184392-287179-724193-109814-252561-41986
1650.78-836101-2469451-1654929-568375-187532-195845
1656.57-206518-128064-241327-160171-198868-709843
1662.35-518834 18385-463965-123283-337907-74659
1668.14-1136403-251070-642247-379459-306409-36852
1673.92-904301-732687-244390-253105-198821-245061
1679.71-411602-118830-588455-532168-1882647-923130
1685.49 166672-182862 86121-154045-208783-159766
1691.28 225149-307389 30709-856592-1922843 46558
1697.07-188725 7209-1968814-862167 41550-79990
1702.85-259336-447168-243688-433136-66169-292334
1708.64-161962-155606-105541-113422-164597-401980
1714.42-585944-117819-1495658-600012-307733 210507
1720.21-169297-999-213347-31596 46034-220196
1725.99-101752-145696-14424-205060-143623 10206
1731.78-470529-1340978-1109207-139545-121436-355149
1737.56-13989-840805-539318-123797-337755-503385
1743.35-250548-258586-368367-398195-539943-632640
1749.13-231646-1067864-535083-423227-259221-355005
1754.92-592881-643122-327005-499099-410257-255147
1760.71-753693-531484-207333-208852-143866-309809
1766.49-454871-604123-200623-271449-229783-879153
1772.28-645650-281691-164539-158359-153688-13852
1778.06-150239 10375-169377-49057 103880 280844
1783.85-205246 21033 10511 75915-46569 125087
1789.63-83005 21687-301250 141796 305362 224672
1795.42 196810 271100 300943 48571 219816 232742
1801.20 106851 78293 169926 335599 311515 193797
1806.99 74428 136116 132418-20709-2283 92142
1812.77 147010 109179 211026 76556 18922 180485
1818.56 231213 337540 386906 166853 628063 433140
1824.35 591674 979645 231168 235487 111477 52901
1830.13 201830 252395 299222 117757 225981 139857
1835.92 94081-137540 51580-763 32918-153087
1841.70-260157-639686-811106-11542-191450-304723
1847.49-398418-397395-312975-317094-524602-237609
1853.27-301299-419831-327333-381846-358417-418956
1859.06-259203-577343-394071-397181-393219-644007
1864.84-539932-406402-399309-532529-454276-306961
1870.63-516755-354584-309929-262580-372280-305340
1876.41-376921-299007-371716-185316-273662-446870
1882.20-544546-293771-434378-370635-390880-345804
1887.99-447772-336733-307007-157704-287876-274941
1893.77-510702-426172-409012-232049-315787-414224
1899.56-199809-390172-294804-450104-431505-388303
1905.34-248059-429539-452697-243565-520175-396588
1911.13-336713-431080-188540-368912-291984-335992
1916.91-495990-282874-251851-357232-325320-452161
1922.70-171847-298546-307261-231186-331969-210559
1928.48-215856-222145-84307-172855-105749-191708
1934.27-138222-141559-24995-95775-7141-210376
1940.05-128927-150375 61955-211063-120545-73265
1945.84-55053-14270-213360-243281-154861-38218
1951.63-160803-459184-244152-258914-207465-94029
1957.41-374202-48020-148655-238687-133847-403297
1963.20-348594-251602-354060-234940-211295-102884
1968.98-95559-123725-92570 134768-74342 47884
1974.77 238390 79023 325413 340445 279802 329641
1980.55 407666 386939 349533 294304 440213 411605
1986.34 442155 304323 419256 535477 288736 320477
1992.12 142602 202791 226456 74796 182093 41985
1997.91 4347 85639 137456 28391 76560-26250
2003.69 40009-44219 101745-68275 102783-5085
2009.48 28035-45924 115167-105447-66724-100995
2015.27 10023-142142-306137-76486-120833-184034
2021.05-401212-228184 13318-91864-123457-169587
2026.84-241005-259284-145480-151539-58007-45450
2032.62-90772-243435-124418 97172 4997-7371
2038.41 56331-14199 88198-37049 112409 156927
2044.19 273966 234455 290976 126800 284544 116483
2049.98 220251 232085 132555 50772 163930 170663
2055.76 78827 191241 124346-91668-98609-106542
2061.55 35270-30455-291577-278188-155849-228904
2067.33-169383-97107-74855-240249-11217-286119
2073.12-37802-47188 61431-142803-324073 129093
2078.91 107406-8469-339675-159034 176216 93761
2084.69 101384-241749 326123 80248 556313-3198
2090.48 421576 595183 637293 189694 154521 787959
2096.26 668432 1043867 124541 859219 621020 971902
2102.05-6420 468972 522471 879402 439000 256123
2107.83 981012 558296 696636-182582 887874 612761
2113.62 549140-498434 344685 188677 455729-559884
2119.40-71856 63707 328101-503788-503238-6978
2125.19 97354-317433-501517 292503-108481-264412
2130.97-615318-63962-143660-245326-335410 9846
2136.76-8475-202501-491586-233570-106431-124177
2142.55-196769-11499 41753-217983-395896-229724
2148.33-60187-192849-579830-119725 33160-485104
2154.12-582070-107190-172141-714597-561544 157931
2159.90-226979-825672-520176 204366-507993-920392
2165.69-284534 85802-538671-861286-91759 137916
2171.47-777901-321268 149660-241023-565458-73953
2177.26 448298-487951-619731 328037 138470-352961
2183.04-240889 481210-112097-385015 358440 243941
2188.83-297439 308494 565120 115379 39129 583489
2194.61 518314 148050 514600 765357 216900 273871
2200.40 644207 458970 41307 519237 583527 328452
2206.19 555951 485265 286542-413 268080 177857
2211.97 112335 297350 23327 54587 181763-62328
2217.76-39025-198047 30333-196576-43258-51486
2223.54-97098-13317-204061-160287 59640-49074
2229.33-98248 49084-29572-66481-263149 70392
2235.11-107460-147315 70395-137328 5700-18689
2240.90-130748 78761 59375-60089 173942-69424
2246.68 242994 106910-14525 137209-9872 302621
2252.47 58725 87857 151800 177892 49260 157666
2258.25-3032 3485 5702 103187-43700-91991
2264.04 26942 73032 57139 38075 6942-74335
2269.83-190248 115305-112948-132335-209273-39616
2275.61-55561-33687 15080-51940-102460-225902
2281.40-134147-54735-175207-229650-165124-292325
2287.18-256899 21854-193644-226733 12695-211656
2292.97-240019-234439-291562-276691-480730-175790
2298.75-346150-187966 1225-262635-159839-467645
2304.54-1253-536601-410827-229654-508848-563280
2310.32-731434-143284-838144-236328-1424419-120028
2316.11-1522063-369889-1691397-387407-1844853-652755
2321.89-2086077-924385-2149537-1102414-2470011-1367356
2327.68-2474772-1596842-2722712-2119412-2736649-2041944
2333.47-2635970-2237378-2889725-2266954-2558901-2098639
2339.25-2358451-1891363-2010791-1449508-1650384-1037888
2345.04-974820-133430-221005 464607 268973 383886
2350.82-52586-41779-663892-539300-909466-786310
2356.61-1119864-1068962-1296202-1047695-1045092-939718
2362.39-574023-350206-591588-113351-245800 129376
2368.18 85266 524769 306724 727703 439093 476065
2373.96 358564 886309 614564 766284 671996 650679
2379.75 578943 565854 454874 571022 620172 602404
2385.53 480696 344186 529412 590035 508179 672600
2391.32 720692 935482 725813 978420 946893 1089592
2397.11 969785 1175749 1267538 1311842 1249374 1516891
2402.89 1392572 1821372 2557444 2190874 1515723 1336593
2408.68 1065382 1103884 1026689 1175181 1084003 1191399
2414.46 922491 1061397 532912 428345 779672 880776
2420.25 710533 531748 393439 447735 193808 308603
2426.03 135303 264022-7236 171000 1695 55424
2431.82 109848 65179-58892 11678 224868 184042
2437.60 331126 195407 468922 417498 435215 596771
2443.39 483246 545903 744377 928751 1147268 1126732
2449.17 1277324 1381545 1630539 1770429 1787809 1978608
2454.96 2088284 2279132 2298288 2599414 2585699 2530620
2460.75 2621764 2440263 2421782 2262727 2329652 2433354
2466.53 2125276 1938146 1691570 1807613 1718441 1567382
2472.32 1347066 1500572 1362631 1309938 1269135 1079996
2478.10 1093884 1036084 892806 1011249 924339 1109119
2483.89 803800 1008550 969371 689066 1053395 981129
2489.67 1032957 821547 884052 703721 781990 893395
2495.46 770309 844015 658357 803089 604542 910189
2501.24 764592 922834 827038 1016764 957480 966113
2507.03 1150783 1235316 1288325 1314252 1388389 1614317
2512.81 1612400 1647839 1608917 1354289 1285872 1149027
2518.60 1302236 1305707 1288896 1341668 1289981 1303567
2524.39 872532 931194 727549 669405 350111 510955
2530.17 348445 59356 4363-92375 23718 653
2535.96-327307-148965-143767-323652-218934-104146
2541.74-215958 21172-71460-336481-179066-169775
2547.53-50495-42904-59963 3755 269678-82000
2553.31-147519-107850 63457-75670 373162 344764
2559.10 427884 433301 468421 327072 579842 633492
2564.88 628913 371736 517543 364539 569128 684366
2570.67 547769 593822 232421 429332 426305 452804
2576.45 349204 298039 334769 423307 206228 296883
2582.24 92009 193876 176493 228829 420390 331992
2588.03 354310 253619 301580 309978 423095 384727
2593.81 357599 458142 365496 515988 672509 432291
2599.60 282651 472446 477258 531352 416712 386491
2605.38 126474 288825 38237 376045 195342 280849
2611.17 152120 231605 181280 320356-19221 5971
2616.95 96757-35805 51901-110590-233701-90325
2622.74-128437-180179-217559-21444 22913-232768
2628.52-236882-207481 72867-94738-225674-51544
2634.31-124317-80023-47771 101073-238912 337394
2640.09 28946 135886-155395 139190 110191 204651
2645.88-137877-29509 28580 331457 48046-138549
2651.67-152254 38508 182408 78993-214927 35868
2657.45-97050-227878 1062 131236-49340-176323
2663.24-107398-112752 63354-74858 1218-189644
2669.02-202382 84334-34090 64007-84225 84898
2674.81 63880 230030-110140 229950-170022 145425
2680.59 69865-2908 101655-89625 11702-32309
2686.38 122576 398960 260769 521084 681268 642129
2692.16 894714 830848 844565 1054084 900698 975373
2697.95 935937 1126813 799316 949252 959355 1035909
2703.73 1247316 970071 870657 977603 1074244 477419
2709.52 420518 434920 205762 233606 102682 4416
2715.31-7744-109566-94781 177534 55658-239685
2721.09-118513 28204 9463 144448 269378 339948
2726.88 109397 146113 256193 307395 43756 501794
2732.66 736597 833873 558200 706190 738871 1226258
2738.45 720535 887448 979715 1016199 729699 747130
2744.23 611456 759556 1027859 379828 773412 876914
2750.02 641841 499123 263322 473694 232319 82620
2755.80-49038-23375 11672 67543 84313-52731
2761.59-176419 113930-96593 92548-135558-20248
2767.37-160039 86215-176776-14877-365522-55932
2773.16 143313-78721-30008-40066-54573 243787
2778.95 128545 10146 9161-9548 96491-26272
2784.73 93009 2796 7199-132018 320354 216856
2790.52-215855 63233 126283 170325 297392 53256
2796.30-39501-31401-8487-37455 304555 324059
2802.09-74150-98292 142542 169748-231275 56253
2807.87-31170 190489 62068-4952 233260 148766
2813.66-18545 260351 248575-89814 97684 547373
2819.44 6779 68399 231309 202424-1530 185079
2825.23-80091 343347 324738 681809 369526 441773
2831.01 290444 559231 22043 412321 145505 599584
2836.80 710825 944545 635582 827622 786645 1313672
2842.59 1330927 1541939 1969376 2249356 2776403 3703391
2848.37 4268492 5334903 6029944 7095444 7189817 6991330
2854.16 6296851 5821822 6443360 9861491 6593156 4798171
2859.94 5802195 6874460 7108003 6680894 6482032 5236674
2865.73 4522840 3512710 3178255 2542932 2268484 1853217
2871.51 1382837 1414568 920456 276336 1393044 1837474
2877.30 1092108 1523989 1024681 1438729 1018890 1195034
2883.08 1195052 1207679 1119239 1450051 965571 1525352
2888.87 858689 1396361 1045905 1179516 1091305 1418623
2894.65 1417251 1184212 1068323 1191107 1198475 1631557
2900.44 1205510 1422816 1471996 1275999 1002446 1186969
2906.23 1104640 1497771 1157948 1496240 1161735 1548788
2912.01 1297203 1461950 1266798 1249995 1283871 1932327
2917.80 1361692 1603895 1677797 1592276 1706580 1774261
2923.58 1921514 2160817 1680513 2358075 1757787 2263647
2929.37 1896599 2259045 1772913 2356121 1911444 2307881
2935.15 1869086 2319384 2198317 2587425 2222508 2301196
2940.94 1799066 2600094 2243517 2543702 2415484 3560266
2946.72 2829594 3357095 3474797 4070774 3974678 4885796
2952.51 4614779 5477319 5093953 6483398 6417324 7689384
2958.29 8234693 11278741 13691409 18557972 19398413 22466264
2964.08 26960790 34550168 40374223 48131324 49974225 53037450
2969.87 47001156 45079995 33670593 72727251 61377168 39440595
2975.65 45883703 46982894 54642947 52917184 52020199 44907132
2981.44 39303944 31436566 26686756 23026078 20395887 13860252
2987.22 12443071 9607157 9461392 7833624 8045414 6817505
2993.01 7163032 6206850 7247658 7219863 9000202 9345532
2998.79 11561585 11545890 12332715 11204510 10452478 7337938
3004.58 9412063 15757861 9921071 8317895 9870387 10904042
3010.36 12155862 11553742 11102135 9848109 9130767 7959735
3016.15 7715271 6973496 6983023 6931215 7384132 6315607
3021.93 5720536 4148366 6434604 5342005 4454459 5399806
3027.72 5975291 6661596 5900459 5539757 4945829 4129615
3033.51 3165075 2861619 2509690 1865164 1801256 1155697
3039.29 1455107 895300 1050653 732523 608756 771491
3045.08 440981 381435 788907 497928 445931 633665
3050.86 361638 612542 355457 288881 508750 158255
3056.65 304757 108592 169241 208651 406050 69846
3062.43 566409 254277 216814-58328 347423 449620
3068.22 502543 315074-70262 233504 335143 237674
3074.00 477687 53519 375758 198025 231169 283664
3079.79 639565 421661 774736 215480 624434 97106
3085.57 416191 428267 200859 494424-33675 252432
3091.36 49489 75626 222530 132073 97111 153854
3097.15 264417-308860 187904-99024-105584-50270
3102.93 143693 4725 257231 245360-152095 169203
3108.72 128132 64912 448107-12926 248723 149573
3114.50 88918 518727 26009 71029-110527 292898
3120.29 121891-205680 142129-73591 141363 121301
3126.07-1130-164726-3360 110337-176525-150602
3131.86 400047 190120 400100-96331 193442 77949
3137.64-189586 282174 322268 273379 314052 141373
3143.43-33671 551830 276062-194329-110004 321325
3149.21 444897 251739 245156 436917 309242 55844
3155.00 286134 170935 126962 313343 250785 145983
3160.79 69860-21088 55037 273040-23288 219674
3166.57 224049-225432 198236 176401-16991 11735
3172.36 191261-25338 303308 65317-7176-60812
3178.14 282606-76732 322366-96439 301106 320142
3183.93 88162-188767 254378 31369-67345-331012
3189.71 185256 375578 109196 191166 354816 153305
3195.50 184025 198243-84133-235622 295966 188901
3201.28-141793 361212 57038 73614 307811 82807
3207.07-32925-169764-255821-473569 119427 169966
3212.85 83524-100067 156028 101800-73323-82546
3218.64-254186 27782-66328-87544 132602-26367
3224.43 95203-162907 392694 127305 99421-136515
3230.21-245525 193633 297660 318590-263508 355440
3236.00-141704 448953-112373-32400-179819 150213
3241.78 250327 89605 1417 234829-26983-80234
3247.57 41380 125006-78445 198422 45858 126408
3253.35-211264 439 13186 170389-184586-415126
3259.14-90834 22310-47222-59930-91612 209854
3264.92 116111-72197-226111-116603 26205 72386
3270.71-113610 204073-75525-56921-60769-114774
3276.49-71107-309726 31076-101434-322262 75959
3282.28-100376-419935 158678-93478 92531-28177
3288.07-36265 293433 21763 93989-213404 66
3293.85-154380-179462 402221-172412 103216 208233
3299.64 220739-178239 52698-373792-184903 343491
3305.42-218668 107985-78448 95766 248224-129055
3311.21 155348-178620 184596 144601-199638-48032
3316.99-66781-97087 301124-32721-5249-91782
3322.78 13012-429743 199363-56241 173232-199388
3328.56-323030 28077 229226-138416 156427-424934
3334.35 414880 399289-116935-210573 157821-145650
3340.13 156428-491074 15119 4627 155608 226315
3345.92-87595 318329 101196 31873-338772 455504
3351.71 97410 167701 53203 207802 1822 73756
3357.49 252498 191253 127799 3267 198418 388059
3363.28-111184-156525-68893-30590 123251 117316
3369.06 209615 167370-264295 16905 203969 113123
3374.85-27817 98106-56991-103540 6481-259923
3380.63 182314 446175-125082 164213-77813 46698
3386.42 88160 329757 474807 313947 287552 230925
3392.20 359524 162562 265028 270481 382381-142406
3397.99 42500 625453 183129 277508-71335 558921
3403.77 438134 399341 81954-18320 495549 205483
3409.56 454783 180970-108903 571006 230952 310283
3415.35 422237 814769 464804 487189 416938 230082
3421.13-25734-35166 118150-78594 497437 270791
3426.92-79530-372366-149449 319110-584446-197129
3432.70 4263 160946-257948-85699 5117 218581
3438.49-264879-86040-585557-61214 394047-126373
3444.27 89102-47386 190183-117234-368328-186159
3450.06 445828 10826 197004 224756-92775-424076
3455.84 165064-104440-85786-240571 174528-63724
3461.63-175304-125951-153662-75741-412823 117201
3467.41-3226 80950 125852-481500-61355-426909
3473.20-337485-53977-59094-233863-41578-8894
3478.99 20095-5380 41722-251920-258132-389867
3484.77 50908-144683-176902 72944-246-142419
3490.56-124129-114264-478642-139411 121237-282034
3496.34 112703-81979-169305-294721-17465-220335
3502.13-37914-474017-322816-135191 72840-212301
3507.91-93234-291292-91311-156949-365894-240327
3513.70-164567-365495 65288-9492 86709-277172
3519.48-187681 89964-147285-211501-36463-270015
3525.27-274308-127963-239400-57984-242380-255972
3531.05-348972-54236 85039 60560-104796-534026
3536.84-104545-361545-154167 217331-46708 123682
3542.63-568503-134587-300734-147017-136051 137388
3548.41-342773-310363-310245 11911-79360-26700
3554.20-354951-448847 6225-147742-65153-144441
3559.98-99554-60080 1278-131939 23111-99983
3565.77-48307-490024-479571-237423-206616 241566
3571.55-55610-318301 119343-222619-214707-282942
3577.34-4929-56244 23356-264857 166264-61146
3583.12 17360-325778-290972-380673-255255-542140
3588.91-118446-327367 33553-228635-130607 37371
3594.69-510111-162906-181409-93968-187402-271905
3600.48-420154-129656-214295-288431-289724-230662
3606.27-367505-11771-1005606-518508 90654-374750
3612.05-203735-176928-109556-558241-241103-314384
3617.84-13071-802052-467204-331950 98137-271493
3623.62 322104-421347 105725-201241-820797-776344
3629.41-51844-122366 354445-224931-198760 170606
3635.19-349198 151501 207012-32042-68312 184666
3640.98-25637 83625 439894 29966 408560-153659
3646.76-123631-320152-286188-112181-298372 200814
3652.55-55554 306959-133788-4035 347259 358013
3658.33 55293 294010 37155 351594 164716 259815
3664.12 256718 294476 51941 191167 54266-169878
3669.91-935176 88709-406354 311708-449283-780082
3675.69-322345 416868 226974 124796 243629 284549
3681.48-7743 384969-111610 171006-27505 461527
3687.26-1191889 121820 438776-451917-124276 214770
3693.05 229072-23688 222787 43560 512126 373985
3698.83 280607 507937-101061 160824 133699 315962
3704.62 158175 266509-105445 334497-253969 385897
3710.40-139430-932212 291751 242361-57396 40771
3716.19 77313 62361-174889 43898 20273-211657
3721.97 33421-208297 8416-252636-453656-124144
3727.76 91681-98676-282075-294372-810637 94633
3733.55-759058-251748-972669-554822-140110-446047
3739.33-105272 491146 293201 99608-1623807-1302201
3745.12 828585 29964 89626-700773-664426 828053
3750.90-851594-433717 391180 708923 406953 237779
3756.69 613027 808880 511759 584340 948167 868545
3762.47 838846 1068211 995605 1081918 859081 873183
3768.26 759527 525748 929662 867476 747725 596135
3774.04 774403 323345 532723 455543 149072 174575
3779.83 181380 202106 287366 204124 80916 202498
3785.61 334549 347852 513779 129471 423567 295325
3791.40 642790 590869 297204 194161 243849 302155
3797.19 656040 567305 766494-386688-29002 312648
3802.97 555472 760812 548503-88716 95982 1014792
3808.76 685831 460100 360163 692992 524526 1034860
3814.54-128596-236529 1100275 673072 762765-206409
3820.33-156688 28728 599186 107377 347076 366530
3826.11 173807 375157-7154-56599-77390-678917
3831.90 74688-229337-453315-417574-221576-1836146
3837.68-451016-365217-593216-520988-426564-880021
3843.47-318439-606669-641077-278199-129849-261670
3849.25-132596-510928-1656866-399214-2564080-416199
3855.04-150964-535378-163307 1185-88998-407318
3860.83-271011-146280-254278-532154-556378-105243
3866.61-135630-298208-880083-1177209-176440-317844
3872.40-325143-752475-54952-116905-340975-116518
3878.18-428383-836370-421192-433825-443344 160928
3883.97-276782-793393-210931 48305-210929 12336
3889.75-219688-374709 83311 231374 79846 189551
3895.54 226334 526530 194522-39358 275117 45746
3901.32 68809 360920 184356 301500 256570 213408
3907.11 480314 235254-105486 139010 84737 26772
3912.89 272507 39135-81988-80835-160818-287368
3918.68-564686-603580-47311-233559-381297-282627
3924.47-65138-23569-29073 99131-60476 105172
3930.25 377146 30575 67770 288670 571806 29046
3936.04 497945 430660 244267 502162 524530 622724
3941.82-64419 648590 740249 584988 447151 1063775
3947.61 716262 607694 399051 666829 729151 1105737
3953.39 897267 479248 534308 1408274 812297 887637
3959.18 1104966 551398 513935 687599 859764 533505
3964.96 356667 243825 338318 349809 211769 49217
3970.75-7698 106492-258383-180730
##END=
