##TITLE=Trichloroethene
##JCAMP-DX=4.24
##DATA TYPE=INFRARED SPECTRUM
##CLASS=IUPAC A
##ORIGIN=NIST, Analytical Chemistry Division, 301-975-3108
##OWNER=COPYRIGHT (C) 2000 by the U.S. Secretary of Commerce
##DATE=00/02/01
##$SPECTRA VERSION=1.10
##$UNCERTAINTY IN Y=2.1 % relative (B=1.1E-04,C=2.4E-09,D=2.3E-13)
##CAS NAME=Trichloroethene
##CAS REGISTRY NO=79-01-6
##MOLFORM=C2 H Cl3
##MP=-73 C
##BP=87 C
##$NIST SOURCE=QUANT-IR
##SPECTROMETER/DATA SYSTEM=IFS66V (Bruker)
##INSTRUMENT PARAMETERS=KBr Beam Splitter; MCT Detector; Multipass cell
##STATE=gas
##SAMPLE DESCRIPTION=Trichloroethene Primary Gas Standard
##PRESSURE=101.3 Pa
##TEMPERATURE=23 C
##SAMPLING PROCEDURE=1 L/min Flow
##RESOLUTION=1.9290
##DATA PROCESSING=3-Term B-H Apodization
##XUNITS=cm-1
##YUNITS=(micromol/mol)-1m-1 (base 10)
##XFACTOR=1.0
##YFACTOR=9.0949E-13
##DELTAX=0.9645
##FIRSTX=575.652
##LASTX=3974.605
##FIRSTY=1.41E-06
##MAXX=3973.64
##MINX=575.65
##MAXY=.0008755
##MINY=-1.17E-06
##NPOINTS=3526
##XYDATA=(X++(Y..Y))
575.65 1556330 2020026 2643988 3706779 3672890 2399460
580.47 2187750 2273453 1462345 1091917 1168757 744593
586.26 35402-416298-542333-243017 415661 503909
592.04 320419 497453 625128 427075 751359 1325248
597.83 1110351 874045 1174105 1488731 1726599 1690308
603.62 1541580 1971640 2717823 3237347 4163684 5518682
609.40 6909919 8424823 10000632 11574802 13642859 16276582
615.19 19324001 23283710 28001583 33242592 39475347 46474924
620.97 53899131 61592375 69099513 75817066 81459568 85626410
626.76 88480442 89825144 89560547 87980767 84894941 80949908
632.54 78333916 79543638 85528199 92780456 95791154 92407597
638.33 83836919 72126981 59496623 47631810 37413861 29408629
644.11 23535966 19041509 15296336 12290819 10148387 8467491
649.90 7049548 5665675 4417568 3522897 2808309 2189040
655.68 1959384 2296098 2581908 2226962 1914010 2011254
661.47 2141792 2087752 1821289 1493671 1558515 1886170
667.25 1892747 1681540 1659954 1684134 1745365 1607074
673.04 1283103 1057978 1041536 1188768 1337732 1358761
678.83 1215883 1120983 1207498 1029654 912153 962229
684.61 700465 441897 504105 586198 566854 306959
690.40 149026 254698 360275 297240 132705-46584
696.18-52809 84736 134255 31823 31364 53891
701.97-60233-50148 137232 151515 61424-12316
707.75 33738 186429 346309 308467 218328 233658
713.54 324158 337000 404012 513017 508809 419203
719.32 486602 642876 595193 528062 774850 978299
725.11 884236 702890 922504 1166742 1138436 1073258
730.89 1130015 1071119 1016027 1144276 1410949 1567340
736.68 1577426 1583871 1800177 2037394 2198109 2109882
742.47 1959828 1871060 1879826 1917578 2068471 2212292
748.25 2377635 2449341 2454889 2438354 2583820 2777635
754.04 3284699 4026669 4803814 5824029 7546081 9663510
759.82 12225307 15464335 19550896 24541473 30446297 37035231
765.61 44534128 52714199 61565449 70492371 78915515 86697166
771.39 93748841 98910489 102955307 108808442 118809017 130391574
777.18 133967283 125363375 117176861 167634062 333698765 412632285
782.96 261220434 124814772 104758900 110938655 114378729 115214787
788.75 114542137 112688261 109651963 105780538 101267553 96189560
794.53 89490325 80639758 70726781 61606171 53746255 47137481
800.32 41097121 35199972 29380727 24650281 21983204 21313555
806.11 21319323 20521155 18434237 15597784 12421823 9475573
811.89 7214488 5864323 5222681 5062797 5332872 5984287
817.68 6885972 8100087 9391837 10891061 12711349 14710162
823.46 17069325 20116435 24050361 29465754 36860611 47452416
829.25 63015820 84136553 110499838 143523928 185829219 238330981
835.03 299944646 368797844 441877463 515227819 585279806 649049824
840.82 704281220 748448532 782701288 814664062 817850037 770775527
846.60 770220463 877022296 962722922 905370518 786953274 751439604
852.39 770692527 752425781 673109936 546158134 398484796 259752336
858.17 150784489 78300838 37406578 18093473 10452886 7922458
863.96 7018451 6160321 5524466 5437122 5312577 5032589
869.75 4894233 4834848 4584536 4221827 3902943 3774493
875.53 3657694 3408427 3101826 2951779 2758356 2445779
881.32 2341054 2506687 2656175 2765011 2896544 3167792
887.10 3565786 3980466 4402573 4915643 5561267 6494882
892.89 7546875 8614897 9993150 11768828 13798002 16105834
898.67 18710966 21420808 23752628 25514799 26435811 26159165
904.46 24671136 22472428 20801681 21352309 24729624 29557198
910.24 33839736 36600793 37922622 38724576 39952483 42256107
916.03 46162457 52020209 59967549 70104504 82436207 97268884
921.81 115298991 137222809 163699322 195525495 233375709 277569026
927.60 327648277 382822074 441567941 500753694 556182974 602977618
933.39 636111016 651608672 647951236 627559856 597945958 571500109
939.17 561221536 576278597 617572724 673479904 722575180 739685534
944.96 709357818 638427499 545529914 447364051 356150298 279536031
950.74 220113209 176221527 143674985 118047978 96531653 77876966
956.53 61644209 47737518 36211949 27238920 20460877 15366129
962.31 11713883 9316656 7829199 6933295 6585098 6671255
968.10 6787058 6874212 7034051 7332743 7802094 8464400
973.88 9483896 10923482 12534100 14058354 15213265 15835491
979.67 15711290 14808753 14011151 14122363 14092531 13409166
985.45 13136198 13128501 13022066 12981448 12848665 12405607
991.24 11463197 10159976 8765682 7418365 6257783 5383659
997.03 4771843 4522103 4594471 4741948 4900165 5180706
1002.81 5609201 6105938 6603409 7167566 7759154 8425785
1008.60 8979001 9253557 9528377 9903290 10092371 10175828
1014.38 10328845 10306976 10019962 9652115 9305570 9048254
1020.17 8911934 8985285 9135700 9028094 8510715 7696667
1025.95 6702152 5684452 4792366 4073636 3546402 3233279
1031.74 2936401 2616157 2387431 2220209 2057293 1850167
1037.52 1762392 1741043 1577014 1494640 1521293 1518940
1043.31 1515201 1507649 1411565 1280015 1234916 1283516
1049.09 1297669 1235628 1128527 1046991 1061028 1053396
1054.88 963270 910300 855217 763178 690870 711517
1060.67 695020 612228 600570 665804 735005 788919
1066.45 729508 576579 550549 637527 636544 544048
1072.24 598331 709175 701134 735121 744877 652174
1078.02 586375 562935 566210 575332 543832 543344
1083.81 575168 669282 745240 754044 808482 851848
1089.59 774555 656933 621573 710274 815835 949617
1095.38 1168142 1368571 1464419 1483767 1547293 1758107
1101.16 2017872 2212131 2381779 2561500 2631889 2658215
1106.95 2830226 3044845 3177379 3234046 3277919 3434347
1112.73 3590414 3637603 3654900 3590609 3313134 2952185
1118.52 2712727 2613058 2464540 2219350 2141668 2238949
1124.31 2248066 2114966 1989753 1894105 1708254 1536841
1130.09 1437838 1351064 1224704 1041296 956829 978047
1135.88 899741 801069 843310 962873 1108264 1228216
1141.66 1212321 1063806 879649 699761 606189 645199
1147.45 706493 770014 744058 589904 456246 481151
1153.23 530310 450096 380944 361374 301387 301705
1159.02 359168 341579 293732 253218 147244 180854
1164.80 300735 272702 207044 220833 230101 221248
1170.59 264251 376952 482527 515320 493327 460803
1176.37 440025 451289 477141 513627 564154 636537
1182.16 688218 650111 542279 518394 576984 562291
1187.95 548123 641921 712756 704219 702690 724347
1193.73 774225 820880 808148 845481 977177 1073988
1199.52 1203913 1424818 1539041 1629117 1742393 1787855
1205.30 1966334 2273432 2472288 2579614 2775686 3062815
1211.09 3357865 3686771 4055195 4418717 4782026 5179497
1216.87 5634478 6160070 6711875 7300426 7944587 8654992
1222.66 9485610 10432828 11338561 12072623 12550108 12658847
1228.44 12411229 12081793 12335135 13584972 14986067 15965911
1234.23 16850627 18091256 20118426 22806293 25960701 29713773
1240.01 34186761 39326607 44862065 50063629 54100998 56356471
1245.80 56417407 54466867 51879479 51770060 54973639 57898873
1251.59 59908871 62726869 64831034 64650046 62404516 58476201
1257.37 54059534 50320245 46849726 42902729 38551063 34251507
1263.16 30217501 26679303 23843529 21687567 20241999 19252964
1268.94 18077580 16480538 14572811 12419060 10288200 8413809
1274.73 6811485 5570414 4675963 3932340 3303842 2829073
1280.51 2425492 2008205 1635680 1409900 1219433 992411
1286.30 792706 670564 693744 809087 827301 643992
1292.08 462967 441364 479597 562727 690621 769928
1297.87 765700 792649 878782 907136 946100 1055424
1303.65 1173071 1302059 1441818 1573839 1687723 1799682
1309.44 1878463 1903027 1974320 2109033 2214254 2292862
1315.23 2343135 2363688 2347547 2295476 2284637 2326518
1321.01 2299125 2168030 2041160 1951782 1850814 1764202
1326.80 1745277 1703227 1572986 1376403 1246232 1173239
1332.58 1011075 872440 854118 826932 765515 742648
1338.37 717529 669169 628466 601538 651767 705267
1344.15 677561 677664 654673 599503 494819 381261
1349.94 241460-115884-207126 74028 140368 186170
1355.72 398690 548279 638997 672968 583073 412634
1361.51 334930 477701 698104 815452 865344 883878
1367.29 853028 749414 689914 753419 804540 775962
1373.08 858881 1133351 1299733 1204281 1049074 1089148
1378.87 1215303 1212671 1136447 1153044 1331687 1448286
1384.65 1312765 1024853 866420 994279 1171341 1218181
1390.44 1185350 1101030 958865 839326 869601 988247
1396.22 983158 855982 823541 949444 1080686 1171979
1402.01 1177877 1012933 903570 966862 1056979 1153273
1407.79 1210092 1211224 1205791 1187216 1208794 1290572
1413.58 1348261 1289914 1243506 1226179 1081009 1042879
1419.36 1300827 1532408 1577728 1490020 1452563 1593389
1425.15 1696017 1647743 1558188 1427082 1315696 1301993
1430.93 1263047 1165272 1068243 937911 645971 415427
1436.72 563115 788003 880081 889168 871029 826383
1442.51 720637 671314 709505 655973 496831 491953
1448.29 630096 703922 702035 682009 702202 756658
1454.08 607606 115559-151650 158273 502705 629345
1459.86 685495 718863 724451 630655 511484 626740
1465.65 789143 754333 680819 675342 600587 344359
1471.43 96674 129980 368780 482847 474974 575470
1477.22 639699 616270 612639 658572 734723 736389
1483.00 667300 647487 607225 490249 472339 525422
1488.79 439594 387875 554555 688699 617927 409171
1494.57 114703 33568 215072 263224 311206 489250
1500.36 604410 609915 521553 237965-272529-611441
1506.15-532997-168945 158534 374667 506233 495751
1511.93 454627 475265 482545 360302 203483 285491
1517.72 468488 338388-33615-130671 172415 479959
1523.50 495835 404967 486482 626242 721332 859092
1529.29 991815 1039796 1032661 1026568 1290421 1840542
1535.07 2384741 2800474 2917820 3046964 3894781 5292700
1540.86 6714999 8342886 10165219 11941706 13943934 16251056
1546.64 18707196 21717337 25927313 31389587 37491925 44092600
1552.43 50958073 56843324 60059973 58919079 52846937 44446613
1558.21 40348001 43113258 44740178 44042399 47694637 52988379
1564.00 55062500 53752720 49993224 44594564 38600763 33109793
1569.79 28882325 25916764 24051347 23237299 23117506 23266124
1575.57 24231333 26178871 28417051 30885032 33796517 37166025
1581.36 40857881 44476974 47585366 49849719 50962036 50589822
1587.14 48709410 45692711 42451344 40346741 40724709 43968387
1592.93 48542431 51817489 52072865 49332973 44581781 38793480
1598.71 32696505 26843680 21780290 17729181 14571214 12145820
1604.50 10180410 8382539 6776684 5443268 4349770 3444378
1610.28 2714450 2103718 1581808 1179250 756680 202734
1616.07 34380 340238 505082 543402 606108 511470
1621.85 253127 146308 339692 509410 472815 401297
1627.64 465162 559541 496626 427869 521869 500547
1633.43 115148-307297-196249 187206 385655 399561
1639.21 400378 430593 382530 327366 259519-32699
1645.00-301674-174477 51767 153723 188115 16851
1650.78-644708-1295664-1051168-350439 68853 235297
1656.57 316372 309775 251395 231721 203348 122928
1662.35 173103 340902 416387 409439 321483 99327
1668.14-68298 17875 139039 213962 341503 285081
1673.92 35491 101507 422888 534525 469721 445115
1679.71 498162 524507 348446-113594-493795-157232
1685.49 469827 697944 716865 723947 773550 818848
1691.28 786744 719814 481979-99333-281186 228998
1697.07 441906-29187-513525-206929 381230 439709
1702.85 206032 35518-31374 47484 246785 308928
1708.64 252076 234806 240201 195135 84267-15644
1714.42 48568-48698-370498-255115 166542 392431
1720.21 449030 451303 466726 518487 587026 578397
1725.99 521922 510024 494113 492272 545839 474476
1731.78 108105-264591-104478 399429 686342 719394
1737.56 631164 523554 651895 826662 829745 897082
1743.35 1073455 1181366 1225707 1309474 1419128 1513505
1749.13 1550587 1543372 1760914 2136856 2437635 2607251
1754.92 2638602 2667483 2791942 2864265 2800068 2631796
1760.71 2543528 2674884 2810987 2859605 2862320 2764988
1766.49 2591688 2504561 2533161 2451728 2219298 1973066
1772.28 2066942 2355346 2393974 2354487 2404268 2428837
1778.06 2454644 2488732 2462767 2480670 2579885 2568260
1783.85 2475232 2472090 2523522 2533527 2561627 2624498
1789.63 2621329 2484785 2188497 1851030 1598981 1399766
1795.42 1291317 1250611 1131355 986301 948082 907977
1801.20 842767 847836 879503 836678 775528 762600
1806.99 728695 653008 578910 552414 577651 550478
1812.77 491202 511023 573027 578273 566545 571086
1818.56 573638 537491 502577 481375 476609 473625
1824.35 471840 480703 467927 477713 511417 556181
1830.13 618939 681124 720614 718660 737931 751884
1835.92 784713 851273 848464 800887 775628 735506
1841.70 620984 426368 391053 583582 738410 804696
1847.49 853012 863105 876762 953372 1070591 1157180
1853.27 1196203 1243074 1348132 1435429 1490039 1566120
1859.06 1609825 1577870 1593574 1676544 1766926 1802304
1864.84 1781178 1788682 1788807 1743912 1812914 1925589
1870.63 1898905 1776889 1636137 1529495 1459170 1382580
1876.41 1359330 1367846 1335164 1306094 1323425 1286588
1882.20 1177724 1074804 969452 900529 887799 804562
1887.99 627058 460461 358599 298479 265908 248319
1893.77 210734 202592 281906 346006 372323 333964
1899.56 259459 283576 334404 352113 394462 418936
1905.34 444868 471477 490062 478073 431182 425607
1911.13 443757 479788 578617 656706 682858 555571
1916.91 398345 464415 592852 607149 588273 568424
1922.70 574698 606173 651715 668877 634114 610946
1928.48 612294 620118 628072 574346 533262 563346
1934.27 609162 627837 620428 591215 560135 545128
1940.05 539502 510146 475997 541292 617589 607420
1945.84 621287 671290 656400 607315 616563 650698
1951.63 700353 778935 846117 839248 784090 733254
1957.41 703851 712646 782196 816924 807071 829360
1963.20 874308 889758 857350 848737 899546 904137
1968.98 865616 902844 1004134 1119793 1204325 1067471
1974.77 830690 792603 870948 910773 875732 799393
1980.55 771526 835039 865486 794193 780414 793471
1986.34 744024 692378 671616 668194 698834 750450
1992.12 771080 741779 730569 761237 778179 748838
1997.91 730421 733683 739746 790340 837816 785011
2003.69 663872 627425 710048 783101 791795 753785
2009.48 726244 718936 757297 850934 906255 821249
2015.27 703714 679331 677716 687390 715114 725638
2021.05 730751 712988 751371 815908 823617 805748
2026.84 804397 796574 821985 870367 887385 910336
2032.62 935010 951784 982476 937087 827147 793886
2038.41 830204 870448 878164 851079 869460 907677
2044.19 908550 870436 809327 789640 818175 817476
2049.98 785981 749412 748807 783218 863378 943295
2055.76 928030 837631 786436 811503 890038 887673
2061.55 830822 864782 943427 984324 972220 973580
2067.33 1000444 1026655 1060791 1053390 1024311 1061719
2073.12 1154851 1207328 1207038 1168105 1186243 1268897
2078.91 1322229 1330699 1296151 1300048 1358744 1427092
2084.69 1479165 1532064 1612450 1629750 1608026 1671476
2090.48 1806578 1896537 1916893 1876474 1843401 1850344
2096.26 1869038 1847058 1845375 1930981 1938929 1761602
2102.05 1560669 1529290 1577631 1493124 1314777 1200274
2107.83 1131054 1032204 928514 868948 927234 953829
2113.62 855381 780049 816999 866624 860767 800301
2119.40 818883 831894 748592 740521 816712 836979
2125.19 810640 737350 711489 796443 878708 897623
2130.97 881112 896377 917843 852138 772819 761913
2136.76 813625 926470 1031678 1015102 934846 886482
2142.55 875405 921732 987852 998876 1017907 1034686
2148.33 988936 960177 1020066 1086661 1042391 923397
2154.12 905226 975227 981597 963156 1027463 1062907
2159.90 1007043 960580 1019278 1105665 1088994 1050073
2165.69 1141291 1146290 979715 938980 1030594 1060884
2171.47 1066624 1146409 1196399 1136212 1083130 1135613
2177.26 1202700 1164339 1148437 1224915 1240443 1194834
2183.04 1230684 1233557 1158716 1191449 1301808 1284134
2188.83 1222622 1266145 1323644 1275074 1251145 1253355
2194.61 1163615 1100641 1191437 1260296 1221331 1200771
2200.40 1210969 1199774 1176670 1176561 1179376 1162021
2206.19 1187727 1265849 1318971 1286784 1283054 1352748
2211.97 1427119 1497184 1534040 1511930 1485067 1495649
2217.76 1570670 1638311 1588122 1470573 1464357 1511558
2223.54 1494094 1481622 1462703 1414241 1410113 1418292
2229.33 1402126 1362464 1327108 1303117 1277880 1243443
2235.11 1227504 1234470 1216510 1181873 1189070 1193086
2240.90 1146186 1117815 1105061 1065356 1064757 1048254
2246.68 999577 1016620 1065394 1076549 1104314 1113428
2252.47 1072533 1078356 1142117 1158945 1143205 1147296
2258.25 1135397 1136228 1151967 1140213 1104663 1089009
2264.04 1096600 1102041 1130964 1174044 1159449 1092395
2269.83 1099841 1128414 1081238 997458 972613 1037289
2275.61 1117124 1120949 1091471 1105161 1118942 1087593
2281.40 1072374 1083914 1108199 1084515 1040892 1049630
2287.18 1076473 1080377 1066001 1057050 1108959 1183549
2292.97 1209089 1207319 1181089 1105376 1057085 1084741
2298.75 1096617 1071996 1067173 1054444 1064738 1144651
2304.54 1261075 1275035 1239403 1247904 1245321 1228494
2310.32 1252817 1316731 1284385 1159676 1115718 1179079
2316.11 1239810 1203153 1107835 1033681 1030620 1090817
2321.89 1155811 1161034 1120626 1099636 1072231 1034531
2327.68 1030850 1040174 1081420 1095694 1062265 1050526
2333.47 1026944 990560 958553 914917 898585 896858
2339.25 947430 1034243 1080440 1130370 1171846 1117459
2345.04 1006531 1005187 1125806 1166204 1117174 1101126
2350.82 1110215 1094945 1061875 1033377 1034751 1025186
2356.61 964777 916603 926222 959668 957785 898689
2362.39 860892 870144 866890 888960 982146 1001738
2368.18 985055 1028379 1070701 1075413 1035785 1095164
2373.96 1214669 1177792 1094241 1108790 1180760 1222964
2379.75 1219942 1232268 1239600 1218864 1235792 1218796
2385.53 1166000 1143584 1135877 1204286 1346586 1338647
2391.32 1174662 1068293 1140314 1264966 1299116 1275923
2397.11 1280320 1269948 1284950 1377080 1430682 1342042
2402.89 1226386 1211386 1246358 1321103 1364965 1279879
2408.68 1233324 1277313 1319201 1346691 1374186 1382586
2414.46 1392989 1408880 1426365 1445932 1461916 1458123
2420.25 1475352 1539192 1611252 1668750 1683423 1653597
2426.03 1688260 1783886 1856446 1861886 1828063 1781165
2431.82 1732441 1741189 1791464 1752869 1666545 1662392
2437.60 1724495 1690024 1562317 1453105 1374540 1310038
2443.39 1288895 1309679 1339236 1342001 1363722 1428842
2449.17 1464190 1445851 1399243 1307387 1276132 1315452
2454.96 1376040 1431965 1441649 1422229 1437887 1473489
2460.75 1511329 1551423 1595866 1596006 1609684 1673559
2466.53 1732152 1864843 2019417 2026334 1985443 2012598
2472.32 2060800 2092138 2109214 2144428 2191145 2192846
2478.10 2191915 2224463 2261102 2192524 2084953 2105963
2483.89 2147448 2126840 2117287 2116505 2110857 2053742
2489.67 1943534 1897261 1922918 1882443 1824894 1849909
2495.46 1914346 1918291 1902038 1928293 1905880 1836775
2501.24 1836450 1834320 1834005 1854259 1850242 1826559
2507.03 1786750 1717759 1696701 1767131 1851835 1902153
2512.81 1955054 1986440 1920117 1863085 1891974 1904911
2518.60 1905027 1925650 1941041 1931818 1957424 1962812
2524.39 1910496 1908542 1901358 1822909 1793767 1775396
2530.17 1718916 1672662 1653938 1658800 1668143 1611009
2535.96 1462867 1317885 1259723 1325244 1448882 1422800
2541.74 1302765 1277983 1367078 1394817 1302741 1225575
2547.53 1223654 1294923 1371331 1379744 1353445 1351746
2553.31 1348851 1254915 1235840 1353286 1435929 1416836
2559.10 1338926 1293273 1329793 1358380 1329719 1333929
2564.88 1349674 1312293 1263163 1289487 1399017 1428941
2570.67 1360303 1348180 1418246 1412380 1326156 1314220
2576.45 1365893 1373224 1350867 1335875 1324237 1316083
2582.24 1357190 1390327 1364429 1383135 1404746 1324868
2588.03 1288501 1347182 1374028 1352286 1352967 1402555
2593.81 1472855 1502439 1457971 1353330 1315010 1348665
2599.60 1326669 1297670 1343610 1393879 1396892 1398077
2605.38 1403367 1369054 1298428 1293740 1366340 1450602
2611.17 1522492 1508865 1460378 1463277 1515997 1521250
2616.95 1470606 1437304 1412569 1352865 1308186 1329912
2622.74 1460169 1580548 1550427 1463441 1477634 1516525
2628.52 1485340 1442817 1423465 1407289 1376699 1325754
2634.31 1349593 1459198 1527527 1489623 1463002 1461848
2640.09 1417076 1380725 1399624 1444955 1492300 1490479
2645.88 1465585 1456914 1435244 1468514 1568329 1579411
2651.66 1542801 1490210 1446435 1432940 1378599 1326260
2657.45 1373056 1459586 1451687 1351896 1319151 1375219
2663.24 1418070 1459059 1506596 1447249 1345265 1303419
2669.02 1330839 1422505 1508466 1512197 1473723 1484676
2674.81 1546537 1545186 1493933 1484731 1514572 1460521
2680.59 1417732 1451832 1444122 1424201 1415375 1372709
2686.38 1375820 1429781 1439353 1414444 1446813 1482326
2692.16 1486659 1433000 1339663 1300091 1378287 1506317
2697.95 1490446 1332499 1257894 1284614 1365384 1504457
2703.73 1651701 1683555 1650192 1676271 1687740 1643240
2709.52 1611175 1532960 1448975 1432452 1385100 1309844
2715.30 1360662 1512172 1619106 1619407 1606584 1607385
2721.09 1597129 1610072 1626600 1583267 1549307 1531552
2726.88 1498176 1446593 1440767 1477221 1433193 1334533
2732.66 1327198 1408613 1428399 1332350 1277090 1378071
2738.45 1529073 1603625 1630578 1549231 1413343 1358582
2744.23 1389825 1511978 1637478 1604206 1551439 1626474
2750.02 1644764 1578171 1567319 1535915 1439791 1369067
2755.80 1355119 1398501 1430483 1444872 1534578 1604846
2761.59 1550431 1455729 1434630 1450312 1490066 1535388
2767.37 1570938 1599505 1642183 1663361 1667845 1656482
2773.16 1591903 1548942 1539852 1504165 1528216 1603329
2778.94 1657639 1646103 1606127 1632455 1663826 1622868
2784.73 1540511 1528980 1617618 1700201 1714486 1682664
2790.52 1636835 1589187 1676953 1802525 1795045 1814052
2796.30 1849338 1835391 1911800 2101252 2291267 2343877
2802.09 2290839 2268642 2372362 2468674 2469371 2532278
2807.87 2618265 2634279 2664754 2722435 2736301 2750129
2813.66 2821248 2884276 2953399 3026088 3107181 3174878
2819.44 3116203 3059328 3182944 3404865 3544698 3566694
2825.23 3611741 3733689 3799256 3646478 3392302 3234539
2831.01 3247675 3352178 3380449 3219390 3134018 3315987
2836.80 3419207 3248005 3029284 2874579 2716559 2476335
2842.58 2202972 2061103 2078034 2106841 2094071 2006446
2848.37 1951300 1960531 1924824 1850421 1781896 1710590
2854.16 1781461 1941628 1950454 1839633 1830432 1876592
2859.94 1861107 1799734 1777444 1790198 1732692 1690338
2865.73 1737103 1762675 1725066 1667452 1679007 1778906
2871.51 1919422 1980803 2046518 2199741 2200701 2076573
2877.30 2043729 2008316 1987385 2055385 2056691 1941309
2883.08 1846612 1919688 2121204 2271091 2275006 2142875
2888.87 2055037 2079011 2144313 2154399 2125614 2109194
2894.65 2043998 1972933 1998609 2141904 2336445 2427096
2900.44 2392786 2296699 2252969 2379965 2501502 2463263
2906.22 2361837 2332436 2367113 2368203 2343878 2325326
2912.01 2329802 2348139 2426871 2462348 2342160 2249265
2917.80 2328736 2408895 2431212 2474764 2425466 2374139
2923.58 2510475 2605473 2548219 2525333 2565808 2593375
2929.37 2596783 2528650 2498595 2609908 2738861 2828121
2935.15 2876536 2906530 2914495 2795908 2706981 2792933
2940.94 2979687 3104502 3093990 2965195 2876169 2942309
2946.72 3045823 2977051 2859597 2953986 3105678 3067772
2952.51 2999214 2994657 2983767 3078279 3220879 3161386
2958.29 2999736 2834334 2644749 2851641 3321428 3463563
2964.08 3446634 3427536 3335319 3289204 3380707 3487126
2969.86 3558897 3607748 3604577 3688620 3882470 3901853
2975.65 3720590 3666838 3792064 3829835 3787190 3836325
2981.44 3954314 4049436 4052834 3998814 3951304 3954215
2987.22 3964042 3865420 3766250 3737150 3774244 3803369
2993.01 3830041 3886515 3787100 3562086 3419285 3272939
2998.79 3144736 3132195 3145597 3097084 3007597 2997990
3004.58 2989296 2856023 2797022 2862595 2927127 2885551
3010.36 2778273 2743587 2730087 2597843 2486382 2529549
3016.15 2623782 2643958 2648394 2640170 2574151 2532457
3021.93 2513045 2467968 2494212 2551269 2489932 2393488
3027.72 2330861 2268801 2266518 2367166 2470728 2397610
3033.50 2308730 2427403 2537964 2467268 2342861 2331480
3039.29 2378543 2383504 2411330 2442469 2459406 2512694
3045.08 2664585 2811036 2777287 2690318 2725052 2731391
3050.86 2687353 2639320 2616268 2638889 2617745 2623991
3056.65 2790631 2947404 2839612 2673159 2710884 2865206
3062.43 3003736 3106827 3193835 3271376 3387994 3592024
3068.22 3886360 4263827 4689270 5138804 5586529 5996299
3074.00 6355680 6836195 7645278 8735789 9948203 11469692
3079.79 13551567 16258758 19912267 24768326 30866406 38224052
3085.57 46655691 55499794 63752215 70358735 74073980 73969179
3091.36 70047721 65478682 68408103 77887676 75853888 64235979
3097.14 64637499 75153790 82810113 83433374 77504473 66863749
3102.93 54109850 41880047 31802025 24256279 18898645 15130452
3108.72 12441900 10473605 8999051 7842331 6935942 6274625
3114.50 5813199 5334945 4980781 4829778 4567342 4287732
3120.29 4317731 4316332 4225094 4217817 4169338 4166028
3126.07 4294069 4342546 4334760 4466046 4661644 4783115
3131.86 4838733 4861835 4814468 4695703 4633872 4663506
3137.64 4708502 4734768 4847344 4912385 4942808 5120376
3143.43 5331383 5416716 5512784 5628944 5589697 5370395
3149.21 5251348 5404867 5642567 5917350 6383678 6869801
3155.00 7325107 7825070 8309733 8724075 9185406 9723392
3160.78 10351535 11014575 11487677 11811140 12112920 12303620
3166.57 12454572 12524608 12405201 12247137 12060563 11889552
3172.36 11900611 11749664 11212657 10760431 10517591 10042207
3178.14 9154669 8034033 6821585 5583747 4552851 3795890
3183.93 3354858 3182275 3055119 3024545 3071949 2984571
3189.71 2844594 2735956 2684497 2702108 2768805 2717138
3195.50 2588415 2493660 2462786 2605904 2803404 2820816
3201.28 2806393 2917784 3023294 2962080 2827098 2701959
3207.07 2633904 2688109 2830040 2911918 2821864 2645367
3212.85 2634360 2791986 2977879 3087219 3001199 2757598
3218.64 2687503 2888612 3021765 2989275 3006083 2958091
3224.42 2924872 3017986 2950962 2838570 2926038 3060041
3230.21 3102683 3055237 3003780 2974677 2957671 2928141
3236.00 2916910 2907591 3002523 3157806 3186088 3102031
3241.78 3039340 3049732 3169480 3207612 2924472 2717369
3247.57 2861067 2926042 2861756 2930567 3064373 3168679
3253.35 3237788 3195021 3179786 3280186 3328907 3154025
3259.14 3031904 3176642 3317151 3232687 3189384 3211001
3264.92 3103848 3019329 3043649 3032104 3037856 3064663
3270.71 3057628 3124257 3240805 3207728 3086946 3076674
3276.49 3067118 2939096 2867639 2829860 2739058 2719714
3282.28 2789174 2788701 2759021 2782073 2869872 2992932
3288.06 3089179 2982630 2726068 2592421 2659219 2724614
3293.85 2752321 2825556 2885543 2895476 2875567 2805855
3299.64 2724331 2770615 2875988 2825797 2621328 2535072
3305.42 2699380 2820752 2856841 2871768 2758535 2707436
3311.21 2787105 2750721 2661192 2541051 2500777 2669330
3316.99 2861043 2927546 2881736 2744879 2635219 2659445
3322.78 2755267 2774018 2696888 2620119 2615903 2669289
3328.56 2745585 2674279 2542760 2619236 2833306 2736399
3334.35 2518168 2619842 2766738 2673272 2577620 2549810
3340.13 2576939 2661257 2699321 2701736 2687386 2597644
3345.92 2557245 2636812 2685754 2563363 2429873 2417244
3351.70 2552688 2659600 2550204 2504379 2703691 2911688
3357.49 2943397 2920811 2928678 2826834 2676424 2574999
3363.28 2503651 2501794 2712778 2936700 2846741 2648761
3369.06 2535673 2523021 2543725 2551848 2645541 2702250
3374.85 2697882 2670699 2535020 2403738 2465681 2588160
3380.63 2570273 2472686 2511307 2596590 2703563 2834714
3386.42 2864210 2760289 2684468 2767268 2771341 2584843
3392.20 2412087 2409122 2631868 2806498 2823623 2663222
3397.99 2487690 2558601 2636406 2588409 2530173 2464665
3403.77 2419652 2491016 2596070 2672634 2731503 2653370
3409.56 2454083 2276895 2322846 2529224 2634422 2581832
3415.34 2508023 2493938 2517207 2544772 2551562 2557434
3421.13 2614467 2688125 2676909 2620945 2635911 2734111
3426.92 2677645 2507193 2545149 2568013 2501385 2510392
3432.70 2441767 2381590 2458428 2466039 2539831 2722786
3438.49 2749302 2662770 2588834 2489454 2401112 2472223
3444.27 2778871 2904246 2730672 2653958 2724257 2723881
3450.06 2736390 2810394 2838348 2852480 2872640 2838536
3455.84 2745237 2718537 2750637 2664102 2670224 2833780
3461.63 2865453 2763384 2714900 2719796 2720195 2746409
3467.41 2855829 2897410 2886598 2885922 2789858 2692964
3473.20 2761220 2827193 2772295 2750347 2714901 2706524
3478.98 2800783 2821569 2840463 2891074 2916245 2941776
3484.77 3037368 3091316 2979838 2831886 2752064 2647764
3490.56 2568646 2686651 2918185 3014556 3061419 3031327
3496.34 2939759 2911783 2899573 2870969 2776787 2650705
3502.13 2703991 2855817 2943593 2923134 2803147 2764770
3507.91 2888402 3033267 3021358 2829876 2673772 2646972
3513.70 2736584 2828902 2837926 2799921 2820812 2873800
3519.48 2864527 2811550 2734036 2670009 2786293 2937292
3525.27 2875692 2764775 2730122 2709434 2711210 2788644
3531.05 2875204 2907712 2964400 2930318 2824516 2783713
3536.84 2888160 2918659 2738613 2674799 2845905 2895582
3542.62 2851443 2912212 2976697 3042074 3120612 3122684
3548.41 3015860 2845084 2736584 2841164 2956209 2856226
3554.20 2839783 2918592 2917358 2963715 3000573 2885602
3559.98 2852985 3011946 3062268 2878287 2696453 2616749
3565.77 2599584 2756936 2983277 2986883 2930928 3060125
3571.55 3171356 3032212 2877620 2948575 3054475 2980788
3577.34 2886481 2903090 2934323 2966891 3061565 3164445
3583.12 3181501 3124386 3109897 3093605 2975359 2853294
3588.91 2936796 3052029 3026909 3012906 3002883 2944717
3594.69 2977486 2961036 2886821 3007303 3106507 3059415
3600.48 3019267 2947310 2961576 3141241 3228492 3129371
3606.26 3095043 3001700 2834824 2974641 3202107 3136945
3612.05 2985923 2932283 2971528 3099296 3244428 3267973
3617.84 3109883 2989184 3077760 3252392 3397510 3379523
3623.62 3291969 3312051 3380454 3192397 2814112 2715195
3629.41 2939368 3119641 3133645 3023316 3033627 3276761
3635.19 3469012 3429570 3318308 3305619 3333456 3304309
3640.98 3260865 3257902 3254709 3271823 3275825 3154424
3646.76 3005395 2873228 2887254 3072826 3345357 3524726
3652.55 3445377 3312749 3143937 3004904 3117547 3324341
3658.33 3471327 3497971 3436499 3346935 3294186 3383502
3664.12 3427663 3317270 3250140 3184176 3107735 2997186
3669.90 2887667 3136078 3386367 3238786 2850823 2533633
3675.69 2688649 3087172 3247215 3214071 3235934 3282860
3681.48 3268892 3324179 3437006 3412633 3281523 2988604
3687.26 2714756 2914917 3142235 3043575 3062939 3181045
3693.05 3254072 3446283 3609136 3607992 3635740 3712173
3698.83 3726944 3558562 3416716 3565624 3675044 3576627
3704.62 3508994 3550944 3557400 3419133 3338151 3395359
3710.40 3312130 3224489 3464000 3826579 4065074 4113307
3716.19 4031315 3964449 3912206 3946710 4108997 4186868
3721.97 4197133 4275911 4321274 4156594 4004671 4038625
3727.76 4110966 4152673 4048090 3829580 3819098 3912371
3733.54 3834783 3649563 3490634 3509127 3591947 3558129
3739.33 3448576 3428226 3485927 3069081 2345807 2469072
3745.12 3185478 3405302 3069169 2647319 2759278 2901004
3750.90 2620068 2759294 3310998 3602116 3572164 3505141
3756.69 3483492 3385379 3310126 3328180 3404251 3476278
3762.47 3536820 3487329 3316505 3278682 3436833 3518591
3768.26 3358726 3191043 3271118 3432068 3538727 3619207
3774.04 3624111 3540438 3404789 3244896 3160237 3251035
3779.83 3420184 3507293 3538108 3506802 3481178 3514956
3785.61 3508573 3440689 3460135 3575482 3654477 3578072
3791.40 3516546 3516506 3514421 3444052 3361355 3407887
3797.18 3473574 3482861 3273216 2819303 2800887 3132968
3802.97 3281762 3313527 3217373 3166305 3440598 3682489
3808.76 3690830 3625603 3524657 3455367 3505261 3390456
3814.54 3036466 3013503 3353319 3475343 3441542 3288896
3820.33 3061152 3089507 3311422 3458117 3480077 3428031
3826.11 3483789 3545728 3548128 3598012 3547464 3412502
3831.90 3422736 3455601 3358106 3381388 3252013 2779635
3837.68 2758032 3096963 3299139 3436840 3525317 3472850
3843.47 3480372 3571406 3569109 3550436 3588150 3617913
3849.25 3548788 3326579 3121544 2794595 2398544 2635419
3855.04 3208670 3495800 3668740 3891470 4110644 4183613
3860.82 4082341 3843345 3572081 3394608 3512731 3730316
3866.61 3695485 3454121 3183888 3177779 3447328 3670559
3872.40 3618358 3440995 3474665 3590398 3563020 3415863
3878.18 3277933 3282407 3457310 3603743 3588915 3402863
3883.97 3224805 3230814 3393247 3542648 3618152 3546925
3889.75 3305249 3237374 3422259 3529372 3537034 3503183
3895.54 3468643 3413298 3314385 3286197 3380098 3333898
3901.32 3271357 3388973 3419877 3329147 3362483 3463806
3907.11 3436760 3456149 3626824 3761584 3797681 3701707
3912.89 3558208 3497561 3441802 3348698 3361972 3423991
3918.68 3413065 3351390 3397346 3494333 3497833 3443496
3924.46 3497602 3714527 3942568 3974051 3864764 3844852
3930.25 3941011 3888248 3826257 4004368 4122324 4113009
3936.04 4216573 4340733 4267434 4092292 4108749 4249456
3941.82 4384866 4409748 4380521 4408437 4323035 4180677
3947.61 4215383 4318730 4249497 3989406 3822236 3824905
3953.39 3843465 3825776 3816788 3835534 3841780 3773385
3959.18 3689499 3593735 3541859 3592102 3670357 3609920
3964.96 3558520 3613888 3662792 3764138 3885294 3863352
3970.75 3700431 3569487 3626826 3616930
##END=
