##TITLE=Trichloroethene
##JCAMP-DX=4.24
##DATA TYPE=INFRARED SPECTRUM
##CLASS=IUPAC A
##ORIGIN=NIST, Analytical Chemistry Division, 301-975-3108
##OWNER=COPYRIGHT (C) 2000 by the U.S. Secretary of Commerce
##DATE=00/02/01
##$SPECTRA VERSION=1.10
##$UNCERTAINTY IN Y=2.1 % relative (B=1.1E-04,C=2.4E-09,D=2.3E-13)
##CAS NAME=Trichloroethene
##CAS REGISTRY NO=79-01-6
##MOLFORM=C2 H Cl3
##MP=-73 C
##BP=87 C
##$NIST SOURCE=QUANT-IR
##SPECTROMETER/DATA SYSTEM=IFS66V (Bruker)
##INSTRUMENT PARAMETERS=KBr Beam Splitter; MCT Detector; Multipass cell
##STATE=gas
##SAMPLE DESCRIPTION=Trichloroethene Primary Gas Standard
##PRESSURE=101.3 Pa
##TEMPERATURE=23 C
##SAMPLING PROCEDURE=1 L/min Flow
##RESOLUTION=1.9290
##DATA PROCESSING=NB Strong Apodization
##XUNITS=cm-1
##YUNITS=(micromol/mol)-1m-1 (base 10)
##XFACTOR=1.0
##YFACTOR=9.0949E-13
##DELTAX=0.9645
##FIRSTX=575.652
##LASTX=3974.605
##FIRSTY=1.32E-06
##MAXX=3973.64
##MINX=575.65
##MAXY=.0009029
##MINY=-1.39E-06
##NPOINTS=3526
##XYDATA=(X++(Y..Y))
575.65 1457508 2084619 2436011 3915234 4085945 1976865
580.47 2158083 2581881 1273555 985229 1335286 760030
586.26 10860-517908-523129-456580 669453 483810
592.04 268269 452538 797532 253370 666057 1565746
597.83 1093724 703562 1259441 1434602 1819328 1713705
603.62 1436392 1848491 2894322 3065978 4124774 5515051
609.40 6900995 8381551 10064476 11451568 13543493 16259396
615.19 19147000 23125835 28024443 32970550 39426403 46356145
620.97 53908617 61536122 69334413 75870830 81821442 85729927
626.76 88773507 90077645 89747735 88223110 85133452 80694213
632.54 77763881 78567615 85262137 93591686 96929697 93200118
638.33 84368839 72234137 59355316 47363738 37057868 29022660
644.11 23354991 18912267 15235392 12064467 10157842 8358866
649.90 7105863 5618369 4364647 3476656 2835559 2099429
655.68 1869322 2249080 2807343 2145589 1853876 1991266
661.47 2206840 2085758 1892593 1366372 1528302 1933403
667.25 1992729 1551767 1742841 1594390 1843292 1607965
673.04 1288552 993903 1039007 1159412 1396898 1346234
678.83 1275425 977314 1370736 953052 882690 1031071
684.61 736568 299835 591772 514836 703247 220414
690.40 137397 218014 440452 264985 187115-125445
696.18-44153 63418 219247-44550 59036 63917
701.97-46780-156262 254018 99334 122710-98310
707.75 79413 111079 461262 252205 255175 153829
713.54 412837 264632 440016 491380 581413 333036
719.32 507107 643884 677393 358967 881428 944628
725.11 1020393 489279 1022660 1148387 1223742 943658
730.89 1258876 984934 1062499 1026729 1529612 1498261
736.68 1689854 1415197 1927118 1917954 2378211 1993922
742.47 2066507 1728888 2012092 1755144 2215467 2061904
748.25 2540029 2313426 2619671 2234710 2760585 2555519
754.04 3389000 3888651 4943490 5498383 7679621 9432270
759.82 12280211 15152243 19603339 24163965 30608830 36603342
765.61 44718122 52303396 61836995 70290224 79364335 86368547
771.39 94524415 98750891 103126604 107476722 118899524 130915975
777.18 137651262 124525507 113322978 136203209 342931366 479394917
782.96 239302186 104208568 103565496 112253517 114198408 115923681
788.75 114274318 113295095 109403894 106233312 100981921 96754075
794.53 89622112 81109251 70263680 61667244 53275933 47286907
800.32 40873709 35417705 29048054 24427457 21497502 21316133
806.11 21373458 20878100 18419197 15771488 12281241 9452882
811.89 6969459 5831166 5081657 5069656 5184752 6047051
817.68 6727227 8189651 9291159 10878915 12648829 14717626
823.46 16879400 20074812 23730789 29237221 36350887 46653188
829.25 62051974 83422900 109493728 141991067 184146570 236899260
835.03 298769823 368075319 441890880 515730332 586330170 650365970
840.82 706008188 750612412 782154817 816838708 833107216 762657902
846.60 743197806 881925844 992842964 919921954 762787039 742931385
852.39 779594179 762729771 681002741 549567961 396724716 254651238
858.17 144616583 73251826 33962187 16432815 9707213 7733290
863.96 7055298 6164094 5334730 5528987 5304357 5037990
869.75 4821261 4940297 4541290 4278772 3796811 3833476
875.53 3630555 3482024 3002780 3007845 2762454 2434710
881.32 2241567 2568934 2619763 2804075 2833523 3176021
887.10 3535598 4018551 4344431 4945126 5462211 6505630
892.89 7545182 8574274 9893575 11772245 13716773 16093233
898.67 18634732 21542074 23799750 25668109 26616725 26383012
904.46 24785898 22437049 20395458 20848475 24456561 29720936
910.24 34072898 36892490 37971280 38668376 39761682 42019653
916.03 45822675 51719274 59589469 69792972 82039322 96781060
921.81 114660194 136541137 162823201 194599958 232317994 276658872
927.60 326826207 382194762 441476267 501328415 557523350 605175653
933.39 638939374 654769134 650708741 629224981 597441393 568833266
939.17 557029532 571680305 614989095 674427841 727755136 748177975
944.96 715999421 641772284 546208511 446168837 353667534 276720617
950.74 217574215 174439653 142641854 117461521 96084899 77527197
956.53 61251512 47406749 35752043 26914901 20190055 15157054
962.31 11491855 9189254 7732065 6867671 6469858 6716047
968.10 6769447 6879790 6996220 7317028 7765492 8423426
973.88 9380233 10926048 12519078 14146081 15275490 15964532
979.67 15859511 14826264 13750811 14166106 14322482 13214903
985.45 13128234 13169654 12975526 13018958 12873701 12517848
991.24 11509259 10178402 8748319 7403640 6186817 5369995
997.03 4693417 4472865 4580015 4762565 4857153 5175821
1002.81 5571905 6144600 6551210 7203633 7709666 8457973
1008.60 9035922 9256508 9475171 9969001 10106061 10143897
1014.38 10362022 10371627 10009433 9668221 9268648 9054642
1020.17 8852299 8978499 9170316 9119403 8537257 7743474
1025.95 6691664 5674101 4748879 4064135 3483326 3250392
1031.74 2944094 2590004 2384862 2210819 2079598 1827432
1037.52 1722493 1815427 1526208 1487705 1524403 1527092
1043.31 1498985 1540670 1408607 1272754 1202649 1304606
1049.09 1302922 1250009 1121393 1028821 1055442 1094064
1054.88 926492 932907 844795 782022 646984 736289
1060.67 705559 598937 580086 675591 727890 809782
1066.45 761209 537865 530598 653915 670049 502145
1072.24 576647 764820 661679 750822 767116 643423
1078.02 573807 570246 546274 608650 512658 561021
1083.81 544757 681415 761430 740838 800981 890273
1089.59 769557 654180 581964 724336 808127 930641
1095.38 1170155 1393068 1473990 1484756 1506847 1756961
1101.16 2029675 2222716 2363702 2592010 2646866 2616883
1106.95 2824730 3069003 3179012 3254873 3235195 3443704
1112.73 3613272 3639370 3655617 3645033 3322186 2929940
1118.52 2679947 2623762 2500913 2177161 2099675 2269373
1124.31 2271933 2116711 1963957 1935837 1690947 1526031
1130.09 1436755 1354359 1245341 1021017 922045 1015666
1135.88 903594 765039 836919 959163 1105638 1257976
1141.66 1234575 1068265 875721 697354 560317 667365
1147.45 684179 798467 762764 595623 412215 478736
1153.23 565651 444946 356526 393113 273099 296346
1159.02 369668 362251 260469 306531 92277 167274
1164.80 339082 281086 177209 234388 229589 216583
1170.59 243772 383815 492745 529861 487335 466836
1176.37 425321 457512 468423 518649 552761 643515
1182.16 699987 673016 519906 495733 602702 565151
1187.95 514339 653687 731655 696724 700275 721065
1193.73 766788 844721 794372 821170 991872 1077744
1199.52 1159645 1471936 1535004 1609442 1783037 1746701
1205.30 1938033 2303174 2494176 2555625 2756615 3071700
1211.09 3346618 3681379 4055107 4424476 4769257 5179158
1216.87 5610626 6168402 6697997 7297359 7930239 8642396
1222.66 9450928 10450656 11360343 12117180 12603704 12734073
1228.44 12421825 12018215 12084938 13597271 15094080 15956514
1234.23 16827153 17914700 20033572 22736051 25874166 29582376
1240.01 34091309 39233481 44919013 50255879 54381087 56723053
1245.80 56761162 54642404 51479448 50921207 55258327 58157106
1251.59 59549094 62895918 65277518 64928140 62726465 58564160
1257.37 53862697 50287082 46951952 42988576 38515552 34222385
1263.16 30138939 26552488 23748451 21567343 20142483 19309254
1268.94 18157103 16514869 14629597 12411962 10233376 8382610
1274.73 6749036 5504186 4663898 3916973 3270745 2821357
1280.51 2428983 2010806 1594568 1410933 1232505 980781
1286.30 788979 637508 678331 821339 877269 641309
1292.08 419860 445476 468451 552633 699361 790613
1297.87 759528 769001 905189 901203 926684 1063558
1303.65 1165156 1304213 1439064 1582191 1682893 1805293
1309.44 1893449 1893660 1953469 2127044 2210049 2302395
1315.23 2345294 2368981 2358507 2285822 2270106 2339769
1321.01 2326068 2158087 2036600 1951387 1859312 1735501
1326.80 1761371 1710768 1595298 1358509 1225226 1207045
1332.58 1003521 840634 863343 838264 749610 746951
1338.37 723984 663425 632131 585464 639898 745476
1344.15 645132 699112 652085 606400 511498 345090
1349.94 335025-177313-324353 182359 119777 139902
1355.72 432329 547211 648517 694657 602626 396400
1361.51 290202 458867 733701 814603 876849 882979
1367.29 876570 740354 658059 761110 825335 762633
1373.08 798527 1169515 1345860 1224511 995994 1072320
1378.87 1252656 1220346 1127185 1107487 1346685 1500265
1384.65 1338720 1009350 793203 998702 1198925 1228525
1390.44 1190612 1114710 958195 809137 845553 1019791
1396.22 1010592 835315 785937 957860 1089364 1171602
1402.01 1230750 994368 860162 979173 1047218 1161163
1407.79 1227245 1199434 1221973 1169440 1205414 1281332
1413.58 1388423 1277300 1227496 1266186 1072719 952649
1419.36 1335338 1554883 1608923 1483039 1403350 1607545
1425.15 1733400 1640848 1570810 1429805 1282301 1318190
1430.93 1272661 1162646 1067556 971205 663245 298263
1436.72 582191 806211 896700 891587 868436 849919
1442.51 704121 649864 726010 694362 452641 461655
1448.29 654807 712285 707529 673864 688729 782318
1454.08 699109 81426-307589 194663 539451 638404
1459.86 684285 726530 732397 664625 435523 625527
1465.65 839695 754753 659282 687531 640645 350916
1471.43 33029 91212 394555 530845 414682 606937
1477.22 649711 612578 603310 649862 748336 759372
1483.00 644106 652336 633462 465827 444313 574151
1488.79 433593 328693 567358 735675 626577 439747
1494.57 81089-53681 289369 247697 272857 519096
1500.36 610282 635942 528410 323022-334556-668160
1506.15-605517-135519 171318 382102 539833 498929
1511.93 435838 479175 504170 385685 139726 259731
1517.72 535813 401759-99481-213853 177993 543361
1523.50 523105 348708 487257 640726 707960 854163
1529.29 1019693 1034666 1053915 972522 1220807 1871785
1535.07 2378875 2873803 2941573 2890707 3781293 5349241
1540.86 6651905 8301198 10205529 11896342 13866712 16276305
1546.64 18606705 21533545 25664988 31349934 37394118 44016376
1552.43 51094555 57276241 60743189 59827546 53330424 43818450
1558.21 38534595 43702699 45675459 42557939 47619706 53617783
1564.00 55646702 54077216 50315820 44639806 38563555 32829966
1569.79 28725826 25714871 23910927 23071525 23168712 23095965
1575.57 24030729 26183752 28379469 30803131 33730666 37093469
1581.36 40880234 44550593 47732591 50011115 51223488 50824214
1587.14 48916136 45737013 42278380 39929977 40202728 43712175
1592.93 48790546 52350860 52581089 49631428 44750409 38820481
1598.71 32677934 26694470 21616335 17584468 14460067 12056826
1604.50 10184388 8338829 6739540 5395215 4332904 3404138
1610.28 2705119 2086012 1566017 1161859 826218 122008
1616.07-93409 422385 512225 525078 641064 548270
1621.85 230990 64906 363064 548456 484177 362019
1627.64 461146 593192 513324 361482 562036 556635
1633.43 166098-461956-223270 228839 421114 397845
1639.21 382484 459734 378371 314557 313732-13494
1645.00-419952-163907 75683 158638 207568 116794
1650.78-594594-1533628-1109595-275038 109942 236539
1656.57 336769 319403 240451 227628 229584 91714
1662.35 138711 378881 417076 425211 345144 107542
1668.14-146867 34083 151939 188633 369389 360746
1673.92-56845 46698 485511 564910 452067 434806
1679.71 492229 567210 394025-85627-672020-218153
1685.49 600198 694293 737537 696878 785437 826554
1691.28 800169 715021 599775-172682-482990 346864
1697.07 553171 16677-723371-257308 528644 466302
1702.85 193529 10781-37840-6654 303417 317431
1708.64 248059 219438 262791 193240 105776-75119
1714.42 74054 51518-505381-308509 231357 405951
1720.21 466471 438053 470146 502129 611822 586250
1725.99 507626 512463 501005 463989 573708 526417
1731.78 141192-397573-166163 457701 736082 717344
1737.56 668799 445440 650683 879265 805200 867544
1743.35 1100151 1188717 1220193 1295323 1437249 1499794
1749.13 1598533 1468462 1743789 2152606 2459202 2632525
1754.92 2645290 2630709 2813960 2883309 2822721 2625567
1760.71 2481825 2688799 2831369 2853178 2891755 2770626
1766.49 2591779 2448910 2588808 2450564 2259629 1883567
1772.28 2019395 2436722 2396130 2323493 2424993 2421919
1778.06 2449631 2506471 2458768 2445859 2617939 2582312
1783.85 2453170 2457789 2542828 2525200 2550829 2639086
1789.63 2641106 2514884 2201372 1819720 1606027 1376317
1795.42 1277396 1267673 1149221 943831 964574 911296
1801.20 828967 836016 903827 837182 761485 768232
1806.99 740803 646535 579438 527938 601572 552177
1812.77 479304 491391 601729 566666 574383 558043
1818.56 595624 524990 508179 473237 478416 476202
1824.35 462731 493810 458241 473588 514601 545199
1830.13 628679 671862 745794 696397 751996 744475
1835.92 773473 868333 860792 785325 787020 736803
1841.70 654957 391564 334995 607184 755561 797680
1847.49 868508 858062 868632 938870 1084937 1159004
1853.27 1205479 1216354 1364372 1436094 1489168 1559991
1859.06 1644325 1550899 1591354 1667682 1782660 1811989
1864.84 1775879 1778850 1820592 1703409 1805512 1959268
1870.63 1912557 1777137 1634527 1512513 1476150 1361291
1876.41 1357324 1375957 1340066 1285250 1340481 1301874
1882.20 1169839 1078508 967382 877713 909974 820707
1887.99 625737 443298 357466 290171 266206 248649
1893.77 218028 166650 303141 340970 387698 347081
1899.56 232051 276942 356563 326720 417023 403660
1905.34 455248 464644 499618 484927 424108 413324
1911.13 459942 442825 607668 640571 727833 565760
1916.91 341915 451898 633911 593514 602562 551699
1922.70 580098 595404 661237 677980 633702 598821
1928.48 623339 603274 656918 562545 522086 558664
1934.27 618430 628704 626521 590775 556263 544222
1940.05 540721 522151 446467 537967 647634 591645
1945.84 614925 683168 672298 581183 625148 640489
1951.63 701742 770486 871052 838839 790065 720589
1957.41 710337 685503 800590 823199 799713 822936
1963.20 881698 898810 857176 825888 917320 913773
1968.98 849059 886932 1013506 1104163 1258930 1095432
1974.77 771833 781166 879142 924161 885945 788564
1980.55 753799 832840 907205 761098 782739 806862
1986.34 745127 680989 676553 655891 699171 750530
1992.12 789315 731151 725243 759846 794268 741463
1997.91 725675 738891 727263 787534 860804 798565
2003.69 650344 593348 726156 784834 811154 739614
2009.48 732753 705189 750051 849260 943206 825362
2015.27 677958 680515 680900 672033 735218 706446
2021.05 757772 683646 755712 822289 835926 790206
2026.84 818065 783165 817734 880875 883788 906935
2032.62 944789 936681 1002689 953811 806105 780650
2038.41 835501 868446 897661 829369 872275 911811
2044.19 917861 872532 807153 768208 838643 810333
2049.98 799942 729533 755768 764547 868322 955145
2055.76 953826 815816 785614 786589 915700 902812
2061.55 801891 862807 947720 999143 966734 964861
2067.33 1009587 1013689 1077892 1053838 1016338 1040180
2073.12 1176267 1205003 1225254 1152029 1169313 1284193
2078.91 1320679 1348846 1282333 1289886 1361060 1425074
2084.69 1489889 1509501 1638668 1632004 1596748 1645267
2090.48 1831241 1894714 1940880 1863992 1842659 1841019
2096.26 1883552 1846539 1817039 1947364 1980030 1765959
2102.05 1523841 1506294 1617216 1506129 1302868 1180964
2107.83 1155888 1013356 946661 817716 952699 969745
2113.62 864266 734762 839562 853607 899892 757814
2119.40 830131 855722 733596 709864 848857 826684
2125.19 833633 724202 686040 801274 891599 903573
2130.97 876274 884395 948212 847308 761769 750657
2136.76 805903 917691 1066156 1021053 927721 880358
2142.55 868730 907787 1013930 985217 1019969 1048793
2148.33 989616 934391 1023403 1102940 1069721 890535
2154.12 891142 988187 998987 926058 1046833 1074734
2159.90 1013954 928630 1019323 1123028 1108718 999928
2165.69 1163864 1198260 937206 912276 1052939 1067315
2171.47 1043896 1150995 1227209 1128284 1065392 1121628
2177.26 1242622 1149172 1128752 1234447 1270657 1153000
2183.04 1250945 1250485 1139551 1157262 1352036 1279791
2188.83 1206949 1248189 1369586 1250707 1248180 1274476
2194.61 1168137 1051862 1206543 1286000 1210639 1193302
2200.40 1219736 1199435 1174970 1168684 1196123 1142905
2206.19 1186072 1258544 1352225 1269849 1271017 1353609
2211.97 1429498 1496222 1555251 1502192 1488772 1473182
2217.76 1576868 1655234 1615184 1432830 1457440 1532247
2223.54 1487788 1477459 1482308 1390094 1419226 1414709
2229.33 1414564 1354042 1330498 1298038 1285797 1236010
2235.11 1224058 1237511 1226723 1165142 1192622 1204959
2240.90 1143449 1104468 1128177 1040076 1077402 1055276
2246.68 985823 1003986 1086812 1060797 1111221 1126908
2252.47 1062095 1061233 1157442 1167199 1129928 1159869
2258.25 1127805 1133200 1158673 1144505 1102305 1079007
2264.04 1106506 1089554 1133612 1175511 1187650 1058220
2269.83 1105381 1139057 1095210 979368 961088 1026498
2275.61 1142580 1120931 1085631 1096219 1143263 1068734
2281.40 1080817 1067810 1128428 1084725 1030339 1043981
2287.18 1086568 1077581 1073469 1038181 1106581 1194712
2292.97 1214140 1204902 1199037 1096379 1041182 1086074
2298.75 1115347 1050957 1085466 1038425 1064397 1119436
2304.54 1297526 1279295 1224221 1255792 1247129 1223553
2310.32 1236567 1338080 1311043 1133262 1100401 1173836
2316.11 1267147 1207606 1107839 1016955 1021976 1086940
2321.89 1170016 1170296 1113309 1098876 1083517 1015322
2327.68 1042554 1022502 1091208 1108543 1050539 1055387
2333.47 1033063 980381 973564 896998 907735 882291
2339.25 937665 1050135 1075271 1126557 1194662 1129416
2345.04 988455 967261 1156345 1181021 1107156 1093749
2350.82 1120524 1093461 1066080 1022319 1037813 1037369
2356.61 963300 901033 926553 960020 978458 886597
2362.39 854412 870583 874756 854067 1013760 1006684
2368.18 963842 1038450 1067984 1096571 1012996 1066923
2373.96 1268835 1174613 1076942 1094253 1192361 1229664
2379.75 1218961 1222853 1263755 1189504 1257877 1219371
2385.53 1161719 1138805 1134849 1164086 1397214 1358124
2391.32 1173935 1017849 1142892 1276679 1321580 1251835
2397.11 1298399 1260326 1269225 1378872 1467172 1344699
2402.89 1201121 1207087 1243392 1309424 1416090 1251934
2408.68 1223365 1274869 1330004 1335337 1389325 1371941
2414.46 1400076 1401507 1433194 1437995 1475004 1448310
2420.25 1469801 1534239 1620016 1665589 1708613 1625973
2426.03 1685612 1781152 1877460 1860793 1834875 1778031
2431.82 1729774 1716165 1826604 1752509 1658730 1632983
2437.60 1758878 1700885 1560186 1440916 1383022 1292757
2443.39 1290363 1298127 1356886 1329663 1360270 1426166
2449.17 1489048 1428632 1432790 1275433 1276255 1304167
2454.96 1383477 1432815 1459138 1401022 1446665 1462996
2460.75 1522265 1536942 1616354 1589831 1594316 1686167
2466.53 1714745 1848117 2065320 2026813 1969866 2009534
2472.32 2067117 2091702 2111262 2130640 2213815 2182390
2478.10 2193832 2211415 2289169 2206116 2046757 2105562
2483.89 2170310 2111009 2126139 2107210 2126574 2062221
2489.67 1937214 1866217 1956220 1875730 1814650 1832098
2495.46 1939167 1916007 1893204 1931161 1934639 1796855
2501.24 1858893 1822450 1834667 1855760 1858410 1821214
2507.03 1801857 1705140 1678531 1765096 1863225 1897949
2512.81 1953893 2011210 1921774 1830605 1913008 1896518
2518.60 1908955 1915925 1960791 1910790 1966053 1978647
2524.39 1896267 1900345 1936798 1791181 1803435 1779563
2530.17 1719526 1663420 1655272 1650269 1684586 1626407
2535.96 1466645 1294258 1250678 1291263 1500916 1430357
2541.74 1289778 1244271 1386471 1421794 1294205 1212499
2547.53 1212344 1287568 1395316 1375545 1359501 1330936
2553.31 1392674 1227460 1207045 1365254 1454922 1427061
2559.10 1334501 1272501 1332036 1377702 1315757 1329662
2564.88 1366916 1309390 1257776 1257534 1427236 1445767
2570.67 1351628 1319595 1443304 1429530 1308532 1295414
2576.45 1386249 1371014 1354040 1328903 1333470 1298058
2582.24 1359669 1408931 1351203 1372050 1443689 1305133
2588.03 1268624 1356624 1387752 1341991 1348811 1392058
2593.81 1487154 1507711 1479628 1334765 1295356 1369707
2599.60 1327838 1277425 1344868 1407053 1393404 1395979
2605.38 1410872 1379370 1286883 1270306 1380595 1433058
2611.17 1557422 1501646 1461615 1438752 1538738 1524396
2616.95 1472846 1423234 1435866 1335574 1312486 1294211
2622.74 1468441 1607426 1571077 1426728 1481023 1530480
2628.52 1489379 1430399 1432667 1397827 1397214 1299472
2634.31 1339810 1457590 1564594 1472255 1461202 1471197
2640.09 1419932 1361148 1405904 1432965 1512203 1488428
2645.88 1463755 1457613 1437309 1430350 1613707 1567194
2651.66 1556618 1484005 1438529 1442703 1385720 1297452
2657.45 1370045 1472643 1482114 1326326 1306189 1377141
2663.24 1428275 1437081 1546346 1444532 1337622 1288770
2669.02 1323213 1415326 1535333 1510774 1474533 1456527
2674.81 1578093 1541231 1499168 1454785 1554571 1447965
2680.59 1398405 1466631 1449023 1408681 1440447 1349565
2686.38 1373808 1429982 1463797 1380734 1464741 1473790
2692.16 1506972 1435042 1336617 1271330 1370286 1527207
2697.95 1538266 1291197 1255281 1267757 1364775 1487716
2703.73 1686888 1692296 1634159 1674568 1713906 1619525
2709.52 1635635 1529028 1433717 1435486 1408075 1268418
2715.30 1352769 1510270 1655891 1605229 1612148 1603994
2721.09 1601344 1592913 1659043 1562990 1557655 1525352
2726.88 1511682 1432740 1429289 1495122 1451139 1308425
2732.66 1312265 1415776 1463694 1315931 1251626 1358023
2738.45 1564857 1588576 1664651 1556428 1394653 1346526
2744.23 1375691 1499018 1682903 1608036 1509519 1647214
2750.02 1669807 1550459 1577883 1551816 1430453 1360974
2755.80 1344429 1396296 1450344 1410305 1549164 1621916
2761.59 1570747 1421109 1447589 1431237 1502204 1525536
2767.37 1584872 1583360 1656511 1660741 1669619 1669234
2773.16 1590354 1529327 1565438 1477694 1525845 1604074
2778.94 1670598 1657655 1583168 1635044 1678050 1632474
2784.73 1528905 1501725 1628339 1706191 1731472 1670564
2790.52 1657189 1550305 1663445 1850737 1772829 1807656
2796.30 1877184 1802789 1901379 2087864 2331144 2354268
2802.09 2293450 2233434 2374061 2503509 2441558 2528195
2807.87 2642009 2623304 2659468 2731640 2743840 2724388
2813.66 2838233 2873662 2956922 3026278 3097730 3210580
2819.44 3119010 3014188 3171203 3414974 3581677 3546781
2825.23 3605833 3724714 3862700 3649458 3385310 3189913
2831.01 3243667 3349676 3439233 3201411 3065659 3333851
2836.80 3491492 3234571 3024293 2864665 2744312 2476243
2842.58 2190261 2009855 2104246 2088932 2133891 1981281
2848.37 1946686 1962200 1947257 1825605 1812519 1662489
2854.16 1769694 1967494 1991341 1795707 1830993 1885648
2859.94 1874650 1789143 1764431 1812310 1733306 1658141
2865.73 1756495 1763114 1742496 1641105 1675710 1756845
2871.51 1948220 1982652 2009042 2240098 2236176 2032169
2877.30 2062092 2007080 1958272 2074222 2082620 1935514
2883.08 1818790 1884008 2147259 2280499 2320842 2115888
2888.87 2043501 2063669 2162511 2161842 2114569 2124467
2894.65 2048111 1950323 1983619 2122536 2364494 2447243
2900.44 2400638 2298540 2204257 2386120 2538903 2469669
2906.22 2350873 2309182 2389794 2359535 2355563 2306263
2912.01 2345277 2321111 2437045 2498170 2341398 2199183
2917.80 2340457 2426519 2411427 2498975 2442551 2307951
2923.58 2535327 2638613 2536294 2505589 2582275 2581975
2929.37 2624348 2519753 2464431 2612255 2750760 2825258
2935.15 2895808 2880997 2970853 2770119 2686710 2758997
2940.94 3008996 3112626 3132346 2946338 2852838 2920579
2946.72 3096238 2988057 2809263 2933695 3166357 3060486
2952.51 2979398 3012107 2957992 3055623 3275419 3179334
2958.29 2975298 2882130 2553657 2768224 3444184 3455752
2964.08 3449935 3442730 3334404 3248135 3390363 3493019
2969.86 3556112 3627440 3589091 3649720 3925860 3949531
2975.65 3688350 3618951 3825554 3848283 3759452 3828013
2981.44 3956251 4068166 4065620 3989943 3953149 3930133
2987.22 4013640 3842461 3769006 3711540 3786150 3805348
2993.01 3811829 3917929 3828051 3515592 3441345 3267231
2998.79 3118462 3129276 3159503 3107188 2992219 2979454
3004.58 3046810 2815316 2786656 2852137 2958411 2893360
3010.36 2766892 2722750 2776873 2581947 2460333 2512196
3016.15 2653870 2635876 2649474 2657554 2565570 2522756
3021.93 2530750 2447584 2480748 2586814 2491530 2379625
3027.72 2342374 2252156 2252187 2353230 2518830 2407064
3033.50 2246465 2438658 2577605 2475832 2318453 2312340
3039.29 2407361 2359448 2424486 2436222 2465268 2481981
3045.08 2666812 2846179 2801578 2635723 2755651 2730255
3050.86 2689786 2639600 2595548 2660297 2613088 2590172
3056.65 2777833 3020476 2845711 2623426 2695569 2871421
3062.43 3010880 3107306 3197454 3266953 3368536 3583132
3068.22 3866004 4263325 4678931 5145504 5584491 6018735
3074.00 6334411 6777657 7589337 8737104 9904192 11359078
3079.79 13479339 16100727 19710083 24584953 30649836 38055414
3085.57 46553675 55629603 63961754 70863412 74659103 74673614
3091.36 70356004 64249336 66152093 80632478 78778018 60482850
3097.14 63154558 75885765 84098680 84417946 78334280 67152254
3102.93 54031704 41461426 31418193 23872517 18683551 14935819
3108.72 12362196 10366173 8984070 7772155 6933525 6192445
3114.50 5871181 5286041 4946854 4843764 4620496 4158538
3120.29 4376267 4323310 4197461 4235820 4170470 4116253
3126.07 4330290 4354216 4301131 4450613 4687531 4784744
3131.86 4851068 4859638 4850570 4661408 4637650 4636232
3137.64 4750351 4676905 4886426 4911022 4918070 5095885
3143.43 5387713 5387618 5518122 5643371 5647437 5336547
3149.21 5203946 5381937 5674712 5836787 6417316 6858484
3155.00 7328293 7809598 8348455 8694052 9185631 9703042
3160.78 10336770 11055109 11524792 11785193 12158505 12293199
3166.57 12463502 12574038 12398132 12248466 12081648 11822159
3172.36 11932431 11850816 11179222 10694636 10581493 10108556
3178.14 9201439 8024379 6859224 5519480 4527217 3736114
3183.93 3303962 3188067 3046790 2978907 3137775 2961494
3189.71 2863659 2701729 2699987 2659439 2820588 2715966
3195.50 2585946 2484805 2434390 2574153 2870633 2807043
3201.28 2789097 2901278 3079907 2954157 2837185 2684480
3207.07 2621056 2658565 2852893 2931411 2860898 2590560
3212.85 2616615 2780819 2997041 3110418 3053868 2710076
3218.64 2632563 2899490 3084164 2936838 3044731 2957821
3224.42 2872817 3072260 2967793 2772415 2941013 3060835
3230.21 3139211 3032538 3020497 2949332 2987095 2896323
3236.00 2946854 2867326 2996799 3179539 3216925 3083452
3241.78 3039136 3019289 3173166 3290777 2918473 2603276
3247.57 2919226 2945121 2831533 2909714 3094110 3141164
3253.35 3295259 3161815 3176338 3258519 3413100 3120279
3259.14 2986778 3157830 3401962 3191928 3178368 3245606
3264.92 3103945 2975186 3079057 3011723 3038190 3075279
3270.71 3046097 3097260 3286811 3221281 3061203 3063180
3276.49 3120932 2898877 2874254 2838084 2736348 2677526
3282.28 2832709 2773107 2766223 2752390 2884099 2970241
3288.06 3147421 3003434 2709809 2535920 2678702 2731280
3293.85 2737205 2830209 2897022 2896073 2885117 2815283
3299.64 2695677 2749459 2917889 2849915 2615400 2452190
3305.42 2741150 2827461 2850812 2905441 2756955 2643715
3311.21 2856505 2723089 2691041 2521049 2457404 2663500
3316.99 2897406 2930432 2913706 2728634 2619494 2630434
3322.78 2789252 2775603 2716053 2580040 2637835 2624982
3328.56 2810960 2664386 2526788 2543487 2941846 2751677
3334.35 2441343 2599357 2855139 2634922 2584687 2531862
3340.13 2568916 2667059 2717267 2681536 2728425 2569722
3345.92 2545350 2623206 2746187 2544890 2419300 2382736
3351.70 2548839 2724789 2531029 2444523 2710793 2947477
3357.49 2959584 2888529 2973855 2822538 2670820 2566154
3363.28 2505710 2453297 2692311 3028802 2846614 2631980
3369.06 2523451 2503351 2576059 2501642 2677767 2701860
3374.85 2701819 2687323 2554757 2338399 2474550 2598854
3380.63 2617130 2406426 2533749 2579388 2701180 2849466
3386.42 2896288 2756023 2642037 2778843 2832554 2552638
3392.20 2414770 2326552 2675558 2816653 2859425 2685553
3397.99 2405140 2579579 2661758 2582772 2532050 2469003
3403.77 2390221 2484004 2616143 2650999 2777232 2659782
3409.56 2468938 2220713 2293896 2552586 2668813 2579944
3415.34 2494779 2489675 2514886 2551177 2552035 2548509
3421.13 2603725 2712904 2683018 2609461 2610705 2759811
3426.92 2735165 2416168 2577602 2589502 2466832 2535412
3432.70 2457454 2315140 2515788 2434132 2511950 2761551
3438.49 2777349 2636378 2617211 2468383 2404944 2381619
3444.27 2840938 2966738 2702921 2607923 2766566 2708345
3450.06 2721897 2825898 2840518 2843289 2889710 2845114
3455.84 2744878 2675814 2814631 2625639 2634986 2864699
3461.63 2903587 2730902 2720749 2707515 2738516 2700722
3467.41 2892689 2899251 2876815 2909706 2799672 2644209
3473.20 2765512 2865623 2748928 2754815 2730581 2648198
3478.98 2857816 2791211 2852231 2881462 2935993 2907045
3484.77 3054273 3119377 2996883 2793784 2781702 2632041
3490.56 2548066 2631295 2991181 2983398 3095832 3037590
3496.34 2924147 2908694 2907575 2870241 2810174 2590252
3502.13 2698264 2866988 2960382 2947576 2789094 2722549
3507.91 2896120 3046906 3080330 2796234 2670234 2607820
3513.70 2751494 2834140 2860249 2774696 2819869 2884004
3519.48 2877296 2804155 2753305 2618354 2775418 2996030
3525.27 2877256 2739486 2741683 2696782 2708727 2764675
3531.05 2922049 2858876 3017330 2918673 2837354 2727699
3536.84 2913936 2966694 2722381 2596362 2901551 2912507
3542.62 2813010 2926891 2973065 3034345 3137862 3140010
3548.41 3029792 2837335 2694078 2818841 3042418 2805512
3554.20 2824707 2949415 2899315 2952438 3054440 2860382
3559.98 2805130 3035414 3121383 2863900 2675058 2617836
3565.77 2566737 2723182 3054480 2990465 2886633 3053306
3571.55 3242945 3026682 2827537 2935467 3110098 2973671
3577.34 2861797 2902770 2944085 2942359 3069131 3169772
3583.12 3213388 3094191 3122260 3102278 3001267 2784971
3588.91 2942385 3087897 3017741 3000650 3037820 2900831
3594.69 2994249 2994858 2818459 3020321 3153771 3026124
3600.48 3052382 2920791 2928540 3149294 3296107 3079158
3606.26 3114995 3043210 2749087 2949385 3291891 3130286
3612.05 2971439 2915406 2958789 3089335 3269635 3302141
3617.84 3115582 2921533 3093848 3226897 3457563 3373342
3623.62 3285285 3273269 3450647 3232735 2760152 2630220
3629.41 2982171 3127762 3177869 2992322 2980989 3288532
3635.19 3523492 3437118 3294651 3295419 3353408 3302356
3640.98 3253658 3255055 3262851 3247355 3333247 3126458
3646.76 3030916 2830201 2863350 3059149 3345141 3602250
3652.55 3427329 3322304 3162144 2926160 3124542 3323627
3658.33 3501189 3509966 3437306 3352636 3251841 3391749
3664.12 3478243 3284244 3258123 3194104 3087243 3054000
3669.90 2763332 3150338 3479170 3258306 2872531 2411815
3675.69 2649334 3146577 3287994 3186293 3232839 3303526
3681.48 3254816 3296065 3483810 3415441 3307162 3027216
3687.26 2573192 2918960 3251858 2974216 3054648 3208126
3693.05 3213864 3447209 3665054 3576982 3638022 3710509
3698.83 3771036 3569907 3325287 3592094 3725545 3557833
3704.62 3488496 3551187 3600040 3406183 3290621 3440897
3710.40 3331438 3130195 3461171 3845189 4100839 4139049
3716.19 4019705 3963258 3911053 3894132 4153395 4187502
3721.97 4188961 4260554 4388754 4144068 3958524 4045497
3727.76 4109168 4174555 4093631 3767050 3794405 3967250
3733.54 3835808 3663025 3440584 3499677 3623240 3566312
3739.33 3444410 3374196 3586082 3188341 2133941 2323841
3745.12 3357426 3452951 3144429 2479675 2751185 3067533
3750.90 2474836 2679098 3388119 3654161 3580516 3470107
3756.69 3530110 3358208 3308814 3302683 3422555 3462085
3762.47 3561373 3518694 3289359 3228132 3459334 3566610
3768.26 3372397 3117690 3273924 3443090 3539004 3630968
3774.04 3645018 3539891 3419994 3225770 3135037 3219734
3779.83 3463586 3489816 3572023 3489078 3480067 3505901
3785.61 3550117 3393553 3468358 3549356 3725516 3539327
3791.40 3525486 3501057 3539046 3447534 3330342 3402006
3797.18 3497927 3479991 3396814 2676144 2739584 3200641
3802.97 3281169 3336865 3241185 3053316 3480491 3721295
3808.76 3701758 3622265 3540642 3400376 3548487 3454261
3814.54 2976245 2890996 3469542 3453836 3479742 3309349
3820.33 3008298 3037612 3356087 3452651 3526524 3374155
3826.11 3497401 3564553 3521415 3622056 3579157 3363662
3831.90 3419326 3500655 3322818 3364983 3421289 2601813
3837.68 2724031 3130844 3315513 3419366 3584161 3439814
3843.47 3462226 3600132 3571346 3529935 3598905 3620747
3849.25 3597410 3304632 3127830 2877137 2220243 2575131
3855.04 3310377 3482802 3675620 3866759 4161463 4190279
3860.82 4128136 3826442 3583551 3319004 3489073 3799713
3866.61 3714609 3477450 3126016 3118360 3467022 3714212
3872.40 3668612 3361674 3479600 3609125 3598131 3398624
3878.18 3272178 3223344 3488384 3611421 3641904 3386108
3883.97 3201477 3187054 3413917 3544572 3642469 3590711
3889.75 3276895 3154766 3482410 3516361 3567819 3479328
3895.54 3490408 3406695 3326713 3222293 3443053 3333754
3901.32 3214304 3420139 3452978 3292508 3342687 3506293
3907.11 3428706 3405511 3659071 3758126 3837712 3701247
3912.89 3545728 3482924 3479456 3297493 3374663 3419676
3918.68 3449884 3303749 3402181 3503256 3525389 3408732
3924.46 3477624 3695226 3999029 3989734 3857899 3794469
3930.25 3996098 3896903 3751118 4031137 4164732 4063386
3936.04 4224122 4367059 4316956 4017019 4113848 4233045
3941.82 4417750 4421635 4352233 4437321 4350433 4121335
3947.61 4216299 4336979 4312257 3947293 3798901 3817520
3953.39 3865005 3808008 3828006 3814634 3884112 3746609
3959.18 3717798 3565880 3542573 3558429 3729027 3592290
3964.96 3534279 3626343 3652264 3746018 3927864 3876285
3970.75 3715050 3503038 3652392 3667279
##END=
