##TITLE=Trichloroethene
##JCAMP-DX=4.24
##DATA TYPE=INFRARED SPECTRUM
##CLASS=IUPAC A
##ORIGIN=NIST, Analytical Chemistry Division, 301-975-3108
##OWNER=COPYRIGHT (C) 2000 by the U.S. Secretary of Commerce
##DATE=00/02/01
##$SPECTRA VERSION=1.10
##$UNCERTAINTY IN Y=2.1 % relative (B=1.1E-04,C=2.4E-09,D=2.3E-13)
##CAS NAME=Trichloroethene
##CAS REGISTRY NO=79-01-6
##MOLFORM=C2 H Cl3
##MP=-73 C
##BP=87 C
##$NIST SOURCE=QUANT-IR
##SPECTROMETER/DATA SYSTEM=IFS66V (Bruker)
##INSTRUMENT PARAMETERS=KBr Beam Splitter; MCT Detector; Multipass cell
##STATE=gas
##SAMPLE DESCRIPTION=Trichloroethene Primary Gas Standard
##PRESSURE=101.3 Pa
##TEMPERATURE=23 C
##SAMPLING PROCEDURE=1 L/min Flow
##RESOLUTION=0.9640
##DATA PROCESSING=Boxcar Apodization
##XUNITS=cm-1
##YUNITS=(micromol/mol)-1m-1 (base 10)
##XFACTOR=1.0
##YFACTOR=18.189E-13
##DELTAX=0.4820
##FIRSTX=575.17
##LASTX=3974.605
##FIRSTY=-2.20E-06
##MAXX=3974.12
##MINX=575.17
##MAXY=.0010008
##MINY=-3.41E-06
##NPOINTS=7052
##XYDATA=(X++(Y..Y))
575.17-1211348-710453 3606795-234692 1706076 321383
577.58 1300169 2310435 2825119 3032898 773595 1314438
580.47-800178 1210976 2261463 1943801 474625 824135
583.37-604351 1062526 273042 1440094 446982-43472
586.26 371657 1018642-1876539 30809 851491-1374141
589.15 331670-1223175 529515 145858 1510174-339632
592.04-203685 457606-259011 698887-158266 714597
594.94 839786-13858-958418 610521 638418 1549192
597.83 592071 622881 199183-216319 585906 1231617
600.72 440824 471624 743618 1467577 571189 1036626
603.62 772667 1014739-174873 887314 1636699 1704116
606.51 1512369 1105313 1778609 1796896 2572272 2692470
609.40 3690293 2548050 4073878 4506977 4224433 5196699
612.29 5547177 5590579 5943167 6603980 7384847 8225244
615.19 9220471 9012021 10021660 11490190 12961725 14582913
618.08 14454323 15997963 18456152 19615951 20850014 23543479
620.97 25062425 26872496 28371282 31300591 32516262 34913549
623.86 36694943 37806963 39522848 41090681 42793307 43063308
626.76 42714810 45194244 45247004 45471315 44946246 44511808
629.65 45358956 44062342 43826317 42650786 41888086 39722936
632.54 39373990 38223406 38151196 38832603 38945091 42401084
635.44 45542449 47746707 48732401 49735141 48480021 47605447
638.33 44865551 42396600 40090151 36034388 32590883 29563914
641.22 26552483 23394315 20740887 18531770 15344792 14617807
644.11 12893686 11178869 10579088 9228180 8839578 7260399
647.01 6705496 5924638 5015488 5502600 4609099 3958512
649.90 3763375 3491980 3513840 2880305 2087852 2094961
652.79 2143917 1501839 1738957 1399133 1119606 1124485
655.68 814364 916266 705689 983305 1640768 1735101
658.58 1231769 1127223 762153 667621 876805 1470137
661.47 764143 1099106 1176328 1207922 820004 1051200
664.36 1065267 304617 528481 911075 673995 1020990
667.26 1387812 1090458 677124 545865 786953 1252397
670.15 634492 751712 812981 881843 1131069 886129
673.04 757857 260696 740634 539064 606926 51308
675.93 695016 775129 618920 482112 937177 598937
678.83 711077 710009 799324-418168 1157183 504402
681.72 1211154 122655 428319-109422 966993 523134
684.61 769002 157802 184634-35966 87674 679829
687.50 187747 148929 163520 667213 425804-8361
690.40-220915 69058 200360 25299 262076 206980
693.29 105859 509710-316343 294604 125203-286107
696.18 9855-70786-151214 134425 391119-248606
699.08 243117 62810-213377-54419 100364 211551
701.97 51748-54680-255676-252529 222413 197698
704.86 271225-340002 339350 199935-376618 80920
707.75 75894 40626-255765 197893 404185-176743
710.65 590945 70748 54380 57205 124287 1967
713.54 255667 130830 258558 30725 444871-211923
716.43 277952 429732 628038-298992 478636 235662
719.32 189504 37452 163145 517910 774031 20157
722.22 292939-231014 571584 476877 430313 271008
725.11 1028878 430188 288087 36362 262138 472369
728.00 839362 392072 1071985 198729 614912 343700
730.90 784167 398105 742941 451683 765086 122964
733.79 380531 785971 773808 302593 1039968 882481
736.68 788656 754895 833741 570558 816198 911875
739.57 1214771 679037 1262468 1053983 1504337 730338
742.47 1127304 784960 1287221 460303 1305919 678435
745.36 1183458 736641 957869 1053201 1334102 759679
748.25 1283537 1163605 1380722 1119218 1236635 1236067
751.14 1471929 767060 1392284 1098550 1814287 1128036
754.04 1105735 1551968 2221673 1755610 2271829 2439673
756.93 2706110 2191539 3450212 3545059 4504855 4675501
759.82 5406357 5682211 6975676 7087010 9425775 8810270
762.72 11096903 11508670 14517117 14263500 17376351 17590752
765.61 20752949 21497730 24905395 25739156 28533395 30273609
768.50 33996574 34443630 38470213 38986466 42074830 42502342
771.39 46107350 46757160 49898511 48806582 51721619 49942471
774.29 52959207 51800700 56813476 58032201 63734096 60812278
777.18 77786512 68686246 70086489 57032709 63465743 53521064
780.07 55504749 42541823 65452138 95156805 311226493 468371749
782.96 121970501 50381252 40948597 50400256 46898194 55569002
785.86 52515452 57995009 55844862 59619654 55706150 59491182
788.75 56332288 58910012 55828790 58038381 54250212 56390916
791.64 52990970 54133007 50776795 51286220 49055872 49358435
794.54 45615694 46700514 42506001 41042457 37357482 35324185
797.43 32131408 31281377 28126858 26770407 24278500 24235156
800.32 21598196 20996838 18360533 18191376 15931612 14972211
803.21 12314504 12078278 10748086 11259399 9378687 11139515
806.11 10344153 11157066 10937672 10605889 9716585 9876025
809.00 8068673 8214563 6912694 6388575 4991730 4867797
811.89 3653285 3665883 2763480 3151074 2025616 3065834
814.78 2327637 2605729 2013162 2788648 2990119 2814222
817.68 3006784 3675183 3067154 4775589 3836399 5187793
820.57 4474660 5713900 5354929 6748324 6740941 7619930
823.46 7099336 8780957 9004816 10097420 10624872 11674382
826.36 12887506 14426282 15811557 18406662 19578825 22808420
829.25 25509247 30809218 35060772 41343376 46937122 54985630
832.14 60887193 69282853 79637313 91101432 102870631 117516453
835.03 132143967 149033636 164780198 183847970 201475281 221829982
837.93 239205337 258699695 275605658 295059751 309909086 326775070
840.82 340492395 354378388 365816233 378759933 384718776 394224359
843.71 392666241 401319921 426197172 437668202 428733174 377122437
846.60 322482840 338939148 391941435 438599871 501942541 550220530
849.50 466788307 545609179 383089266 320841684 358458398 369143152
852.39 392216653 396086502 399582326 389114660 373497691 346258218
855.28 315962624 276612134 237884516 196338251 158519116 121994259
858.18 93012706 66611821 47784232 32157426 21892395 14180646
861.07 9907336 6543417 5840664 4184456 3939160 3796031
863.96 3117679 4167407 3842275 2272544 3010006 2355075
866.85 2858428 2576183 3019003 2670254 2596872 2406283
869.75 2374310 2306931 2643470 2499488 2414011 2109902
872.64 2484499 1973562 2011748 1922536 1713124 1929730
875.53 2129963 1576090 1969475 1629845 1885847 1199144
878.42 1407768 1622910 1483707 1444699 1474634 878318
881.32 1255375 874642 1386381 1221322 1277369 1500735
884.21 1186344 1366682 1583272 1238677 1588787 1403627
887.10 1716174 1832406 1935067 1869487 2235208 2044738
889.99 2315239 2454836 2787671 2351556 3110722 3102589
892.89 3588366 3805113 4303194 3852533 4524597 5021500
895.78 5371854 5793019 6351595 6888298 7270384 8105692
898.67 8677073 9034855 10201186 10822487 11580619 11935228
901.57 12333013 12879888 13510942 13290727 13685525 13180140
904.46 13125809 12472119 11940533 11284759 10279102 9964303
907.35 9740866 9819835 10597601 12154260 13635718 14857554
910.24 16351259 17272267 17989569 18763379 18997209 19031494
913.14 19059428 19234323 19475221 19859615 20085486 20760768
916.03 21744277 22464249 24210066 25364975 27649737 29451317
918.92 31783820 34697096 37754680 40520452 44288722 47997338
921.81 52129220 56829722 62002584 67801277 73958719 80581924
924.71 88285113 96653514 105553150 115151619 126129040 137350121
927.60 150257858 162582809 176320211 190450111 205443927 220583918
930.49 236120954 251170297 265483332 279910466 293035411 304179219
933.39 314123101 321601351 327486130 329770359 330297048 327309311
936.28 323415234 315475414 308493573 297720770 289626700 281813435
939.17 278180370 273708473 277686089 280915720 291593214 305688687
942.06 319429153 341704342 350306192 368106334 379963501 381888065
944.96 375615047 364286972 344609423 323490005 298727972 274314615
947.85 247040457 222287855 197156704 175285188 153680023 136277012
950.74 119947409 107030943 95223581 85775774 77392033 71060035
953.63 64045679 58170811 52782626 47878787 42889779 38515505
956.53 34154715 30403638 26651921 23652112 20135744 17609214
959.42 14988498 13301112 11401961 9999084 8463218 7502473
962.31 6202410 5834547 4752759 4577807 4046233 3823998
965.21 3614528 3469045 2977141 3277973 3092746 3640155
968.10 3243557 3540786 3221519 3541066 3348579 3633952
970.99 3454792 3620127 3672730 4052054 3893967 4206160
973.88 4331136 4630088 4827382 5751871 5688316 6296296
976.78 6613098 7280018 7362229 7804539 7775767 8127714
979.67 8077369 8203227 7784188 7553187 6830379 6711210
982.56 6427317 7060381 7610007 7891911 6665090 6416077
985.45 5380135 7671347 6565636 6407876 6444608 6529942
988.35 6517982 6506028 6508041 6462831 6360306 6510090
991.24 5999536 5857969 5484331 5023296 4696502 4441538
994.13 4007394 3719040 3266954 3073256 2769633 2775637
997.03 2481699 2211450 2174551 2320321 2051024 2346349
999.92 2368327 2569817 2167844 2373977 2554813 2817621
1002.81 2202299 3014297 2832662 3374824 2874479 3282935
1005.70 3516428 3498540 3924838 3705834 3976438 4169753
1008.60 4579041 4610033 4566061 4707801 4486437 4693202
1011.49 4933530 5019459 4986013 5432390 4733005 5048552
1014.38 5039569 5391669 5171778 5364696 4969808 5072498
1017.27 4835614 5052827 4468771 4734186 4563868 4512937
1020.17 4388198 4611574 4046036 4742211 4377839 4734128
1023.06 4659854 4582088 4511366 4433820 3814309 4096094
1025.95 3714121 3148967 3192449 2797037 2553297 2375573
1028.85 2088536 2109685 1917680 1492405 1739494 1608999
1031.74 1606213 1555601 1346998 1212909 1062681 1487897
1034.63 1116222 891740 1115872 1164930 1047191 863551
1037.52 688675 811697 992655 1067605 826847 731942
1040.42 540166 806271 859567 648330 879039 689261
1043.31 805602 645146 842522 764948 837738 593865
1046.20 717531 750366 320485 737103 660712 551026
1049.09 708212 717427 643639 594569 540031 653767
1051.99 601616 341052 462923 587426 664568 504806
1054.88 472378 522278 406735 306450 761318 323530
1057.77 226385 610307 283048 400199 14441 566484
1060.67 481352 333649 245336 325831 210643 402999
1063.56 203104 303129 469468 388887 237025 447439
1066.45 481322 476454 328773 125717 182197 311546
1069.34 436833 67786 470855 496813 295261 83590
1072.24 195977 291555 336100 601317 288025 314228
1075.13 148251 559580 343828 507504 293166 293471
1078.02 315760 219366 316107 402726 136531 219833
1080.91 388755 339938 267346 291414 34484 485131
1083.81 304649 214881 134707 446312 456604 357614
1086.70 357753 400474 276603 450254 393756 560890
1089.59 456773 280300 392719 384677 193206 316107
1092.49 254180 318866 559674 369623 315642 470599
1095.38 542015 579555 652960 711753 779743 707069
1098.27 782993 682116 821715 714773 531502 1189617
1101.16 821434 1036058 1055696 1212401 1093206 1146471
1104.06 1139214 1500493 1263983 1390881 1255308 1348504
1106.95 1126178 1512874 1528417 1584448 1528218 1533594
1109.84 1648961 1773016 1565517 1445717 1695651 1779908
1112.73 1775331 1752077 2007192 1694589 1826257 1755838
1115.63 1975117 1823200 1846718 1588133 1641279 1392195
1118.52 1321058 1336637 1386410 1168209 1358726 1418200
1121.41 1152626 992261 956497 1004836 1082319 1365224
1124.31 871722 1332921 1224208 845314 1093776 979551
1127.20 820499 1173954 981033 764571 642889 911593
1130.09 678198 756229 631601 712844 738082 423505
1132.98 849110 477215 185028 581984 456809 582488
1135.88 534214 380185 540001 222235 297516 510739
1138.77 512082 454843 355695 658897 664922 576994
1141.66 629681 734967 519688 642759 345364 402992
1144.55 545546 407859 42939 342021 256514 478670
1147.45 245241 327673 376447 380390 502834 373560
1150.34 348978 331063 196956 191988 113267 305503
1153.23 161751 516396 163054 350179-31906 210226
1156.13 202204 366068 33866 101074 226037 30915
1159.02 151330 289504 160286 265510 124334-11269
1161.91 148782 352655 97467 25853-198176 100268
1164.80 291111 148409 246862 51691 183098 18025
1167.70 8824 227174 151876 41973 171450 47526
1170.59 131563 124570 48018 307884 169356 264729
1173.48 320025 219816 294274 219819 223258 305269
1176.37 107256 340449 78069 271100 332563 94078
1179.27 291536 311028 170645 380757 196927 342917
1182.16 377982 369022 294241 470977 214684 314118
1185.05 188952 143515 276524 464577 258728 272033
1187.95 253700 234974 191916 407392 353817 432515
1190.84 357732 280194 354493 364428 380130 346777
1193.73 292220 482428 298488 532192 418610 403071
1196.62 314906 397642 412984 582138 475019 662634
1199.52 495450 391600 656214 946401 745813 778036
1202.41 736587 674298 897234 1045220 990674 581992
1205.30 970555 895631 1067635 1307571 1053245 1389090
1208.19 1333172 1129580 1264903 1403042 1514416 1495915
1211.09 1581618 1697702 1804907 1688677 2015532 2050131
1213.98 2093820 2200125 2383827 2236884 2550925 2641044
1216.87 2618623 2762445 2968157 3095667 3221486 3344296
1219.77 3424287 3746656 3698430 4029627 4054521 4444886
1222.66 4348946 4723192 5010308 5178923 5515971 5717651
1225.55 5869622 6153351 6123048 6419089 6477735 6330927
1228.44 6415160 6213580 6049911 6124156 5729454 5800868
1231.34 6017951 6692442 7725093 7849741 7460680 7647185
1234.23 8754169 8394408 8221154 8961030 9194220 10040464
1237.12 10650330 11244391 12116808 12901312 13678619 14658785
1240.01 15764452 17051252 18211577 19412079 21046577 22469018
1242.91 23993891 25327972 26408693 27383530 28193808 28651942
1245.80 28878610 28700670 28146038 27417864 26755849 25705797
1248.69 24376865 23953455 25710164 28758694 29336827 29797262
1251.59 28307257 29376623 30304693 31752000 32520320 33423404
1254.48 32850186 32397745 32269889 31757682 30893920 29275378
1257.37 27665307 27035441 25519874 25197516 24507516 23609640
1260.26 22472422 21770234 20278134 19315348 17961755 17111474
1263.16 16215518 14954462 13967862 13103703 12540174 11814934
1266.05 11172022 10695963 10275555 9988606 9611906 9970667
1268.94 9459326 9150337 8669636 8280732 7858059 7350848
1271.83 6853732 6248696 5464715 5151332 4507481 4336499
1274.73 3559584 3509707 2837868 2654770 2588108 2308954
1277.62 2099994 2052446 1666287 1647048 1413723 1525703
1280.51 1257836 1189031 1138896 1086816 789321 857710
1283.41 481448 931359 615288 656848 506443 519878
1286.30 368404 479818 291143 309323 265428 288688
1289.19 434520 438584 369663 496295 597598 224463
1292.08 158884 145718 254541 284148 86451 363851
1294.98 203957 227138 249400 500796 370683 282213
1297.87 500042 493666 186968 313612 542519 424962
1300.76 568533 332346 497297 420040 397481 726383
1303.65 475424 518811 677738 643409 675526 724466
1306.55 757405 748848 955738 700822 910102 926981
1309.44 885177 1062580 844190 1062220 838836 936182
1312.33 1077095 1049004 1143494 1117822 999945 1251124
1315.23 1175979 1224641 1037714 1239879 1304919 1055698
1318.12 1230643 1119989 1134547 1081058 1173287 1135068
1321.01 1245896 1252486 1029426 1101565 1055164 967419
1323.90 1059391 869803 1066550 927195 852021 873002
1326.80 761711 982260 892732 882136 759852 809171
1329.69 906543 586615 529285 634225 545802 816656
1332.58 499010 448999 478283 401442 312107 452667
1335.47 579159 379395 339018 336940 472300 304910
1338.37 308647 542213 238667 353309 224840 478211
1341.26 223677 299365 256709 277063 332933 577978
1344.15 315991 243297 197090 450315 554297 130986
1347.05 329301 183086 570263 184762 136214 120442
1349.94 138182 271657 338521-52-837156-172797
1352.83 93255 248762 178484 220101-415114 102794
1355.72 348865 93331 367575 307238 47539 603098
1358.62 271841 274989 438611 388986 99527 329192
1361.51 23935 185001 91901 112273 448818 404870
1364.40 401846 350701 463236 440565 446817 460045
1367.29 420639 415052 523350 395795 221585 227719
1370.19 427253 484392 220726 518879 471330 449513
1373.08 90860 476184 444410 518750 883652 674164
1375.97 559744 776155 500746 490833 258518 645773
1378.87 575604 783250 544292 557289 775786 403542
1381.76 565383 544051 472536 762747 677226 1019060
1384.65 585728 678413 702973 426596 569830-61585
1387.54 659662 425259 682909 484838 744424 644171
1390.44 452881 739328 536045 578221 534434 458744
1393.33 483138 363808 254330 524272 432527 457657
1396.22 682961 560318 325963 488630 396394 235569
1399.11 442204 534332 544248 536733 577614 509362
1402.01 641739 727248 646273 438202 354766 353650
1404.90 496767 512261 558731 434340 597076 506226
1407.79 653635 773245 461961 549165 654303 737325
1410.69 467262 606160 569409 634922 578101 614696
1413.58 728169 635950 858066 638247 388276 678857
1416.47 670285 687206 587046 581194 608110-53148
1419.36 688140 836496 764035 762326 713632 947824
1422.26 786587 799135 556734 697175 668906 848939
1425.15 938870 847349 917089 787615 738173 825071
1428.04 785641 773502 681758 370540 790818 746805
1430.93 585996 616587 673067 647615 334667 693328
1433.83 544818 379686 495194 495023 340041-474924
1436.72 249014 524089 408917 320670 383111 526413
1439.61 526154 409919 375000 405098 576103 340794
1442.51 492298 237030 396821 244826 287179 462867
1445.40 338285 492948 213065 266261 31241 182221
1448.29 415997 261064 458745 293536 337264 434742
1451.18 325393 256216 433512 292326 268789 471398
1454.08 507624 359733 228901 410227-457624-797608
1456.97 403372 78747 188585 356171 313986 312061
1459.86 314477 311913 432994 345745 357576 292831
1462.75 493893 307977 485118-137581 109948 566566
1465.65 272470 525956 461537 404217 198738 373585
1468.54 354348 294771 402387 361270 210831 480049
1471.43-257577-47480 193098-158675 11095 386874
1474.33 256135 367755 286363-63243 239428 422499
1477.22 410954 289771 267965 312668 340835 247448
1480.11 342218 296728 298846 416105 465129 383163
1483.00 287903 389580 247261 262410 414726 404304
1485.90 240302 245279 56276 273041 230708 376768
1488.79 291388 288698 108368-6293 128928 508123
1491.68 275319 395919 423350 326347 217247 270761
1494.57 55569 463040-535795-236234 317883 156067
1497.47 289478 183469-192840 118546 330845 351293
1500.36 140188 355464 361258 421257 146886 294326
1503.25 340055 106250 343307-248313-935716 148329
1506.15-214133-970530 15446 164344-77849 105769
1509.04 154758 123402 315140 285911 348758 248258
1511.93 74977 336440 207614 166784 288938 287221
1514.82 267575 274924 2381 135053-35738-69795
1517.72 353576 439686 226420 353868-113322 333960
1520.61-622784-329188 426625-210667 271986 322517
1523.50 462901 226285 289493-144541 278164 333097
1526.39 271039 202876 561576 246296 273747 508435
1529.29 452902 582858 570439 406271 526107 563489
1532.18 677006 323501 369115 493996 890207 952728
1535.07 1126963 1038954 1458140 1398820 1643136 1431188
1537.97 1872051 551802 1600590 2237721 1667251 3027702
1540.86 3323346 3060252 3319845 4412487 4567594 5196256
1543.75 5535821 6059879 6034949 6935367 7549779 8327080
1546.64 8507605 9364315 9839056 10575043 11460226 12724493
1549.54 13758701 15765155 17492977 18426210 20136204 21823304
1552.43 23890670 25554514 27686260 28682629 30230195 30924187
1555.32 31405087 30350885 29598092 27014694 24758961 21542129
1558.21 18379714 17563962 18019022 20379983 29482366 24407945
1561.11 18316117 19406867 21369813 24362220 25856140 27713464
1564.00 28066142 28253322 27720458 27435105 26560780 25426761
1566.89 23806829 22512369 20772293 19171895 17838801 15895583
1569.79 15121003 14433014 13193468 12877521 12139737 11874380
1572.68 11396951 11548426 11384694 11620615 11662129 11973065
1575.57 10603254 11803802 12907647 13076949 13565163 14163515
1578.46 14733761 15261333 16145034 16751985 17611334 18520289
1581.36 19350140 20560877 21412062 22258267 23260417 24063295
1584.25 24495974 25159324 25549383 25877152 25811933 25621651
1587.14 25156128 24707634 23774500 23015637 21900926 20976474
1590.03 20174568 19680068 19455112 19505971 20270320 21835786
1592.93 22974569 24677647 25871046 26623265 27012598 26749094
1595.82 25921068 25038173 23979423 22443278 20920209 19543025
1598.71 17770037 16402793 14763488 13158511 11901755 10622161
1601.61 9602960 8717641 7889159 7137904 6399068 6005486
1604.50 5564415 5058773 4642662 4191940 3636728 3349522
1607.39 2925002 2821900 2237711 2228092 1823996 1846898
1610.28 1305607 1414952 1137853 1182960 758016 808038
1613.18 594170 677342 383218 586768 163161 540351
1616.07-788425-371724 521405 277546 226405 323568
1618.96 161140 246829 222985 529167 218059 374682
1621.85 175912 203139-46975-213056 139450 279480
1624.75 250039 309306 299625 284969 174802 86217
1627.64 181914 277648 238768 244563 522598 249017
1630.53 99726 46216 251322 326502 388046 274125
1633.43 273828 176669 62349-577649-653937 204797
1636.32 75712 157499 21869 395828 235325 204054
1639.21 83833 197894 184581 346465 242426 107538
1642.10 198690 118601 122648 260207 152864 94792
1645.00-52358-736439-126608 78273-10339 138541
1647.89-111035 162498 154301 116647-64214 325153
1650.78-84754 255389-1196676-707967-1301710-550173
1653.67 177203-492758 272371 5665 158828 1172
1656.57 256397 101341 278180 97618 215705 54221
1659.46 32590 244009 55708 81202 233915 91943
1662.35-318085 203333 134000 250024 262876 105601
1665.25 309475 119677 304714 155693 189338-36761
1668.14 195909-364954-280429 352683 24696 134571
1671.03-94639 221059 27968 173003 353890 225089
1673.92 245863-129355-531584 199616 219492 303889
1676.82 269126 341260 341377 85954 191680 261359
1679.71 236779 209041 260135 274794 418531 292072
1682.60-64033-66421 275774-644715-1342306 570977
1685.49 203604 421388 239085 463124 340059 328049
1688.39 347149 457604 224172 403881 441286 459444
1691.28 422294 404191 291099 446489 278445 470241
1694.17 170789 355957-828647-1038113 580550 247519
1697.07 339465 406406 153911 190386-74082-867240
1699.96-580312-307560 577740 407191 248337 201272
1702.85 226642 170464-149895-69274 197801-15904
1705.74-217755-64701 112147 279185 169049 185896
1708.64 104482 161290 48376 63700 203682 183488
1711.53 2814 169238 86546 113331-90913 37757
1714.42-165627-138297 396799 48929 442557-1176228
1717.31-330849 183386-231732 322978 175844 202333
1720.21 196025 335771 143508 243276 191288 320983
1723.10 108043 337238 221159 341659 325577 352325
1725.99 249302 208468 208769 269723 340015 288418
1728.89 97049 215804 316677 332995 164411 488112
1731.78 56451 560882-630472-167880-46977-727323
1734.67 479555 301917 385418 338955 395627 318666
1737.56 447323 295138 353058 247189-139763 424112
1740.46 545819 575792 353447 327515 391078 420623
1743.35 454935 609953 615894 595839 607936 569225
1746.24 661708 537212 769758 758052 709110 686596
1749.13 770807 938020 870448 565184 539742 939830
1752.03 1141261 1060888 994231 1411926 1265293 1336149
1754.92 1322670 1347849 1422488 1025088 1427504 1523760
1757.81 1410958 1427797 1490396 1395577 1424572 1239598
1760.71 1441383 942201 1163622 1584273 1384054 1463680
1763.60 1309274 1405535 1570717 1461570 1316118 1502837
1766.49 1266717 1501023 1021289 1085079 1435849 1243444
1769.38 1429543 1138790 1207933 1019928 1347919 907168
1772.28 318829 1238148 1189777 1352904 1251767 1192769
1775.17 1131391 1047132 1253206 1237314 1253762 1177136
1778.06 1197197 1213711 1208678 1347118 1260544 1182602
1780.95 1256484 1096251 1212791 1495844 1303843 1287712
1783.85 1274455 1195248 1129342 1288901 1206229 1350711
1786.74 1259223 1234978 1299163 1185620 1352121 1256458
1789.63 1471380 1331784 1148751 1320838 1496891 851478
1792.53 940369 1077723 703651 810090 792892 722987
1795.42 532388 612057 689988 624090 677426 591957
1798.31 508490 407064 365563 590015 529082 421604
1801.20 408300 445812 318600 469456 385825 558720
1804.10 384014 467649 409188 313155 304457 509055
1806.99 390288 328221 366640 309749 304178 348599
1809.88 203210 208005 301190 374574 279262 232245
1812.77 385073 112271 233313 196098 333319 341804
1815.67 288794 244280 325340 259007 289597 263371
1818.56 304241 298089 293875 314385 197934 170664
1821.45 383161 195525 251959 126571 279540 384974
1824.35 190984 6769 369867 420729 63128 252830
1827.24 191294 320327 191991 228192 392794 87320
1830.13 368716 380886 292092 234161 450506 412300
1833.02 367567 278661 356213 376741 417770 433438
1835.92 256289 398212 351766 583353 409011 405286
1838.81 443204 373788 332833 463727 388673 343170
1841.70 340592 426424 217907 363335-159008 169490
1844.59 244500 311139 475960 339419 354386 380897
1847.49 490462 386209 479087 411147 431153 421907
1850.38 433231 416024 568488 527103 587855 544442
1853.27 633629 640592 553343 566744 646494 691438
1856.17 738212 737876 690359 755786 767367 730760
1859.06 806789 953420 784105 721427 717609 824169
1861.95 834322 849737 770825 968981 906994 937480
1864.84 899095 864840 853937 898117 883951 987125
1867.74 920703 839644 653279 924641 1123316 908987
1870.63 1013169 999374 907627 831863 940813 789488
1873.52 775056 674783 800141 753322 775633 576066
1876.41 643893 710732 733800 602480 730712 789942
1879.31 485321 641245 719877 643058 654213 721956
1882.20 710071 392319 598765 610730 507959 483740
1885.09 386932 458773 408216 503139 455629 454107
1887.99 335203 378532 141520 262721 216242 135341
1890.88 177975 108422 166859 188990-23257 206756
1893.77 169753 113987 21165 68384 44123 270243
1896.66 138806 195706 123404 225189 197982 240979
1899.56 155345 31192 67276 77914 359983 129619
1902.45 137214 113132 198618 275336 189252 188391
1905.34 189328 232215 286236 148086 359944 117534
1908.23 297401 319865 220178 136836 241036 112252
1911.13 327995 230134 239713 95817 211067 483833
1914.02 312609 204693 366969 405397 420660 325724
1916.91 236337-54952 138215 345442 222599 398393
1919.81 361348 227306 257552 372559 296874 258546
1922.70 227982 308539 305588 335054 259675 257739
1925.59 495790 282788 355223 291866 297150 288510
1928.48 318895 310961 323986 300050 193353 484788
1931.38 320330 271061 203134 224059 312726 297752
1934.27 254710 304834 345028 345264 299925 238068
1937.16 403421 295463 246843 289999 181958 440775
1940.05 212415 143262 371454 345309 195075 136293
1942.95 229822 236951 365596 429674 202780 306858
1945.84 390473 88664 475146 323342 361278 375040
1948.73 297628 245658 234059 417949 290533 277578
1951.63 382279 285466 434485 324289 397948 536655
1954.52 408189 408004 430953 380676 385480 342674
1957.41 330900 417361 309932 316121 336601 398557
1960.30 484961 460029 343512 335846 481469 377208
1963.20 435711 416980 459918 504121 412902 474604
1966.09 313466 474593 373663 463205 521698 513789
1968.98 368995 442282 359606 430782 536328 492503
1971.87 487979 593943 549841 604013 785248 710044
1974.77 263391 267353 403865 373470 474819 395544
1977.66 453830 495020 489015 476770 306197 488286
1980.55 357277 351504 295385 494051 415216 574277
1983.45 432611 316809 261691 465187 427420 436043
1986.34 359129 402782 301410 383809 277421 398216
1989.23 307912 312033 339010 337287 370879 352419
1992.12 451178 342389 463151 319503 345099 341564
1995.02 392884 367295 391854 448307 330708 453907
1997.91 297940 325671 378930 441284 362129 272627
2000.80 382535 450095 326343 559568 395354 365156
2003.69 461251 315751 175707 278228 334893 454280
2006.59 287972 447351 401564 428315 410777 324240
2009.48 364634 347212 450207 249865 378841 385384
2012.37 349637 446032 449474 529587 498789 395381
2015.27 387167 265014 300269 333152 446363 349242
2018.16 232095 279244 463198 439578 240015 346631
2021.05 375152 474391 327308 317186 285424 407388
2023.94 432192 386862 467449 403453 411766 355936
2026.84 422600 407441 402846 439562 329308 363946
2029.73 472411 445891 537805 332299 398964 551923
2032.62 434203 514023 390213 497606 535009 386095
2035.51 573994 615792 335587 403501 285860 424182
2038.41 517923 298548 401489 517642 456336 391067
2041.30 509738 383319 370238 417788 498526 465250
2044.19 479320 413678 439754 547805 318104 477179
2047.09 314351 376063 386906 480271 421994 379008
2049.98 367105 503238 315674 377531 319015 412531
2052.87 372494 420322 285377 495075 478231 446746
2055.76 555915 502178 386707 494074 252342 445513
2058.66 400249 420031 261553 542773 545115 521380
2061.55 368386 250999 471314 482407 429795 430728
2064.44 511150 546722 541215 412678 450392 489646
2067.33 552444 448535 553876 455356 510748 592585
2070.23 542836 512132 546423 471181 509989 443022
2073.12 606676 585250 659170 557147 605277 647853
2076.01 582376 673680 422280 549747 650155 715738
2078.91 672233 553095 701476 713219 757187 570202
2081.80 478381 764175 717091 618750 618057 801311
2084.69 743803 751097 713993 715730 818435 788831
2087.58 961038 695963 900587 737213 790376 727013
2090.48 963300 906617 953646 948640 946404 1023047
2093.37 916473 1042806 763648 965736 932882 968081
2096.26 807692 1024285 943578 954370 928949 748769
2099.15 955641 1019278 1070230 988763 950044 926628
2102.05 821002 745030 515309 896856 778567 817581
2104.94 833671 809806 621347 799038 363006 640772
2107.83 705226 527661 550004 490679 432744 601793
2110.73 429743 253406 422245 494135 638759 408899
2113.62 480186 449700 489950 94016 448388 544250
2116.51 391280 404572 336825 635949 486039 243664
2119.40 204970 612106 401206 484133 420498 345268
2122.30 226324 411482 346685 483681 449527 457191
2125.19 269591 504772 413753 495924 109109 335194
2128.08 422031 412103 456661 377024 483953 550955
2130.97 358027 444756 438819 417752 434886 567850
2133.87 447119 454837 355031 321504 427374 343868
2136.76 405227 388103 354687 498570 561744 431156
2139.65 666562 543680 448790 341425 548773 487766
2142.55 306827 530735 347623 498353 431760 563395
2145.44 554567 477117 408083 531116 552497 551865
2148.33 542335 458480 429275 543454 364413 561756
2151.22 500581 651817 524728 544798 554376 416571
2154.12 315732 429263 546576 463343 574726 447404
2157.01 550156 432875 282331 678424 618139 516354
2159.90 467693 493123 651523 335062 285621 702580
2162.79 561080 510743 499851 758531 558791 197758
2165.69 583264 605332 739395 619192 552754 507984
2168.58 167269 522450 577539 547192 442386 614949
2171.47 603675 419600 371344 758095 648039 574226
2174.37 581846 617204 550696 446653 507163 590666
2177.26 579870 706108 568467 719789 316058 638502
2180.15 594698 559866 740759 637783 691064 410762
2183.04 511912 744939 734747 512507 654310 635502
2185.94 423639 442480 786820 715524 702224 611614
2188.83 620038 572913 561870 630298 632793 773584
2191.72 744299 561812 527523 588879 732328 692349
2194.61 560011 593256 637994 359373 459399 731756
2197.51 657795 681316 607390 640982 449024 695353
2200.40 623111 571910 589079 646771 619763 522269
2203.29 594115 548463 682563 527789 652336 534643
2206.19 528843 621028 607153 620162 617302 763961
2209.08 728179 541779 629044 585235 661259 735771
2211.97 674893 700422 710363 779645 775601 777660
2214.86 815138 696628 774867 704952 777705 712860
2217.76 721122 755186 885708 838628 849187 769857
2220.65 906388 606474 604151 708940 885812 744550
2223.54 784545 679196 790853 640742 829112 769823
2226.43 725683 620181 678651 727157 793077 631121
2229.33 703458 724580 778706 579403 666945 695499
2232.22 690816 568816 681426 687866 571982 646240
2235.11 615457 599328 541311 733452 563968 686382
2238.01 479055 704953 481888 601997 609254 682888
2240.90 554524 582316 512996 535945 573702 627400
2243.79 541185 469987 511013 469643 701301 500847
2246.68 465337 492592 444785 560835 428509 629382
2249.58 602236 471950 419404 691130 533637 564220
2252.47 650367 399442 521885 579200 509840 539035
2255.36 687074 614200 537878 474528 614402 613486
2258.25 650636 428432 587631 592069 577774 554635
2261.15 632219 488868 661361 564353 397907 625343
2264.04 543560 551561 589240 427598 665059 497543
2266.93 621824 524454 625551 701276 587378 340360
2269.83 567922 594587 589629 501127 646736 580554
2272.72 471759 441325 521995 506485 346640 576548
2275.61 577302 579852 586293 499118 717179 368499
2278.50 554087 594639 496974 733201 431602 559923
2281.40 525064 553713 500118 590946 495470 526260
2284.29 656188 601134 428539 459833 581990 531034
2287.18 471864 593572 556169 498057 580270 526137
2290.07 508151 542905 517109 446479 674756 614459
2292.97 624768 562044 589401 671919 571022 564602
2295.86 676012 554371 395562 599280 482631 524682
2298.75 570699 695025 426354 490909 555470 555809
2301.65 629065 374995 544926 581197 518001 513312
2304.54 537306 759985 708646 677298 508331 615611
2307.43 597126 709734 635432 525477 686739 636750
2310.32 557171 602583 618000 668295 801345 651888
2313.22 605914 499949 528049 617143 453063 593279
2316.11 681342 649120 616078 623174 591542 539525
2319.00 525705 458721 547170 504830 442693 563787
2321.89 665014 508095 594156 602811 684256 459045
2324.79 472519 551197 765261 400443 453466 583702
2327.68 528144 499127 421649 674554 468689 397679
2330.57 651098 710012 491508 358194 532944 712129
2333.47 486038 364682 610149 554646 367155 467856
2336.36 628511 430183 209876 603990 561529 351712
2339.25 309555 578921 486711 521997 578549 537234
2342.14 490251 521439 691409 609875 487698 725422
2345.04 470393 516477 371498 437862 579461 570645
2347.93 628918 675298 561498 427258 600398 581962
2350.82 525203 509026 659319 552207 372893 766808
2353.71 389095 446187 691632 351926 512347 714533
2356.61 397786 415532 625637 251895 509380 574738
2359.50 320422 468008 677846 356838 487822 563349
2362.39 204055 622880 300270 396912 643073 288084
2365.29 451239 460807 248807 709758 550769 499169
2368.18 453686 418332 460755 655286 501613 496245
2371.07 457819 717765 524452 511050 356424 452849
2373.96 755584 640803 672511 599540 468591 585981
2376.86 484275 485422 702836 499364 640522 633369
2379.75 639791 626385 523710 580322 710051 696597
2382.64 549219 535722 622265 650794 666784 603997
2385.53 599990 534626 600176 496578 686556 541344
2388.43 511774 513821 591916 884176 656009 809711
2391.32 490009 700366 491446 455393 392712 694536
2394.21 641970 533779 761448 698320 624302 566095
2397.11 590129 767991 596278 653711 614857 578059
2400.00 610139 803207 638727 831408 691100 771264
2402.89 515194 641621 462509 685157 645877 637852
2405.78 532107 593990 830994 725745 743039 540025
2408.68 547433 636268 625388 609217 724356 619617
2411.57 671983 673130 666434 691767 770146 596931
2414.46 715854 710566 705265 653368 796636 640899
2417.35 710247 798904 662976 719400 823590 681545
2420.25 706547 706505 778141 748211 797110 829481
2423.14 818787 796057 867079 914726 887462 661437
2426.03 866045 803870 927582 843345 907385 1004819
2428.93 966341 859658 947512 1005556 760099 976832
2431.82 883445 863840 808059 816718 870256 1046786
2434.71 844491 954088 753827 869325 847704 664512
2437.60 848627 1055907 782180 917458 827894 742059
2440.50 714503 746672 707004 699295 633117 694241
2443.39 567175 659638 702921 556621 678483 747307
2446.28 672136 605713 693301 686502 656949 695409
2449.17 774531 813753 724801 596501 755666 814185
2452.07 720208 533902 539546 722305 703367 519860
2454.96 722902 720971 673402 709807 764819 761806
2457.85 685667 698668 632906 818082 693682 732708
2460.75 709003 809856 769421 746590 750039 813743
2463.64 931265 728430 767957 755302 813287 892245
2466.53 905407 838313 714474 980524 1039844 1036859
2469.42 1110402 979040 1039064 868585 984092 1075557
2472.32 1041951 937321 1108806 1028101 1084920 1038095
2475.21 1026936 1082797 1029203 1206760 1111645 1056893
2478.10 999912 1281921 943049 1127107 1160782 1122852
2480.99 1175321 1179074 1065769 882376 992557 1038014
2483.89 1223876 1122736 875833 1172648 1095735 963498
2486.78 1081571 1117534 1000983 1056449 1099330 1040280
2489.67 1023155 978666 835221 953523 917823 1045691
2492.57 1020814 907293 880842 907307 916768 841210
2495.46 969598 1045342 923753 968871 1031065 815314
2498.35 947650 1002208 1034536 966301 948728 861002
2501.24 760186 1074816 956461 914067 804725 918494
2504.14 1002354 923329 899208 905842 1018399 834253
2507.03 885377 1000977 797982 940296 754857 820747
2509.92 810826 942114 958319 841565 926625 1148323
2512.81 761686 979156 1055218 1062894 939440 1069920
2515.71 856673 774624 1001174 1071962 845178 1015464
2518.60 874919 1035185 903734 940057 989907 1011042
2521.49 988520 921345 927060 949336 1084992 1035336
2524.39 875539 1056432 806430 917958 1057234 1035975
2527.28 963880 741523 876849 1024226 813607 948407
2530.17 882182 829658 845288 799668 891053 791343
2533.06 793242 855186 801941 923712 768781 816797
2535.96 927368 664954 599412 652077 702419 595607
2538.85 540285 595901 787756 692592 933562 650042
2541.74 705925 541046 654333 640248 566037 655302
2544.63 858297 738584 707404 518843 674562 605571
2547.53 611920 553327 608769 636412 694146 756646
2550.42 679898 635653 767517 640514 702211 541581
2553.31 744496 771513 658476 710193 383620 542823
2556.21 760527 656982 773934 630345 841392 673840
2559.10 787231 492070 806723 489443 711168 637404
2561.99 614058 862218 673269 557777 585028 795566
2564.88 617152 736320 636081 687318 610012 698498
2567.78 501735 668726 550541 861363 728188 718418
2570.67 745036 668756 569962 669376 663880 782358
2573.56 705287 779289 758469 517351 585892 725701
2576.45 668081 630253 798142 673661 630639 697879
2579.35 681070 655865 637514 719583 637123 648580
2582.24 610347 693051 689452 753178 771461 605706
2585.13 526413 850758 588540 884456 641286 731591
2588.03 451088 675141 686513 597755 842410 621798
2590.92 711362 611429 720462 690684 575002 749062
2593.81 728130 762336 712828 800768 753453 761700
2596.70 718805 660100 608919 634548 541069 880653
2599.60 700574 587369 626875 635146 673176 657411
2602.49 632049 767648 814769 591884 606107 759866
2605.38 876564 471500 759706 770918 687407 625396
2608.27 502879 652210 707754 745970 635295 629185
2611.17 845578 875897 612579 942996 559127 875459
2614.06 598219 742035 727424 789756 811760 733973
2616.95 824167 629944 830001 544928 822956 793535
2619.85 593700 693950 641800 711611 561037 654530
2622.74 700581 591014 931216 811194 823766 823067
2625.63 724028 658132 695135 756734 716014 853138
2628.52 827994 622660 714991 818121 619136 765285
2631.42 700241 676578 695607 780540 620629 644852
2634.31 684231 482718 889996 619509 771736 886615
2637.20 763841 735596 631707 762401 736134 788962
2640.09 709073 701184 733865 555151 734157 817161
2642.99 511302 859567 644774 842912 718163 768579
2645.88 749858 718666 643959 821422 719074 778816
2648.77 593184 687665 706463 986130 786233 786775
2651.67 696540 761763 936587 630484 725695 710065
2654.56 675597 798706 736240 662111 663170 642639
2657.45 556242 821483 567933 820201 786738 775588
2660.34 727187 537588 731816 609618 587182 735817
2663.24 814228 646602 675204 727728 712949 845887
2666.13 835525 651084 708605 661662 591647 667550
2669.02 717072 548392 673493 752039 711262 852657
2671.91 743319 706349 834940 737818 643954 686389
2674.81 788953 878014 746539 740082 835886 748924
2677.70 642335 726763 786076 763066 807145 809355
2680.59 652453 466184 838907 891094 618616 727054
2683.49 723128 695673 655964 832952 701484 593902
2686.38 710913 623210 720494 773117 643210 848192
2689.27 725007 576942 671990 782816 844176 608050
2692.16 800931 688350 877849 702627 598884 741893
2695.06 643907 543371 681219 654517 744971 700679
2697.95 889862 941125 573259 578772 661314 608446
2700.84 574308 726061 610510 591702 818231 675553
2703.73 801274 816452 990453 870696 738677 831572
2706.63 770514 840541 933097 848931 850833 761462
2709.52 783492 851266 848786 793225 668784 700494
2712.41 664754 775416 745794 725323 662483 570802
2715.31 630537 616042 769189 748234 806115 819706
2718.20 939144 775870 681980 812906 978747 644754
2721.09 805677 929010 661450 833199 760373 901945
2723.98 955378 565104 798348 864586 717484 780760
2726.88 774672 718759 741824 834269 582654 630534
2729.77 811584 833505 646783 840447 668618 555660
2732.66 715824 602200 589814 820681 759554 699360
2735.55 764194 658492 571684 592950 635284 633080
2738.45 730343 919213 723408 832885 760202 775219
2741.34 1026621 801496 559442 745588 667473 665756
2744.23 714736 600529 731460 673075 962230 658284
2747.12 1054279 873836 630992 606831 870594 830546
2750.02 934345 815292 804004 739993 781804 681685
2752.91 933642 840246 644152 713199 708396 689611
2755.80 601213 804695 506906 712952 834928 714940
2758.70 703922 629398 706394 813197 885388 694691
2761.59 916913 830356 743387 550117 709516 942912
2764.48 515379 738681 795992 709086 730030 828338
2767.37 756615 775132 760302 927932 683777 753422
2770.27 992712 886096 675171 795884 994990 821439
2773.16 723055 946561 645609 750661 779299 854565
2776.05 785633 668731 726075 720643 793655 958328
2778.94 663345 781423 1045882 761761 810404 769090
2781.84 647059 1032362 737081 874101 780500 940239
2784.73 721255 807867 652772 733475 815375 803618
2787.62 842662 844978 928014 838093 884383 764247
2790.52 883673 826575 819134 812175 663500 679559
2793.41 1050764 1089856 808348 945848 676577 984308
2796.30 1014820 952776 892998 850393 913448 957279
2799.19 900549 1164764 984917 1252026 1245100 1227656
2802.09 1090236 1048373 1405409 857297 1113049 1247824
2804.98 1200688 1379117 1304102 1029777 1233536 1250688
2807.87 1432212 1256423 1313870 1370733 1253604 1330440
2810.76 1292500 1469956 1372873 1331598 1418380 1278987
2813.66 1333186 1558809 1335441 1593245 1188242 1672209
2816.55 1434538 1552731 1534253 1445774 1621574 1641774
2819.44 1705947 1553752 1407602 1469182 1551648 1584139
2822.34 1607011 1670496 1861987 1883309 1758281 1585125
2825.23 1994676 1745484 1696830 1909937 1956950 2006173
2828.12 1894498 1909977 1643219 1732673 1601759 1619413
2831.01 1400159 1785533 1577798 1708781 1613404 1862543
2833.91 1842588 1402420 1638935 1292617 1585941 1724148
2836.80 1754995 1929890 1697262 1494207 1566882 1598938
2839.69 1366885 1441935 1381144 1528884 1199347 1271336
2842.58 1184995 1106189 1030970 754234 1121100 1222098
2845.48 949966 953244 1115738 1160480 1047293 914002
2848.37 987852 892658 1054365 973569 930014 1120523
2851.26 910537 747404 1026663 925708 912241 791943
2854.16 664568 948258 946192 1045080 979147 1114915
2857.05 932585 863202 744526 978318 965335 1036711
2859.94 797623 1018296 935327 907809 843546 809472
2862.83 891970 1049887 828648 930301 774259 725096
2865.73 946410 846651 943253 838612 892873 924064
2868.62 784588 929133 577252 1016595 797703 886594
2871.51 799775 1102012 1008963 1061886 936814 838893
2874.40 1086293 1197682 1263295 1137328 971921 1036268
2877.30 936934 973262 1247347 942299 942195 865040
2880.19 1029287 1139860 1025446 1057694 1043143 965808
2883.08 886589 912756 926666 717554 1146704 1127334
2885.98 1109721 1052213 1268713 1220706 1096386 1144751
2888.87 754223 1171169 1059354 918905 1059965 1151883
2891.76 1028616 1237253 941158 1079330 934465 1305688
2894.65 913083 1106796 898511 1006074 1026317 794681
2897.55 1178396 1002141 1025054 1274672 1291238 1218884
2900.44 1219732 1133958 1236035 1258856 982317 1063357
2903.33 1100634 1121630 1431565 1276221 1202228 1269032
2906.22 1245557 1163615 1077265 1138849 1135439 1403147
2909.12 1004712 1261559 1152711 1173133 1254458 1039241
2912.01 1116776 1284286 1206934 1058064 1100755 1296123
2914.90 1286230 1298723 1142278 1359015 979190 1015554
2917.80 1003671 1486468 934314 1351253 1326693 1018204
2920.69 1178395 1327521 1363624 1268036 1068686 1017579
2923.58 1217200 1297838 1361530 1406582 1211461 1407299
2926.47 1039080 1273221 1332220 1358681 1202755 1260063
2929.37 1350194 1407740 1156730 1389255 1230747 1084470
2932.26 1206794 1388595 1455022 1277475 1363544 1463562
2935.15 1407495 1563050 1426959 1224670 1553684 1718629
2938.04 1348694 1339153 1350979 1305636 1372117 1263159
2940.94 1472226 1592802 1467362 1651721 1521566 1644311
2943.83 1439459 1729405 1135272 1429848 1495028 1564666
2946.72 1138281 1865436 1636108 1457448 1337237 1382396
2949.62 1418362 1371209 1532273 1707032 1751723 1400184
2952.51 1327205 1653457 1447764 1455827 1671750 1347624
2955.40 1427339 1512329 1590587 1688580 1807775 1548248
2958.29 1418846 1546746 1398716 1500255 1483191 1420444
2961.19 732730 1031675 2202805 1765722 1629760 1844226
2964.08 1661778 1638398 1759565 1871979 1618875 1681269
2966.97 1588116 1598478 1682935 1528439 1943240 1716746
2969.86 1716370 1763886 1757528 1946789 1816471 1730071
2972.76 1756339 1789819 1846639 2050108 2023688 2102017
2975.65 1895504 1802321 1717713 1729877 1911425 1906237
2978.54 2020079 1974680 1836008 1850161 1870467 1835362
2981.44 2102127 1902150 1976054 2014396 2213583 2028043
2984.33 1891138 1938579 2192466 1921281 1871456 1878420
2987.22 2106800 2110438 1919083 1915417 1851161 1861015
2990.11 1980594 1751791 1820466 1916417 2008279 1826995
2993.01 1958220 1788085 1994736 1862110 2135683 2102176
2995.90 1546485 1839120 1634610 1772176 1807684 1509076
2998.79 1695145 1354054 1659744 1531763 1555272 1721272
3001.68 1413844 1592829 1679947 1392090 1408898 1416792
3004.58 1580263 1742494 1409406 1281128 1324381 1567142
3007.47 1222668 1472276 1492519 1498001 1467907 1487567
3010.36 1413880 1426821 1186473 1399209 1472177 1331713
3013.26 1447748 1348304 1054348 1286275 1186364 1301383
3016.15 1190612 1440909 1361960 1306396 1266124 1273329
3019.04 1402623 1421515 1221346 1267548 1355931 1067728
3021.93 1416520 1259375 1252764 1195246 1183341 1244202
3024.83 1203802 1363867 1509700 1001213 1251606 1193184
3027.72 1198350 1169750 1160508 1114083 1048516 1225810
3030.61 1015639 1193653 1246105 1258866 1384815 1218354
3033.50 1097585 1009564 1072953 1243633 1480924 1159886
3036.40 1365048 1184704 1267296 1177814 924529 1248782
3039.29 1157440 1351913 1171612 958121 1410677 1102984
3042.18 1290709 1162674 1229039 1307400 1129565 1316031
3045.08 1124512 1425675 1379537 1415160 1528938 1489777
3047.97 1262818 1177073 1395227 1296046 1679136 1186055
3050.86 1308931 1384623 1342070 1401896 1267975 1083317
3053.75 1502049 1339333 1330280 1198168 1502557 1038130
3056.65 1392243 1333038 1474824 1617552 1615522 1403565
3059.54 1306179 1121511 1456402 1259172 1438309 1346450
3062.43 1585297 1526628 1430574 1597467 1620334 1581568
3065.32 1519280 1836956 1499204 1588028 1951954 1602805
3068.22 1865707 2007302 1928799 2164426 2187543 2456890
3071.11 2333341 2559590 2774608 2810113 2785317 3069428
3074.00 3214337 3087455 3219316 3275405 3598871 3685388
3076.90 4084558 4325773 4669958 5080277 5185233 5259908
3079.79 6301514 6788830 7307490 7764453 8686924 9819241
3082.68 10817026 12128952 13510406 15220814 16984481 18805085
3085.57 20908144 23168306 25790880 27670668 30144247 32281555
3088.47 34032049 35710929 37057618 38177217 38014895 37466940
3091.36 37263158 36091034 33577882 30947833 29669485 30374118
3094.25 33629354 41415046 50855628 47573186 27882059 23683835
3097.14 27074609 31285825 35370398 38756479 41506271 42962560
3100.04 43476739 43490693 41358746 39765956 37451850 33654664
3102.93 30415234 26798843 23578522 20343495 17779387 15283954
3105.82 13250379 11839741 10248876 9047262 8220447 7329239
3108.72 6779913 6001171 5479147 5312680 4661790 4482151
3111.61 4150636 3809714 3659996 3529967 3160378 2944151
3114.50 3077974 2970306 2911291 2505811 2610356 2286118
3117.39 2352158 2547102 2551282 2381131 1963714 2055779
3120.29 1976431 2114353 2506867 2327319 1814746 2000236
3123.18 2187573 2186950 2282655 1856811 1988051 2221646
3126.07 1985694 2107456 2311075 2243537 2272565 1789378
3128.96 2232820 2299647 2373504 2268778 2215529 2678348
3131.86 2420373 2193604 2560494 2368620 2639151 2268089
3134.75 2413337 2376157 2247830 2309146 2340842 2181174
3137.64 2539722 2258804 2504163 2216090 2256372 2520260
3140.54 2580795 2504235 2332271 2424387 2482797 2493150
3143.43 2670774 2803476 2674703 2707904 2641790 2773691
3146.32 2718503 2994092 2814256 2801069 2902959 2589382
3149.21 2605774 2419239 2708702 2571562 2849981 3012726
3152.11 2731388 2734257 3121248 3214594 3340507 3551879
3155.00 3443613 3582154 3797834 4054130 3931952 4076220
3157.89 4533791 4276178 4352894 4407364 5075908 4713295
3160.78 4978240 4967093 5509278 5643674 5628470 5766912
3163.68 5935634 5791309 5880567 6194388 6339857 5961185
3166.57 6148025 6208764 6396078 6307142 6319984 6248891
3169.46 5884871 6211421 6356247 5815943 6052247 5858015
3172.36 5729134 6095666 5975629 6145363 5971386 5381030
3175.25 5217604 5418475 5287347 5413212 5198426 5114125
3178.14 5011992 4600630 4268670 3885273 3964486 3359965
3181.03 3142934 2625758 2481063 2180678 2125397 1756101
3183.93 1775625 1492896 1491426 1784363 1646004 1403112
3186.82 1468447 1330402 1575318 1881099 1397646 1317604
3189.71 1659092 1397176 1307951 1357770 1371147 1343856
3192.60 1345960 1195330 1504080 1308043 1435685 1723726
3195.50 859420 1412865 1338592 1212213 1262097 1111994
3198.39 1209348 1205778 1453590 1507279 1484149 1399948
3201.28 1312923 1423211 1301850 1488012 1594327 1466847
3204.18 1625369 1567055 1279226 1413247 1474869 1389335
3207.07 1130116 1444087 1176741 1398323 1314101 1440822
3209.96 1513792 1426306 1609619 1294492 1589091 1102043
3212.85 1144916 1453984 1256785 1364304 1586341 1317840
3215.75 1708222 1411088 1792456 1473233 1459506 1362489
3218.64 1257319 1162978 1287537 1606017 1572686 1516172
3221.53 1655787 1344638 1297046 1650863 1674040 1493703
3224.42 1372308 1180293 1574534 1660861 1619091 1539929
3227.32 1296844 1182893 1565953 1506796 1404387 1570423
3230.21 1583206 1678210 1478613 1442460 1559284 1643912
3233.10 1241986 1662980 1317401 1703057 1336310 1506133
3236.00 1320523 1625252 1472599 1318538 1534475 1286539
3238.89 1644753 1729349 1576048 1576224 1616308 1562356
3241.78 1528055 1389695 1569373 1605900 1410786 1467459
3244.67 1729347 1824795 1695885 1423083 1204071 1063641
3247.57 1459483 1498805 1506606 1765413 1167558 1344608
3250.46 1549617 1310261 1532890 1733081 1396296 1612650
3253.35 1460500 1920423 1634039 1501242 1390657 1786774
3256.24 1611880 1387374 1806101 1800875 1883512 1327735
3259.14 1434060 1449481 1672369 1281026 1735413 1985816
3262.03 1756359 1253122 1680928 1585345 1476635 1869741
3264.92 1573480 1582858 1360082 1417904 1676668 1435831
3267.82 1575269 1632339 1294757 1542874 1576988 1593924
3270.71 1502952 1582970 1333494 1559660 1782086 1462631
3273.60 1753767 1766009 1431953 1526675 1462672 1417274
3276.49 1782663 1565950 1505149 1336471 1536205 1318351
3279.39 1404202 1600122 1400800 1248090 1285793 1469556
3282.28 1184823 1517804 1554878 1286900 1331298 1389227
3285.17 1472915 1243993 1433046 1440010 1469027 1546044
3288.06 1380680 1606918 1828190 1454508 1304270 1438478
3290.96 1232182 1241073 1178917 1387762 1423572 1487247
3293.85 1219816 1302053 1436312 1516922 1306517 1554822
3296.74 1398020 1440159 1540438 1395161 1304861 1606577
3299.64 1460765 1029205 1495084 1270703 1443118 1644634
3302.53 1282978 1531938 1426875 1424893 936953 1252150
3305.42 1197466 1538991 1329659 1545103 1421092 1259838
3308.31 1412627 1653644 1503623 1327663 1139064 1411668
3311.21 1140665 1824732 1316869 1334007 1244983 1403083
3314.10 1405807 1291530 1097754 1175555 1186947 1407725
3316.99 1514134 1332327 1465617 1652412 1318000 1483241
3319.88 1514642 1362058 1182022 1463121 1109613 1378075
3322.78 1340898 1452634 1377993 1413853 1421192 1292810
3325.67 1429435 1177088 1120005 1674246 1212110 1055766
3328.56 1466755 1550739 1454005 1184151 1374197 1250264
3331.46 1151804 1257384 1141975 1715305 1744386 1392486
3334.35 953495 1318918 1124547 1195627 1472406 1699239
3337.24 1284884 1302078 1204130 1234058 1458057 1245541
3340.13 1122898 1329771 1279387 1375752 1446049 1220767
3343.03 1463027 1251137 1372976 1364129 1528959 1062183
3345.92 1324798 1274151 1132910 1488864 1299748 1301257
3348.81 1552363 1368515 886370 1255131 1331720 1255088
3351.70 906184 1312966 1433313 1530717 1324901 1179122
3354.60 1207046 1068752 1435915 1117811 1667056 1357793
3357.49 1677140 1446477 1365508 1390741 1586747 1410579
3360.38 1538205 1531954 1196883 1373841 1191305 1493397
3363.28 1265717 919444 1531655 1268815 997473 1209825
3366.17 1573024 1860861 1438982 1263596 1448867 1193013
3369.06 1473032 1127981 1222444 1171387 1396018 1364634
3371.95 1151516 1272291 1198439 1293092 1592871 1357557
3374.85 1109584 1448673 1523512 1075152 1505038 1457428
3377.74 934759 1201131 1083929 1375178 1171956 1365282
3380.63 1300458 1476290 1188576 1149437 1031632 1383787
3383.52 1436005 1180030 1283866 1284617 1425816 1544106
3386.42 1432734 1356648 1478377 1566611 1195616 1167818
3389.31 1321512 1544451 1376949 1506721 1447595 1124513
3392.20 1187940 1310900 1176547 1043499 1041846 1409175
3395.10 1674012 1424140 1186809 1310531 1868866 1388900
3397.99 900517 1266474 999688 1621501 1180374 1427170
3400.88 1270098 1338454 1224807 1231272 1351716 1184732
3403.77 1209636 1277871 958770 1271567 1523760 1144391
3406.67 1375755 1215221 1419178 1451955 1421902 1247806
3409.56 1405808 1179465 1094354 1290698 854519 1049423
3412.45 1261223 1548679 1106252 1304134 1535699 1339413
3415.34 967847 1367981 1345766 1100823 1278653 1322583
3418.24 1146611 1385403 1270750 1262508 1195228 1415740
3421.13 1165472 1342066 1201656 1528758 1425875 1178828
3424.02 1444079 1194377 1357171 1348585 1150649 1336106
3426.92 1669672 1522327 1143917 931947 1286402 1405163
3429.81 1241070 1486696 1209246 1094396 1167126 1381364
3432.70 1357800 1382283 859292 1119235 1296571 1245728
3435.59 1432580 1112674 1107672 1244965 1288394 1441775
3438.49 1554808 1452887 1068847 1475205 1288067 1383860
3441.38 1179418 1301433 1123696 1315676 1185057 934826
3444.27 1240466 1522258 1669560 1540283 1423676 1303251
3447.16 1183398 1316982 1289581 1531330 1376754 1275853
3450.06 1462029 1212543 1237709 1808233 1188531 1592164
3452.95 1091872 1662692 1523007 1255696 1393268 1668967
3455.84 1367995 1198145 1505415 1137604 1417172 1511606
3458.74 1433051 1371564 1036736 1299734 1386807 1521705
3461.63 1586028 1318335 1490250 1388502 1199159 1463141
3464.52 1263529 1534309 1184363 1349631 1638955 1087201
3467.41 1236664 1682588 1511637 1457400 1335039 1397538
3470.31 1489135 1576902 1345098 1470636 1370950 1162472
3473.20 1394498 1278198 1500161 1571466 1392379 1281187
3476.09 1397630 1103443 1879176 1199115 1239170 1190675
3478.98 1433364 1592563 1423025 1297686 1374805 1461624
3481.88 1443496 1485681 1343290 1571985 1487100 1360925
3484.77 1427220 1606759 1517459 1658169 1563858 1474116
3487.66 1523988 1163126 1463386 1546357 1260929 1274306
3490.56 1322683 1428736 911555 1353112 1518846 1513933
3493.45 1516273 1702828 1126774 1569596 1955376 1351940
3496.34 1361428 1557367 1349239 1513466 1587114 1207459
3499.23 1635266 1280588 1656034 1231347 1465768 1325956
3502.13 1020796 1383932 1482594 1613303 1198951 1552480
3505.02 1572716 1479295 1533793 1207631 1467242 1245466
3507.91 1370667 1530401 1462396 1454992 1689078 1599879
3510.80 1456728 1459321 1075774 1585910 1202171 1310249
3513.70 1205352 1472665 1423297 1424947 1414410 1445664
3516.59 1441580 1400184 1260573 1494955 1345010 1497027
3519.48 1678662 1024038 1709535 1407498 1225017 1479328
3522.38 1464684 1080184 1428500 1109252 1686471 1577199
3525.27 1563929 1346644 1299163 1471150 1324360 1328222
3528.16 1514274 1108674 1538859 1337724 1253485 1324682
3531.05 1493046 1638855 1338133 1364649 1386786 1619543
3533.95 1666407 1340349 1348369 1496164 1461703 1257182
3536.84 1297260 1368897 1787281 1482501 1441873 1244802
3539.73 1410291 1101969 1323920 1352686 1977910 1304293
3542.62 1227590 1474218 1314107 1662517 1456407 1347556
3545.52 1571968 1592240 1356851 1725777 1589189 1505522
3548.41 1640190 1532742 1399307 1423179 1499173 1159981
3551.30 1374147 1221225 1626972 1764675 1433883 1267188
3554.20 1361445 1372186 1357555 1799824 1373274 1355114
3557.09 1355474 1606390 1501798 1501231 1642941 1418495
3559.98 1252500 1370851 1329894 1701663 1600522 1549825
3562.87 1595913 1321393 1596575 947582 1406281 1562266
3565.77 1166875 1108672 1388447 1364715 1205495 1916668
3568.66 1502355 1452430 1471075 1428037 1195446 1751741
3571.55 1637247 1496006 1870246 1377996 1565428 1091593
3574.44 1484080 1555420 1516455 1467521 1735678 1570738
3577.34 1201583 1410521 1523005 1474420 1378196 1580150
3580.23 1355947 1611354 1295835 1595124 1668192 1534510
3583.12 1505047 1780427 1687042 1269345 1551743 1792754
3586.02 1327620 1746478 1395682 1616576 1581668 1083138
3588.91 1348483 1587379 1552725 1566326 1577212 1522458
3591.80 1354240 1510934 1587894 1610138 1381002 1512501
3594.69 1335163 1407644 1741211 1533507 1519609 1089385
3597.59 1447382 1519848 1736619 1653958 1421344 1487752
3600.48 1457254 1697941 1502837 1328584 1501235 1459461
3603.37 1316870 1671070 1732722 1712082 1679007 1307507
3606.26 1624341 1459658 1608488 1702737 1631089 910802
3609.16 1203222 1787936 1516192 1678897 1748063 1645240
3612.05 1356986 1379455 1593932 1532748 1252638 1600332
3614.94 1349200 1756265 1416632 1670590 1807332 1508232
3617.84 1772961 1661191 1305381 1254676 1729226 1471980
3620.73 1550210 1626394 1651531 1725753 1928778 1663240
3623.62 1463989 1765163 1654621 1471757 1712495 1803343
3626.51 1718560 1900801 1401205 990868 1747009 892325
3629.41 1246984 1925934 1384911 1613626 1524358 1617700
3632.30 1698927 1558690 1107778 1585130 1579066 1540850
3635.19 1894758 1740729 1785997 1783282 1658122 1575930
3638.08 1520890 1833543 1573985 1742747 1499930 1965329
3640.98 1451371 1554806 1681683 1663770 1645526 1555238
3643.87 1692041 1616684 1425590 1998029 1659224 1429500
3646.76 1412749 1638522 1545722 1509782 1000413 1424788
3649.66 1832829 1364242 1447024 1613907 2020154 1798702
3652.55 1826979 1687441 1633801 1502063 1854610 1747514
3655.44 1328116 1184463 1658132 1575389 1606976 1617541
3658.33 1775606 1732589 1815025 1751176 1829700 1567440
3661.23 1716696 1783482 1687893 1487248 1456168 1847501
3664.12 1921868 1624209 1679708 1786658 1466169 1513309
3667.01 1749103 1827385 1454445 1129068 1808549 1839576
3669.90 1489708 770059 1520426 1548888 2038057 1631808
3672.80 1855866 1439850 1787671 1299298 1511734 938150
3675.69 871745 1607153 1346210 1658883 1756855 1670935
3678.58 1562664 1588177 1572925 1569679 1677264 1693405
3681.48 1680588 1606930 1587611 1459958 1907317 1725476
3684.37 1800684 1641428 1799619 1451839 1796997 1481770
3687.26 1816230 635420 966120 1888851 1728244 1597482
3690.15 1655978 1465974 1172596 1656408 1550480 1835227
3693.05 1487894 1518577 1596767 1679140 1990943 1863905
3695.94 1775044 1748543 1808533 1798063 1745042 2071663
3698.83 1768345 1809449 1988226 1981215 1661424 1157715
3701.72 1894054 1856364 1976655 1800469 1916824 1701046
3704.62 1737563 1792189 1581590 1848042 1957888 1646324
3707.51 1833505 1859976 1514349 1466454 1683283 1900200
3710.40 1759159 1693851 1597061 1268100 1708713 1635166
3713.30 2025103 1787279 2079284 2126255 1972859 2186934
3716.19 2121481 1947047 1794923 2100712 2161147 1789220
3719.08 1877731 1917345 2064420 1944756 2397321 1979488
3721.97 1998208 2213282 1993322 2139257 2176661 2263854
3724.87 2219271 2232048 1711116 1905323 2131475 1979113
3727.76 2088888 2014030 2071288 1992097 2348008 2005238
3730.65 1884843 2049075 1553396 1795018 2199909 2024255
3733.54 1986645 1795511 2007054 1682934 2009596 1641028
3736.44 1351154 1911704 2024867 1647058 1800962 1813158
3739.33 1849865 1698286 1611245 1610752 1670858 1946260
3742.22 1923942 1688489 1601787 852495 55358 1320729
3745.12 1759734 1809702 1781659 1798272 1644300 1654047
3748.01 1584680 1180097 442366 1509535 2103286 1451626
3750.90 1692601 1028955 426966 1834781 1446520 1815624
3753.79 1754412 1932895 1835794 1956141 1506762 1612445
3756.69 2000151 1752715 1724755 1648234 1549562 1891187
3759.58 1359827 1809214 1578485 1811295 1700370 1646122
3762.47 1883491 1697659 1754025 1969090 1668050 1634010
3765.36 1416157 1621797 1762489 1639259 1797337 1866311
3768.26 1820323 1844395 1314547 1473094 1781608 1492019
3771.15 1538629 2061122 1704237 1518155 1969279 1767059
3774.04 1931884 1864104 1600705 1862874 1949198 1477941
3776.94 1722254 1595594 1677090 1464328 1491582 1493547
3779.83 1933116 1650082 1766395 1677844 1812619 1890833
3782.72 1634573 1812849 1802113 1578972 1852170 1588568
3785.61 1944696 1878008 1608356 1564163 1922894 1576028
3788.51 1745093 1817700 1745925 2007207 1911913 1720842
3791.40 1596662 1755825 1950364 1657548 1717948 1715777
3794.29 1941234 1678211 1671346 1698611 1377747 1889490
3797.18 1894876 1595981 1701155 1820457 1678763 1909578
3800.08 1801974 1214336 406389 1851014 1535891 1592468
3802.97 1828701 1428511 1708082 1606618 1896611 1530333
3805.86 1732393 1050254 1552722 2082836 1668139 2072226
3808.76 1778453 1792044 1977990 1675492 1806884 1934520
3811.65 1644647 1586540 1625896 1954803 1806208 1825787
3814.54 1507102 1903156 772056 1254719 1817441 1874289
3817.43 2025455 1407211 1658710 1921142 1755517 1701038
3820.33 1483788 1629565 1146524 1522178 1742386 1700636
3823.22 1683100 1708710 1767813 1849837 1776490 1591575
3826.11 1584022 1734970 1954577 1772325 1841558 1473914
3829.00 1962900 1704696 1996598 1865522 1571395 1636203
3831.90 1773271 1589081 1732886 1761083 2145932 1298616
3834.79 1530563 1495845 2169492 1692916 2181520 377436
3837.68 985320 1780925 1415102 1604396 1530949 1900350
3840.58 1483144 1672457 1812853 1955013 1684646 1806236
3843.47 1507374 1799092 1658245 1968799 1884232 1710634
3846.36 1628445 1816129 1964977 1579726 1855060 1798685
3849.25 1990750 1719748 1633485 1911885 1636909 905809
3852.15 2037754 1662978 1484044 419050 737488 1706416
3855.04 1521620 1618739 1868568 1756048 1597789 1986925
3857.93 1817574 1922629 1974244 2186392 2101949 2149962
3860.82 2053140 2078774 2058777 1979121 1740136 1673764
3863.72 1922987 1794367 1031103 1971658 1917918 2057818
3866.61 1870950 1821971 1699586 2094357 1398908 1679796
3869.50 1248608 1503220 1882920 1516674 1881621 1954644
3872.40 1862865 2009745 1699222 1555913 1434318 2099182
3875.29 1601177 1809500 1978985 1743915 1733523 1755879
3878.18 1589271 1656054 1654156 1467068 1505716 2047519
3881.07 1755219 1643542 1989673 1834134 1809321 1760045
3883.97 1365830 1831448 1479551 1399309 1852788 1545741
3886.86 1915291 1725109 1705671 2036592 1598622 1990190
3889.75 1838770 1611149 1328317 1486564 1690442 1934474
3892.64 1772033 1616103 1807840 1887583 1757954 1674970
3895.54 1657712 1954064 1626381 1600490 1911485 1537199
3898.43 1697817 1397276 1726526 1676803 1962010 1723738
3901.32 1410919 1499997 1669692 1704657 2072136 1455703
3904.22 1715192 1778973 1521660 1504132 1804798 1913397
3907.11 1725426 1762643 1541776 1595505 1844754 1944467
3910.00 1787766 1828187 1978534 1996547 1869503 1756953
3912.89 2022070 1682211 1535373 1834190 1928570 1604390
3915.79 1791769 1515882 1628379 1761735 1664471 1706423
3918.68 1752376 1808618 1626851 1671734 1531159 1755819
3921.57 1718418 1794962 1827617 1725169 1683373 1848585
3924.46 1532298 1721256 1812822 1782384 2003176 1990696
3927.36 2076913 2086808 1951632 1777266 2021658 1833098
3930.25 1787637 2090075 2206150 1954178 1821917 1645162
3933.14 1930980 2079718 2229330 2090472 2030568 1880821
3936.04 2127006 2076183 2232210 2096071 2236003 2478739
3938.93 1884974 1765764 2165960 2020894 2053868 2192240
3941.82 2103123 2166610 2344165 2264154 2204345 1967274
3944.71 2261671 2132998 2595039 1990323 2040286 2054100
3947.61 2070224 2059586 2125971 2203655 2339449 1998584
3950.50 2399991 1647593 2022901 1765789 1971599 1854407
3953.39 1975173 1977210 1911734 1744102 2091197 1935183
3956.28 1719798 1973527 1979674 1959004 1957764 1786529
3959.18 1819988 2032960 1685133 1881722 1625818 1899143
3962.07 1644619 1839043 1683197 2041842 1917141 1733378
3964.96 1785362 1601575 1745339 2058797 1831655 1597996
3967.86 1896946 1912181 1922173 1929816 2090559 1906093
3970.75 1904599 1945091 1700012 1711597 1754503 1658063
3973.64 2095174 1972437
##END=
