##TITLE=1,1,2-Trichloroethane
##JCAMP-DX=4.24
##DATA TYPE=INFRARED SPECTRUM
##CLASS=IUPAC A
##ORIGIN=NIST, Analytical Chemistry Division, 301-975-3108
##OWNER=COPYRIGHT (C) 2001 by the U.S. Secretary of Commerce
##DATE=01/06/01
##$SPECTRA VERSION=1.10
##$UNCERTAINTY IN Y=2.1 % relative (B=1.14E-04,C=1.89E-9,D=6.50E-14)
##CAS NAME=1,1,2-Trichloroethane
##CAS REGISTRY NO=79-00-5
##MOLFORM=Cl C H2 C H Cl2
##MP=-36.5 C
##BP=113.77 C
##$NIST SOURCE=QUANT-IR
##SPECTROMETER/DATA SYSTEM=IFS66V (Bruker)
##INSTRUMENT PARAMETERS=KBr Beam Splitter; MCT Detector; Multipass cell
##STATE=gas
##SAMPLE DESCRIPTION=1,1,2-Trichloroethane Primary Gas Standard
##PRESSURE=101.3 Pa
##TEMPERATURE=23 C
##SAMPLING PROCEDURE=1 L/min Flow
##RESOLUTION=0.9640
##DATA PROCESSING=Boxcar Apodization
##XUNITS=cm-1
##YUNITS=(micromol/mol)-1m-1 (base 10)
##XFACTOR=1.0
##YFACTOR=9.0949E-13
##DELTAX=0.4820
##FIRSTX=575.17
##LASTX=3974.606
##FIRSTY=1.89E-06
##MAXX=3974.12
##MINX=575.17
##MAXY=.0008677
##MINY=-5.65E-06
##NPOINTS=7052
##XYDATA=(X++(Y..Y))
575.17 2079891-4381331-1641812 282721-4385766-1835414
577.58-1968986-774705-302976-2589914 413285-548646
580.47-2494151-487918 2716380-2601653-2267649-1629216
583.37-730272 739635 313328-458519 1076237-3251603
586.26-3740017-1782484-629764-251679 390290 1215502
589.15 1780775 1425131-320441-883016-902809 984846
592.04-1318346-1028993-784729-791896-1336178 1318352
594.94-252542 484194-707185-3147196-1138821-1963203
597.83 197900-3751143-521244-1624835-422197-757836
600.72-1989736-1402068-1079960-559506 1832126-1159233
603.62 255941-212622-1190982-571212-410504-1129551
606.51-1380845-1104435-1034729 288409-1312057 6600
609.40 577015-791880-784916-368809-211196-2527564
612.29-1068334-1357162-1919348-1200857-1883224-1379929
615.19 109557-881323-1938471-28415-242946-461726
618.08-144180-738748-984733-482950-341317-1543726
620.97 380963-276774-21172-756396-585650 258961
623.86-1159452-645161 216044-1148575-141984-1064893
626.76-391470-260960 615270-258243 537980-669409
629.65 1176192 800684 650419-542738 1785992 763047
632.54 314457 1881780 2818033-525993 1493530 2194727
635.44 368638 1457430 2815757 1887097 3096409 2206635
638.33 1793453 2249760 2620988 2409951 3560344 3958391
641.22 4064269 5232052 3679205 3038637 4279345 4260578
644.11 6753650 6149235 6955211 6562619 7412953 8347120
647.01 8235320 9681402 8667269 10209998 11074806 10333350
649.90 11714081 9815110 11607755 11325964 12893402 13486213
652.79 15637825 16440737 18288464 18928083 22157633 24071169
655.68 25966047 26823111 30092760 32899224 35066217 38047364
658.58 41484333 44865992 48679405 52529671 56407964 62455020
661.47 65673150 70409661 76325785 79863326 87987543 94100177
664.36 100576990 107043645 115770500 121940309 130001253 134956916
667.26 138786199 149228026 158341332 165055899 170158790 174193346
670.15 177858202 177079408 177332409 174350045 176282029 174235435
673.04 171730554 167918773 166935745 166111246 165569570 162375935
675.93 162341447 164709763 170906393 179001831 192061528 202674971
678.83 212606327 216859345 217804699 214542599 207214590 197683569
681.72 185619543 173439126 161712806 148561500 136058212 123646339
684.61 112627148 104982014 97114613 88622676 82001526 75953616
687.50 71429498 64979458 62519356 56452916 52556011 48797304
690.40 45555843 40132173 38156542 34449141 31465722 27664660
693.29 26147590 22813332 21889903 18199420 18116551 16950559
696.18 15407531 13550010 13918724 12971060 12948332 12879383
699.08 13216685 12840376 13490843 12026549 13759226 14431742
701.97 15258921 15381479 15920256 16767020 17954040 18430681
704.86 19397100 19775096 21945224 20973491 22557840 23016496
707.75 24716793 24173073 25034988 26485248 27355831 27951473
710.65 29251985 29041873 30667519 29034750 31298172 31190795
713.54 31535755 32059467 34969586 34758857 37223098 37924251
716.43 41218712 42896766 46421404 48948967 51702255 51728331
719.32 54574223 57420104 61560916 66081165 72790943 76122096
722.22 82964542 89425622 98294226 106297148 117394113 127567885
725.11 139682341 153543407 171383192 186403439 207471478 227256313
728.00 251409790 276560318 306114920 335085578 367496772 400068935
730.90 435244704 471899107 511071359 550292085 590300269 628322098
733.79 667644158 703061224 741753273 772127652 805339578 831047172
736.68 858758978 876121506 895783651 905830014 919319177 920423872
739.57 928426396 931655317 934023703 933002105 941845788 936684245
742.47 940798610 924266543 951995723 947717306 935421234 924614665
745.36 889064008 896968120 954133802 884142512 780212784 806521073
748.25 781839078 773284677 728996673 694515192 637195262 582797867
751.14 514129548 453302083 388009105 330445230 271266592 224979420
754.04 179370185 148720698 116776458 96994123 77479715 66753729
756.93 55889030 51715468 44071649 42093343 37789207 37455349
759.82 34317745 33573258 32141179 31369977 29511467 30584313
762.72 28925679 28667868 27957556 29574546 28876354 29535774
765.61 28963943 30907581 30023166 32875671 31887534 35010850
768.50 34355329 36185964 36045281 38557791 38350351 39946695
771.39 40730929 41130929 41777219 44363992 44242103 45873578
774.29 47132197 50479321 52427830 56758362 59193542 64324785
777.18 66768835 71069584 73860419 77399266 79354056 82260684
780.07 83514954 86581878 88732666 91851412 92992889 97264185
782.96 99920750 103270537 106949187 111854998 115851839 119426241
785.86 121178945 125796424 126238217 126311637 121092043 116286579
788.75 110662145 106741470 100459313 94730191 87911656 84134844
791.64 80311158 80920624 82624550 89829037 97627187 107876846
794.54 116240120 120442513 121399364 119519076 115328768 110847177
797.43 104031110 97888144 90377916 83657000 75830476 69319394
800.32 62344417 56460053 51187767 45686861 41172723 37226731
803.21 34530505 31040112 27535284 25525344 23018143 22011292
806.11 19326992 17147642 14604521 13419605 12566458 10729430
809.00 8651469 8553982 6864543 5976722 5329966 4612666
811.89 3742115 3220376 2871671 2681101 1853076 2872573
814.78 1825786 2087183 1639396 2300768 1596633 1500805
817.68 1322838 1818081 1104882 2185112 703140 3127174
820.57 1232693 2563097 1583869 2085813 2869971 2109757
823.46 2322168 2571561 2223101 2454971 3045289 3072478
826.36 2402645 2790135 2171300 1753408 1373359 2115665
829.25 1643747 2666796 1538121 2029932 1768244 2352895
832.14 2354540 3052466 2938772 2084686 2351889 1271023
835.03 2418149 2787836 2705962 2922670 2573029 2267286
837.93 3353307 2466428 2007482 2514902 2607750 2126044
840.82 2126981 3049721 2202354 1933037 1840901 2805836
843.71 2670513 2923400 2357128 3220121 2435813 2621705
846.60 2288871 2493851 2888925 3758842 2692459 2280814
849.50 3199430 2926917 2430376 1720285 1897657 2506393
852.39 1999594 1973960 2360835 2139710 2365377 2443177
855.28 2567238 1826371 2163468 1591461 1395174 1518794
858.18 1970096 1885489 2081101 1765068 1217762 1277025
861.07 879593 1047157 1339005 1285454 918610 1465255
863.96 624838 778427 899984 701988 811573 1292762
866.85 629433 943706 707863 739480 1097845 1267264
869.75 536370 1617966 1422026 1149738 943417 1321813
872.64 780709 1005242 430716 1021042 1729763 1304506
875.53 1306892 1384542 1354280 1631166 1415859 1954724
878.42 1585955 1466773 1641257 1559873 1749130 1812124
881.32 1843968 1602156 1221934 1629338 2181152 2653129
884.21 2183349 2015222 2102262 3067300 2363632 2472185
887.10 2976260 2674853 3143491 2923211 3103250 3627278
890.00 3929911 3595768 3873228 4274735 4179240 4034228
892.89 4105297 4698477 4256618 4685276 4421172 4550876
895.78 4889658 4345005 4829932 5061849 4883231 5146534
898.67 4548145 5288473 5442674 5272676 5184889 6757474
901.57 5506546 7005194 6394311 7132004 7142112 7803528
904.46 7559077 7677914 7305396 8010211 7737506 8456104
907.35 8789924 9288907 9377232 10125383 10407850 11107701
910.24 11272377 12143382 12802487 14191671 14725998 15289367
913.14 16535649 17864097 18712981 19723939 21173593 23598218
916.03 24551435 25769413 27524611 29735860 31299356 33889616
918.92 35836059 38795719 41079587 43969984 46341020 49699518
921.82 52873770 56141029 60368412 64543498 68833993 72748812
924.71 77982673 82720592 88341288 94201389 100119328 106609891
927.60 112904732 119052462 125925250 133572856 140002371 147048001
930.49 153221113 158968619 163768316 166906182 167676487 165550273
933.39 161377254 154855559 147035000 138848042 132014373 125817630
936.28 121736267 122238214 124790581 132569205 141998929 155518061
939.17 170645307 182931966 189174990 189993924 187330705 181557082
942.06 174421107 165555879 156359021 147919803 137674609 129108649
944.96 119168870 110700807 102831191 95623865 89553165 85918982
947.85 82421503 79504848 74485377 69533084 64798779 60368927
950.74 55945197 52958865 49287517 45666992 42208864 39000444
953.64 35667160 32801158 29696303 28174166 24466895 22220983
956.53 20246960 18658623 16652670 15361089 14116871 12916843
959.42 11993689 11363051 11043604 10196504 8943300 9483545
962.31 8541884 8226016 7673229 7255570 6988980 6408548
965.21 5916408 6905886 5901625 5723720 5887605 5543540
968.10 5783800 5543630 4880440 4903459 5112323 4879694
970.99 4616237 4814770 4696405 4845144 4640111 4547680
973.88 4230641 3968244 3964100 4445745 4413729 4499975
976.78 4380193 4557895 3914679 3799808 3801556 3422915
979.67 3110356 2641270 2627405 2488773 2552315 2277462
982.56 1961411 2329400 2319574 2188240 1666353 2113992
985.46 2109998 1999170 2191226 2286359 2293892 2151153
988.35 2429174 2460345 2552875 2512559 2389042 2781000
991.24 2494759 2561172 2367796 2308458 2547411 2718152
994.13 2641776 2506032 2513827 3083859 2786017 3417361
997.03 2427549 2954087 2646686 3007240 2371697 3041058
999.92 2884618 3314342 2573063 3507343 2812742 2978482
1002.81 2753993 3001297 3078811 2448006 2654961 2560155
1005.70 2805537 2242596 2810156 2532144 2802829 2531671
1008.60 2352670 2948236 2412077 2986012 2879152 2954381
1011.49 2953585 2953168 2648226 3275862 3629687 3956864
1014.38 3281328 2486845 1204393 2085057 2036787 1760486
1017.28 1426601 2227231 1720543 2070563 2164481 1999881
1020.17 2355762 2345320 2511976 2779639 2739814 2525095
1023.06 2496558 2834240 2626275 3250872 2781903 3217864
1025.95 3070641 3091166 3237064 3734370 3476974 3354033
1028.85 3911847 3764534 4202355 4457529 4484149 4980922
1031.74 5541125 5918271 5862798 6786825 7131518 7211787
1034.63 7649239 8081883 8365139 9211069 8802514 9722355
1037.52 10601744 10693065 10625528 11328316 11887965 12350991
1040.42 12896544 13295999 13187398 13860961 14628644 15295744
1043.31 15215316 16002960 16602955 17060764 17285244 18200695
1046.20 18347197 18828324 19092013 19923506 20246026 20566240
1049.10 20744172 19731026 20068803 20320807 19335561 19592880
1051.99 19548252 19194494 18775833 18967948 18197628 18046747
1054.88 17412096 18070061 18428996 18894813 19468709 19937718
1057.77 20479909 19800757 19110636 19119508 17381694 16698376
1060.67 15868378 14967555 14484597 13735854 13190308 12850205
1063.56 12425718 12113114 10857130 11184631 10352695 10262041
1066.45 10209234 10054771 9560377 10094874 9252505 9249043
1069.34 8985413 8064493 7296535 7731393 6859858 6148044
1072.24 6552822 5793662 5819799 5086164 4587267 5056659
1075.13 4200795 4463673 3921343 3742741 3660669 3313153
1078.02 3494746 3113684 2951165 2488374 2908165 2609454
1080.92 1824789 2391526 2336500 2279225 2255453 2202921
1083.81 1812492 1415901 1466511 749411 1479051 991622
1086.70 531102 902184 788916 1086435 642228 738697
1089.59 1024889 903979 460236 380884 759387 835043
1092.49 199291 501243 441631 197255 360606 768159
1095.38 641560 757655 680155 480963 150615 187176
1098.27 588751 75432 332908 284684 621867 24581
1101.16 372478 655855-270603 418016-81319 81090
1104.06 402190 291276-103974-55220 242518 495261
1106.95 24944 115247 41685 480693 758902 101204
1109.84-14993 701770 93862 113872-262111 486386
1112.74 293700 293593 443912-37415 219946 488496
1115.63 569658 278685 511361 101072 443339 454315
1118.52 322965 452524 389555 513725 674877 698049
1121.41 741830 891804 224897 609603 482285 510522
1124.31 210159 875876 753407 768704 737223 1083244
1127.20 1020806 546422 424477 927107 558898 926860
1130.09 641812 1069432 698277 579594 638678 758400
1132.98 708470 1103572 722308 959024 697557 1120374
1135.88 679334 1388528 1160719 1651137 1122675 1412725
1138.77 1620965 1766076 1773814 2419732 2439403 2946756
1141.66 2663113 3285463 3453743 3394100 4158386 4199811
1144.56 4707169 5393383 5862747 6310852 6882232 7367713
1147.45 7837563 8571811 9093433 10310870 11054620 12212782
1150.34 12590954 13681528 14055475 15382632 16367412 17365929
1153.23 17993746 20049270 20422955 23560006 23365964 21318960
1156.13 20423473 20803040 21631433 24136305 27817570 33131519
1159.02 26424208 24868192 24384678 25451335 27383926 28067785
1161.91 26838474 27338729 28123630 28763090 25385293 22833748
1164.80 22053967 22368323 21983876 21188995 20004353 19600567
1167.70 19155832 18390740 17322434 16568831 15534690 13945101
1170.59 12960053 12281095 11252785 10518545 9093431 8499741
1173.48 7489356 7627716 6212423 5936515 5415505 5176247
1176.38 4990932 4750354 4471898 3959761 3365352 3627907
1179.27 3713737 3615749 3535990 3461726 3312802 3395049
1182.16 3491056 3719026 3810888 4098061 4310106 4757555
1185.05 4684798 5163991 5518905 5579565 6158459 6858265
1187.95 6809994 7734347 7636679 8520140 8944513 9930110
1190.84 10175170 11535824 12419357 13788373 14968995 16501370
1193.73 18013204 20251234 22528378 24768423 28258496 31308452
1196.62 34915618 39947137 44079908 50286045 56106248 62950653
1199.52 70252165 79046678 86948654 96087179 103995262 113246577
1202.41 120316716 126972495 131270152 134718371 135083818 135274254
1205.30 130503310 122961378 111571472 101770444 90703047 91883416
1208.20 125107281 217093070 161386798 96812461 89286002 94155829
1211.09 112948821 125500805 138404491 145298858 152109148 152945677
1213.98 153060025 148747531 142204903 133100133 123226683 111790382
1216.87 100264976 88100580 77158472 66604203 57824217 49881492
1219.77 43547245 37562995 33197057 29457767 26390861 23930410
1222.66 22049658 19823296 18446082 17074681 15603468 14901331
1225.55 14190267 13165458 12402270 11994752 11262584 10730980
1228.44 10486220 10463281 10150920 10271172 10234419 9693813
1231.34 9983480 9979681 10202308 10033326 10656068 10414661
1234.23 11232210 11616896 12359755 13087515 14775536 15114260
1237.12 14766196 14079621 14193175 14602046 15228654 15255422
1240.02 15653478 15649580 15976508 16199538 16716762 16044577
1242.91 16204459 15858270 15546955 15991607 16211432 16442426
1245.80 17060776 17547819 18015238 19272723 20689871 21819351
1248.69 23216147 24780332 26445584 29011721 31153009 34248744
1251.59 37239169 40642883 44666555 48605364 52872192 57623051
1254.48 62327628 68151164 73830441 78587443 84056399 88937595
1257.37 94008010 98102618 101641085 104597751 105982463 107113836
1260.26 107189793 105284709 102828557 100393148 98569267 96856439
1263.16 97047197 103897278 99891126 92906469 93378288 95496089
1266.05 98318832 100280952 100996805 101697110 100498513 99114440
1268.94 96373577 93809686 90853805 87088255 83372275 79789781
1271.84 75725364 71475366 67482410 62977877 58591843 54134254
1274.73 49667493 45546987 42063114 38336926 34820797 31836512
1277.62 28870776 26095000 23771959 21702788 19492152 17622424
1280.51 15523155 14455973 12717022 11874808 10623584 9724453
1283.41 8672205 7747174 6984303 6313156 6012519 5287525
1286.30 5070858 4855628 4360756 4613595 4209317 4240749
1289.19 4104793 4558644 4727820 5259118 5327522 6484777
1292.08 6563830 7342772 8081226 9156822 10006915 10913175
1294.98 12040508 13698328 14818429 16175178 18046193 19445943
1297.87 21172555 23400906 24773502 26318352 27919370 29529157
1300.76 31087820 32794210 34240846 35036750 36295461 37397238
1303.66 38216955 38713722 39742482 41552082 50483777 51966329
1306.55 38613538 35783889 36438479 37253191 38376031 39052002
1309.44 37959978 37823116 37931400 38753566 40730372 39753624
1312.33 39706937 41231857 41087101 41211123 40271928 38995285
1315.23 37191485 35675908 32872406 30631920 27617811 25442119
1318.12 22736651 20706738 18811192 17080284 15110373 13219190
1321.01 12223955 11252880 10086557 9490150 8644058 8387734
1323.90 7233445 7075115 6785850 6112933 5941871 5668224
1326.80 5694772 5573101 5121209 5244954 5214592 5853494
1329.69 5530747 5492380 5615920 5354377 5278485 5144993
1332.58 5320955 4801799 4899957 5041060 5000538 4881385
1335.48 4591374 4626618 4480168 4683441 4714608 4746726
1338.37 4799767 4583749 4517166 4678835 4733743 4622962
1341.26 4804414 4546110 4687132 4960452 4545320 4582180
1344.15 5398073 4887739 5157568 5648001 5213384 4767496
1347.05 4693488 4687921 4699698 4642549 3700736 4517631
1349.94 4176183 3316670 3020610 3356412 3942458 4230710
1352.83 4256070 4160755 4882567 4380467 3323818 4134841
1355.72 3935686 3350547 2274660 2546130 2568765 1884042
1358.62 2219523 1299586 1464343 2005818 1388918 865601
1361.51 1261474 1544000 1197769 1816597 1414308 778650
1364.40 1427687 1168286 1614636 1056026 682764 783095
1367.29 1083571 816910 351462 1092840 897930 829281
1370.19 312973 1358471 947494 777152 740413 839927
1373.08 263713 781413 781813 641150 497489 976820
1375.97 663914 397077 558091 691703 521580 709130
1378.87 866866 916918 836701 844595 763459 600655
1381.76 628939 1189611 646803 766747 1143888 1147343
1384.65 455935 1310588 143542 424096 190784 199974
1387.54 203335 786984 466895 690197 698096 1069739
1390.44 58719 1308942 594823 850935 560222 504392
1393.33 394421-98939 65948 905140 593284 644362
1396.22 641219 984712 151897 418353 385997 433015
1399.11 398989 766843 478649 1522843 147066 801799
1402.01 658013 1386537 554899 1483019 866726 770894
1404.90 563617 1525767 671090 1725881 931231 1608707
1407.79 1303067 1578936 968086 1965126 1428570 1785379
1410.69 1478156 2159706 1457082 2437330 1793098 3216295
1413.58 1960496 2916345 2571240 3356894 2966171 3792582
1416.47 3749097 4591188 4204972 5784235 5067948 5703574
1419.36 6521766 8887968 8467823 10295011 9946024 12406396
1422.26 12176515 14929397 14336234 17177276 17363447 20022510
1425.15 20090863 23075949 23259898 26575931 27137359 30830603
1428.04 31465755 36133185 37114587 43065322 44349744 48340942
1430.93 46168646 50440953 48781270 52815189 50582182 54631827
1433.83 48470264 52139904 43653380 48234793 39514540 54257866
1436.72 73049831 187387327 160651148 23937215 43101771 35323449
1439.61 49418342 46034467 55300658 51784649 57179127 52872384
1442.51 55957349 51928701 52773668 48247829 48308802 42741406
1445.40 42542465 37900791 37884933 33095046 32535072 29138144
1448.29 28767291 25376447 24816486 21374022 21030135 18359183
1451.18 17837608 14917673 14461144 12027692 11921316 9877891
1454.08 9751020 6918687 7103693 5892938 4824311 2123213
1456.97 4905150 2929563 3587087 2687563 3035259 2059646
1459.86 2536139 2229701 2342535 1675236 2233960 1049519
1462.75 1891907 1010771 1779485 374094 1044020 923956
1465.65 1475710 1272007 1604523 1032889 1463632 1180842
1468.54 1665635 652005 1429622 754976 1377853 1080245
1471.43 535914 314887 1716041 60954 699821 749316
1474.33 1302948 849610 965879 253113 1028516 949278
1477.22 1388742 779088 1648408 562634 1387363 741715
1480.11 1561590 905056 1415520 1214348 1117571 981615
1483.00 1374876 836706 1056908 819938 1652642 940500
1485.90 1145518 789643 610131 810244 1276497 936331
1488.79 791213 152667 668879 124117 1008396 956104
1491.68 573531 699825 563113 445693 764092 594728
1494.57 334989 699560-746829-989087 799115-313633
1497.47 567629-502442-422252-38402 92956-315979
1500.36-41285-433135-191310-119044-187773 81991
1503.25 141428-307109-2543-996293-2496003-178855
1506.15-1518125-2222751-365879-344557-466734-392608
1509.04-227370-408055 156797-365379-47359-193111
1511.93-357104-190112 68869-180483 193037-369737
1514.82-185703 150553-330780-185632-524496-640858
1517.72 298757-233074-30845-130100-392660-134557
1520.61-1405058-1170204 346617-1100505 82746-229482
1523.50 87620-225887-2462-1183630-24136-400541
1526.39-207643-472043 301589-269881-311314-287599
1529.29 122896-441809-23290-321724-66980-518645
1532.18-191588-489555-319129-916322 250903-625716
1535.07 15281-322992 359516-374773 90985-775907
1537.97 169070-2710025-996156-572727-1703582 112835
1540.86-26442-1025841-1076177 134265-255276-152702
1543.75 178879 6595-783185-90135-10540 70827
1546.64 31125 124622 198049 274242-24248 46818
1549.54 114625-77311 15424 43786 486658-185613
1552.43 187881 125856 223931-1307336 376777 44421
1555.32 277658-174259 655344-948462-519390-1393807
1558.21-2170703 66013-878653-2106688-733907 386932
1561.11-170502 149043-69220 291929 51519 46178
1564.00-23665-209413 27047 117573-53796 328512
1566.89-86578-11224 75869-81501-91802-1021268
1569.79 13271 220987-74925 25873-65353 166049
1572.68-407394-121157-116748 43909-153901-309464
1575.57-3123675-1398689 134633-510432 93366-493368
1578.46-30879-187636-138953-382431-167902-146682
1581.36-60220-238235-81596-289464-272811-317985
1584.25 25778-245856-111477-119474-272888-180643
1587.14-3696-73021-50661-194799 119496-627390
1590.03-210086-343441-224394-125370-260426-188445
1592.93-192467-201506-192062-282886 213417 184295
1595.82-68205-71022 130133 232438 134563-189394
1598.71-11295 92978-71182 57765 167397 128492
1601.61 252537 120544-61946 94531 136962-47885
1604.50 601156 219595 297162 161027 295151 167009
1607.39 334509 304964 277404 326861 145645 489254
1610.28 66046 395966 193941 422685 85325 207674
1613.18 274059 349321 116886 242247-118823 484066
1616.07-2020306-848736 592939 98759 685097-78148
1618.96 165948 84353 305020 802-92650 76062
1621.85 190755-248446-557422-1018919 135948-175572
1624.75 214224-224190-52517-507327-117837-556786
1627.64-253414-131296-195728-501547-374615-295697
1630.53-149769-342445-89330-432191-204377-250961
1633.43-350765-587771-421415-1716621-1478042-99930
1636.32-231672-448010-555304-442210-331822-314598
1639.21-312576-313641-34850-239240-330078-246206
1642.10-328585-258977-61709-119832-100669-111485
1645.00-391143-1937661-262139-138231-1016008-229791
1647.89-657993-150449-143725-41405-351701 4060
1650.78-451998-151348-2635866-1747275-2918641-1477020
1653.67-452135-1500443 305296-342691-60511-446900
1656.57-42339-218228-115945-288578-11188-361650
1659.46-100482-262396-103031-253806-254683-779950
1662.35-1002561-302038-31112-106240-413664-232592
1665.25-178614-487356-158740-72166-236146-403231
1668.14-189216-1217185-1089020-86894-219159-609556
1671.03-834820-334484-162519-342840-175529-201762
1673.92-117599-842646-1418202-495835-333051-311162
1676.82-224672-428294 42606-304377-245063-219992
1679.71-381767-304382-317330-256946-182545-387024
1682.60-844246-776660-397900-2065057-2730034 205025
1685.49-468272 151980-307220 230803-142564-24088
1688.39-107845 125337-280266-330638-235231-22695
1691.28 58809 165471-121482-4351-420885 33322
1694.17-352542-187322-2117098-2546603 5170-317755
1697.07-82727 3064-102303 88701-847870-2262228
1699.96-1553677-1069194 38101-69501 139129-390587
1702.85 99645-204785-490269-684996-27373-110573
1705.74-782002-276540-33916-267850-184497-187925
1708.64-217545-304800-81239-152084-25959-306388
1711.53-37224 8013-222070-202371-238915-330089
1714.42-478154-979673 59133-280207-136884-2634015
1717.31-660915-210893-1002655-117396 148070 101556
1720.21-58657 86282-355245 81087-40990-225469
1723.10-217658-34948 90921 81139-97526-324612
1725.99-130354-29090-138999-268319 28799-36982
1728.89 44224-480255-122307 116573-369850 105680
1731.78-220181 109775-1824358-1004210-820837-2051223
1734.67-53223-228189 73686-276398-236123-430388
1737.56 93999-361485-100721-784990-1266495-150465
1740.46-320868-259850-76529-298902-578520-501200
1743.35-249928-431058-100112-273821-362448-323101
1746.24-377874-517960-292281-516799-845480-575638
1749.13-130626-646256-188203-1283104-1122834-173958
1752.03-604594-359549-377746-346834-62169-489168
1754.92-522866-480204-637306-898901-158056-508088
1757.81-348669-464552-497422-523493-131391-411060
1760.71-187719-1141385-539214-522126-338285-285116
1763.60-86638-277003-163899-102457-261376-284663
1766.49-396324-371377-661409-748433 18297-604719
1769.38-173219-34795-195817-733192-79584-605187
1772.28-1729917-126401-226410-663519-127173-67760
1775.17-149163-215195-177863-147034-52522 28535
1778.06-153352-145284-79131 102846-109785-345914
1780.95 185284-295266 96924 52329 377354 106599
1783.85 250720-400029-105268 116753-28799-14835
1786.74 107374 59248 14908-149152 244555-62589
1789.63 71532 67870-204423-103997 387219-848449
1792.53-31582 334600 205146 193491 398663 162815
1795.42 256472 109270 290290 225058 398138 201093
1798.31 217773 81578 50059 164661 387131 195133
1801.20 132970 73056 175676 57253 26409 204367
1804.10 355003 215155 379445 352313 225585 196269
1806.99 133328 20115 223901-40889 257982 185104
1809.88-57343 8103 40179-111467 151582-38132
1812.77 273016 77025 110689 103445 235294 146102
1815.67 135559 180147-43336 11103 64067 243502
1818.56 259820 77565 385001 301630 459897 298884
1821.45 259263 262859 261671 623324 639646 585064
1824.35 210505 439643 1291056 805699 489251 435727
1827.24 70105 194002 313813-32214 272963-205824
1830.13 244199 272562 141207 203888 450569 157926
1833.02 300232 50098 183420 221509 237120 73986
1835.92 154364 153788-144368-62023-60244-34927
1838.81 140453-22894 42010-116416 155440-216329
1841.70-283574-170463-572087-258058-1236806-788581
1844.59-124411-286222 178392-341935-182425-276776
1847.49-494923-311412-290946-626821-255173-253899
1850.38-347803-333303-400201-512408-472046-246729
1853.27-95199-378867-414646-431211-253804-438020
1856.17-373075-263070-425831-438621-260499-503423
1859.06-337550-228534-338625-694865-477345-422740
1861.95-281681-499993-325167-411144-539355-532297
1864.84-813596-412363-489344-440100-274049-527505
1867.74-510820-247463-768076-582429 3295-494941
1870.63-405747-566590-385817-300799-433998-348509
1873.52-105089-318778-391048-459602 10860-658896
1876.41-240361-292751-414103-266139-383747-342770
1879.31-248051-273140-140706-237459-438014-415732
1882.20-451835-709254-335042-201414-457683-433744
1885.09-384853-303341-499567-402301-181500-486485
1887.99-438043-357516-392522-390052-360918-231649
1890.88-193592-255793-209920-167855-340001-397940
1893.77-192114-596028-526207-422053-369127-412312
1896.66-349800-297489-92967-388279-410085-433413
1899.56-289719-128362-318554-472563-252972-318080
1902.45-375717-450923-418413-523187-303932-459946
1905.34-316734-203005-328422-388900-594714-380056
1908.23-314093-244370-432695-423282-498638-584223
1911.13-137309-323867-495084-513524-132343-235090
1914.02-312106-360958-281125-400598-164611-489775
1916.91-248885-579035-575096-12762-355943-303046
1919.81-210727-436238-279643-395831-280122-590961
1922.70-287438-87850-313061-173750-449574-269265
1925.59-226514-237072-317739-317371-225779-343149
1928.48-91215-184620-319750-242764-75183-39741
1931.38-249751-129596-85424-102245-296998-9504
1934.27-216847-243863-4936-238618-23387-55270
1937.16-14563-195881 73342-22685-249410 9629
1940.05-315177-156055-94558-82205-191602 158845
1942.95-23853-223044-314405 22863-196844 31229
1945.84-86012-189763 127163-30410-107414-325931
1948.73-118038-252051-290821-124613-80449 65826
1951.63-287331 44724-389386-519299-329379-307711
1954.52-127649-278104-290686-314977 115781-217526
1957.41-279848-328244-247363-74517 10421-203242
1960.30-161840-328506-106572-185328-134151-511105
1963.20-465331-217677-349750-224907-366234-241469
1966.09-422138-176052-226806-204339-172754-110059
1968.98-72208-81731-143142-90893-158431-85881
1971.87 38433 150301 12246 9102-134284 13041
1974.77 211045 360785 17474 24345 347561 228197
1977.66 363983 348907 342501 248275 293259 259478
1980.55 536749 311470 333127 524940 294340 406571
1983.45 210279 347013 436549 321020 468803 464583
1986.34 423124 356922 451756 332954 252678 422972
1989.23 554590 535833 429748 222983 333444 314618
1992.12 291090 55414 210059 127952 339084 188960
1995.02 123391 15995 299148 18830 131068 192220
1997.91-111934-20851 74979 151016 24407 185406
2000.80 89693 25299 29340 73705 85445-110682
2003.69 77731-30130 66239-79361-7585 171001
2006.59-10628-26361-118255 205608 130820-192704
2009.48 145183 19273-68781-48510 113391 34912
2012.37 63983-89191-145053-62564-99451-3399
2015.27-172795 56045-11888-121457-290559-369632
2018.16-96085-152519-20705-90775-321060 28565
2021.05-320584-581359-229425-191280-182540 74096
2023.94-44541-15424-236769-63291-123188-194489
2026.84-229490-142975-415860-155127-196243-182260
2029.73-203649-16442-163804-124465-34303 120266
2032.62-234931-71741-104579-225470-321059-80221
2035.51 3446 155569 7221 22552-49573 64443
2038.41-15842 27516 76209-19011-1772 93272
2041.30 64939-30356-28083 86075 230864 145970
2044.19 148972 257882 437331 14141 407787 227992
2047.09 239874 137960 154595 239509 362607 83276
2049.98-41592 409973 240914 129148 280481 71042
2052.87 112713 77065-21820 322749 48166 274293
2055.76 86643 67275 34074 382455 119068-42628
2058.66 242093-126879-288339 45996-94789-146887
2061.55-79397 34127 195897-241922-7955-416690
2064.44-190477-391167-172506-132288-142732-346202
2067.33-165537-60545-301114-53586 67502-233194
2070.23-100316-264724-111575-34134-60484-379590
2073.12-143922-77675-1582 2677-19184-60151
2076.01 157234-124379-379677-435648 128155-29443
2078.91 233163 57880 125859-65460-113666-408208
2081.80-318477-67240-165241 480402-60049 70103
2084.69 235439 154004-267484-294300 358007-75976
2087.58 488815 6134 381874 263327 757316-201104
2090.48 35832 332239 892833 415505 635528 512017
2093.37 622496 461649-603987 513592 641204 605315
2096.26 764626 608490 989608 1067146 737208-430790
2099.15 994168 578909 882666 481797 1117065 558487
2102.05 926445-101619-264829 918753 352018 604162
2104.94 572949 962907 631144 905682-432147 495434
2107.83 794821 976140 612023 702014 553414 892659
2110.73 213698-709057 1005141 406728 980543 696069
2113.62 662985 178153 658414-1227230 264804 216999
2116.51 266215 385843 308215 125668 457568-651545
2119.40-837790 265280-72442 296659-65392 315708
2122.30 189327-274179-1346052-79788-204100 20771
2125.19-140220 222525-77470 34973-1135865-294230
2128.08 147623 145284 118453-41545-334662 150225
2130.97-997862-453710-191136-210771-81025-53260
2133.87-234842-164442-440669-424218 145037-246466
2136.76 75713 8934 46724-371118-324372-509668
2139.65-349296-236345-268783 45617-71949-355905
2142.55 112179-421822 11936-109333 150131 28520
2145.44-240277 69927-446008-637351-30253-328261
2148.33-87138-276979 112641 10706-793795-542433
2151.22-210162-213077 87280-222933 144357-402973
2154.12-1104114-402059-43767-371432-35271-345783
2157.01 26722-869439-1258440-107411-56369-44200
2159.90-7755-281983 118048-1585631-880268 53911
2162.79-214180-10286-246067 185162-1062264-1551122
2165.69-173707-513-398249 7309-101545 131653
2168.58-1695509-839361 154530-576452 224502-17301
2171.47 206602-1023969-1220506 211330 160898-162268
2174.37-217668 210295-226068-1529575 283213-20136
2177.26 56819 396341 98943 103697-1618358-445597
2180.15 353614 48146 253985 21262 517447-895881
2183.04-628368 350204-86031 429934 144579 414622
2185.94-711663-715913 476891 217425 406828 20436
2188.83 412262-649853-258390 734309 343418 542645
2191.72 329211 379011-328300 100434 470641 417470
2194.61 744374 376615 608260-234019 458245 469251
2197.51 813073 634029 593503 301234-62292 409928
2200.40 486165 607256 622408 500588 270854-249111
2203.29 550207 319117 713231 549838 568313 93197
2206.19 518602 679863 378991 598564 331448 371478
2209.08 42194 13446 98504 258151 331164 151105
2211.97 81466 73046 331954 235397 156009 110387
2214.86-98857 120976 25031 360910 45820-295133
2217.76 229761-205228-34359-306056-36742 78897
2220.65-93394-255918-39844-182046 82098-27262
2223.54-193315-15886-120795 67998-57480-402135
2226.43-34290-183981-137974 79905 204691-252809
2229.33-35975-48394-123654 162339-27757-53129
2232.22-21979-50182-105620-484565 7645 193143
2235.11-135045-98673-51039-233181-102548 187873
2238.01 69641-378814 52031-14107 21238 27538
2240.90-195982-71268-3557-9640 135467 159160
2243.79-138641-94002 199878 41777 186308-161011
2246.68 69744 206641 325643 121188-120120 21147
2249.58 116187 215804-146966 136449 92326 291251
2252.47 339030-176915 298240-115631 245166 47754
2255.36 327949 44932 169302 1310 218255-41045
2258.25 275089-30358-122347 29245 183831-259891
2261.15 185182 149673 6560-88746-48217-81391
2264.04-37058-70395 188319 63704-10339 47540
2266.93 194033-109217 88895-39985 34334-54616
2269.83-214860-281858 167900 3560-11832-12952
2272.72-128479-300826-16205-213602-245845 42328
2275.61-54438-25731-19426-243097 238545 4514
2278.50-202934 34629 103101-344337-116796-106470
2281.40-295243-171178 7501-113562-33-328820
2284.29-119987-256547-149090-280289-94875-324348
2287.18-328771-309034-17104-41074 61703-324380
2290.07-203336-249662-23466-95304 13776-211353
2292.97-252993-370230-70494-254514-284076-440751
2295.86-18838-420156-346607-570238-252167-224228
2298.75-139007-455638-295694-155016-34465-109375
2301.65 111881-583428 71265-386980-67354-760143
2304.54-49522-112025-89078-533106-691060-417630
2307.43-201871-61146-574517-663312-131570-731471
2310.32-772176-913645 103559-625162 22060-1608275
2313.22 355932-995379-32819-2336600-129251-703334
2316.11 188065-2456907-631106-712434-89781-2409147
2319.00-1235987-383830 34670-2820277-1629895-374942
2321.89-121400-3253202-2154386-160385-409048-3430830
2324.79-2553538 301907-734005-4380742-2636539 638062
2327.68-1301105-4822433-2261572 913220-2241265-5509110
2330.57-1715333 717758-3980610-5259302-188623 1068
2333.47-5041919-4116771 806243-1553945-6216461-2345377
2336.36 733334-3706338-5450908 103673-404034-5311899
2339.25-2934567 1015129-2834223-4761112-20248-356890
2342.14-4196376-1652105 626609-2595291-2668563 489901
2345.04-913681-2187095 60784 423069-942066-45767
2347.93 333933 326482 566896-113482 562796 876023
2350.82-595050-298082 1478011-1174591-1280068 1718028
2353.71-1972870-1876125 2147278-2402190-2452974 2648040
2356.61-3015897-2593471 2851979-3928034-2214071 2898192
2359.50-5032116-709551 2347681-5572299 1446813 374046
2362.39-4981751 3563189-1714952-2434754 3552151-4410921
2365.29 1249540 1335980-3827476 3564563-2164561-33919
2368.18 1932631-2540218 2912949-1190751 688173 1370502
2371.07-1269910 2677544-1243342 1978503-400637 541928
2373.96 747103-180427 1363157-36365 1659878 23121
2376.86 1112974 259644 1125838 587903 692599 412554
2379.75 844455 590831 529653 363423 831913 303716
2382.64 470164 532533 773576 476396 673023 598525
2385.53 549547 455390 484929 253972 388028 568420
2388.43 696126 448709 550098 550592 610389 646926
2391.32 592396 835361 893484 808392 831452 874211
2394.21 731319 884706 1154652 859917 1013153 1140955
2397.11 911843 1139411 961071 1126011 1274186 1345036
2400.00 1239703 1269830 1320684 1241466 1385749 1478897
2402.89 1488241 1452629 1472505 1715583 2355262 2575630
2405.78 2491737 2150569 1814590 1573333 1313964 1401215
2408.68 1213364 908999 1308145 960246 980278 1220503
2411.57 1009821 1130239 1166623 1136341 1071850 1266898
2414.46 938262 1074009 907495 1024040 916611 570882
2417.35 336894 318720 745960 771517 813732 894099
2420.25 794762 831316 442929 633953 450164 335990
2423.14 446322 498692 291516 147344 277135 371091
2426.03 92947 228731 228746 121693 310890-98784
2428.93 15817 253872 107303-68324 82359 27280
2431.82 9775 229096 104006-14197-44943 122312
2434.71-171721-3500 63963 475968-7877 236115
2437.60 240994 343482 436684-110930 422357 594892
2440.50 406354 364514 373002 600837 372555 635187
2443.39 589821 431953 597091 373280 719474 811248
2446.28 782732 895466 1018840 1281249 1134630 936444
2449.17 1349952 1283932 1294495 1324412 1544706 1669964
2452.07 1678857 1749375 1850683 1669685 2008840 1913049
2454.96 1955384 2223331 2187333 2151916 2312249 2515242
2457.85 2124134 2750161 2684020 2505938 2579927 2503344
2460.75 2525020 2763900 2543480 2206856 2648488 2416686
2463.64 2255637 2196964 2547090 1966379 2668735 2350059
2466.53 2329390 2071260 2056076 1979447 1734532 1665605
2469.42 1883237 1583789 1956705 1732387 1472326 1768212
2472.32 1375518 1236440 1528769 1517220 1349344 1442484
2475.21 1328871 1282906 1221454 1425693 1128138 968470
2478.10 1203236 998190 1156655 1048453 837519 980744
2480.99 956796 977368 948111 961863 1016291 1110913
2483.89 933691 899920 767727 997523 1070679 1110196
2486.78 611553 703224 913877 1027823 1081628 942643
2489.67 1004034 1046008 964784 810481 772519 908501
2492.57 926569 584648 713000 738293 1018479 811584
2495.46 758173 833159 822098 915865 561043 738826
2498.35 862522 651432 707545 611759 878841 744338
2501.24 791068 1090095 588254 812960 1165225 722785
2504.14 768656 1196394 928249 930134 1133610 639788
2507.03 1258130 1179426 1146454 1175173 1314459 1378369
2509.92 1170010 1364472 1330787 1387124 1577189 1434501
2512.81 1800668 1583310 1596718 1587304 1720523 1690905
2515.71 1340982 1370888 1402784 1221906 1196473 1183981
2518.60 1195738 1262256 1373075 1350730 1194955 1274162
2521.49 1403021 1418990 1042074 1509644 1260336 1427230
2524.39 808354 1084875 949978 658216 1033863 713898
2527.28 720627 562966 577393 348961 475705 292296
2530.17 617840 474612 59675-104749 311822-143619
2533.06-9522-141733-89714 202516-66685-94659
2535.96 21614-370246-421534-100244 78693-349812
2538.85-187690-271643-342684-271406-59692-15069
2541.74-472280 125274-291494 23166-354 133174
2544.63-461106-202401-467174 84176-247839-351408
2547.53 65954-54309-22795-241011 162459-31581
2550.42-251419 100301 158025 339366 68251-98405
2553.31-197411 47521-335113-150250 241814-144912
2556.21 64592-119193 163381 292625 560438 222863
2559.10 366232 481455 425812 420396 474683 395262
2561.99 548616 230440 318538 712709 739900 381818
2564.88 751044 713898 467504 284808 390409 715764
2567.78 355831 272682 521321 573660 629004 707231
2570.67 621922 508047 606097 609696 429216 192590
2573.56 243480 553204 353542 458772 468587 383577
2576.45 484493 307693 303246 364319 215578 336923
2579.35 523924 266319 425589 167676 205940 358952
2582.24 204758 19698 205819 122691 226766 240216
2585.13 30202 415072 176908 430620 582071 149151
2588.03 295324 494499 338254 100935 264291 487749
2590.92 167766 301563 394294 408479 514330 278961
2593.81 276303 631792 152973 535469 483376 313015
2596.70 386492 531571 655964 644020 587979 455079
2599.60 342624 103749 597415 394844 418587 488468
2602.49 661503 369224 482977 533662 275814 546981
2605.38 100378 100396 424154 52831 245086 115179
2608.27 51763 456238 282946 305490 51466 370170
2611.17 248212 104563 230032 137923 314723 144137
2614.06 184672 461620 77546 2964-33335 14000
2616.95-132397 503093-256292-84709 197593-23791
2619.85-92588 75080-361970-259965 70709-344731
2622.74-79009 120183-381028-186550-89670-268387
2625.63-148679-74945 150248-34080-42109-364504
2628.52-170457-168216-391068-109035-106984 112841
2631.42 4305-40144-283918-152189-231042 57526
2634.31-82488-271236 61257-132343-76281-178142
2637.20 245130 126579-283737-172207 112804 242271
2640.09 276977 97954-98063 280130-64618-145582
2642.99-62922 157345 123706 178364 128249 130626
2645.88 206887-261126-55154-182414 252978-177890
2648.77 222061 400676 239921-54169 98900-333597
2651.67-77694-90097-179844 103861 55782 294519
2654.56 134176-5300-13477-156688-307611 187364
2657.45-22946-26540-311823-202586-101985 22140
2660.34 41030 95386 258159-272702-19122-222692
2663.24-117810-86463-241517 93869-201364 106091
2666.13 87837-103590-125120-1141 114973-349563
2669.02-245976-208324 38495 84513-90859 66464
2671.91 58583-46552 51685-108379 7551 106638
2674.81-3859 105461 211808 218248-36002 10372
2677.70-25607 206058 163810-223854-99406 90242
2680.59 332761-2960-71107 82074-9728 177874
2683.49 19425-168696-61955 92947-3136-100956
2686.38 1218 211727 215396 428601 340801 237458
2689.27 395321 483353 559225 892661 513482 602778
2692.16 797442 957589 871302 757092 899994 744666
2695.06 1055902 1061768 841721 1087637 881645 834498
2697.95 1107228 881719 1072735 1018714 1113332 821112
2700.84 682509 955516 1166765 815882 989928 980329
2703.73 1277271 1198791 1169072 867629 1029017 780732
2706.63 916713 941080 1178201 1003743 791401 599563
2709.52 194310 489253 506097 458625 216086 220304
2712.41 301777 157516 187875 96586 75203 79103
2715.31-268854 265007-146816-32582-416317 246703
2718.20-89673 137348 131644 247207-229516-279616
2721.09-252561 56525-150239 39017-34550 191613
2723.98-92333 122036 308380 272212 231424 413072
2726.88 250364 65867 87823 178239 210419 144053
2729.77 512452 152230 195502 84935 143896 525219
2732.66 677534 800343 643533 981777 744141 350880
2735.55 714334 858655 402548 951163 943933 1209693
2738.45 1082432 741305 593200 935573 1072653 902689
2741.34 917126 1204610 798918 650173 864970 623771
2744.23 688544 810478 361527 846020 1041447 1026580
2747.13 606370 523668 347561 736688 1086374 840188
2750.02 604864 736931 654969 387073 442712 71079
2752.91 658204 249512 428962 324644 87782 9493
2755.80 133087-133550-18777-32667 14673-20884
2758.70 9974 239853-134862 121400 222771-191792
2761.59-217000-116129 81378-75001 192177-205100
2764.48-312 163548-63334-136514-118577 116845
2767.37-269017-82187-34771 111035-48453-250751
2770.27 10145-45807-223209-334953-239388-162422
2773.16 184419 109901 121463-127860-206646 94121
2776.05 112081-291165 33371-104479 323325-92986
2778.95 342111 353315-184990-27381 152555 12747
2781.84-104413-13029 151025 21740 19295 130185
2784.73-220492 181910 259449-221195-7232 76934
2787.62 86687-329832-178220 834262 178594 13880
2790.52 142489-176271-226153 38602 181429 247821
2793.41-87128 305130 185392 361301 180120 99363
2796.30-211978 153813 30513-345070 220675 34125
2799.19-212925 42558 184054 64228 693417 233152
2802.09-74666 135839-122506-187610-156043 543593
2804.98-140628 482315-477825 265467-475132 117690
2807.87 141429-53669-21461 178972 353063-131484
2810.77 57992 37297 2009 305994 273187 122615
2813.66-67178 150071-83591 436860 205548 183844
2816.55 323506-273794-181697 287438 348341 477635
2819.44 409966-6038-155028 185019 234746-95216
2822.34 639193 114046-153163 173386 123586 176033
2825.23-19474-128166 215297 463016-53144 650379
2828.12 547255 441816 734980 255361 577154 218724
2831.01 462992 222021 586132 458299 294515-113
2833.91 325866 208991 396405 178650 334447 483553
2836.80 685503 914469 683236 968210 699496 923617
2839.69 510883 689213 1010988 851695 780020 1372125
2842.59 1549656 1192631 1443084 1388493 1984383 1764935
2845.48 2392156 1867148 2762897 2657551 3220711 3779084
2848.37 3931116 4258525 4852871 5236727 5751121 6053754
2851.26 6501054 7133795 7312706 7075921 7233492 6975952
2854.16 6517388 6559899 5787066 6003971 5706117 6237949
2857.05 8513535 9865955 9160573 6320502 4940163 5059828
2859.94 5115821 5784897 6516788 6538892 7478802 7093681
2862.83 6666103 6725048 6779859 6450831 5827037 5256412
2865.73 4888317 4517829 3910290 3698318 3164382 3087655
2868.62 3099772 2567527 2030331 2499895 2214908 1687110
2871.51 1515811 1552364 1256872 1512220 1160567 1022176
2874.41 340673 612690 156672 1623966 2107460 1656174
2877.30 1212562 1318052 1252884 1540179 1215790 1043873
2880.19 1255183 1467672 1094236 1209216 1036040 1093636
2883.08 1199375 1330895 1176758 1179645 1033306 1255723
2885.98 1283490 1491252 1040080 1216901 914931 1763073
2888.87 1371275 375529 1427064 1428043 1053029 1136768
2891.76 1248470 983534 1043045 1351981 1161207 1313262
2894.65 1408547 1667952 1229388 1064745 1084048 1187173
2897.55 1198148 997141 1166393 1389805 1302518 1666174
2900.44 1436578 1208836 1329503 1354503 1316509 1801675
2903.33 1297515 1126422 1235928 887325 1315614 1003184
2906.23 1068336 1210426 1446200 1272771 1392202 1215999
2909.12 1337199 1510027 1037181 1608567 1199622 1264416
2912.01 1710837 1404106 1139305 1444932 1600975 1029751
2914.90 1471326 1157652 1060954 1389464 1876488 1545976
2917.80 1898097 1448221 1250904 1690025 1473664 2014175
2920.69 1505247 1530488 1524997 1854878 1933308 1556995
2923.58 1491761 2554799 1838414 2045875 1951339 1778848
2926.47 1805422 2736110 1594644 2080785 2062094 1966315
2929.37 2170484 2060105 2079269 2085628 1974837 2012329
2932.26 2018285 2117727 2208593 2225426 1902570 2089211
2935.15 2299315 2090905 1676190 2506396 2150709 2366747
2938.05 2431742 2371208 2389668 2621068 1988532 2269648
2940.94 2033316 1905754 2136107 2502935 2464501 2448337
2943.83 2282225 2481009 2299858 2651510 3030322 3296848
2946.72 3449997 2872150 3048206 3140109 3324218 3945747
2949.62 3564530 3966765 3867073 4379178 4294513 4744909
2952.51 4685840 4910367 5018700 5297890 5146472 5383697
2955.40 5854617 6100965 6436062 6826231 7067043 7242196
2958.29 7760171 8781023 9619825 10865770 12021093 14736623
2961.19 15695352 18318745 19028178 20454671 20033223 22016949
2964.08 24386735 27909158 30222561 34302232 36912534 41683715
2966.97 44156286 47564336 48711875 51990756 51166180 52227410
2969.87 49861259 49718543 45092477 43731042 37749777 39410436
2972.76 38486265 77350193 86110212 50176733 45990971 43065625
2975.65 43486987 42414654 46505677 48224633 51885901 52898808
2978.54 54396926 53802572 53274859 50718370 48940634 45537917
2981.44 42327227 38658496 35059529 32096127 29068664 25992061
2984.33 24445129 23279193 22828906 19653251 16772904 14114662
2987.22 13561664 11423579 11184352 9931422 9685299 8834450
2990.11 8637495 8304126 7960844 7542793 7518583 7071896
2993.01 7090043 6857072 6478793 6573713 6765783 6966802
2995.90 6942668 7638439 8350713 8270615 9469412 9429209
2998.79 10628249 11137229 11734981 11839857 12026324 11979721
3001.69 11763269 11704338 11052781 9741713 9093975 7948853
3004.58 7474750 7682738 14219302 17035880 12645398 9557501
3007.47 8488150 8552376 9064125 9588275 10395709 11305115
3010.36 11354855 12026582 12274144 11388889 11497063 10867452
3013.26 10611856 9940993 9419501 9068576 8514399 8037441
3016.15 7850313 7573436 7328893 7077236 7071300 6675840
3019.04 6934835 7113448 7374461 6899133 7239821 6370540
3021.93 6049893 5443465 5065237 4157520 4833146 6348372
3024.83 6893015 5283930 4002945 4703325 5223405 5105622
3027.72 5644169 6070519 6472841 6540677 6498474 5824196
3030.61 5688503 5393012 5624869 4658622 4684070 3956157
3033.51 3999564 2896941 2751315 3186540 2849419 2019247
3036.40 2573762 1731386 1736277 1999801 1355078 1062983
3039.29 1457043 1347138 1229760 935930 944379 810530
3042.18 1353359 387501 797649 558798 603144 913972
3045.08 677032 311071 371564 336825 797482 512991
3047.97 953682 272331 668826 192956 670175 605338
3050.86 673781 197253 284370 943767 519122 118059
3053.75 394077 280002 447435 524400 280479 174044
3056.65 228499 399459-37947 347395 115227 26121
3059.54 214949 276902 308969 404757 226832 27136
3062.43 329173 573776 481513 205688 269116 238059
3065.33-58365 54920 86827 337289 251566 886345
3068.22 114795 510114 662515 243832-67880 133222
3071.11-46478 104573 472615 484872 27977 60373
3074.00 916507 105515 370720-95613 425254 309952
3076.90 130205 357351 313587 18471 283638 243535
3079.79 665834 525724 478428 348713 977884 393724
3082.68 651345 197594 512897 352209 671433-23213
3085.57 208709 428931 237569 892833 151467-149875
3088.47 484992 975029-220099-3664 92314 402841
3091.36 130468-38420 7528 169420 287728-133887
3094.25 413679 223929 16762-93145 353464 143470
3097.15 97544 336403 135353-559831-49124 229557
3100.04 143204-72290-303710 25169-156387 79506
3102.93-128454 223968 211914-238579 321000 55016
3105.82 475203 212397 11865-151014-135476 258319
3108.72 352264-145158 184637 59326 315129 312831
3111.61 419172-28098-86634 253826 505677-147123
3114.50 375313-365726 709860 449941 322470-157304
3117.39 198951 117994-308798 236582-205888 384520
3120.29 306023 246050-312742-206268 156966 71060
3123.18-185866 365893-302475 100136 355464 120387
3126.07-135096 227564-333196 159413-455166 145657
3128.97 125739 99873-64866-151755-222289-158466
3131.86 54512 504760 416755-47049 504349 190599
3134.75 456738-260543-55106 69618 617844-99808
3137.64-385739 43939 184195-594 288799 691983
3140.54 107073 148929 303685 581925 72810 96614
3143.43-4322 113032 217215 234902 904266 264773
3146.32-115063-458679 247743-245408-121865 445503
3149.21 534529 504298 32321 512506 183874 223751
3152.11 278645 501184 346191 574125-174102 74035
3155.00 390919 139230 277345 58486 370130-10634
3157.89 115377 398373 454107 59184 264079 72350
3160.79 283491-132940 267395-379366 219550 271117
3163.68-300552 445003 460599-249657-177416 349096
3166.57 647652-81583-184141 19883-34551 42908
3169.46 267462 179440 339902-373196-4705 211241
3172.36 39008 172686 28495 78772 1703 505833
3175.25-40245 251210-14465 47895-299898 101371
3178.14 260720 70562 169529-42243 78977 426358
3181.03-155338 309475-177216 172994 532429 456240
3183.93-19163 168623-51360-260315 103414 101068
3186.82 366303-22136-36802-62779-346650-1345
3189.71-503827 308058 464312 271922 373749-59360
3192.61 108258 343806 325030 26793 551957 277019
3195.50-176036 195376 514162-26015 179203-294903
3198.39 97197-366054-197114 494355 430980 116857
3201.28-284959 221754-84583 243287 547148-24061
3204.18-186984 235754 200957 301207 239192 1447
3207.07 77526 60925-270228-261326 250658-692148
3209.96-324441-307661-405501 297109-55557 480327
3212.85 81682-173430 185626-88415 34057-131380
3215.75 395418 327066-321174-248631 444710-300887
3218.64-391502-70676-60286-118450 48015 62386
3221.53-319498 85230-32344 63494 181087 37461
3224.43-277063 394380-84242-264994 55152 479811
3227.32 329443 263684-218676 133851 372469-383570
3230.21-386961-175966 302244-245618 335870 615114
3233.10 20283 466599 102460-559034 185484 425113
3236.00 72173-135244 2713 601031 261753-174153
3238.89-191700-20129 86996-401567-6217 218567
3241.78 220977 193726 325504-77620 116905-56925
3244.67 194152 122510 264476-58253-127861-147429
3247.57 161667-125313 126109 263132-154144 54392
3250.46-124562 377440 66262 107624-138687 477790
3253.35-222458-331871 87121-113489-31402 114975
3256.25 99806 71403 86381-39431-556401-384039
3259.14-231731-75051-24196-39413 163454-240335
3262.03 28691 12775-190487-189573 341519-28977
3264.92 198310 309740-89111-127753-109253-261055
3267.82-7766-468184 194229 45595 32402-58119
3270.71 214329-380527 283461 8204 122291 158096
3273.60-317961-121777 49809 95862-161341-550683
3276.49 507701-181869-465557-225832 25444-203516
3279.39 223058-212573-317828-162649-116603-330437
3282.28 477776 53128-769681-410298 183864 35745
3285.17 10858-85631-114342 486431-427225 150584
3288.07 31774 3864-188501 456173 522321-352295
3290.96-39095 345236 22199-447130-166272 183112
3293.85-113236-23947-483758-125395 281363 387292
3296.74 100012-192474-145114 344418-144572 345975
3299.64 323446 274377-262357 3404-70058 94652
3302.53-333550-164385-352154-449812 317863 361143
3305.42 176014-321135-358424 527546-141136 50334
3308.31-389519 430422 173561 234664-113432 144462
3311.21-271140 364073-63079-245502-9587 316429
3314.10-55982 402112 17133-525868 103750-236213
3316.99 272531-366038-5071-138322 215685 202178
3319.89 212944-18609-41769-97047 92930-240639
3322.78 75253 48423-260623-589147 112943-11706
3325.67 155953 220726-372071 242047 475733-692311
3328.56-196673-230641-90197-429362 748373-15399
3331.46 54626-257124 136505 301122-421770-278510
3334.35-120088 353764 662448 317449 260863-292072
3337.24-194066-76953-243537 354482 98183-532734
3340.13 401178 3242-104739-579880-247824 23339
3343.03-119407 421363-312661 191533 287223 423291
3345.92-164675-183103 245715 387365 186358-63054
3348.81 305265-34146-124817-683464 400806 316026
3351.71 368155 223179-268914 637578-229577 185495
3354.60 126681 188686 78595 181565-236128 194847
3357.49 99285 475404-25159 195322 472406-192883
3360.38 172199-97773 410937-294940 561341 602037
3363.28-55531-214834 123239-496088 172393-247176
3366.17 20145-72385 148046-47394 251569 178106
3369.06-36981 310040 320921 26145 1634-165227
3371.95-485992 347018-75503 414295-96449 406006
3374.85-165944 10537 121041-165654 475016-413123
3377.74-18018-63572-36864 59920-381847 187526
3380.63-527574 236322 658367 320860 45458 61285
3383.53-180238 183242 205968-150100-94021-20215
3386.42 309817-43992 76970 394805 682047 101969
3389.31 598816 332906 265091 175539 428916 135995
3392.20 245931 458480 324248-59602 398080 195798
3395.10 255677 260484 383741 416899 27396 101753
3397.99-473275 87217 748538 93199 865197 168610
3400.88-186856 631640 154245-371887 348920 469615
3403.77 766615 443453 68348 617730 464058-89430
3406.67-308136 394851 14022 689103 125459 312125
3409.56 582123-15345 516868 522462-281164-329514
3412.45 421458 602973 714241-296574 318223 851320
3415.35-104340 188995 1117165 865901 106405 1121645
3418.24-107936 883318 338719 268385 523635 272259
3421.13-70083-36231 114814-136829-34504 246998
3424.02 65034-340947 555140-89848 1181116-31442
3426.92-115704 31762 89088-747812-410014 149471
3429.81 24308 319653 32185-807633-333842-346201
3432.70 95260-79412 68858 391561-367666-25094
3435.59-212199-306275 145538 51182-88304 518117
3438.49-239193-184984-116444-272023-211813-432670
3441.38-652505-187953 522393 487006 32929-470287
3444.27 376268 185740-467710 183717 322195-108276
3447.17 44511 179856-527999-246366-398732-313219
3450.06 438258 279883 288908 114749-109628 251160
3452.95 348763 57027 279638-186603-309722-457420
3455.84-220452 423029-165847 41618-225918 119069
3458.74-528719 111949-224995 161188 72489 313343
3461.63-629445-136526 240681-420025-211351 12912
3464.52-130707-26107-442130-207916-344915 236455
3467.41-70100 352113-297666 11047 406575 120309
3470.31-306587-558435-171324-158431 20881-699051
3473.20-360089-230205-300308-38644-83742 280085
3476.09-621160-30463-55840-211938 85059-60531
3478.99 54065 34312-78725 78615-69565 195520
3481.88-140580-416736-130003-95836-714758-131204
3484.77-276123 76756 103763-413458 176049-526033
3487.66 108289 61022 77600 21122-164368-76795
3490.56-150039-184739 62642-402172 65695-728453
3493.45-259858-483171 646148-204697-170817-90271
3496.34-296554 331680-112195-86707 1913-164454
3499.23-500709-120096-50519-203492-53739-184874
3502.13-152227 43293-421811-288297-447553-592846
3505.02 112505-369627 80536 202178-316357-101261
3507.91 58085-517703 109749-346384-222404-123603
3510.81-202044 200539-532626-479397-27257-520809
3513.70 29240-155838-582808 26524-369834-11403
3516.59 161495 114811-119658-9332 189930-390275
3519.48-290423-411965 311768 40167-223844 104100
3522.38-373665-171604-17460-272765 103574-247150
3525.27-556976-118187-177535-117824-268010-135847
3528.16-337461 257666-474042 49110-445959-297040
3531.05-25771-599645-335545 215877 81544-282198
3533.95 391660-7384 32310-121393-531472-192277
3536.84-499826-429542 261697-284058-806198 13775
3539.73 204903 363324-196432-174613 460861 78938
3542.63-508102-437981-386723 4683-483817-119383
3545.52-200356-130781-415989 83006 139822-98802
3548.41 5705-342481-169879-658572-304569 155372
3551.30-581439-107968 486146-370008-103896 55024
3554.20-187063-98941-920733-275922-3281-252486
3557.09 69595-175944-14664-312424 218851-405583
3559.98-20029-33581-233914-29791 155705-157011
3562.87-165890 171386-317466 81723-13196 11535
3565.77-241573-25303-126848-413316-910197-265771
3568.66-174010-503718-164195-192140 141009 6514
3571.55 249213 244416-643194-292787 67776 161427
3574.45-204019-114310-223529-241683-322527-226106
3577.34-84772-147078 3297 202241-388821 190486
3580.23 89336-611923-27780 356466 84786-263827
3583.12 62162 154436-329697-152432-584678-5043
3586.02-476394-460679-145185-370123-265604-763445
3588.91-206091-142246-151706-427850-91182-57963
3591.80 72425-201465-470972 114604-237381 377075
3594.69-379343-836773 153146-583063 74661-279701
3597.59-24450-278326 50384-257425-258647-225143
3600.48-344683-469854-396676 162040-424415-49950
3603.37-315716-268526-350793-224639-311103-144612
3606.27-345991-557088 229022-464891-4663-1151803
3609.16-1270045-226588-52639 16113-245563-61158
3612.05-731505 61249-158592-394661-2993 103018
3614.94-663918-391022-568118-19606-406759-396199
3617.84-92098 243476-551666-1149548-113281-767053
3620.73-618656 26066-137019-55142-14549-278476
3623.62 104382 182500 25128-186636-522396-5450
3626.51 447809-397378-263343-1600173-37734-1030209
3629.41-821848 449451-230400-23770-154263 557461
3632.30 180318-162273-590591-153980 222571 177119
3635.19-146672-581498 156004 90448 80055 338614
3638.09 141785-102204-115752-78905 120127 194534
3640.98 141057-207287 161966 39736 210216 475136
3643.87 451372-283364 382421 322069 200033 110759
3646.76-569302-160617 64798 25448-1328089 345615
3649.66-41288-307296-407202-170198 129364 53153
3652.55 23046-46083 326743 154402 7924 46713
3655.44 25051-552962 642364 226343 404487 330538
3658.33 242384-30832 218642 329574 120225 21082
3661.23 251285 218990 470524 45326 155339 358262
3664.12 269158 108682 399421 436127-139489 314050
3667.01-88100 309654 319152-515247 583311-346255
3669.91-481575-1675981 473128-376221 34812-667873
3672.80 337327-82065 397231-722472-533498-747902
3675.69-1100617 346403-347790 582523 363170 180202
3678.58 293479 30239-21688 476199 452694-135894
3681.48 426266-184233 380650 184682 309153-236732
3684.37 212248-102216 160318 35032 408008-65561
3687.26 428148-1434984-1476595 786639 601089 130820
3690.15 203248-751556-222360 100346-418649 566030
3693.05 269374 110604 163099-176545 280970 161473
3695.94 96900-6764 441961 250333 689228 437110
3698.83 86659 386731 310945 740797 173217-343693
3701.73 67558 449407-182900 132357 521336 153522
3704.62 98402 365296 172585 244926 74856-134030
3707.51 54570 589285-215084-194657 162890 172618
3710.40 207843 393870-960402-1522419 424566-102462
3713.30 574411 68344 210699-72591-91170-63618
3716.19 327979-18920-132601 368932-110747-443556
3719.08 264107-279995 336019-117479-24498-349695
3721.97-27666 70174 12-489703 194136-161969
3724.87-80668-126799-365418-887346 256406-442129
3727.76 66656-37535 423898-407089-267256-151008
3730.65-231902-230651-851929-731072-144587-255333
3733.55 44313-817555-672684-422317-76360-1094463
3736.44-1358549-141299-285985-205195-284604-408194
3739.33-498106 63157 235636 233270 818057 62619
3742.22 362981-52755-511889-1366803-2537380-1085625
3745.12 252715 666784 313825 484646-119720-441091
3748.01 417409-490595-1942386 3514 442527 184081
3750.90 616185-566855-1898120 234140 151494 24287
3753.79 761861 731429 602690 438307 219212 99767
3756.69 603203 685877 323020 1283294 552147 380743
3759.58 559971 592342 786504 914303 1001258 839376
3762.47 799787 844404 1073916 776526 1329746 1091859
3765.37 493070 1655012 779834 816531 844334 922296
3768.26 794043 948300 327824 624461 802076 841328
3771.15 937197 905186 808670 814937 437323 818084
3774.04 564883 851310 610797 107572 622010 441448
3776.94 393206 740803 151166 155359-25657 478450
3779.83 51987 59324 337221 129200 352109 147798
3782.72 255555 383522 101592-239088 509867 46964
3785.61 266904 304480 433070 336497 293804 718686
3788.51 299488-19435 384698 294824 550734 183262
3791.40 407542 671791 758567 507309 474834 311677
3794.29 149509 173006 514110-189565 362991 681739
3797.19-5419 838368 673750 598364 681638 475727
3800.08 716021-255008-1349620 772578 171132 222030
3802.97 165377 624661 1151778 377229 580704 598141
3805.86 877327-802932-315414 818436 187594 1109578
3808.76 683101 1118185 480110 127971 464954 600992
3811.65 575239 175343 984903 713551 410865 1159199
3814.54 470229 640311-1514451 52531 854258 1000565
3817.43 726848 860142 679628 820215 292718-160470
3820.33-631573 421792-458579-76931 619319 589565
3823.22 243707 224342 71895 366078 488624 336349
3826.11 129371 330996 300069 67922 580568 3890
3829.01-415869 96222 61495 90484-815425-536423
3831.90-179365-221687 389833-662484 140737-925203
3834.79-295715-381632-229896-355113-556912-2344002
3837.68-1580872 196460-502112-374486-559696-445763
3840.58-786017-267041-739485-126106-829825-806939
3843.47-820226-217583-173856-807965-849343-293690
3846.36-692713-291675-15358-211286-286656-69595
3849.25-250900-417603 90889-317309-1468987-2037797
3852.15-415053-636883-1058681-2990416-2181784 374910
3855.04-239784-296263-344171-364090-758650 178298
3857.93-161813-10137-87052 164796-559981-195445
3860.83-491064-299219-46751-261488-130202-258224
3863.72-493740-136216-1223415-148521-349562-141655
3866.61-330419 290204-368987-353487-787456-105569
3869.50-1891557-1154814-254883-570882 170091-569662
3872.40-320884-67923-731974-902193-254864-116899
3875.29-40684 31866-323110-599690 205852-476204
3878.18 35332-604797-597110-687861-1133377-33213
3881.07-355519-501458-767586-65983-246871 63782
3883.97 11287 133494-1051829-739204-403745-447507
3886.86 333750-199181-133268 36636-218479-199425
3889.75 124102 54860-835406-226839-71449 154372
3892.65-64166 381309 315397-123805 41000 426577
3895.54 155479-3681 630195 469818 353303 247107
3898.43 190740-523210 512026 385781-295728 484561
3901.32-72125-172514 486493 206875 544783-220796
3904.22 575887 144954 244611 489233-34961 259576
3907.11 487353 326150 477343 299272-47232-112096
3910.00-60738 306781-52954 301848-189049 156902
3912.89 129402 226339 265074 67989-214864 124124
3915.79-303549 189987-348750-132414 38303-685965
3918.68-87779-676477-721056-571361-175636-414846
3921.57 414019-530881-309295-389163-291085-207850
3924.47-466408 170481 67160-248394-33403 179868
3927.36-70336-63828 339841-260976 22072 20447
3930.25 427905 336212 152838 147200-102216 126405
3933.14 77414 457638 217494 879736 130369 33730
3936.04 274263 284102 756277 563116-34068 308030
3938.93 497895 605697 200355 583008 905293 496257
3941.82 45722 195226 62123 604679 1029748 385720
3944.71 992007 517277 298055 490662 901434 1002629
3947.61 852313 765643 919794 99775 823232 343352
3950.50 524586 547428 786942 745456 944097 976028
3953.39 1103214 1122579 409811 617190 245333 747175
3956.29 857828 1362862 1413238 785219 539595 950332
3959.18 1145678 1191334 634432 732540 284671 717906
3962.07 470442 669596 841401 858489 881639 225194
3964.96 593456 413985 291105-10890 497860 467424
3967.86 54743 430133 519710-1119 64671 353134
3970.75-398421 335588-110602 79061 47282-157442
3973.64-567693-162126
##END=
