##TITLE=Trichloroethene
##JCAMP-DX=4.24
##DATA TYPE=INFRARED SPECTRUM
##CLASS=IUPAC A
##ORIGIN=NIST, Analytical Chemistry Division, 301-975-3108
##OWNER=COPYRIGHT (C) 2000 by the U.S. Secretary of Commerce
##DATE=00/02/01
##$SPECTRA VERSION=1.10
##$UNCERTAINTY IN Y=2.1 % relative (B=1.1E-04,C=2.4E-09,D=2.3E-13)
##CAS NAME=Trichloroethene
##CAS REGISTRY NO=79-01-6
##MOLFORM=C2 H Cl3
##MP=-73 C
##BP=87 C
##$NIST SOURCE=QUANT-IR
##SPECTROMETER/DATA SYSTEM=IFS66V (Bruker)
##INSTRUMENT PARAMETERS=KBr Beam Splitter; MCT Detector; Multipass cell
##STATE=gas
##SAMPLE DESCRIPTION=Trichloroethene Primary Gas Standard
##PRESSURE=101.3 Pa
##TEMPERATURE=23 C
##SAMPLING PROCEDURE=1 L/min Flow
##RESOLUTION=1.9290
##DATA PROCESSING=Triangular Apodization
##XUNITS=cm-1
##YUNITS=(micromol/mol)-1m-1 (base 10)
##XFACTOR=1.0
##YFACTOR=9.0949E-13
##DELTAX=0.9645
##FIRSTX=575.652
##LASTX=3974.605
##FIRSTY=1.45E-06
##MAXX=3973.64
##MINX=575.65
##MAXY=.0008728
##MINY=-1.22E-06
##NPOINTS=3526
##XYDATA=(X++(Y..Y))
575.65 1601884 2311366 2375097 3867394 4054902 1984524
580.47 2229688 2760101 1328236 1185269 1466400 969367
586.26 204111-145796-241408-153273 849245 749839
592.04 434556 752228 1039532 575420 874212 1896310
597.83 1323746 1078731 1606427 1811251 2141470 2216354
603.62 1887180 2434593 3435262 3682705 4687618 6174676
609.40 7436507 9015523 10673127 12171089 14220319 17067664
615.19 19803816 23828807 28533150 33391790 39528777 46281810
620.97 53326433 60701697 67971549 74264865 79848519 83679363
626.76 86527923 87984329 87624461 86493439 83729697 79908324
632.54 77284354 77917206 83645100 90979408 93522691 89906580
638.33 81687458 70542309 58538477 47430137 37608045 29963024
644.11 24329603 19984756 16214188 13092111 11056220 9244337
649.90 7850039 6425523 5049922 4238661 3480132 2818208
655.68 2426405 2787800 3202323 2592664 2218858 2432612
661.47 2484996 2441223 2182487 1761307 1788784 2267363
667.25 2189431 1851363 1962256 1873441 2008224 1886627
673.04 1479891 1322976 1247093 1450139 1542521 1601785
678.83 1433873 1221221 1536262 1211846 1009757 1315999
684.61 889338 591765 775431 767530 858349 507976
690.40 316920 509866 590575 525476 366796 177462
696.18 148549 346144 395352 234771 235129 369902
701.97 141750 145333 437672 387232 308005 232669
707.75 278930 420825 635659 562571 452468 487324
713.54 623094 597766 641570 825915 793312 695768
719.32 722752 1017553 908503 749684 1106310 1322491
725.11 1258332 913851 1273310 1572785 1457952 1388051
730.89 1540333 1473965 1376670 1545568 1831729 2009603
736.68 2015023 1971286 2274352 2468617 2714451 2594990
742.47 2474710 2425136 2493870 2507566 2741803 2862833
748.25 3108576 3194890 3299674 3251377 3599042 3735881
754.04 4348540 5214534 6069725 6986788 8958533 11052588
759.82 13630710 16859185 20956215 25769260 31769696 37924492
765.61 45494908 53150433 61980191 70499020 78918388 86057882
771.39 93805693 98584737 102930194 107693018 118201422 129727449
777.18 137836855 126569855 125320975 128627001 321544721 453942514
782.96 222362820 105386756 116880637 112697746 117716346 114690933
788.75 115410540 111815272 109726301 104874933 101012390 95539108
794.53 89745336 80634692 71261892 62314413 54983635 48445349
800.32 42836449 36980409 31456215 26491983 24054564 23168653
806.11 23399208 22359755 20339791 17551554 14665863 11767932
811.89 9797931 8484297 8114365 7891437 8354933 9061613
817.68 10076801 11457767 12964081 14540369 16820179 19007867
823.46 21781415 25293578 29665961 35641686 43604587 54317881
829.25 70228476 91641981 117822001 149846669 191159811 242050640
835.03 301410400 367429385 437733985 507852791 575062757 636127832
840.82 689177235 732940715 762030901 794124029 817371816 752325876
846.60 731432086 857339659 959738849 890072814 744573660 728316510
852.39 759592332 734581419 658058025 535105698 394781949 262521263
858.17 159727324 90602845 51163741 31214421 22238469 17763415
863.96 15646123 13288143 11723478 10991175 10332164 9386718
869.75 8951615 8549446 8035826 7395108 6878523 6575294
875.53 6363626 5944838 5497314 5274254 5098838 4576169
881.32 4455992 4597451 4693865 4729051 4842980 5040937
887.10 5480143 5833400 6250996 6765256 7360463 8296122
892.89 9428261 10349851 11755420 13506023 15474549 17676235
898.67 20175489 22873043 25092334 26821524 27896629 27756773
904.46 26596600 24659845 23124984 23670470 27213974 32111193
910.24 36337785 39178771 40651582 41737363 43391521 46016517
916.03 50256913 56379086 64521874 74836422 87301248 102095145
921.81 120078965 141793088 167798469 198884260 235578751 278325676
927.60 326453279 379118009 435327371 491689926 544553735 589319033
933.39 621359297 636951089 634623099 616564197 589211632 564541760
939.17 554732607 567778316 606113382 657832529 703898068 720488201
944.96 689502130 620703909 532869165 440137650 353787261 280937197
950.74 224090777 181616243 149759440 124094953 102401146 83526736
956.53 67131955 53097036 41310071 32175495 25201515 19772047
962.31 15820945 13108934 11371583 10130271 9475752 9402037
968.10 9261596 9138509 9159125 9288941 9667698 10145435
973.88 10990472 12305609 13720362 15110033 16110863 16656727
979.67 16598057 15627823 14562389 14946161 15085050 13898930
985.45 13863516 13838965 13569383 13554166 13352876 12950663
991.24 11995689 10696791 9389954 8080408 6951373 6137606
997.03 5501891 5214098 5325016 5416944 5524964 5764278
1002.81 6164700 6648180 7051974 7626523 8117268 8762841
1008.60 9355982 9507081 9742952 10186611 10332914 10308409
1014.38 10554653 10514709 10199185 9857312 9511495 9274428
1020.17 9090031 9130295 9303925 9179847 8641151 7863538
1025.95 6911623 5921283 5078216 4393987 3835159 3572744
1031.74 3279093 2892226 2712632 2495571 2395007 2105658
1037.52 2013365 2085106 1804465 1738790 1799256 1747742
1043.31 1739808 1746645 1645283 1486988 1440161 1502648
1049.09 1513590 1431700 1342314 1213788 1266153 1269794
1054.88 1124873 1106631 1048410 961036 849330 909696
1060.67 902823 771525 775094 845003 889778 953432
1066.45 926811 700365 705820 808105 839159 652759
1072.24 740157 911353 801355 876227 917416 766903
1078.02 738212 707159 703832 744257 669904 701434
1083.81 701366 803038 907923 850874 934340 1000800
1089.59 909372 794343 747122 871472 966218 1055290
1095.38 1301030 1489854 1588572 1597128 1636799 1861780
1101.16 2132665 2297362 2438841 2654215 2729364 2682256
1106.95 2905619 3115606 3228963 3300278 3287470 3471471
1112.73 3644026 3635770 3660816 3645072 3355251 2985468
1118.52 2761137 2693587 2595113 2265065 2199431 2340012
1124.31 2339877 2171928 2036704 2007462 1777015 1609698
1130.09 1537405 1434856 1352484 1123686 1031796 1120548
1135.88 1015199 870632 956187 1045735 1178335 1303939
1141.66 1292621 1120754 972344 791618 675797 761099
1147.45 775447 857186 846936 673147 520066 559352
1153.23 666171 516467 457566 482455 381135 374277
1159.02 475132 432130 356501 400216 206048 251305
1164.80 446938 355603 281921 327128 339253 310966
1170.59 352640 465234 580407 598739 578108 551449
1176.37 528530 549025 572767 608395 650743 721600
1182.16 785576 760224 627828 598000 719246 673521
1187.95 628277 762940 842393 800868 824479 839764
1193.73 890515 970986 935524 954350 1143547 1216473
1199.52 1292560 1608535 1665306 1738368 1943658 1902195
1205.30 2097460 2456219 2647059 2716650 2934645 3246623
1211.09 3523500 3848956 4232599 4590643 4952637 5356090
1216.87 5798822 6342343 6881574 7462116 8109123 8792965
1222.66 9589301 10534464 11420666 12132262 12651780 12819189
1228.44 12648556 12370385 12472315 13961854 15402013 16271832
1234.23 17234841 18371101 20472313 23131511 26145335 29740573
1240.01 34020593 38871354 44170157 49165206 52990532 55293283
1245.80 55457518 53864328 51104010 50584265 54756880 57340707
1251.59 58359849 61539344 63609504 63138872 61159238 57308571
1257.37 52893944 49523561 46302867 42469615 38200952 34122978
1263.16 30229525 26766573 24056120 21867527 20369738 19447111
1268.94 18220510 16565273 14747874 12609132 10517910 8746122
1274.73 7149609 5910877 5066459 4292910 3628276 3154554
1280.51 2745239 2315897 1886526 1690378 1495418 1232613
1286.30 1043760 880897 894192 1003403 1047570 817279
1292.08 606269 638189 644026 708725 839809 922352
1297.87 889168 892447 1032694 1018831 1044255 1177507
1303.65 1268229 1395452 1524473 1654964 1751604 1861357
1309.44 1958109 1950869 2013004 2175855 2247718 2332099
1315.23 2373789 2392326 2389245 2319295 2297084 2363445
1321.01 2343323 2186664 2068071 1997308 1900408 1780000
1326.80 1795776 1742459 1631812 1409285 1274212 1269522
1332.58 1066480 906868 934560 900322 808893 806383
1338.37 785073 716997 701982 639790 694011 791360
1344.15 681128 739945 686045 642757 558094 375725
1349.94 422800-79482-230890 288095 182039 195035
1355.72 492517 572066 667965 718062 637749 464194
1361.51 360501 523024 770268 836729 894057 903755
1367.29 906375 785105 708060 807427 877867 812891
1373.08 841167 1183630 1347704 1236315 1030726 1105168
1378.87 1278625 1239140 1163953 1134162 1355954 1490203
1384.65 1347218 1054683 853825 1045960 1223855 1232174
1390.44 1204579 1136635 1002726 860329 890816 1051313
1396.22 1043717 881290 836501 1003941 1109826 1176733
1402.01 1250879 1029025 905217 1036258 1074958 1189215
1407.79 1244259 1222392 1245109 1205724 1227220 1304362
1413.58 1399204 1302432 1237227 1316409 1119168 1007517
1419.36 1367261 1559014 1601233 1506840 1413485 1619679
1425.15 1724605 1628026 1574543 1449184 1297821 1342533
1430.93 1284675 1183824 1077531 1014418 729233 378866
1436.72 652656 847802 907989 914150 882991 881030
1442.51 740092 683619 760155 736457 503363 513626
1448.29 698576 733283 733979 699771 706342 776073
1454.08 742584 162016-197288 282917 586636 641594
1459.86 716223 731546 762256 701696 485217 655241
1465.65 871478 760820 687802 702287 679073 405827
1471.43 129585 164082 463812 568531 455467 641375
1477.22 692288 639093 655571 677591 783459 786380
1483.00 679522 685715 687582 513884 497452 630642
1488.79 497351 382901 616326 760457 644430 505332
1494.57 173653 33404 388798 312350 336943 566369
1500.36 647492 646443 566826 384931-195670-506176
1506.15-429276-20274 264537 430156 610782 558238
1511.93 520661 554128 594875 492304 266519 367693
1517.72 641405 523679 72692-20976 347119 684926
1523.50 672173 519718 676625 837210 896970 1057846
1529.29 1232502 1262758 1337513 1283307 1548139 2189164
1535.07 2671869 3191498 3364701 3356189 4289643 5826459
1540.86 7087436 8692797 10621250 12262201 14262726 16659202
1546.64 19029361 21896847 25907542 31299791 36996608 43093416
1552.43 49672772 55252353 58486672 57752453 52244252 43814823
1558.21 38683419 43909516 45620118 42198974 47074470 52502985
1564.00 53901877 52585209 49040451 43970369 38314341 33109633
1569.79 29212534 26446214 24613034 23822289 23863606 23798842
1575.57 24611474 26710564 28701379 31027018 33771750 36939264
1581.36 40441167 43866321 46778481 48902615 50018006 49704957
1587.14 48008385 45221738 42147116 40084756 40252259 43322409
1592.93 47733887 50794342 50827797 48068446 43533391 38054651
1598.71 32315014 26712977 21871885 18023373 14927673 12550827
1604.50 10646002 8813033 7194122 5871660 4773755 3845707
1610.28 3104911 2486624 1923344 1505517 1183608 485989
1616.07 233669 723385 730422 716025 816020 730295
1621.85 421735 261679 522787 691181 601033 502324
1627.64 563455 711974 600716 466656 622530 646197
1633.43 277356-299538-84586 338339 470647 461641
1639.21 431600 519812 429185 353203 378771 77189
1645.00-319706-62911 134282 185788 206782 162695
1650.78-464092-1350591-939257-171367 122850 253131
1656.57 348786 347609 269422 265356 282711 141878
1662.35 187281 409942 434431 428514 382408 157802
1668.14-75088 95017 212261 201398 395995 399966
1673.92 2112 94588 523231 560597 468627 449322
1679.71 503243 558257 415817 14277-559158-124647
1685.49 629533 671488 723081 703551 768395 823801
1691.28 775428 685097 637906-96444-408470 378554
1697.07 546991 68106-625851-188965 544480 440091
1702.85 198861 68603 9360 38004 315978 336918
1708.64 248402 249111 270731 217311 142058-44857
1714.42 100670 124723-440563-226754 271502 404627
1720.21 464877 454727 479639 517615 611272 603346
1725.99 509719 542159 512508 483637 563411 550347
1731.78 200986-284647-87240 513966 715296 723142
1737.56 694173 490938 676973 924604 816711 905766
1743.35 1113258 1214122 1223880 1328360 1439592 1523064
1749.13 1621070 1512860 1758374 2162146 2408496 2603649
1754.92 2604741 2605877 2774760 2845200 2788019 2631406
1760.71 2475945 2695666 2798971 2823292 2846526 2761068
1766.49 2572770 2456104 2570697 2451889 2280195 1939649
1772.28 2038125 2462384 2374861 2324388 2425177 2422171
1778.06 2433933 2510019 2448500 2438435 2598592 2572091
1783.85 2436090 2456534 2527094 2509000 2515450 2602764
1789.63 2578661 2474351 2173181 1827495 1628226 1416716
1795.42 1296242 1303204 1170605 979874 993570 952040
1801.20 850319 867813 917066 861369 771833 796057
1806.99 751458 677627 602803 562379 618312 588509
1812.77 496854 527748 613053 591056 581318 582163
1818.56 603364 549074 523275 502463 496056 505291
1824.35 478194 524541 476482 505251 533715 571260
1830.13 637375 687076 749308 710149 757801 764393
1835.92 768577 879358 853152 794127 788215 748147
1841.70 680231 446145 378086 653788 764690 809528
1847.49 876522 881312 881959 963997 1085686 1172089
1853.27 1203729 1229917 1356900 1444042 1469240 1559059
1859.06 1628247 1555458 1582956 1671252 1756093 1806742
1864.84 1750304 1773548 1810424 1700483 1781099 1940553
1870.63 1868970 1764564 1621602 1518966 1479029 1374599
1876.41 1355599 1385863 1333966 1285083 1327259 1297985
1882.20 1155867 1089525 971714 886907 906889 829436
1887.99 633494 479093 386679 333861 290217 290993
1893.77 246559 204257 322955 360613 388031 378175
1899.56 242965 313437 369747 348414 424833 424308
1905.34 455547 483448 493526 509421 425283 445797
1911.13 469911 464696 604573 638501 709426 592968
1916.91 350554 488122 634066 600832 601856 572113
1922.70 582900 612517 653146 690410 627861 616504
1928.48 625120 613540 658179 580920 530273 579640
1934.27 619659 636033 627174 602044 564878 559190
1940.05 550623 547571 460693 556407 655280 602005
1945.84 615004 696771 672962 600567 635738 663793
1951.63 701035 779027 856233 842739 783576 741175
1957.41 720676 704925 802677 836049 797364 835841
1963.20 876416 906920 858685 836189 917948 926892
1968.98 852084 902658 1010169 1079954 1230311 1090770
1974.77 776898 809405 885255 925047 885108 806328
1980.55 759545 842563 906907 767564 783034 822408
1986.34 744350 702126 688714 678683 704766 761906
1992.12 788503 743665 728594 770749 795096 751747
1997.91 730577 757146 729641 792976 851281 808465
2003.69 660967 621308 733858 793308 804793 752920
2009.48 738105 728196 749961 850390 927471 832448
2015.27 678780 710871 687677 693642 738648 722485
2021.05 762398 705225 754081 838112 828497 803024
2026.84 822088 800286 818068 895257 878406 914326
2032.62 941833 934207 991757 961474 808586 805112
2038.41 841332 878459 898535 841465 870853 921544
2044.19 906920 887366 809140 788920 840080 826621
2049.98 802679 755900 766064 789328 860886 960947
2055.76 943745 832723 800124 804726 918860 918720
2061.55 809070 884024 949869 1007438 967739 978040
2067.33 1015180 1022377 1077208 1069913 1022881 1057457
2073.12 1175892 1205444 1225264 1164976 1174672 1293485
2078.91 1312541 1355203 1285658 1305817 1365070 1433809
2084.69 1485860 1510458 1625127 1638461 1587826 1653028
2090.48 1809618 1877319 1909252 1854940 1824076 1835148
2096.26 1864535 1842646 1790352 1923920 1941245 1756504
2102.05 1517364 1513352 1598039 1505755 1290112 1205363
2107.83 1156007 1043557 960372 855657 949927 999063
2113.62 860502 774730 842701 876829 897392 781994
2119.40 824704 887381 733305 739233 852114 836608
2125.19 835879 753710 697314 825576 886481 913042
2130.97 873053 890975 946122 862083 773674 784256
2136.76 815900 924925 1053007 1021085 923758 904769
2142.55 876882 923133 1014198 991433 1010885 1059833
2148.33 988065 951278 1017298 1104907 1063459 911192
2154.12 896816 1010618 998944 939879 1042447 1085162
2159.90 1012460 951274 1017663 1131456 1107667 1001668
2165.69 1154774 1207602 939949 937294 1066501 1080028
2171.47 1042362 1156340 1218431 1138447 1068068 1134467
2177.26 1238334 1162451 1120777 1248491 1262275 1160329
2183.04 1241841 1271026 1134256 1173911 1341181 1289948
2188.83 1196313 1260374 1358486 1256106 1234551 1291475
2194.61 1172258 1072867 1209368 1295549 1201145 1206695
2200.40 1218887 1213370 1175625 1186020 1201258 1164860
2206.19 1189557 1270011 1347692 1283537 1271488 1371467
2211.97 1417112 1495319 1537938 1503852 1482816 1481413
2217.76 1557354 1646114 1599607 1438774 1452911 1542551
2223.54 1471105 1481717 1476413 1396315 1414086 1420546
2229.33 1404508 1361963 1326005 1308691 1284552 1249648
2235.11 1222854 1248774 1226593 1176026 1189529 1217431
2240.90 1139301 1117829 1133982 1052964 1080595 1077450
2246.68 991539 1024408 1093646 1068692 1109455 1138566
2252.47 1066345 1071279 1160379 1169551 1126568 1168140
2258.25 1128356 1138525 1157592 1151392 1103609 1092827
2264.04 1109840 1103451 1126581 1180839 1181735 1069065
2269.83 1101201 1150474 1090637 1004778 970957 1045408
2275.61 1135362 1130886 1077699 1109270 1138083 1080949
2281.40 1080755 1080011 1123219 1099403 1030182 1062432
2287.18 1086335 1089256 1078685 1054508 1105583 1200467
2292.97 1199925 1203352 1192730 1111165 1042909 1105336
2298.75 1114704 1065235 1090452 1062056 1071509 1128886
2304.54 1287433 1277791 1212550 1262759 1243168 1230800
2310.32 1226794 1333088 1302720 1142830 1109239 1181863
2316.11 1256130 1207656 1110336 1039398 1033784 1098598
2321.89 1163226 1173372 1106082 1109108 1086351 1027842
2327.68 1051504 1032745 1088016 1116445 1042899 1066560
2333.47 1032719 991432 983009 914903 924997 906279
2339.25 944757 1064077 1068577 1123279 1181885 1135540
2345.04 997626 982357 1155481 1180561 1097673 1101591
2350.82 1116859 1098084 1066342 1031699 1036005 1048191
2356.61 967037 920835 933464 971195 979713 904909
2362.39 862963 897282 889145 868581 1020678 1017244
2368.18 964096 1053385 1062354 1112352 1017404 1071887
2373.96 1263711 1177076 1077976 1115438 1186535 1239573
2379.75 1206287 1232140 1257318 1196660 1249228 1235439
2385.53 1154310 1169384 1138671 1175380 1375512 1360616
2391.32 1171192 1055189 1148739 1292524 1308213 1260450
2397.11 1296070 1279023 1262510 1381025 1448650 1352331
2402.89 1202305 1239110 1244443 1316151 1410577 1266356
2408.68 1227158 1301584 1325881 1349763 1384399 1385856
2414.46 1395684 1417211 1428754 1451303 1472399 1466836
2420.25 1468438 1550477 1607114 1667860 1697895 1636531
2426.03 1676746 1783490 1849921 1853957 1810872 1786476
2431.82 1718912 1721231 1808130 1757515 1647822 1640985
2437.60 1738548 1700833 1545991 1463873 1391032 1325576
2443.39 1301806 1326805 1360276 1355758 1355665 1443949
2449.17 1474223 1437899 1431149 1304750 1286733 1338610
2454.96 1380145 1452142 1455460 1422687 1450371 1485043
2460.75 1523365 1550482 1617478 1608080 1596593 1711871
2466.53 1714366 1846430 2048062 2017148 1956370 2016522
2472.32 2053713 2092968 2097396 2127631 2197284 2177856
2478.10 2178064 2201205 2265976 2207565 2035466 2115705
2483.89 2159653 2107937 2113890 2105836 2105744 2069977
2489.67 1932058 1881855 1954841 1893147 1814931 1851287
2495.46 1930466 1927108 1876500 1941197 1925582 1807030
2501.24 1858800 1837858 1825621 1867811 1848079 1828985
2507.03 1803786 1728008 1689595 1783686 1860227 1898762
2512.81 1933843 2010752 1910689 1839013 1911153 1904460
2518.60 1897993 1921807 1950095 1912228 1947651 1984136
2524.39 1875915 1902307 1926072 1792237 1794993 1789428
2530.17 1710357 1677730 1650689 1655442 1666756 1632176
2535.96 1465487 1331437 1272922 1312973 1495074 1440684
2541.74 1294411 1268318 1384140 1431702 1292723 1242845
2547.53 1225103 1305859 1389145 1383661 1354005 1338019
2553.31 1397262 1249793 1215452 1380487 1440770 1427262
2559.10 1337957 1286479 1336119 1389042 1313533 1339810
2564.88 1367089 1324028 1269103 1272420 1421788 1450755
2570.67 1347771 1330004 1437228 1437880 1307217 1312312
2576.45 1386988 1378380 1351821 1342020 1339148 1311624
2582.24 1357228 1421463 1344977 1376259 1444803 1317218
2588.03 1274067 1373632 1385877 1354484 1352670 1400179
2593.81 1476327 1500004 1474087 1346117 1300820 1386443
2599.60 1334657 1290904 1351336 1414265 1389345 1401614
2605.38 1406190 1395323 1294017 1296969 1384745 1438953
2611.17 1541202 1508436 1452372 1452791 1523947 1533156
2616.95 1458249 1438964 1432747 1360282 1324621 1322312
2622.74 1456869 1608731 1553272 1436566 1474398 1541352
2628.52 1476126 1445032 1428960 1413841 1400919 1327681
2634.31 1342242 1469507 1550449 1476917 1450664 1487859
2640.09 1416612 1383158 1408800 1445843 1502105 1499902
2645.88 1452287 1480231 1435576 1441725 1602064 1564891
2651.66 1540343 1498271 1428832 1461844 1389101 1322237
2657.45 1369992 1480808 1473844 1346044 1311064 1402529
2663.24 1422063 1440792 1533074 1455030 1338914 1324348
2669.02 1328413 1432690 1520479 1520907 1465309 1470570
2674.81 1563354 1551347 1487990 1466240 1547430 1464488
2680.59 1389570 1490119 1439002 1423451 1440289 1372665
2686.38 1370274 1450435 1456517 1396759 1458036 1483641
2692.16 1490259 1453294 1340473 1306676 1364077 1533822
2697.95 1524772 1313608 1273496 1310672 1370982 1499744
2703.73 1664863 1692273 1609555 1679070 1695617 1617487
2709.52 1623875 1546595 1428480 1463141 1418646 1305671
2715.30 1363534 1527662 1637509 1608930 1595699 1618920
2721.09 1587471 1601193 1646719 1570879 1549351 1539019
2726.88 1509060 1452979 1425453 1509246 1451522 1333903
2732.66 1321124 1432612 1461884 1344316 1267403 1384904
2738.45 1558360 1579047 1644371 1564931 1399512 1383786
2744.23 1391050 1505228 1675245 1610985 1500214 1654085
2750.02 1662016 1547461 1575617 1562726 1434258 1392259
2755.80 1357520 1422127 1459083 1427400 1539478 1629264
2761.59 1559367 1444208 1457123 1459825 1503042 1545658
2767.37 1580884 1595559 1648422 1668539 1655121 1681890
2773.16 1587911 1547194 1579264 1499896 1537280 1617372
2778.94 1666534 1669291 1585452 1647646 1678167 1647889
2784.73 1545884 1530308 1638571 1717031 1729255 1683833
2790.52 1679413 1580042 1674734 1875679 1770538 1828185
2796.30 1895807 1831487 1918859 2098428 2312811 2346942
2802.09 2291225 2246190 2372880 2512839 2431902 2532066
2807.87 2637628 2622332 2651275 2737382 2739139 2730208
2813.66 2838108 2875336 2947324 3025147 3071383 3205932
2819.44 3110881 3030157 3165754 3404267 3539814 3526013
2825.23 3559581 3686574 3795591 3621344 3362141 3212237
2831.01 3232704 3339296 3408505 3208297 3041539 3320594
2836.80 3433610 3201097 2990209 2866441 2723600 2507007
2842.58 2208882 2067585 2123471 2119805 2133459 2016990
2848.37 1946595 1999399 1945399 1859220 1833474 1711469
2854.16 1775332 1989323 1982342 1815873 1837432 1906535
2859.94 1873884 1813495 1767814 1840997 1744170 1687716
2865.73 1769030 1786407 1755198 1680397 1702069 1784309
2871.51 1954267 1998677 1990657 2237822 2219881 2029230
2877.30 2072305 2028941 1958805 2089139 2080671 1964849
2883.08 1846051 1920016 2143683 2270573 2301229 2127291
2888.87 2053940 2086848 2163169 2173789 2111780 2144269
2894.65 2065192 1987020 2014850 2139882 2358245 2433997
2900.44 2390459 2318080 2213187 2395263 2525182 2467637
2906.22 2351285 2328228 2392564 2374438 2357483 2328027
2912.01 2354675 2338693 2426904 2510437 2348522 2227955
2917.80 2357881 2448067 2401703 2517289 2455597 2327278
2923.58 2539990 2650770 2527905 2527510 2586964 2592776
2929.37 2628773 2552436 2477801 2647024 2742890 2834806
2935.15 2878551 2881501 2959390 2798689 2699114 2795944
2940.94 2993383 3107026 3107456 2966093 2859344 2939249
2946.72 3088959 3010080 2818247 2953725 3165555 3062280
2952.51 2981644 3042554 2969525 3057448 3268987 3174236
2958.29 2975768 2954269 2608936 2812027 3451407 3430561
2964.08 3420099 3456885 3338056 3276543 3403414 3507330
2969.86 3546609 3641240 3592010 3647315 3903679 3940457
2975.65 3685592 3634941 3832198 3854545 3758321 3841785
2981.44 3941828 4058220 4039009 3990263 3939858 3930232
2987.22 3999411 3850273 3770467 3734339 3781751 3817915
2993.01 3781322 3909158 3806402 3518672 3455298 3306444
2998.79 3139621 3171503 3169403 3143627 3004906 3012008
3004.58 3067008 2857025 2814051 2893795 2960931 2926493
3010.36 2779641 2760060 2800460 2633347 2501748 2568658
3016.15 2683088 2668684 2667464 2696481 2592295 2565111
3021.93 2573858 2493789 2512608 2628497 2521171 2429514
3027.72 2398940 2320969 2313229 2403693 2561364 2466542
3033.50 2298300 2499679 2615122 2531378 2378130 2393114
3039.29 2475385 2435893 2489984 2522272 2537033 2570432
3045.08 2717972 2914436 2857289 2714426 2837311 2819024
3050.86 2777486 2752163 2702226 2784363 2746162 2722923
3056.65 2898468 3143995 2987256 2795920 2890825 3061426
3062.43 3200874 3307315 3418267 3509073 3634987 3866510
3068.22 4162146 4564646 4991582 5467105 5930849 6407512
3074.00 6788071 7290428 8145184 9342132 10557034 12066562
3079.79 14248471 16872798 20441931 25177499 30996638 37998161
3085.57 45993619 54452166 62201442 68628588 72278752 72554912
3091.36 69194227 63814791 64603176 78854329 77261175 59730839
3097.14 62866261 74509402 80831170 81106503 75214407 65168117
3102.93 52949038 41473050 31935308 24834474 19644108 15981248
3108.72 13244328 11254386 9704792 8505856 7525315 6789585
3114.50 6350100 5791903 5327391 5270534 4957583 4514187
3120.29 4668492 4627519 4417116 4508891 4380629 4342459
3126.07 4510523 4553288 4452445 4625568 4801075 4912791
3131.86 4931175 4976288 4933506 4796850 4735025 4776409
3137.64 4844490 4801189 4965891 5039093 4987346 5204808
3143.43 5440139 5468747 5551196 5716638 5693882 5463933
3149.21 5308358 5542716 5783400 5962656 6490074 6945549
3155.00 7346862 7853137 8341550 8707537 9160897 9687575
3160.78 10243055 10959763 11373329 11639085 11996456 12133061
3166.57 12272983 12414636 12213449 12106015 11942316 11676628
3172.36 11750982 11696047 11005936 10558185 10408377 9950577
3178.14 9048473 7972356 6865974 5627677 4673264 3947871
3183.93 3468326 3384543 3169272 3111769 3217506 3063196
3189.71 2929598 2817122 2767349 2749844 2862197 2793639
3195.50 2630922 2592984 2493655 2650207 2897558 2858816
3201.28 2804674 2943613 3076060 2983056 2850859 2752113
3207.07 2657830 2720010 2859244 2959529 2873949 2651709
3212.85 2654826 2832922 2984636 3117165 3051231 2765485
3218.64 2659849 2945196 3084610 2945550 3051404 2994498
3224.42 2863935 3110385 2973932 2812438 2954760 3084084
3230.21 3121326 3057238 3014919 2986124 2988812 2934423
3236.00 2959518 2911365 2991604 3197050 3195266 3100847
3241.78 3045426 3043905 3142116 3307919 2924595 2650635
3247.57 2945776 2988972 2829846 2960683 3084742 3156064
3253.35 3271790 3187490 3154477 3272388 3384914 3154845
3259.14 2982765 3187636 3381005 3199752 3154818 3273528
3264.92 3092499 3003799 3087195 3037275 3033334 3106618
3270.71 3040148 3107947 3262726 3228311 3039951 3079607
3276.49 3111709 2917997 2870807 2880747 2740602 2717769
3282.28 2835535 2805561 2766339 2790374 2875200 2971328
3288.06 3108446 3010564 2714727 2582235 2700155 2761378
3293.85 2735536 2846229 2886547 2897878 2874815 2837288
3299.64 2699712 2767547 2900327 2864661 2629010 2493477
3305.42 2751915 2843329 2814923 2927864 2743201 2664585
3311.21 2852092 2734772 2689214 2575515 2468086 2700323
3316.99 2870826 2923778 2885638 2754509 2619418 2666008
3322.78 2770261 2795709 2697832 2620457 2632392 2652305
3328.56 2785025 2702501 2522970 2570154 2914532 2780290
3334.35 2425496 2638175 2837763 2646068 2582539 2574848
3340.13 2560120 2694367 2696977 2692073 2717233 2597549
3345.92 2541836 2640205 2733549 2563831 2439320 2423087
3351.70 2545918 2746065 2537851 2475807 2711033 2941985
3357.49 2926962 2872334 2952845 2822247 2669700 2596674
3363.28 2537472 2483669 2679982 3017876 2811815 2646159
3369.06 2536826 2533232 2588966 2520485 2670159 2713424
3374.85 2670331 2706426 2553540 2381478 2476777 2624313
3380.63 2610102 2436668 2543480 2608619 2679678 2848993
3386.42 2864122 2769840 2623277 2789150 2811170 2574191
3392.20 2443291 2366024 2677271 2801503 2827802 2701410
3397.99 2407773 2602588 2661377 2581236 2539873 2496546
3403.77 2403741 2508929 2612968 2642551 2753005 2657675
3409.56 2481246 2267707 2316781 2568591 2653996 2581549
3415.34 2500038 2508431 2522017 2562519 2559097 2560165
3421.13 2600606 2714752 2673825 2624061 2596554 2761485
3426.92 2731297 2424118 2583820 2615591 2447313 2569943
3432.70 2463605 2341566 2534363 2465197 2495560 2776566
3438.49 2742131 2645576 2610491 2509922 2430867 2413489
3444.27 2817325 2967880 2675965 2631756 2770088 2724302
3450.06 2711465 2842481 2821468 2848516 2867677 2858208
3455.84 2737472 2691769 2819407 2654596 2626153 2883951
3461.63 2878686 2745514 2718214 2736318 2740093 2717134
3467.41 2881674 2904781 2849392 2920364 2798771 2664999
3473.20 2764502 2885164 2729690 2783886 2733906 2670650
3478.98 2857240 2810224 2835511 2904120 2917989 2920169
3484.77 3016890 3120295 2964209 2815263 2780466 2686550
3490.56 2563046 2672020 2978663 2977538 3058135 3046752
3496.34 2897649 2930636 2889079 2884369 2817507 2624846
3502.13 2709287 2883992 2931781 2959246 2785741 2752315
3507.91 2882843 3039325 3048987 2811036 2681923 2650044
3513.70 2750309 2850309 2847868 2792070 2809454 2896260
3519.48 2860494 2816855 2766078 2645950 2767646 3004552
3525.27 2853865 2758696 2745836 2732481 2706918 2792121
3531.05 2908089 2865473 2990856 2933530 2829322 2755106
3536.84 2893125 2988412 2724192 2624802 2910913 2925279
3542.62 2803487 2947917 2964034 3028913 3113373 3126106
3548.41 3013801 2867890 2706511 2836616 3045322 2812908
3554.20 2823333 2975582 2884776 2953974 3050125 2875123
3559.98 2801346 3035964 3099187 2867984 2690378 2673001
3565.77 2594706 2743815 3048118 2995872 2874015 3053155
3571.55 3219085 3032915 2828693 2953896 3101257 2983289
3577.34 2862634 2933380 2947259 2961372 3055774 3169553
3583.12 3188770 3097022 3101761 3113232 3004687 2814141
3588.91 2944393 3106255 2998169 3010783 3042753 2908295
3594.69 2995159 3025527 2812644 3040145 3143157 3022501
3600.48 3055757 2952350 2924544 3155921 3276667 3068300
3606.26 3104417 3083351 2756113 2971730 3280052 3123864
3612.05 2973507 2955242 2966286 3105197 3238023 3305987
3617.84 3107426 2960416 3100445 3234920 3419348 3373961
3623.62 3257476 3271382 3409860 3255046 2780217 2697846
3629.41 3001743 3135561 3169900 3026811 2986393 3297018
3635.19 3489074 3423895 3278762 3304409 3341597 3310243
3640.98 3241462 3272765 3249352 3249648 3319410 3135864
3646.76 3050446 2880743 2899618 3086770 3317133 3582503
3652.55 3384574 3324127 3186067 2958808 3150707 3325687
3658.33 3474942 3491577 3418479 3363385 3247773 3385612
3664.12 3471918 3264499 3267982 3194808 3096710 3098048
3669.90 2782280 3153178 3451455 3229518 2916450 2484073
3675.69 2698762 3168359 3267242 3180783 3225734 3311860
3681.48 3248090 3285857 3467978 3383396 3296274 3079246
3687.26 2609766 2962250 3278243 2978115 3077921 3245460
3693.05 3208788 3449486 3648492 3559420 3622440 3688029
3698.83 3750509 3581876 3327718 3602259 3715546 3550385
3704.62 3491545 3551277 3600299 3424598 3297695 3477074
3710.40 3366273 3175643 3489246 3839769 4051102 4113183
3716.19 3984011 3972429 3910157 3899979 4135784 4177792
3721.97 4152450 4234169 4352547 4133939 3946934 4056267
3727.76 4079387 4147018 4083418 3763173 3792720 3958409
3733.54 3813086 3673506 3453937 3512067 3616784 3559236
3739.33 3442117 3349150 3552746 3253949 2204822 2420319
3745.12 3360381 3402940 3151323 2523336 2780087 3146602
3750.90 2504946 2739278 3387118 3617514 3533917 3459094
3756.69 3515491 3371755 3309922 3328580 3415686 3462879
3762.47 3532574 3529129 3291156 3254500 3446758 3567151
3768.26 3371272 3151080 3291941 3460353 3511176 3623035
3774.04 3610890 3538511 3412950 3269086 3153345 3260170
3779.83 3453640 3495520 3544485 3508941 3454757 3528924
3785.61 3530040 3424602 3451993 3562971 3691190 3547967
3791.40 3502445 3520239 3512226 3477190 3310276 3431903
3797.18 3458157 3469498 3408617 2740482 2778277 3263783
3802.97 3242231 3360107 3252097 3084276 3468641 3714577
3808.76 3641057 3624151 3518863 3408838 3511990 3496345
3814.54 2988706 2947395 3471559 3444283 3437388 3354614
3820.33 3014923 3097747 3350668 3457490 3507183 3384897
3826.11 3480318 3579608 3483999 3625097 3559600 3376746
3831.90 3397619 3533346 3279918 3371997 3438487 2665928
3837.68 2770120 3203091 3284301 3424396 3559615 3446373
3843.47 3440236 3610584 3545686 3528950 3576272 3596081
3849.25 3579715 3295143 3139692 2975711 2304873 2671314
3855.04 3343917 3473158 3645300 3844313 4090817 4139161
3860.82 4063901 3817715 3595270 3357538 3488416 3794822
3866.61 3675734 3501164 3160290 3170528 3464172 3704481
3872.40 3645217 3376174 3470414 3619459 3566154 3427369
3878.18 3282635 3264842 3474043 3607569 3606122 3411678
3883.97 3214637 3234233 3410337 3547215 3595820 3609279
3889.75 3275632 3197009 3481471 3523045 3536124 3494488
3895.54 3465281 3434634 3327393 3245139 3444671 3362215
3901.32 3206345 3445405 3450166 3311572 3342428 3532524
3907.11 3425006 3423668 3645364 3743357 3793587 3705062
3912.89 3523311 3510163 3479081 3333017 3374230 3450394
3918.68 3446024 3340196 3399887 3532448 3520003 3450854
3924.46 3483689 3709676 3960548 3982337 3838896 3800949
3930.25 3987231 3920016 3737223 4051998 4143757 4059923
3936.04 4188874 4354450 4286622 4030657 4111643 4236978
3941.82 4376485 4411978 4300655 4429552 4321212 4125459
3947.61 4188447 4320720 4271910 3960132 3796041 3852620
3953.39 3849731 3829046 3807604 3826967 3856716 3758087
3959.18 3702049 3600776 3539797 3579512 3716315 3610465
3964.96 3523085 3656981 3633279 3742640 3885042 3859623
3970.75 3696597 3511327 3632151 3683084
##END=
