##TITLE=Silane, methyltriphenyl-
##JCAMP-DX=4.24
$$ By DXEDIT 1.05 (RS McDonald)
##DATA TYPE=INFRARED SPECTRUM
##CLASS=COBLENTZ III
##ORIGIN=DOW CHEMICAL COMPANY
##OWNER=COPYRIGHT (C) 1988 by COBLENTZ SOCIETY INC.
Collection (C) 2018 copyright by the U.S. Secretary of Commerce
on behalf of the United States of America. All rights reserved.
##DATE=1967/02/08
##NAMES=methyl(triphenyl)silane
##CAS REGISTRY NO=791-29-7
##MOLFORM=C19 H18 Si
##SOURCE REFERENCE=COBLENTZ NO. 9169
##$NIST SOURCE=COBLENTZ
##$NIST IMAGE=cob9169
##SPECTROMETER/DATA SYSTEM=DOW KBr FOREPRISM-GRATING
##INSTRUMENT PARAMETERS=BLAZED AT 3.5, 12.0, 20.0 MICRON AND CHANGED AT 5.0, 7.5, 14.9 MICRON
##STATE=SOLUTION (10% CCl4 FOR 3800-1330, 10% CS2 FOR 1330-400 CM^-^1)
##PATH LENGTH=0.011 CM, 0.011 CM
##SAMPLING PROCEDURE=TRANSMISSION
##RESOLUTION=2
##DATA PROCESSING=DIGITIZED BY COBLENTZ SOCIETY (BATCH I) FROM HARD COPY
##XUNITS=1/CM
##YUNITS=TRANSMITTANCE
##XFACTOR=1
##YFACTOR=1
##DELTAX=1
##FIRSTX=3800
##LASTX=385
##FIRSTY=0.884
##MAXX=3800
##MINX=385
##MAXY=0.9154
##MINY=0.0003
##NPOINTS=3416
##XYDATA=(X++(Y..Y))
3800.000000 0.8840 0.8840 0.8840 0.8839 0.8838
3795.000000 0.8837 0.8837 0.8836 0.8835 0.8834
3790.000000 0.8834 0.8833 0.8833 0.8832 0.8831
3785.000000 0.8830 0.8830 0.8828 0.8828 0.8827
3780.000000 0.8827 0.8825 0.8825 0.8824 0.8823
3775.000000 0.8821 0.8821 0.8818 0.8818 0.8816
3770.000000 0.8815 0.8813 0.8812 0.8810 0.8809
3765.000000 0.8807 0.8805 0.8803 0.8801 0.8799
3760.000000 0.8798 0.8796 0.8794 0.8792 0.8791
3755.000000 0.8790 0.8789 0.8787 0.8786 0.8784
3750.000000 0.8783 0.8782 0.8781 0.8778 0.8778
3745.000000 0.8775 0.8775 0.8773 0.8771 0.8770
3740.000000 0.8768 0.8767 0.8766 0.8764 0.8763
3735.000000 0.8761 0.8760 0.8758 0.8757 0.8756
3730.000000 0.8756 0.8757 0.8758 0.8760 0.8763
3725.000000 0.8768 0.8773 0.8778 0.8783 0.8789
3720.000000 0.8795 0.8802 0.8809 0.8810 0.8810
3715.000000 0.8811 0.8811 0.8809 0.8808 0.8802
3710.000000 0.8797 0.8791 0.8785 0.8778 0.8773
3705.000000 0.8767 0.8761 0.8755 0.8750 0.8745
3700.000000 0.8741 0.8736 0.8732 0.8727 0.8687
3695.000000 0.8718 0.8716 0.8713 0.8710 0.8707
3690.000000 0.8705 0.8702 0.8699 0.8696 0.8693
3685.000000 0.8691 0.8689 0.8688 0.8687 0.8686
3680.000000 0.8685 0.8684 0.8684 0.8684 0.8685
3675.000000 0.8687 0.8690 0.8693 0.8696 0.8698
3670.000000 0.8701 0.8705 0.8709 0.8713 0.8717
3665.000000 0.8721 0.8725 0.8728 0.8733 0.8737
3660.000000 0.8741 0.8745 0.8749 0.8753 0.8758
3655.000000 0.8762 0.8766 0.8770 0.8775 0.8777
3650.000000 0.8778 0.8781 0.8783 0.8785 0.8787
3645.000000 0.8789 0.8791 0.8791 0.8791 0.8788
3640.000000 0.8785 0.8781 0.8778 0.8770 0.8762
3635.000000 0.8753 0.8745 0.8736 0.8727 0.8716
3630.000000 0.8706 0.8694 0.8683 0.8678 0.8675
3625.000000 0.8677 0.8678 0.8680 0.8683 0.8686
3620.000000 0.8689 0.8691 0.8694 0.8696 0.8699
3615.000000 0.8701 0.8703 0.8705 0.8707 0.8709
3610.000000 0.8711 0.8712 0.8713 0.8714 0.8715
3605.000000 0.8717 0.8720 0.8731 0.8742 0.8754
3600.000000 0.8767 0.8777 0.8788 0.8793 0.8792
3595.000000 0.8792 0.8787 0.8780 0.8773 0.8764
3590.000000 0.8756 0.8753 0.8753 0.8753 0.8757
3585.000000 0.8768 0.8778 0.8793 0.8808 0.8823
3580.000000 0.8838 0.8858 0.8878 0.8893 0.8908
3575.000000 0.8910 0.8913 0.8913 0.8913 0.8907
3570.000000 0.8902 0.8887 0.8873 0.8855 0.8837
3565.000000 0.8818 0.8800 0.8785 0.8771 0.8765
3560.000000 0.8760 0.8756 0.8753 0.8750 0.8747
3555.000000 0.8744 0.8741 0.8740 0.8740 0.8739
3550.000000 0.8739 0.8739 0.8739 0.8738 0.8738
3545.000000 0.8737 0.8737 0.8737 0.8737 0.8736
3540.000000 0.8736 0.8736 0.8736 0.8735 0.8735
3535.000000 0.8735 0.8735 0.8735 0.8735 0.8735
3530.000000 0.8735 0.8735 0.8736 0.8736 0.8736
3525.000000 0.8736 0.8736 0.8736 0.8736 0.8736
3520.000000 0.8736 0.8736 0.8736 0.8736 0.8736
3515.000000 0.8736 0.8737 0.8737 0.8737 0.8737
3510.000000 0.8737 0.8737 0.8737 0.8736 0.8735
3505.000000 0.8734 0.8733 0.8732 0.8731 0.8730
3500.000000 0.8728 0.8728 0.8727 0.8725 0.8725
3495.000000 0.8724 0.8723 0.8721 0.8721 0.8720
3490.000000 0.8718 0.8718 0.8717 0.8716 0.8716
3485.000000 0.8715 0.8714 0.8713 0.8712 0.8711
3480.000000 0.8710 0.8709 0.8708 0.8707 0.8706
3475.000000 0.8705 0.8704 0.8702 0.8701 0.8700
3470.000000 0.8699 0.8698 0.8697 0.8696 0.8695
3465.000000 0.8694 0.8693 0.8692 0.8691 0.8690
3460.000000 0.8689 0.8688 0.8687 0.8686 0.8685
3455.000000 0.8683 0.8682 0.8681 0.8680 0.8678
3450.000000 0.8678 0.8677 0.8675 0.8674 0.8673
3445.000000 0.8671 0.8671 0.8670 0.8668 0.8668
3440.000000 0.8667 0.8665 0.8664 0.8663 0.8662
3435.000000 0.8661 0.8660 0.8659 0.8659 0.8658
3430.000000 0.8657 0.8656 0.8655 0.8654 0.8653
3425.000000 0.8652 0.8651 0.8650 0.8649 0.8648
3420.000000 0.8648 0.8647 0.8646 0.8645 0.8645
3415.000000 0.8644 0.8644 0.8643 0.8643 0.8642
3410.000000 0.8641 0.8640 0.8640 0.8639 0.8639
3405.000000 0.8639 0.8639 0.8638 0.8638 0.8638
3400.000000 0.8638 0.8638 0.8638 0.8638 0.8638
3395.000000 0.8638 0.8638 0.8638 0.8638 0.8638
3390.000000 0.8638 0.8637 0.8637 0.8637 0.8637
3385.000000 0.8637 0.8637 0.8637 0.8637 0.8637
3380.000000 0.8638 0.8638 0.8638 0.8638 0.8638
3375.000000 0.8638 0.8639 0.8639 0.8639 0.8639
3370.000000 0.8639 0.8639 0.8640 0.8640 0.8640
3365.000000 0.8640 0.8640 0.8640 0.8640 0.8640
3360.000000 0.8641 0.8641 0.8641 0.8641 0.8641
3355.000000 0.8641 0.8642 0.8642 0.8642 0.8642
3350.000000 0.8642 0.8641 0.8640 0.8639 0.8638
3345.000000 0.8637 0.8637 0.8636 0.8635 0.8634
3340.000000 0.8633 0.8632 0.8631 0.8630 0.8628
3335.000000 0.8628 0.8628 0.8627 0.8625 0.8625
3330.000000 0.8624 0.8623 0.8621 0.8620 0.8618
3325.000000 0.8616 0.8615 0.8613 0.8611 0.8609
3320.000000 0.8607 0.8605 0.8604 0.8602 0.8600
3315.000000 0.8598 0.8596 0.8594 0.8593 0.8591
3310.000000 0.8589 0.8587 0.8585 0.8583 0.8581
3305.000000 0.8578 0.8575 0.8573 0.8571 0.8568
3300.000000 0.8566 0.8563 0.8560 0.8557 0.8555
3295.000000 0.8552 0.8550 0.8547 0.8544 0.8541
3290.000000 0.8539 0.8536 0.8533 0.8530 0.8528
3285.000000 0.8525 0.8523 0.8520 0.8518 0.8515
3280.000000 0.8513 0.8511 0.8509 0.8506 0.8504
3275.000000 0.8502 0.8500 0.8498 0.8496 0.8493
3270.000000 0.8491 0.8489 0.8487 0.8484 0.8482
3265.000000 0.8480 0.8478 0.8475 0.8474 0.8471
3260.000000 0.8468 0.8467 0.8465 0.8463 0.8461
3255.000000 0.8458 0.8456 0.8454 0.8452 0.8449
3250.000000 0.8447 0.8445 0.8443 0.8440 0.8438
3245.000000 0.8436 0.8434 0.8431 0.8428 0.8425
3240.000000 0.8424 0.8421 0.8420 0.8417 0.8415
3235.000000 0.8413 0.8411 0.8408 0.8406 0.8404
3230.000000 0.8402 0.8399 0.8397 0.8395 0.8393
3225.000000 0.8390 0.8388 0.8386 0.8384 0.8381
3220.000000 0.8378 0.8377 0.8375 0.8371 0.8370
3215.000000 0.8368 0.8366 0.8363 0.8361 0.8359
3210.000000 0.8357 0.8354 0.8352 0.8350 0.8348
3205.000000 0.8345 0.8343 0.8340 0.8338 0.8335
3200.000000 0.8333 0.8330 0.8328 0.8325 0.8324
3195.000000 0.8321 0.8318 0.8315 0.8313 0.8310
3190.000000 0.8308 0.8305 0.8302 0.8299 0.8297
3185.000000 0.8293 0.8289 0.8285 0.8281 0.8277
3180.000000 0.8273 0.8268 0.8265 0.8261 0.8257
3175.000000 0.8253 0.8249 0.8245 0.8242 0.8236
3170.000000 0.8230 0.8221 0.8215 0.8208 0.8201
3165.000000 0.8194 0.8187 0.8178 0.8171 0.8162
3160.000000 0.8155 0.8147 0.8139 0.8130 0.8121
3155.000000 0.8114 0.8106 0.8097 0.8088 0.8075
3150.000000 0.8065 0.8053 0.8042 0.8030 0.8018
3145.000000 0.8006 0.7994 0.7965 0.7936 0.7880
3140.000000 0.7825 0.7701 0.7251 0.7411 0.7247
3135.000000 0.7238 0.7230 0.7236 0.7243 0.7299
3130.000000 0.7355 0.7411 0.7467 0.7521 0.7578
3125.000000 0.7634 0.7690 0.7722 0.7756 0.7761
3120.000000 0.7768 0.7772 0.7778 0.7778 0.7781
3115.000000 0.7782 0.7782 0.7783 0.7782 0.7778
3110.000000 0.7799 0.7771 0.7765 0.7755 0.7746
3105.000000 0.7725 0.7707 0.7680 0.7653 0.7614
3100.000000 0.7575 0.7531 0.7487 0.7433 0.7380
3095.000000 0.7334 0.7289 0.7247 0.7206 0.7004
3090.000000 0.6803 0.6392 0.5981 0.5804 0.5627
3085.000000 0.5629 0.5631 0.5737 0.5844 0.5950
3080.000000 0.6057 0.6074 0.6092 0.6084 0.6077
3075.000000 0.5672 0.5267 0.4862 0.4457 0.4052
3070.000000 0.3647 0.3242 0.2838 0.2545 0.2252
3065.000000 0.2251 0.2251 0.2806 0.3193 0.3579
3060.000000 0.3966 0.4182 0.4407 0.4392 0.4386
3055.000000 0.4249 0.4112 0.3957 0.3802 0.3646
3050.000000 0.3491 0.3400 0.3312 0.3316 0.3348
3045.000000 0.3416 0.3512 0.3782 0.4052 0.4322
3040.000000 0.4592 0.4862 0.5132 0.5402 0.5672
3035.000000 0.5870 0.6059 0.6072 0.6075 0.5989
3030.000000 0.5904 0.5778 0.5652 0.5525 0.5399
3025.000000 0.5273 0.5147 0.5021 0.4895 0.4858
3020.000000 0.4822 0.4951 0.5080 0.5139 0.5198
3015.000000 0.5125 0.5052 0.4970 0.4888 0.4829
3010.000000 0.4771 0.4773 0.4776 0.5012 0.5250
3005.000000 0.5498 0.5746 0.5746 0.5746 0.5619
3000.000000 0.5492 0.5357 0.4871 0.5088 0.4954
2995.000000 0.4907 0.4860 0.4878 0.4895 0.5177
2990.000000 0.5459 0.5741 0.6024 0.6306 0.6589
2985.000000 0.6825 0.7061 0.7090 0.7118 0.7130
2980.000000 0.7141 0.7145 0.7165 0.7150 0.7151
2975.000000 0.7145 0.7139 0.7132 0.7125 0.7100
2970.000000 0.7074 0.7028 0.6984 0.6890 0.6796
2965.000000 0.6703 0.6610 0.6517 0.6424 0.6331
2960.000000 0.6238 0.6145 0.6052 0.5959 0.5866
2955.000000 0.5845 0.5831 0.5851 0.5877 0.5995
2950.000000 0.6112 0.6231 0.6349 0.6465 0.6584
2945.000000 0.6701 0.6819 0.6937 0.7055 0.7172
2940.000000 0.7291 0.7408 0.7526 0.7545 0.7564
2935.000000 0.7578 0.7592 0.7598 0.7605 0.7611
2930.000000 0.7618 0.7625 0.7632 0.7636 0.7640
2925.000000 0.7642 0.7645 0.7647 0.7650 0.7651
2920.000000 0.7654 0.7656 0.7658 0.7658 0.7658
2915.000000 0.7658 0.7658 0.7656 0.7655 0.7645
2910.000000 0.7636 0.7624 0.7612 0.7595 0.7578
2905.000000 0.7558 0.7539 0.7519 0.7501 0.7486
2900.000000 0.7471 0.7462 0.7456 0.7454 0.7454
2895.000000 0.7454 0.7456 0.7485 0.7514 0.7530
2890.000000 0.7547 0.7562 0.7580 0.7597 0.7614
2885.000000 0.7630 0.7647 0.7662 0.7680 0.7696
2880.000000 0.7712 0.7728 0.7744 0.7757 0.7769
2875.000000 0.7782 0.7795 0.7807 0.7819 0.7832
2870.000000 0.7845 0.7858 0.7871 0.7881 0.7892
2865.000000 0.7897 0.7901 0.7906 0.7911 0.7911
2860.000000 0.7911 0.7911 0.7912 0.7912 0.7914
2855.000000 0.7907 0.7900 0.7892 0.7885 0.7875
2850.000000 0.7865 0.7853 0.7841 0.7828 0.7815
2845.000000 0.7811 0.7808 0.7806 0.7804 0.7801
2840.000000 0.7800 0.7798 0.7796 0.7794 0.7793
2835.000000 0.7793 0.7794 0.7795 0.7797 0.7798
2830.000000 0.7799 0.7800 0.7801 0.7803 0.7804
2825.000000 0.7804 0.7803 0.7803 0.7801 0.7799
2820.000000 0.7797 0.7795 0.7793 0.7789 0.7785
2815.000000 0.7781 0.7776 0.7774 0.7771 0.7769
2810.000000 0.7768 0.7768 0.7767 0.7767 0.7767
2805.000000 0.7768 0.7771 0.7774 0.7776 0.7778
2800.000000 0.7782 0.7785 0.7788 0.7790 0.7793
2795.000000 0.7797 0.7801 0.7806 0.7811 0.7817
2790.000000 0.7822 0.7828 0.7835 0.7840 0.7846
2785.000000 0.7851 0.7857 0.7861 0.7868 0.7872
2780.000000 0.7878 0.7885 0.7891 0.7897 0.7903
2775.000000 0.7908 0.7915 0.7921 0.7926 0.7932
2770.000000 0.7938 0.7944 0.7950 0.7954 0.7958
2765.000000 0.7964 0.7968 0.7972 0.7978 0.7980
2760.000000 0.7983 0.7984 0.7985 0.7986 0.7988
2755.000000 0.7989 0.7990 0.7991 0.7993 0.7994
2750.000000 0.7996 0.7997 0.7998 0.7999 0.8001
2745.000000 0.8001 0.8003 0.8004 0.8006 0.8007
2740.000000 0.8008 0.8008 0.8011 0.8011 0.8012
2735.000000 0.8014 0.8015 0.8018 0.8019 0.8021
2730.000000 0.8022 0.8025 0.8026 0.8028 0.8031
2725.000000 0.8032 0.8034 0.8036 0.8038 0.8040
2720.000000 0.8042 0.8043 0.8045 0.8047 0.8049
2715.000000 0.8051 0.8053 0.8055 0.8057 0.8060
2710.000000 0.8062 0.8065 0.8068 0.8071 0.8074
2705.000000 0.8075 0.8078 0.8081 0.8083 0.8083
2700.000000 0.8084 0.8084 0.8085 0.8085 0.8084
2695.000000 0.8083 0.8081 0.8075 0.8071 0.8065
2690.000000 0.8061 0.8056 0.8051 0.8044 0.8038
2685.000000 0.8031 0.8025 0.8019 0.8015 0.8015
2680.000000 0.8017 0.8017 0.8018 0.8018 0.8018
2675.000000 0.8021 0.8025 0.8034 0.8043 0.8051
2670.000000 0.8061 0.8071 0.8080 0.8088 0.8097
2665.000000 0.8105 0.8112 0.8119 0.8128 0.8136
2660.000000 0.8144 0.8148 0.8153 0.8153 0.8153
2655.000000 0.8151 0.8151 0.8151 0.8151 0.8151
2650.000000 0.8151 0.8150 0.8150 0.8149 0.8149
2645.000000 0.8149 0.8149 0.8148 0.8148 0.8147
2640.000000 0.8147 0.8146 0.8146 0.8146 0.8146
2635.000000 0.8145 0.8145 0.8144 0.8144 0.8144
2630.000000 0.8144 0.8144 0.8144 0.8144 0.8144
2625.000000 0.8144 0.8144 0.8144 0.8144 0.8144
2620.000000 0.8144 0.8142 0.8141 0.8139 0.8138
2615.000000 0.8137 0.8136 0.8134 0.8133 0.8131
2610.000000 0.8130 0.8128 0.8125 0.8119 0.8115
2605.000000 0.8108 0.8104 0.8100 0.8100 0.8100
2600.000000 0.8104 0.8110 0.8115 0.8122 0.8131
2595.000000 0.8139 0.8148 0.8156 0.8164 0.8168
2590.000000 0.8172 0.8176 0.8181 0.8185 0.8190
2585.000000 0.8192 0.8195 0.8197 0.8200 0.8200
2580.000000 0.8200 0.8195 0.8191 0.8183 0.8175
2575.000000 0.8167 0.8158 0.8156 0.8157 0.8157
2570.000000 0.8160 0.8168 0.8178 0.8194 0.8210
2565.000000 0.8225 0.8243 0.8248 0.8254 0.8254
2560.000000 0.8254 0.8252 0.8250 0.8248 0.8247
2555.000000 0.8247 0.8248 0.8249 0.8250 0.8251
2550.000000 0.8253 0.8254 0.8256 0.8259 0.8263
2545.000000 0.8267 0.8271 0.8275 0.8280 0.8284
2540.000000 0.8288 0.8292 0.8296 0.8300 0.8305
2535.000000 0.8309 0.8313 0.8315 0.8318 0.8318
2530.000000 0.8321 0.8321 0.8324 0.8325 0.8325
2525.000000 0.8327 0.8328 0.8330 0.8331 0.8332
2520.000000 0.8334 0.8335 0.8337 0.8338 0.8339
2515.000000 0.8340 0.8342 0.8343 0.8345 0.8346
2510.000000 0.8348 0.8349 0.8351 0.8352 0.8354
2505.000000 0.8355 0.8357 0.8358 0.8360 0.8361
2500.000000 0.8362 0.8363 0.8365 0.8366 0.8368
2495.000000 0.8368 0.8370 0.8371 0.8373 0.8374
2490.000000 0.8375 0.8377 0.8378 0.8378 0.8381
2485.000000 0.8382 0.8383 0.8384 0.8385 0.8386
2480.000000 0.8387 0.8388 0.8389 0.8390 0.8391
2475.000000 0.8392 0.8394 0.8395 0.8397 0.8398
2470.000000 0.8399 0.8402 0.8406 0.8413 0.8421
2465.000000 0.8428 0.8435 0.8442 0.8449 0.8456
2460.000000 0.8464 0.8470 0.8477 0.8477 0.8477
2455.000000 0.8477 0.8477 0.8477 0.8477 0.8475
2450.000000 0.8475 0.8475 0.8475 0.8475 0.8475
2445.000000 0.8475 0.8477 0.8478 0.8478 0.8480
2440.000000 0.8481 0.8482 0.8483 0.8484 0.8485
2435.000000 0.8486 0.8487 0.8488 0.8489 0.8490
2430.000000 0.8491 0.8492 0.8493 0.8494 0.8495
2425.000000 0.8496 0.8498 0.8499 0.8501 0.8502
2420.000000 0.8504 0.8505 0.8507 0.8508 0.8510
2415.000000 0.8511 0.8513 0.8515 0.8517 0.8518
2410.000000 0.8520 0.8521 0.8523 0.8524 0.8525
2405.000000 0.8527 0.8528 0.8530 0.8532 0.8533
2400.000000 0.8535 0.8537 0.8539 0.8540 0.8542
2395.000000 0.8543 0.8545 0.8546 0.8548 0.8549
2390.000000 0.8550 0.8551 0.8552 0.8553 0.8555
2385.000000 0.8556 0.8558 0.8562 0.8566 0.8568
2380.000000 0.8573 0.8577 0.8581 0.8585 0.8589
2375.000000 0.8592 0.8596 0.8600 0.8604 0.8612
2370.000000 0.8620 0.8630 0.8641 0.8652 0.8663
2365.000000 0.8673 0.8684 0.8694 0.8705 0.8716
2360.000000 0.8727 0.8737 0.8748 0.8757 0.8767
2355.000000 0.8775 0.8784 0.8792 0.8801 0.8809
2350.000000 0.8818 0.8825 0.8835 0.8837 0.8840
2345.000000 0.8840 0.8839 0.8838 0.8836 0.8834
2340.000000 0.8832 0.8831 0.8830 0.8830 0.8828
2335.000000 0.8830 0.8832 0.8838 0.8845 0.8851
2330.000000 0.8858 0.8865 0.8871 0.8878 0.8885
2325.000000 0.8891 0.8898 0.8904 0.8911 0.8909
2320.000000 0.8907 0.8902 0.8897 0.8892 0.8888
2315.000000 0.8883 0.8878 0.8870 0.8862 0.8852
2310.000000 0.8842 0.8832 0.8821 0.8814 0.8807
2305.000000 0.8799 0.8792 0.8784 0.8777 0.8771
2300.000000 0.8766 0.8765 0.8765 0.8764 0.8764
2295.000000 0.8763 0.8762 0.8761 0.8761 0.8760
2290.000000 0.8760 0.8759 0.8758 0.8757 0.8756
2285.000000 0.8755 0.8754 0.8753 0.8752 0.8751
2280.000000 0.8750 0.8749 0.8748 0.8747 0.8746
2275.000000 0.8745 0.8744 0.8743 0.8743 0.8743
2270.000000 0.8743 0.8743 0.8743 0.8742 0.8742
2265.000000 0.8742 0.8742 0.8742 0.8742 0.8742
2260.000000 0.8742 0.8742 0.8742 0.8742 0.8742
2255.000000 0.8742 0.8742 0.8741 0.8741 0.8741
2250.000000 0.8742 0.8743 0.8744 0.8745 0.8747
2245.000000 0.8748 0.8750 0.8751 0.8752 0.8753
2240.000000 0.8755 0.8756 0.8758 0.8759 0.8761
2235.000000 0.8763 0.8766 0.8768 0.8770 0.8771
2230.000000 0.8773 0.8773 0.8773 0.8773 0.8773
2225.000000 0.8770 0.8768 0.8763 0.8758 0.8753
2220.000000 0.8749 0.8745 0.8742 0.8738 0.8735
2215.000000 0.8733 0.8732 0.8731 0.8731 0.8731
2210.000000 0.8731 0.8731 0.8731 0.8733 0.8735
2205.000000 0.8737 0.8740 0.8742 0.8745 0.8748
2200.000000 0.8751 0.8754 0.8757 0.8760 0.8763
2195.000000 0.8766 0.8768 0.8771 0.8775 0.8778
2190.000000 0.8781 0.8782 0.8783 0.8784 0.8785
2185.000000 0.8785 0.8786 0.8787 0.8788 0.8789
2180.000000 0.8790 0.8790 0.8791 0.8792 0.8793
2175.000000 0.8794 0.8795 0.8795 0.8796 0.8797
2170.000000 0.8798 0.8799 0.8800 0.8801 0.8802
2165.000000 0.8803 0.8805 0.8806 0.8807 0.8808
2160.000000 0.8809 0.8810 0.8811 0.8812 0.8813
2155.000000 0.8814 0.8816 0.8816 0.8817 0.8818
2150.000000 0.8818 0.8818 0.8820 0.8821 0.8821
2145.000000 0.8821 0.8820 0.8818 0.8817 0.8816
2140.000000 0.8815 0.8813 0.8812 0.8810 0.8809
2135.000000 0.8808 0.8807 0.8804 0.8802 0.8800
2130.000000 0.8798 0.8796 0.8794 0.8791 0.8789
2125.000000 0.8787 0.8785 0.8785 0.8786 0.8787
2120.000000 0.8788 0.8789 0.8790 0.8791 0.8792
2115.000000 0.8793 0.8794 0.8795 0.8796 0.8797
2110.000000 0.8798 0.8799 0.8800 0.8801 0.8802
2105.000000 0.8803 0.8804 0.8805 0.8806 0.8807
2100.000000 0.8808 0.8809 0.8810 0.8810 0.8811
2095.000000 0.8812 0.8813 0.8814 0.8815 0.8816
2090.000000 0.8817 0.8818 0.8818 0.8818 0.8818
2085.000000 0.8818 0.8820 0.8820 0.8821 0.8821
2080.000000 0.8821 0.8821 0.8821 0.8821 0.8823
2075.000000 0.8823 0.8824 0.8824 0.8825 0.8825
2070.000000 0.8825 0.8825 0.8825 0.8825 0.8827
2065.000000 0.8827 0.8828 0.8828 0.8828 0.8828
2060.000000 0.8828 0.8828 0.8828 0.8828 0.8828
2055.000000 0.8828 0.8828 0.8828 0.8830 0.8830
2050.000000 0.8830 0.8830 0.8830 0.8830 0.8830
2045.000000 0.8828 0.8828 0.8827 0.8825 0.8825
2040.000000 0.8824 0.8823 0.8821 0.8821 0.8821
2035.000000 0.8821 0.8821 0.8820 0.8820 0.8820
2030.000000 0.8820 0.8818 0.8818 0.8818 0.8818
2025.000000 0.8818 0.8818 0.8818 0.8818 0.8818
2020.000000 0.8818 0.8817 0.8817 0.8817 0.8817
2015.000000 0.8816 0.8816 0.8815 0.8814 0.8813
2010.000000 0.8812 0.8810 0.8809 0.8807 0.8806
2005.000000 0.8804 0.8803 0.8794 0.8785 0.8760
2000.000000 0.8735 0.8711 0.8686 0.8661 0.8636
1995.000000 0.8611 0.8592 0.8583 0.8574 0.8566
1990.000000 0.8555 0.8540 0.8525 0.8510 0.8492
1985.000000 0.8468 0.8443 0.8420 0.8397 0.8374
1980.000000 0.8346 0.8310 0.8273 0.8211 0.8124
1975.000000 0.8021 0.7947 0.7915 0.7910 0.7918
1970.000000 0.7945 0.7981 0.8018 0.8058 0.8081
1965.000000 0.8108 0.8100 0.8098 0.7985 0.7865
1960.000000 0.7747 0.7630 0.7599 0.7593 0.7588
1955.000000 0.7601 0.7658 0.7737 0.7808 0.7897
1950.000000 0.8019 0.8125 0.8208 0.8278 0.8328
1945.000000 0.8380 0.8412 0.8442 0.8471 0.8498
1940.000000 0.8517 0.8536 0.8555 0.8565 0.8575
1935.000000 0.8585 0.8595 0.8605 0.8611 0.8616
1930.000000 0.8621 0.8653 0.8631 0.8635 0.8635
1925.000000 0.8636 0.8636 0.8637 0.8637 0.8633
1920.000000 0.8627 0.8621 0.8617 0.8612 0.8599
1915.000000 0.8586 0.8571 0.8559 0.8536 0.8512
1910.000000 0.8489 0.8466 0.8431 0.8389 0.8315
1905.000000 0.8198 0.8088 0.7961 0.7797 0.7818
1900.000000 0.7811 0.7831 0.7878 0.7935 0.7975
1895.000000 0.8001 0.8024 0.8062 0.8053 0.8054
1890.000000 0.8055 0.7986 0.7875 0.7765 0.7630
1885.000000 0.7639 0.7639 0.7646 0.7661 0.7697
1880.000000 0.7772 0.7862 0.7947 0.8025 0.8104
1875.000000 0.8182 0.8259 0.8316 0.8373 0.8430
1870.000000 0.8484 0.8527 0.8558 0.8580 0.8594
1865.000000 0.8609 0.8623 0.8628 0.8633 0.8638
1860.000000 0.8644 0.8649 0.8651 0.8651 0.8651
1855.000000 0.8652 0.8652 0.8652 0.8653 0.8653
1850.000000 0.8653 0.8651 0.8646 0.8641 0.8636
1845.000000 0.8631 0.8612 0.8592 0.8571 0.8547
1840.000000 0.8511 0.8475 0.8440 0.8411 0.8381
1835.000000 0.8352 0.8325 0.8308 0.8290 0.8271
1830.000000 0.8254 0.8234 0.8213 0.8192 0.8160
1825.000000 0.8104 0.8008 0.7889 0.7794 0.7718
1820.000000 0.7665 0.7683 0.7694 0.7738 0.7798
1815.000000 0.7858 0.7925 0.7990 0.8055 0.8118
1810.000000 0.8183 0.8246 0.8307 0.8368 0.8414
1805.000000 0.8453 0.8484 0.8501 0.8518 0.8535
1800.000000 0.8552 0.8568 0.8580 0.8589 0.8597
1795.000000 0.8606 0.8615 0.8623 0.8628 0.8634
1790.000000 0.8639 0.8645 0.8650 0.8653 0.8657
1785.000000 0.8670 0.8663 0.8663 0.8663 0.8663
1780.000000 0.8659 0.8646 0.8608 0.8548 0.8499
1775.000000 0.8456 0.8406 0.8375 0.8365 0.8354
1770.000000 0.8342 0.8325 0.8308 0.8294 0.8284
1765.000000 0.8275 0.8243 0.8265 0.8280 0.8295
1760.000000 0.8318 0.8348 0.8378 0.8407 0.8437
1755.000000 0.8464 0.8490 0.8516 0.8542 0.8561
1750.000000 0.8580 0.8599 0.8618 0.8625 0.8634
1745.000000 0.8641 0.8649 0.8657 0.8661 0.8662
1740.000000 0.8662 0.8662 0.8663 0.8663 0.8664
1735.000000 0.8664 0.8664 0.8665 0.8665 0.8665
1730.000000 0.8666 0.8666 0.8666 0.8667 0.8667
1725.000000 0.8668 0.8668 0.8668 0.8670 0.8670
1720.000000 0.8671 0.8671 0.8671 0.8671 0.8671
1715.000000 0.8671 0.8671 0.8671 0.8671 0.8671
1710.000000 0.8671 0.8671 0.8671 0.8671 0.8671
1705.000000 0.8668 0.8666 0.8663 0.8661 0.8658
1700.000000 0.8655 0.8651 0.8648 0.8644 0.8637
1695.000000 0.8630 0.8623 0.8617 0.8613 0.8608
1690.000000 0.8603 0.8605 0.8611 0.8616 0.8621
1685.000000 0.8625 0.8627 0.8628 0.8631 0.8633
1680.000000 0.8634 0.8634 0.8634 0.8633 0.8630
1675.000000 0.8621 0.8615 0.8607 0.8599 0.8591
1670.000000 0.8582 0.8568 0.8555 0.8542 0.8527
1665.000000 0.8511 0.8494 0.8477 0.8460 0.8443
1660.000000 0.8415 0.8387 0.8360 0.8335 0.8311
1655.000000 0.8287 0.8264 0.8241 0.8220 0.8199
1650.000000 0.8161 0.8162 0.8158 0.8182 0.8204
1645.000000 0.8227 0.8255 0.8287 0.8318 0.8353
1640.000000 0.8387 0.8420 0.8444 0.8468 0.8492
1635.000000 0.8513 0.8534 0.8543 0.8550 0.8558
1630.000000 0.8591 0.8563 0.8564 0.8564 0.8565
1625.000000 0.8560 0.8555 0.8549 0.8528 0.8504
1620.000000 0.8453 0.8328 0.8290 0.8286 0.8286
1615.000000 0.8294 0.8308 0.8321 0.8341 0.8368
1610.000000 0.8395 0.8420 0.8443 0.8458 0.8471
1605.000000 0.8480 0.8488 0.8490 0.8484 0.8478
1600.000000 0.8468 0.8451 0.8433 0.8406 0.8367
1595.000000 0.8320 0.8199 0.8071 0.7493 0.6858
1590.000000 0.6848 0.6850 0.6975 0.7217 0.7458
1585.000000 0.7700 0.7811 0.7864 0.7919 0.7975
1580.000000 0.8028 0.8082 0.8128 0.8176 0.8210
1575.000000 0.8240 0.8267 0.8289 0.8309 0.8325
1570.000000 0.8328 0.8220 0.8078 0.8081 0.8132
1565.000000 0.8207 0.8283 0.8358 0.8433 0.8503
1560.000000 0.8525 0.8546 0.8567 0.8578 0.8584
1555.000000 0.8590 0.8590 0.8589 0.8582 0.8575
1550.000000 0.8568 0.8558 0.8548 0.8552 0.8556
1545.000000 0.8561 0.8565 0.8571 0.8577 0.8583
1540.000000 0.8589 0.8595 0.8600 0.8604 0.8606
1535.000000 0.8609 0.8612 0.8615 0.8618 0.8620
1530.000000 0.8623 0.8625 0.8628 0.8630 0.8631
1525.000000 0.8633 0.8634 0.8635 0.8636 0.8637
1520.000000 0.8637 0.8637 0.8635 0.8633 0.8630
1515.000000 0.8628 0.8625 0.8624 0.8617 0.8610
1510.000000 0.8603 0.8596 0.8590 0.8583 0.8575
1505.000000 0.8568 0.8561 0.8554 0.8543 0.8530
1500.000000 0.8516 0.8499 0.8482 0.8457 0.8425
1495.000000 0.8388 0.8344 0.8271 0.7365 0.5323
1490.000000 0.5309 0.5822 0.6336 0.6849 0.7362
1485.000000 0.7649 0.7734 0.7808 0.7869 0.7928
1480.000000 0.7997 0.8062 0.8108 0.8153 0.8182
1475.000000 0.8207 0.8220 0.8225 0.8232 0.8237
1470.000000 0.8236 0.8235 0.8234 0.8233 0.8227
1465.000000 0.8221 0.8215 0.8205 0.8189 0.8174
1460.000000 0.8162 0.8158 0.8158 0.8161 0.8167
1455.000000 0.8172 0.8174 0.8167 0.8160 0.8154
1450.000000 0.8137 0.8121 0.8105 0.8083 0.8051
1445.000000 0.8021 0.7984 0.7933 0.7880 0.7742
1440.000000 0.7606 0.7471 0.7339 0.6884 0.6668
1435.000000 0.6039 0.3475 0.0912 0.0250 0.0253
1430.000000 0.0231 0.1223 0.2329 0.3436 0.4542
1425.000000 0.5648 0.6356 0.6597 0.6860 0.6998
1420.000000 0.7230 0.7371 0.7431 0.7434 0.7321
1415.000000 0.7124 0.6925 0.6842 0.6894 0.7074
1410.000000 0.7255 0.7436 0.7610 0.7672 0.7735
1405.000000 0.7789 0.7821 0.7854 0.7887 0.7910
1400.000000 0.7922 0.7937 0.7951 0.7968 0.7987
1395.000000 0.8000 0.8008 0.8018 0.8018 0.8017
1390.000000 0.8014 0.7988 0.7946 0.7878 0.7797
1385.000000 0.7742 0.7721 0.7732 0.7747 0.7761
1380.000000 0.7768 0.7749 0.7718 0.7685 0.7610
1375.000000 0.7636 0.7632 0.7638 0.7728 0.7798
1370.000000 0.7862 0.7925 0.7984 0.8019 0.8057
1365.000000 0.8085 0.8103 0.8121 0.8139 0.8144
1360.000000 0.8149 0.8154 0.8158 0.8158 0.8158
1355.000000 0.8158 0.8158 0.8157 0.8156 0.8156
1350.000000 0.8151 0.8144 0.8138 0.8131 0.8125
1345.000000 0.8118 0.8096 0.8072 0.8050 0.8021
1340.000000 0.7982 0.7932 0.7871 0.7796 0.7721
1335.000000 0.7630 0.7562 0.7505 0.7449 0.7398
1330.000000 0.7353 0.7315 0.7283 0.7282 0.7281
1325.000000 0.7257 0.7268 0.7305 0.7376 0.7449
1320.000000 0.7543 0.7639 0.7717 0.7765 0.7810
1315.000000 0.7847 0.7884 0.7908 0.7930 0.7938
1310.000000 0.7945 0.7944 0.7943 0.7930 0.7825
1305.000000 0.7648 0.7471 0.7295 0.7164 0.7176
1300.000000 0.7201 0.7341 0.7498 0.7656 0.7812
1295.000000 0.7891 0.7939 0.7978 0.8011 0.8032
1290.000000 0.8044 0.8057 0.8051 0.8062 0.8055
1285.000000 0.8042 0.7975 0.7918 0.7882 0.7845
1280.000000 0.7819 0.7794 0.7776 0.7762 0.7749
1275.000000 0.7738 0.7728 0.7717 0.7701 0.7686
1270.000000 0.7671 0.7633 0.7407 0.7284 0.7181
1265.000000 0.7084 0.6988 0.6793 0.6272 0.6117
1260.000000 0.6024 0.5987 0.5958 0.5926 0.5893
1255.000000 0.5457 0.4736 0.4014 0.3464 0.3446
1250.000000 0.3447 0.3559 0.4527 0.5495 0.6462
1245.000000 0.6814 0.7058 0.7222 0.7392 0.7568
1240.000000 0.7718 0.7801 0.7875 0.7935 0.7992
1235.000000 0.8044 0.8075 0.8106 0.8136 0.8162
1230.000000 0.8190 0.8217 0.8245 0.8257 0.8268
1225.000000 0.8275 0.8275 0.8256 0.8277 0.8274
1220.000000 0.8264 0.8255 0.8244 0.8228 0.8214
1215.000000 0.8199 0.8185 0.8169 0.8155 0.8139
1210.000000 0.8121 0.8106 0.8090 0.8074 0.8054
1205.000000 0.8034 0.8014 0.7992 0.7968 0.7944
1200.000000 0.7907 0.7862 0.7704 0.7546 0.7388
1195.000000 0.7228 0.7071 0.6911 0.6754 0.6596
1190.000000 0.6476 0.6471 0.6471 0.6472 0.6544
1185.000000 0.6889 0.7078 0.7261 0.7424 0.7546
1180.000000 0.7610 0.7668 0.7697 0.7725 0.7755
1175.000000 0.7778 0.7793 0.7808 0.7824 0.7830
1170.000000 0.7833 0.7853 0.7840 0.7840 0.7834
1165.000000 0.7821 0.7804 0.7786 0.7748 0.7700
1160.000000 0.7647 0.7594 0.7551 0.7518 0.7500
1155.000000 0.7496 0.7495 0.7521 0.7568 0.7607
1150.000000 0.7644 0.7678 0.7711 0.7731 0.7734
1145.000000 0.7728 0.7739 0.7731 0.7719 0.7708
1140.000000 0.7660 0.7607 0.7555 0.7501 0.7447
1135.000000 0.7392 0.7306 0.7215 0.7050 0.6800
1130.000000 0.6548 0.6296 0.6044 0.5792 0.5540
1125.000000 0.5288 0.5036 0.4784 0.4532 0.4280
1120.000000 0.3925 0.3390 0.2855 0.2320 0.1784
1115.000000 0.1249 0.0714 0.0238 0.0229 0.0201
1110.000000 0.0202 0.0353 0.0914 0.1474 0.2034
1105.000000 0.2596 0.3157 0.3716 0.4278 0.5094
1100.000000 0.5510 0.5928 0.6345 0.6721 0.6921
1095.000000 0.7165 0.7376 0.7458 0.7500 0.7533
1090.000000 0.7548 0.7564 0.7574 0.7584 0.7596
1085.000000 0.7617 0.7678 0.7799 0.7908 0.7984
1080.000000 0.8026 0.8062 0.8098 0.8128 0.8149
1075.000000 0.8185 0.8178 0.8188 0.8188 0.8188
1070.000000 0.8165 0.8015 0.7791 0.7642 0.7642
1065.000000 0.7642 0.7674 0.7721 0.7821 0.7904
1060.000000 0.7962 0.8021 0.8076 0.8131 0.8184
1055.000000 0.8236 0.8278 0.8302 0.8321 0.8321
1050.000000 0.8324 0.8325 0.8327 0.8327 0.8327
1045.000000 0.8327 0.8327 0.8327 0.8327 0.8327
1040.000000 0.8325 0.8336 0.8352 0.8371 0.8383
1035.000000 0.8398 0.8414 0.8424 0.8424 0.8424
1030.000000 0.8396 0.6728 0.6740 0.7035 0.7581
1025.000000 0.8117 0.8194 0.8277 0.8364 0.8440
1020.000000 0.8486 0.8518 0.8527 0.8534 0.8534
1015.000000 0.8534 0.8533 0.8532 0.8530 0.8509
1010.000000 0.8512 0.8503 0.8495 0.8487 0.8478
1005.000000 0.8471 0.8456 0.8442 0.8414 0.6749
1000.000000 0.5567 0.5576 0.5752 0.6247 0.6742
995.000000 0.7236 0.7731 0.8132 0.8292 0.8366
990.000000 0.8386 0.8397 0.8409 0.8409 0.8394
985.000000 0.8365 0.8336 0.8315 0.8304 0.8304
980.000000 0.8316 0.8328 0.8339 0.8347 0.8347
975.000000 0.8347 0.8347 0.8347 0.8341 0.8334
970.000000 0.8325 0.8318 0.8313 0.8307 0.8301
965.000000 0.8295 0.8307 0.8318 0.8334 0.8351
960.000000 0.8368 0.8386 0.8404 0.8421 0.8439
955.000000 0.8451 0.8460 0.8470 0.8480 0.8490
950.000000 0.8500 0.8509 0.8518 0.8528 0.8536
945.000000 0.8543 0.8550 0.8557 0.8564 0.8571
940.000000 0.8578 0.8586 0.8592 0.8592 0.8591
935.000000 0.8608 0.8614 0.8618 0.8621 0.8616
930.000000 0.8610 0.8604 0.8598 0.8590 0.8578
925.000000 0.8565 0.8553 0.8539 0.8518 0.8496
920.000000 0.8474 0.8443 0.8409 0.8378 0.8350
915.000000 0.8324 0.8300 0.8280 0.8268 0.8268
910.000000 0.8268 0.8311 0.8358 0.8378 0.8399
905.000000 0.8418 0.8440 0.8460 0.8475 0.8489
900.000000 0.8504 0.8518 0.8532 0.8546 0.8556
895.000000 0.8563 0.8570 0.8577 0.8584 0.8590
890.000000 0.8597 0.8603 0.8607 0.8611 0.8615
885.000000 0.8618 0.8621 0.8625 0.8630 0.8634
880.000000 0.8635 0.8636 0.8636 0.8636 0.8637
875.000000 0.8637 0.8637 0.8630 0.8621 0.8614
870.000000 0.8606 0.8597 0.8584 0.8570 0.8557
865.000000 0.8543 0.8528 0.8515 0.8495 0.8475
860.000000 0.8456 0.8436 0.8416 0.8393 0.8368
855.000000 0.8344 0.8318 0.8295 0.8270 0.8206
850.000000 0.8228 0.8231 0.8260 0.8289 0.8316
845.000000 0.8343 0.8370 0.8386 0.8399 0.8413
840.000000 0.8427 0.8437 0.8446 0.8455 0.8464
835.000000 0.8473 0.8482 0.8486 0.8485 0.8485
830.000000 0.8485 0.8485 0.8485 0.8483 0.8475
825.000000 0.8468 0.8461 0.8453 0.8446 0.8434
820.000000 0.8408 0.8382 0.8357 0.8331 0.8305
815.000000 0.8238 0.8161 0.8086 0.7978 0.7851
810.000000 0.7728 0.7608 0.7482 0.7348 0.7067
805.000000 0.6825 0.6136 0.5446 0.4757 0.4068
800.000000 0.3378 0.2689 0.2430 0.1840 0.1250
795.000000 0.0660 0.0070 0.0011 0.0008 0.0023
790.000000 0.0380 0.0737 0.1153 0.1419 0.2113
785.000000 0.2845 0.3577 0.4309 0.5041 0.5772
780.000000 0.6167 0.6368 0.6701 0.6925 0.7055
775.000000 0.7162 0.7271 0.7345 0.7418 0.7492
770.000000 0.7551 0.7611 0.7661 0.7701 0.7730
765.000000 0.7747 0.7757 0.7765 0.7771 0.7775
760.000000 0.7761 0.7761 0.7761 0.7738 0.7690
755.000000 0.7610 0.7467 0.7262 0.7086 0.6918
750.000000 0.6250 0.5806 0.5299 0.4791 0.4284
745.000000 0.3776 0.3268 0.2761 0.2119 0.1200
740.000000 0.0366 0.0344 0.0355 0.0380 0.0441
735.000000 0.0502 0.0563 0.0615 0.0615 0.0484
730.000000 0.0216 0.0003 0.0036 0.0029 0.0171
725.000000 0.0371 0.0651 0.0905 0.1100 0.1422
720.000000 0.1971 0.2483 0.2994 0.3505 0.4016
715.000000 0.4656 0.4650 0.4652 0.4645 0.4481
710.000000 0.3637 0.2794 0.2284 0.1850 0.1415
705.000000 0.0981 0.0546 0.0111 0.0014 0.0003
700.000000 0.0006 0.0006 0.0237 0.0629 0.1020
695.000000 0.1410 0.1786 0.2023 0.2391 0.2924
690.000000 0.3725 0.4695 0.5665 0.6635 0.6930
685.000000 0.7074 0.7207 0.7293 0.7441 0.7518
680.000000 0.7557 0.7549 0.7543 0.7546 0.7549
675.000000 0.7557 0.7578 0.7615 0.7648 0.7733
670.000000 0.7831 0.7928 0.8026 0.8284 0.8223
665.000000 0.8265 0.8268 0.8268 0.7949 0.7500
660.000000 0.7051 0.6490 0.6475 0.6480 0.6660
655.000000 0.6944 0.7228 0.7512 0.7797 0.8145
650.000000 0.8377 0.8466 0.8551 0.8634 0.8702
645.000000 0.8751 0.8787 0.8810 0.8833 0.8856
640.000000 0.8878 0.8895 0.8911 0.8918 0.8925
635.000000 0.8933 0.8940 0.8948 0.8955 0.8954
630.000000 0.8954 0.8953 0.8942 0.8930 0.8918
625.000000 0.8906 0.8893 0.8877 0.8858 0.8839
620.000000 0.8821 0.8803 0.8787 0.8774 0.8762
615.000000 0.8754 0.8751 0.8767 0.8813 0.8863
610.000000 0.8915 0.8966 0.9013 0.9024 0.9036
605.000000 0.9047 0.9058 0.9066 0.9074 0.9082
600.000000 0.9089 0.9097 0.9105 0.9113 0.9121
595.000000 0.9128 0.9131 0.9134 0.9138 0.9141
590.000000 0.9144 0.9147 0.9151 0.9154 0.9154
585.000000 0.9153 0.9151 0.9148 0.9146 0.9144
580.000000 0.9142 0.9140 0.9134 0.9127 0.9121
575.000000 0.9114 0.9111 0.9110 0.9105 0.9102
570.000000 0.9099 0.9096 0.9093 0.9093 0.9093
565.000000 0.9095 0.9097 0.9099 0.9101 0.9103
560.000000 0.9105 0.9107 0.9109 0.9111 0.9114
555.000000 0.9116 0.9118 0.9121 0.9123 0.9125
550.000000 0.9128 0.9130 0.9133 0.9135 0.9137
545.000000 0.9137 0.9138 0.9137 0.9136 0.9135
540.000000 0.9134 0.9133 0.9132 0.9131 0.9128
535.000000 0.9123 0.9118 0.9113 0.9109 0.9095
530.000000 0.9080 0.9065 0.9051 0.9036 0.9021
525.000000 0.9002 0.8982 0.8963 0.8944 0.8924
520.000000 0.8906 0.8888 0.8870 0.8852 0.8834
515.000000 0.8813 0.8787 0.8761 0.8735 0.8709
510.000000 0.8659 0.8594 0.8528 0.8364 0.8105
505.000000 0.7897 0.7786 0.7675 0.7457 0.7211
500.000000 0.5930 0.4908 0.3884 0.2863 0.1315
495.000000 0.1296 0.1292 0.1313 0.1369 0.1426
490.000000 0.1482 0.1538 0.1595 0.1651 0.1708
485.000000 0.1764 0.1789 0.1793 0.1798 0.1802
480.000000 0.1807 0.1820 0.1834 0.1849 0.1881
475.000000 0.2003 0.2127 0.2221 0.2294 0.2685
470.000000 0.3105 0.3524 0.3943 0.4362 0.4780
465.000000 0.5199 0.5618 0.6037 0.6456 0.6875
460.000000 0.7294 0.7711 0.7892 0.7954 0.8015
455.000000 0.8081 0.8149 0.8214 0.8271 0.8330
450.000000 0.8381 0.8428 0.8452 0.8462 0.8467
445.000000 0.8467 0.8466 0.8452 0.8438 0.8401
440.000000 0.8364 0.8287 0.8034 0.7725 0.7433
435.000000 0.7211 0.7032 0.6887 0.6771 0.6672
430.000000 0.6607 0.6542 0.6500 0.6475 0.6451
425.000000 0.6432 0.6425 0.6418 0.6411 0.6405
420.000000 0.6425 0.6401 0.6403 0.6405 0.6406
415.000000 0.6418 0.6435 0.6451 0.6467 0.6486
410.000000 0.6508 0.6533 0.6556 0.6578 0.6595
405.000000 0.6603 0.6643 0.6618 0.6626 0.6634
400.000000 0.6642 0.6650 0.6656 0.6661 0.6667
395.000000 0.6672 0.6678 0.6682 0.6686 0.6690
390.000000 0.6694 0.6698 0.6701 0.6706 0.6706
385.000000 0.6706
##END=
