##TITLE=TRIPHENYLSILANOL
##JCAMP-DX=4.24
##DATA TYPE=INFRARED SPECTRUM
##CLASS=COBLENTZ
##ORIGIN=PENINSULAR CHEM RESEARCH, INC., GAINESVILLE, FLORIDA
##OWNER=COBLENTZ SOCIETY
Collection (C) 2018 copyright by the U.S. Secretary of Commerce
on behalf of the United States of America. All rights reserved.
##DATE=Not specified, most likely prior to 1970
##CAS REGISTRY NO=791-31-1
##MOLFORM=C18 H16 O Si
##SOURCE REFERENCE=COBLENTZ NO. 4903
##$NIST SOURCE=COBLENTZ
##$NIST IMAGE=cob4903
##SPECTROMETER/DATA SYSTEM=BECKMAN IR-4 (HYBRID PRISM-GRATING)
##STATE=SOLID (KBr WAFER)
##SAMPLING PROCEDURE=TRANSMISSION
##RESOLUTION=4
$$ MW 276.41
##DATA PROCESSING=DIGITIZED BY NIST FROM HARD COPY
##XUNITS=MICROMETERS
##YUNITS=TRANSMITTANCE
##XFACTOR=1.000000
##YFACTOR=1
##DELTAX=000.005004
##FIRSTX=2.025
##LASTX=15.021
##FIRSTY=0.838
##MAXX=15.021
##MINX=2.025
##MAXY=0.968
##MINY=0.065
##NPOINTS=2598
##XYDATA=(X++(Y..Y))
2.025000 0.8380 0.8380 0.8390 0.8390 0.8410
2.050030 0.8410 0.8430 0.8430 0.8430 0.8430
2.075000 0.8430 0.8440 0.8440 0.8440 0.8450
2.100030 0.8450 0.8450 0.8450 0.8460 0.8490
2.125000 0.8500 0.8500 0.8510 0.8510 0.8530
2.150030 0.8530 0.8530 0.8530 0.8540 0.8540
2.175000 0.8540 0.8550 0.8550 0.8550 0.8560
2.200030 0.8590 0.8600 0.8610 0.8610 0.8600
2.225000 0.8600 0.8590 0.8580 0.8540 0.8530
2.250030 0.8550 0.8600 0.8630 0.8630 0.8680
2.275000 0.8680 0.8690 0.8690 0.8690 0.8700
2.300030 0.8720 0.8720 0.8720 0.8720 0.8720
2.325000 0.8720 0.8700 0.8700 0.8690 0.8700
2.350030 0.8700 0.8720 0.8730 0.8730 0.8740
2.375000 0.8750 0.8750 0.8750 0.8770 0.8770
2.400030 0.8770 0.8770 0.8770 0.8770 0.8750
2.425000 0.8750 0.8730 0.8700 0.8680 0.8680
2.450030 0.8720 0.8730 0.8740 0.8750 0.8750
2.475000 0.8740 0.8740 0.8730 0.8730 0.8740
2.500030 0.8740 0.8770 0.8780 0.8790 0.8800
2.525000 0.8800 0.8800 0.8800 0.8800 0.8820
2.550030 0.8820 0.8830 0.8880 0.8920 0.8930
2.575000 0.8990 0.9000 0.9020 0.9020 0.9020
2.600030 0.9000 0.8990 0.8940 0.8900 0.8890
2.626000 0.8880 0.8820 0.8820 0.8880 0.8890
2.651030 0.8930 0.8940 0.8950 0.8940 0.8930
2.676000 0.8880 0.8830 0.8820 0.8820 0.8800
2.701030 0.8800 0.8790 0.8770 0.8730 0.8720
2.726000 0.8690 0.8670 0.8630 0.8630 0.8610
2.751030 0.8610 0.8600 0.8590 0.8560 0.8530
2.776000 0.8530 0.8530 0.8500 0.8440 0.8400
2.801030 0.8310 0.8240 0.8190 0.8180 0.8090
2.826000 0.7920 0.7820 0.7770 0.7710 0.7670
2.851030 0.7610 0.7510 0.7420 0.7390 0.7220
2.876000 0.7100 0.7020 0.7000 0.6920 0.6880
2.901030 0.6720 0.6670 0.6620 0.6570 0.6490
2.926000 0.6410 0.6320 0.6270 0.6220 0.6130
2.951030 0.6090 0.5990 0.5870 0.5830 0.5730
2.976000 0.5700 0.5620 0.5550 0.5500 0.5440
3.001030 0.5390 0.5350 0.5330 0.5310 0.5300
3.026000 0.5300 0.5300 0.5310 0.5330 0.5340
3.051030 0.5370 0.5390 0.5440 0.5480 0.5500
3.076000 0.5570 0.5600 0.5640 0.5670 0.5800
3.101030 0.5830 0.5930 0.6020 0.6130 0.6220
3.126000 0.6320 0.6340 0.6420 0.6510 0.6580
3.151030 0.6620 0.6780 0.6830 0.6930 0.7010
3.176000 0.7020 0.7080 0.7150 0.7210 0.7260
3.201030 0.7300 0.7340 0.7360 0.7390 0.7360
3.226000 0.7200 0.7160 0.7110 0.6920 0.6800
3.251030 0.6750 0.6750 0.6870 0.7020 0.7120
3.276000 0.7180 0.7280 0.7400 0.7410 0.7460
3.301030 0.7490 0.7510 0.7600 0.7690 0.7800
3.326000 0.8000 0.8110 0.8290 0.8390 0.8490
3.351030 0.8530 0.8600 0.8630 0.8670 0.8690
3.376000 0.8700 0.8720 0.8730 0.8730 0.8780
3.401030 0.8780 0.8800 0.8820 0.8840 0.8880
3.426000 0.8900 0.8920 0.8930 0.8930 0.8980
3.451030 0.8990 0.9020 0.9030 0.9030 0.9020
3.476000 0.9000 0.9000 0.9020 0.9040 0.9070
3.501030 0.9080 0.9080 0.9090 0.9090 0.9100
3.526000 0.9120 0.9120 0.9180 0.9190 0.9190
3.551030 0.9190 0.9190 0.9190 0.9190 0.9190
3.576000 0.9190 0.9190 0.9190 0.9200 0.9200
3.601030 0.9220 0.9240 0.9250 0.9270 0.9250
3.626000 0.9240 0.9220 0.9220 0.9220 0.9200
3.651030 0.9200 0.9200 0.9230 0.9230 0.9220
3.676000 0.9200 0.9200 0.9200 0.9220 0.9220
3.701030 0.9230 0.9230 0.9230 0.9200 0.9200
3.726000 0.9280 0.9300 0.9290 0.9290 0.9280
3.751030 0.9230 0.9230 0.9280 0.9290 0.9290
3.776000 0.9300 0.9300 0.9300 0.9300 0.9300
3.801030 0.9290 0.9290 0.9290 0.9290 0.9290
3.827000 0.9290 0.9300 0.9300 0.9300 0.9300
3.852030 0.9320 0.9330 0.9330 0.9330 0.9330
3.877000 0.9330 0.9330 0.9330 0.9330 0.9330
3.902030 0.9340 0.9360 0.9370 0.9370 0.9370
3.927000 0.9380 0.9380 0.9380 0.9390 0.9390
3.952030 0.9390 0.9410 0.9420 0.9430 0.9440
3.977000 0.9440 0.9430 0.9430 0.9430 0.9430
4.002030 0.9420 0.9420 0.9410 0.9410 0.9420
4.027000 0.9420 0.9420 0.9410 0.9410 0.9410
4.052030 0.9410 0.9410 0.9440 0.9470 0.9510
4.077000 0.9530 0.9530 0.9510 0.9490 0.9490
4.102030 0.9490 0.9480 0.9480 0.9480 0.9490
4.127000 0.9490 0.9490 0.9490 0.9490 0.9480
4.152030 0.9430 0.9390 0.9330 0.9330 0.9300
4.177000 0.9240 0.9220 0.9200 0.9180 0.9190
4.202030 0.9220 0.9250 0.9300 0.9320 0.9330
4.227000 0.9370 0.9380 0.9390 0.9390 0.9390
4.252030 0.9410 0.9430 0.9490 0.9510 0.9510
4.277000 0.9520 0.9520 0.9530 0.9530 0.9540
4.302030 0.9560 0.9560 0.9560 0.9570 0.9580
4.327000 0.9580 0.9580 0.9580 0.9560 0.9560
4.352030 0.9530 0.9530 0.9520 0.9510 0.9480
4.377000 0.9480 0.9470 0.9470 0.9460 0.9460
4.402030 0.9460 0.9470 0.9480 0.9480 0.9480
4.427000 0.9480 0.9470 0.9470 0.9470 0.9460
4.452030 0.9440 0.9430 0.9410 0.9380 0.9370
4.477000 0.9330 0.9330 0.9370 0.9380 0.9380
4.502030 0.9390 0.9410 0.9410 0.9430 0.9440
4.527000 0.9460 0.9470 0.9470 0.9480 0.9480
4.552030 0.9480 0.9480 0.9480 0.9480 0.9470
4.577000 0.9460 0.9440 0.9440 0.9430 0.9440
4.602030 0.9460 0.9470 0.9480 0.9490 0.9480
4.627000 0.9480 0.9480 0.9470 0.9440 0.9430
4.652030 0.9430 0.9430 0.9440 0.9480 0.9510
4.677000 0.9510 0.9490 0.9490 0.9490 0.9490
4.702030 0.9490 0.9540 0.9540 0.9510 0.9490
4.727000 0.9490 0.9490 0.9490 0.9490 0.9490
4.752030 0.9490 0.9490 0.9490 0.9480 0.9480
4.777000 0.9470 0.9460 0.9430 0.9430 0.9460
4.802030 0.9530 0.9530 0.9470 0.9480 0.9490
4.827000 0.9490 0.9520 0.9490 0.9490 0.9480
4.852030 0.9480 0.9480 0.9480 0.9440 0.9440
4.877000 0.9480 0.9480 0.9490 0.9490 0.9490
4.902030 0.9490 0.9490 0.9490 0.9470 0.9470
4.927000 0.9490 0.9490 0.9490 0.9490 0.9490
4.952030 0.9510 0.9530 0.9560 0.9490 0.9420
4.977000 0.9370 0.9360 0.9360 0.9370 0.9380
5.002030 0.9390 0.9410 0.9390 0.9380 0.9340
5.028000 0.9320 0.9320 0.9320 0.9320 0.9280
5.053030 0.9240 0.9190 0.9180 0.9190 0.9200
5.078000 0.9220 0.9290 0.9300 0.9320 0.9320
5.103030 0.9330 0.9330 0.9380 0.9390 0.9410
5.128000 0.9440 0.9490 0.9530 0.9580 0.9580
5.153030 0.9520 0.9510 0.9510 0.9510 0.9490
5.178000 0.9490 0.9490 0.9490 0.9490 0.9440
5.203030 0.9410 0.9380 0.9380 0.9330 0.9320
5.228000 0.9320 0.9320 0.9280 0.9220 0.9190
5.253030 0.9130 0.9120 0.9130 0.9190 0.9220
5.278000 0.9270 0.9300 0.9320 0.9330 0.9340
5.303030 0.9340 0.9360 0.9370 0.9380 0.9380
5.328000 0.9410 0.9510 0.9530 0.9680 0.9680
5.353030 0.9580 0.9540 0.9530 0.9520 0.9490
5.378000 0.9420 0.9390 0.9370 0.9330 0.9380
5.403030 0.9440 0.9490 0.9520 0.9490 0.9390
5.428000 0.9320 0.9300 0.9230 0.9200 0.9230
5.453030 0.9300 0.9380 0.9410 0.9430 0.9440
5.478000 0.9440 0.9390 0.9330 0.9300 0.9300
5.503030 0.9410 0.9440 0.9490 0.9520 0.9520
5.528000 0.9490 0.9490 0.9490 0.9490 0.9490
5.553030 0.9490 0.9510 0.9530 0.9580 0.9560
5.578000 0.9530 0.9490 0.9420 0.9410 0.9390
5.603030 0.9510 0.9510 0.9430 0.9490 0.9490
5.628000 0.9510 0.9520 0.9580 0.9530 0.9510
5.653030 0.9490 0.9490 0.9490 0.9480 0.9480
5.678000 0.9430 0.9410 0.9410 0.9480 0.9490
5.703030 0.9540 0.9540 0.9520 0.9510 0.9510
5.728000 0.9490 0.9480 0.9480 0.9510 0.9580
5.753030 0.9610 0.9680 0.9620 0.9590 0.9490
5.778000 0.9420 0.9390 0.9330 0.9360 0.9370
5.803030 0.9390 0.9420 0.9440 0.9480 0.9420
5.828000 0.9390 0.9380 0.9290 0.9290 0.9330
5.853030 0.9390 0.9410 0.9420 0.9480 0.9480
5.878000 0.9420 0.9410 0.9330 0.9320 0.9320
5.903030 0.9290 0.9290 0.9320 0.9330 0.9380
5.928000 0.9380 0.9340 0.9320 0.9300 0.9280
5.953030 0.9250 0.9250 0.9280 0.9280 0.9290
5.978000 0.9280 0.9230 0.9220 0.9190 0.9130
6.003030 0.9120 0.9090 0.9080 0.9080 0.9100
6.028000 0.9120 0.9150 0.9200 0.9280 0.9300
6.053030 0.9300 0.9300 0.9300 0.9280 0.9230
6.078000 0.9200 0.9090 0.9180 0.9220 0.9300
6.103030 0.9300 0.9240 0.9220 0.9180 0.9120
6.128000 0.9100 0.9090 0.9090 0.9090 0.9090
6.153030 0.9090 0.9100 0.9120 0.9140 0.9200
6.178000 0.9280 0.9290 0.9240 0.9220 0.9200
6.203030 0.9180 0.9170 0.9190 0.9200 0.9220
6.229000 0.9240 0.9240 0.9220 0.9200 0.9120
6.254030 0.9080 0.8900 0.8790 0.8700 0.8610
6.279000 0.8430 0.8430 0.8510 0.8730 0.8890
6.304030 0.9000 0.9030 0.9080 0.9090 0.9120
6.329000 0.9200 0.9280 0.9290 0.9280 0.9280
6.354030 0.9200 0.9130 0.9120 0.9120 0.9100
6.379000 0.9100 0.9080 0.9080 0.9180 0.9240
6.404030 0.9320 0.9340 0.9390 0.9380 0.9380
6.429000 0.9340 0.9330 0.9320 0.9290 0.9280
6.454030 0.9280 0.9290 0.9290 0.9330 0.9420
6.479000 0.9480 0.9410 0.9410 0.9410 0.9390
6.504030 0.9380 0.9340 0.9320 0.9300 0.9290
6.529000 0.9290 0.9290 0.9300 0.9300 0.9380
6.554030 0.9390 0.9410 0.9410 0.9410 0.9410
6.579000 0.9390 0.9380 0.9380 0.9370 0.9380
6.604030 0.9380 0.9420 0.9420 0.9390 0.9380
6.629000 0.9380 0.9380 0.9370 0.9370 0.9370
6.654030 0.9370 0.9360 0.9320 0.9280 0.9190
6.679000 0.9090 0.8990 0.8820 0.8780 0.8720
6.704030 0.8700 0.8670 0.8690 0.8720 0.8780
6.729000 0.8880 0.8980 0.9020 0.9100 0.9190
6.754030 0.9280 0.9380 0.9390 0.9420 0.9440
6.779000 0.9440 0.9420 0.9390 0.9380 0.9370
6.804030 0.9360 0.9340 0.9340 0.9340 0.9360
6.829000 0.9370 0.9390 0.9410 0.9430 0.9470
6.854030 0.9540 0.9490 0.9480 0.9420 0.9410
6.879000 0.9390 0.9390 0.9390 0.9380 0.9360
6.904030 0.9330 0.9320 0.9290 0.9190 0.9080
6.929000 0.8990 0.8820 0.8500 0.8010 0.7410
6.954030 0.7030 0.6640 0.5550 0.5290 0.4980
6.979000 0.3850 0.3850 0.4600 0.4840 0.4890
7.004030 0.5850 0.6480 0.7840 0.8410 0.8940
7.029000 0.9020 0.9220 0.9230 0.9230 0.9230
7.054030 0.9220 0.9230 0.9230 0.9250 0.9280
7.079000 0.9300 0.9320 0.9320 0.9340 0.9320
7.104030 0.9300 0.9300 0.9290 0.9300 0.9300
7.129000 0.9300 0.9320 0.9390 0.9480 0.9480
7.154030 0.9430 0.9420 0.9390 0.9300 0.9290
7.179000 0.9230 0.9200 0.9290 0.9290 0.9290
7.204030 0.9280 0.9190 0.9180 0.9140 0.9130
7.229000 0.9120 0.9120 0.9100 0.9140 0.9190
7.254030 0.9280 0.9290 0.9300 0.9410 0.9410
7.279000 0.9380 0.9330 0.9320 0.9320 0.9300
7.304030 0.9300 0.9320 0.9320 0.9380 0.9390
7.329000 0.9430 0.9490 0.9540 0.9540 0.9490
7.354030 0.9490 0.9480 0.9480 0.9480 0.9470
7.379000 0.9460 0.9460 0.9430 0.9430 0.9430
7.404030 0.9420 0.9420 0.9410 0.9340 0.9320
7.430000 0.9280 0.9280 0.9200 0.9200 0.9280
7.455030 0.9280 0.9230 0.9170 0.9120 0.9090
7.480000 0.9070 0.9040 0.9030 0.9040 0.9040
7.505030 0.9050 0.9070 0.9080 0.9100 0.9120
7.530000 0.9180 0.9180 0.9200 0.9200 0.9200
7.555030 0.9220 0.9240 0.9290 0.9300 0.9300
7.580000 0.9300 0.9300 0.9300 0.9300 0.9290
7.605030 0.9200 0.9180 0.9140 0.9100 0.9080
7.630000 0.9080 0.9050 0.9030 0.9020 0.9000
7.655030 0.8980 0.9000 0.9020 0.9080 0.9080
7.680000 0.9120 0.9120 0.9170 0.9180 0.9220
7.705030 0.9240 0.9250 0.9250 0.9270 0.9270
7.730000 0.9280 0.9290 0.9340 0.9390 0.9440
7.755030 0.9440 0.9460 0.9470 0.9480 0.9490
7.780000 0.9490 0.9490 0.9490 0.9490 0.9480
7.805030 0.9440 0.9440 0.9420 0.9410 0.9410
7.830000 0.9410 0.9410 0.9390 0.9390 0.9340
7.855030 0.9320 0.9320 0.9300 0.9280 0.9200
7.880000 0.9180 0.9100 0.9080 0.9050 0.9040
7.905030 0.9030 0.9020 0.9020 0.9030 0.9050
7.930000 0.9120 0.9150 0.9170 0.9180 0.9180
7.955030 0.9180 0.9190 0.9230 0.9300 0.9380
7.980000 0.9390 0.9390 0.9410 0.9410 0.9420
8.005030 0.9440 0.9460 0.9470 0.9470 0.9470
8.030000 0.9480 0.9480 0.9480 0.9480 0.9480
8.055030 0.9480 0.9470 0.9460 0.9440 0.9440
8.080000 0.9440 0.9430 0.9430 0.9430 0.9430
8.105030 0.9430 0.9430 0.9430 0.9420 0.9420
8.130000 0.9410 0.9390 0.9340 0.9330 0.9330
8.155030 0.9390 0.9410 0.9410 0.9410 0.9410
8.180000 0.9380 0.9340 0.9320 0.9320 0.9340
8.205030 0.9370 0.9420 0.9430 0.9430 0.9430
8.230000 0.9430 0.9430 0.9430 0.9420 0.9420
8.255030 0.9420 0.9420 0.9420 0.9410 0.9370
8.280000 0.9340 0.9330 0.9320 0.9320 0.9300
8.305030 0.9290 0.9290 0.9280 0.9280 0.9280
8.330000 0.9270 0.9250 0.9240 0.9230 0.9200
8.355030 0.9180 0.9130 0.9120 0.9090 0.9020
8.380000 0.8930 0.8880 0.8820 0.8750 0.8720
8.405030 0.8700 0.8670 0.8650 0.8650 0.8650
8.430000 0.8670 0.8680 0.8700 0.8790 0.8900
8.455030 0.8990 0.9000 0.9000 0.9000 0.9000
8.480000 0.9000 0.9020 0.9030 0.9050 0.9080
8.505030 0.9090 0.9090 0.9100 0.9120 0.9120
8.530000 0.9120 0.9120 0.9120 0.9130 0.9130
8.555030 0.9130 0.9120 0.9100 0.9080 0.9050
8.580000 0.9050 0.9040 0.9040 0.9030 0.9000
8.605030 0.8990 0.8940 0.8890 0.8790 0.8780
8.631000 0.8790 0.8800 0.8840 0.8850 0.8870
8.656030 0.8870 0.8880 0.8880 0.8880 0.8880
8.681000 0.8870 0.8850 0.8840 0.8830 0.8820
8.706030 0.8790 0.8740 0.8740 0.8730 0.8720
8.731000 0.8700 0.8690 0.8690 0.8690 0.8640
8.756030 0.8630 0.8600 0.8590 0.8510 0.8500
8.781000 0.8440 0.8430 0.8360 0.8290 0.8210
8.806030 0.8200 0.8130 0.8080 0.7990 0.7870
8.831000 0.7740 0.7610 0.7470 0.7270 0.7010
8.856030 0.6710 0.6530 0.6340 0.6020 0.5440
8.881000 0.5050 0.4470 0.3630 0.3330 0.3030
8.906030 0.2540 0.2130 0.1830 0.1440 0.1340
8.931000 0.1340 0.1410 0.1530 0.1780 0.2040
8.956030 0.2340 0.2630 0.3060 0.3630 0.4070
8.981000 0.4420 0.4800 0.5130 0.5440 0.5490
9.006030 0.5590 0.5840 0.5980 0.6060 0.6120
9.031000 0.6170 0.6240 0.6330 0.6470 0.6610
9.056030 0.6980 0.7170 0.7390 0.7570 0.7670
9.081000 0.7750 0.7840 0.7910 0.7950 0.7960
9.106030 0.7970 0.7990 0.8000 0.8010 0.8050
9.131000 0.8150 0.8200 0.8230 0.8250 0.8300
9.156030 0.8300 0.8310 0.8360 0.8400 0.8400
9.181000 0.8410 0.8460 0.8490 0.8500 0.8510
9.206030 0.8510 0.8530 0.8540 0.8550 0.8550
9.231000 0.8550 0.8550 0.8560 0.8580 0.8590
9.256030 0.8590 0.8590 0.8590 0.8590 0.8580
9.281000 0.8560 0.8550 0.8540 0.8490 0.8440
9.306030 0.8430 0.8380 0.8340 0.8330 0.8260
9.331000 0.8200 0.8180 0.8150 0.8140 0.8130
9.356030 0.8130 0.8140 0.8140 0.8160 0.8200
9.381000 0.8210 0.8230 0.8310 0.8350 0.8390
9.406030 0.8430 0.8450 0.8460 0.8500 0.8530
9.431000 0.8540 0.8540 0.8560 0.8560 0.8560
9.456030 0.8560 0.8550 0.8540 0.8530 0.8530
9.481000 0.8510 0.8490 0.8450 0.8450 0.8430
9.506030 0.8430 0.8430 0.8410 0.8410 0.8400
9.531000 0.8400 0.8350 0.8340 0.8330 0.8330
9.556030 0.8340 0.8340 0.8340 0.8340 0.8340
9.581000 0.8330 0.8330 0.8310 0.8310 0.8300
9.606030 0.8300 0.8290 0.8280 0.8240 0.8230
9.631000 0.8230 0.8210 0.8210 0.8200 0.8200
9.656030 0.8200 0.8190 0.8160 0.8140 0.8130
9.681000 0.8090 0.8050 0.8010 0.7920 0.7910
9.706030 0.7810 0.7710 0.7640 0.7620 0.7620
9.731000 0.7640 0.7700 0.7710 0.7720 0.7800
9.756030 0.7810 0.7910 0.7920 0.7960 0.7970
9.781000 0.8000 0.8000 0.8010 0.8010 0.8030
9.806030 0.8030 0.8030 0.8040 0.8040 0.8040
9.832000 0.8040 0.8040 0.8040 0.8040 0.8050
9.857030 0.8050 0.8050 0.8050 0.8050 0.8060
9.882000 0.8060 0.8060 0.8050 0.8050 0.8050
9.907030 0.8050 0.8050 0.8040 0.8040 0.8030
9.932000 0.8010 0.7990 0.7970 0.7970 0.7950
9.957030 0.7940 0.7900 0.7820 0.7810 0.7710
9.982000 0.7600 0.7510 0.7410 0.7230 0.7100
10.007030 0.7060 0.7000 0.7000 0.7120 0.7130
10.032000 0.7310 0.7370 0.7570 0.7720 0.7800
10.057030 0.7870 0.8030 0.8100 0.8160 0.8200
10.082000 0.8230 0.8300 0.8310 0.8310 0.8310
10.107030 0.8330 0.8330 0.8330 0.8330 0.8330
10.132000 0.8330 0.8340 0.8350 0.8380 0.8390
10.157030 0.8410 0.8430 0.8500 0.8500 0.8510
10.182000 0.8510 0.8530 0.8530 0.8530 0.8530
10.207030 0.8540 0.8550 0.8560 0.8560 0.8560
10.232000 0.8560 0.8560 0.8550 0.8550 0.8550
10.257030 0.8550 0.8550 0.8560 0.8560 0.8560
10.282000 0.8580 0.8590 0.8600 0.8610 0.8610
10.307030 0.8610 0.8630 0.8630 0.8630 0.8640
10.332000 0.8650 0.8680 0.8700 0.8700 0.8700
10.357030 0.8720 0.8730 0.8790 0.8790 0.8800
10.382000 0.8820 0.8820 0.8840 0.8840 0.8840
10.407030 0.8850 0.8850 0.8850 0.8850 0.8850
10.432000 0.8850 0.8850 0.8870 0.8880 0.8880
10.457030 0.8920 0.8930 0.8940 0.8950 0.8950
10.482000 0.8950 0.8950 0.8970 0.8970 0.8970
10.507030 0.8970 0.8970 0.8970 0.8970 0.8970
10.532000 0.8980 0.8980 0.8990 0.8990 0.9000
10.557030 0.9030 0.9030 0.9030 0.9040 0.9040
10.582000 0.9040 0.9040 0.9040 0.9040 0.9040
10.607030 0.9050 0.9050 0.9050 0.9050 0.9050
10.632000 0.9050 0.9050 0.9070 0.9070 0.9080
10.657030 0.9080 0.9090 0.9090 0.9090 0.9090
10.682000 0.9090 0.9090 0.9090 0.9090 0.9100
10.707030 0.9120 0.9130 0.9130 0.9130 0.9140
10.732000 0.9130 0.9130 0.9140 0.9140 0.9150
10.757030 0.9150 0.9150 0.9170 0.9180 0.9180
10.782000 0.9150 0.9150 0.9150 0.9140 0.9140
10.807030 0.9140 0.9140 0.9140 0.9140 0.9150
10.832000 0.9150 0.9170 0.9170 0.9180 0.9180
10.857030 0.9180 0.9170 0.9170 0.9150 0.9140
10.882000 0.9140 0.9130 0.9100 0.9090 0.9080
10.907030 0.9080 0.9070 0.9070 0.9070 0.9070
10.932000 0.9070 0.9070 0.9080 0.9090 0.9090
10.957030 0.9120 0.9140 0.9150 0.9170 0.9170
10.982000 0.9150 0.9140 0.9140 0.9130 0.9130
11.007030 0.9130 0.9120 0.9120 0.9120 0.9100
11.033000 0.9100 0.9100 0.9120 0.9120 0.9100
11.058030 0.9100 0.9100 0.9090 0.9090 0.9080
11.083000 0.9080 0.9070 0.9070 0.9070 0.9050
11.108030 0.9050 0.9050 0.9040 0.9040 0.9040
11.133000 0.9030 0.9020 0.9000 0.9000 0.8990
11.158030 0.8980 0.8980 0.8950 0.8950 0.8940
11.183000 0.8930 0.8930 0.8920 0.8920 0.8920
11.208030 0.8920 0.8900 0.8890 0.8840 0.8830
11.233000 0.8820 0.8820 0.8820 0.8820 0.8820
11.258030 0.8800 0.8800 0.8790 0.8780 0.8770
11.283000 0.8750 0.8740 0.8720 0.8720 0.8700
11.308030 0.8680 0.8650 0.8640 0.8610 0.8590
11.333000 0.8530 0.8510 0.8500 0.8490 0.8400
11.358030 0.8310 0.8290 0.8230 0.8190 0.8090
11.383000 0.8010 0.7990 0.7950 0.7920 0.7910
11.408030 0.7800 0.7700 0.7600 0.7470 0.7370
11.433000 0.7360 0.7210 0.7100 0.7010 0.6910
11.458030 0.6820 0.6710 0.6670 0.6620 0.6510
11.483000 0.6390 0.6310 0.6190 0.6110 0.6010
11.508030 0.5830 0.5800 0.5640 0.5590 0.5500
11.533000 0.5400 0.5300 0.5200 0.5110 0.5030
11.558030 0.5000 0.4940 0.4900 0.4800 0.4780
11.583000 0.4710 0.4690 0.4650 0.4590 0.4570
11.608030 0.4560 0.4520 0.4510 0.4490 0.4460
11.633000 0.4450 0.4420 0.4420 0.4410 0.4400
11.658030 0.4390 0.4390 0.4370 0.4370 0.4370
11.683000 0.4370 0.4370 0.4370 0.4390 0.4390
11.708030 0.4410 0.4420 0.4440 0.4450 0.4460
11.733000 0.4490 0.4510 0.4540 0.4550 0.4570
11.758030 0.4610 0.4620 0.4690 0.4710 0.4730
11.783000 0.4740 0.4790 0.4800 0.4830 0.4830
11.808030 0.4840 0.4850 0.4850 0.4840 0.4810
11.833000 0.4790 0.4700 0.4640 0.4620 0.4600
11.858030 0.4510 0.4410 0.4320 0.4300 0.4220
11.883000 0.4110 0.4020 0.3930 0.3820 0.3730
11.908030 0.3710 0.3680 0.3550 0.3520 0.3500
11.933000 0.3480 0.3470 0.3460 0.3460 0.3460
11.958030 0.3470 0.3470 0.3480 0.3480 0.3500
11.983000 0.3520 0.3530 0.3560 0.3680 0.3720
12.008030 0.3730 0.3830 0.3910 0.4040 0.4110
12.033000 0.4160 0.4270 0.4320 0.4340 0.4500
12.058030 0.4560 0.4620 0.4730 0.4800 0.4850
12.083000 0.5010 0.5200 0.5300 0.5400 0.5500
12.108030 0.5640 0.5790 0.5870 0.5930 0.6010
12.133000 0.6030 0.6120 0.6230 0.6290 0.6410
12.158030 0.6490 0.6530 0.6580 0.6620 0.6770
12.183000 0.6870 0.6960 0.6970 0.7060 0.7160
12.208030 0.7210 0.7220 0.7300 0.7390 0.7450
12.234000 0.7490 0.7500 0.7510 0.7520 0.7600
12.259030 0.7620 0.7700 0.7710 0.7720 0.7790
12.284000 0.7800 0.7820 0.7840 0.7860 0.7900
12.309030 0.7990 0.8000 0.8030 0.8040 0.8060
12.334000 0.8060 0.8080 0.8080 0.8090 0.8090
12.359030 0.8100 0.8110 0.8180 0.8210 0.8280
12.384000 0.8280 0.8290 0.8290 0.8300 0.8310
12.409030 0.8310 0.8340 0.8360 0.8380 0.8390
12.434000 0.8390 0.8400 0.8410 0.8430 0.8430
12.459030 0.8430 0.8440 0.8460 0.8490 0.8490
12.484000 0.8500 0.8500 0.8510 0.8510 0.8510
12.509030 0.8510 0.8510 0.8510 0.8510 0.8510
12.534000 0.8510 0.8510 0.8510 0.8530 0.8530
12.559030 0.8530 0.8540 0.8540 0.8540 0.8550
12.584000 0.8550 0.8550 0.8550 0.8560 0.8560
12.609030 0.8560 0.8560 0.8560 0.8560 0.8560
12.634000 0.8560 0.8560 0.8560 0.8580 0.8580
12.659030 0.8580 0.8580 0.8590 0.8590 0.8590
12.684000 0.8590 0.8590 0.8600 0.8600 0.8610
12.709030 0.8610 0.8600 0.8600 0.8600 0.8600
12.734000 0.8600 0.8600 0.8600 0.8610 0.8610
12.759030 0.8610 0.8610 0.8610 0.8610 0.8610
12.784000 0.8610 0.8630 0.8630 0.8640 0.8640
12.809030 0.8610 0.8610 0.8600 0.8600 0.8600
12.834000 0.8600 0.8590 0.8590 0.8590 0.8590
12.859030 0.8590 0.8600 0.8600 0.8610 0.8610
12.884000 0.8630 0.8630 0.8640 0.8640 0.8630
12.909030 0.8630 0.8610 0.8610 0.8610 0.8610
12.934000 0.8610 0.8610 0.8610 0.8610 0.8610
12.959030 0.8610 0.8600 0.8600 0.8600 0.8590
12.984000 0.8590 0.8590 0.8580 0.8580 0.8560
13.009030 0.8560 0.8550 0.8550 0.8550 0.8540
13.034000 0.8540 0.8530 0.8530 0.8530 0.8530
13.059030 0.8510 0.8510 0.8500 0.8500 0.8490
13.084000 0.8490 0.8480 0.8480 0.8460 0.8460
13.109030 0.8460 0.8450 0.8450 0.8440 0.8440
13.134000 0.8430 0.8410 0.8410 0.8400 0.8400
13.159030 0.8400 0.8390 0.8360 0.8350 0.8340
13.184000 0.8340 0.8340 0.8330 0.8310 0.8300
13.209030 0.8290 0.8260 0.8260 0.8240 0.8200
13.234000 0.8180 0.8130 0.8110 0.8110 0.8100
13.259030 0.8090 0.8010 0.7950 0.7810 0.7790
13.284000 0.7710 0.7620 0.7590 0.7500 0.7490
13.309030 0.7400 0.7340 0.7230 0.7120 0.7110
13.334000 0.7080 0.7020 0.7000 0.6980 0.6900
13.359030 0.6870 0.6810 0.6780 0.6770 0.6760
13.384000 0.6750 0.6730 0.6700 0.6670 0.6630
13.409030 0.6590 0.6580 0.6510 0.6480 0.6420
13.435000 0.6380 0.6310 0.6280 0.6230 0.6190
13.460030 0.6110 0.6080 0.5990 0.5890 0.5730
13.485000 0.5690 0.5590 0.5520 0.5350 0.5200
13.510030 0.5130 0.5090 0.5010 0.4940 0.4910
13.535000 0.4900 0.4890 0.4890 0.4900 0.4950
13.560030 0.5030 0.5150 0.5250 0.5350 0.5420
13.585000 0.5620 0.5790 0.5850 0.6110 0.6210
13.610030 0.6370 0.6510 0.6610 0.6810 0.6900
13.635000 0.7000 0.7010 0.7100 0.7180 0.7220
13.660030 0.7230 0.7270 0.7280 0.7300 0.7300
13.685000 0.7270 0.7270 0.7260 0.7230 0.7230
13.710030 0.7210 0.7180 0.7130 0.7120 0.7100
13.735000 0.7070 0.7050 0.7030 0.7010 0.6970
13.760030 0.6930 0.6880 0.6800 0.6720 0.6700
13.785000 0.6680 0.6660 0.6620 0.6590 0.6510
13.810030 0.6390 0.6320 0.6180 0.6140 0.6090
13.835000 0.5990 0.5820 0.5730 0.5590 0.5450
13.860030 0.5290 0.5060 0.4860 0.4750 0.4560
13.885000 0.4390 0.4200 0.4000 0.3610 0.3400
13.910030 0.3260 0.3120 0.2890 0.2650 0.2520
13.935000 0.2340 0.2220 0.2100 0.2000 0.1810
13.960030 0.1610 0.1460 0.1300 0.1190 0.1110
13.985000 0.1060 0.1000 0.0820 0.0790 0.0740
14.010030 0.0660 0.0650 0.0660 0.0710 0.0740
14.035000 0.0820 0.0840 0.0910 0.1070 0.1200
14.060030 0.1310 0.1400 0.1480 0.1530 0.1660
14.085000 0.1790 0.1980 0.2080 0.2300 0.2420
14.110030 0.2570 0.2730 0.2910 0.3020 0.3070
14.135000 0.3210 0.3310 0.3530 0.3630 0.3660
14.160030 0.3670 0.3700 0.3700 0.3680 0.3650
14.185000 0.3620 0.3600 0.3580 0.3520 0.3500
14.210030 0.3410 0.3360 0.3290 0.3260 0.3160
14.235000 0.3030 0.2910 0.2810 0.2670 0.2490
14.260030 0.2380 0.2300 0.2290 0.2230 0.2070
14.285000 0.1960 0.1840 0.1790 0.1700 0.1680
14.310030 0.1650 0.1640 0.1630 0.1630 0.1640
14.335000 0.1660 0.1690 0.1710 0.1860 0.1960
14.360030 0.2020 0.2240 0.2280 0.2500 0.2760
14.385000 0.2770 0.2970 0.3040 0.3080 0.3270
14.410030 0.3730 0.3770 0.3900 0.4110 0.4370
14.435000 0.4620 0.4860 0.5080 0.5260 0.5450
14.460030 0.5620 0.5780 0.5920 0.6060 0.6170
14.485000 0.6290 0.6390 0.6460 0.6530 0.6590
14.510030 0.6760 0.6810 0.6880 0.7000 0.7020
14.535000 0.7030 0.7100 0.7100 0.7120 0.7170
14.560030 0.7220 0.7260 0.7260 0.7270 0.7280
14.585000 0.7300 0.7300 0.7340 0.7360 0.7390
14.610030 0.7390 0.7400 0.7400 0.7400 0.7400
14.636000 0.7400 0.7400 0.7390 0.7390 0.7370
14.661030 0.7370 0.7370 0.7390 0.7390 0.7390
14.686000 0.7400 0.7410 0.7410 0.7410 0.7410
14.711030 0.7400 0.7400 0.7390 0.7370 0.7350
14.736000 0.7350 0.7340 0.7320 0.7320 0.7320
14.761030 0.7310 0.7310 0.7300 0.7280 0.7280
14.786000 0.7270 0.7260 0.7250 0.7250 0.7250
14.811030 0.7260 0.7260 0.7280 0.7280 0.7280
14.836000 0.7300 0.7300 0.7300 0.7300 0.7310
14.861030 0.7310 0.7320 0.7320 0.7320 0.7340
14.886000 0.7340 0.7340 0.7320 0.7320 0.7310
14.911030 0.7280 0.7280 0.7210 0.7170 0.7120
14.936000 0.7110 0.7060 0.7060 0.7020 0.7010
14.961030 0.7010 0.7010 0.7010 0.7000 0.7000
14.986000 0.7000 0.7000 0.7000 0.7000 0.7000
15.011030 0.7000 0.7000 0.7000
##END=
