##TITLE=Silanol, triphenyl-,
##JCAMP-DX=4.24
##DATA TYPE=INFRARED SPECTRUM
##CLASS=COBLENTZ III
##ORIGIN=DOW CORNING CORP.
##OWNER=Copyright (C) 1987 by the Coblentz Society
Collection (C) 2018 copyright by the U.S. Secretary of Commerce
on behalf of the United States of America. All rights reserved.
##DATE=1966/06/28
##NAMES=triphenylsilanol
##CAS REGISTRY NO=791-31-1
##MOLFORM=C18 H16 O Si
##MP=151 C
##SOURCE REFERENCE=COBLENTZ NO. 5610
##$NIST SOURCE=COBLENTZ
##$NIST IMAGE=cob5610
##SPECTROMETER/DATA SYSTEM=PERKIN-ELMER 521 (GRATING)
##INSTRUMENT PARAMETERS=FILTERS AT 3150, 2500, 2000, 1150, 700, 410. GRATING CHANGES: 2000, 630
##STATE=SOLID (SPLIT MULL)
##RESOLUTION=2
##XUNITS=1/CM
##YUNITS=TRANSMITTANCE
##XFACTOR=1.0
##YFACTOR=1
##FIRSTX=258
##LASTX=3824
##FIRSTY=0.7074
##MAXX=3824
##MINX=258
##MAXY=0.9221
##MINY=0.0713
##NPOINTS=3567
##XYDATA=(X++(Y..Y))
258.000000 0.7074 0.7075 0.7092 0.7102 0.7112
263.000000 0.7130 0.7155 0.7179 0.7203 0.7230
268.000000 0.7282 0.7334 0.7395 0.7451 0.7492
273.000000 0.7533 0.7564 0.7588 0.7611 0.7635
278.000000 0.7658 0.7682 0.7708 0.7733 0.7756
283.000000 0.7771 0.7786 0.7801 0.7815 0.7829
288.000000 0.7843 0.7857 0.7871 0.7900 0.7937
293.000000 0.7975 0.8005 0.8031 0.8058 0.8084
298.000000 0.8111 0.8132 0.8151 0.8170 0.8190
303.000000 0.8209 0.8227 0.8240 0.8245 0.8249
308.000000 0.8254 0.8258 0.8257 0.8254 0.8252
313.000000 0.8249 0.8251 0.8256 0.8268 0.8282
318.000000 0.8296 0.8310 0.8324 0.8338 0.8352
323.000000 0.8364 0.8377 0.8390 0.8402 0.8415
328.000000 0.8428 0.8436 0.8444 0.8452 0.8460
333.000000 0.8468 0.8478 0.8470 0.8469 0.8469
338.000000 0.8468 0.8468 0.8462 0.8456 0.8450
343.000000 0.8444 0.8438 0.8432 0.8425 0.8417
348.000000 0.8408 0.8398 0.8389 0.8373 0.8352
353.000000 0.8332 0.8312 0.8289 0.8266 0.8242
358.000000 0.8220 0.8208 0.8196 0.8184 0.8175
363.000000 0.8170 0.8165 0.8161 0.8156 0.8156
368.000000 0.8154 0.8161 0.8164 0.8167 0.8177
373.000000 0.8188 0.8210 0.8231 0.8252 0.8273
378.000000 0.8293 0.8313 0.8333 0.8347 0.8357
383.000000 0.8367 0.8377 0.8383 0.8387 0.8390
388.000000 0.8394 0.8395 0.8392 0.8389 0.8386
393.000000 0.8386 0.8387 0.8388 0.8389 0.8393
398.000000 0.8406 0.8418 0.8427 0.8433 0.8438
403.000000 0.8441 0.8439 0.8437 0.8425 0.8413
408.000000 0.8401 0.8390 0.8378 0.8363 0.8347
413.000000 0.8331 0.8316 0.8300 0.8285 0.8266
418.000000 0.8245 0.8224 0.8203 0.8183 0.8160
423.000000 0.8125 0.8090 0.8055 0.8007 0.7932
428.000000 0.7862 0.7818 0.7773 0.7730 0.7690
433.000000 0.7665 0.7659 0.7657 0.7652 0.7664
438.000000 0.7664 0.7664 0.7670 0.7676 0.7682
443.000000 0.7688 0.7700 0.7712 0.7739 0.7770
448.000000 0.7801 0.7875 0.7942 0.8002 0.8046
453.000000 0.8077 0.8076 0.8074 0.8086 0.8071
458.000000 0.8070 0.8068 0.8064 0.8054 0.8040
463.000000 0.8020 0.7994 0.7962 0.7897 0.7811
468.000000 0.7726 0.7640 0.7555 0.7470 0.7384
473.000000 0.7299 0.7177 0.7095 0.7039 0.7034
478.000000 0.7030 0.7039 0.7068 0.7115 0.7168
483.000000 0.7224 0.7283 0.7342 0.7401 0.7461
488.000000 0.7510 0.7543 0.7604 0.7566 0.7533
493.000000 0.7464 0.7399 0.7319 0.7238 0.7149
498.000000 0.7059 0.6818 0.6529 0.6239 0.5949
503.000000 0.5660 0.5370 0.5081 0.4791 0.4501
508.000000 0.4212 0.3922 0.3633 0.3343 0.3053
513.000000 0.2764 0.2474 0.2185 0.1987 0.1980
518.000000 0.1997 0.2025 0.2662 0.3328 0.3994
523.000000 0.4660 0.5326 0.5992 0.6846 0.7006
528.000000 0.7114 0.7215 0.7319 0.7422 0.7473
533.000000 0.7524 0.7557 0.7579 0.7602 0.7624
538.000000 0.7642 0.7653 0.7664 0.7676 0.7687
543.000000 0.7693 0.7698 0.7704 0.7709 0.7709
548.000000 0.7707 0.7705 0.7703 0.7701 0.7723
553.000000 0.7697 0.7694 0.7692 0.7690 0.7687
558.000000 0.7685 0.7682 0.7679 0.7677 0.7674
563.000000 0.7671 0.7668 0.7665 0.7661 0.7656
568.000000 0.7651 0.7647 0.7642 0.7637 0.7633
573.000000 0.7626 0.7620 0.7613 0.7606 0.7599
578.000000 0.7592 0.7585 0.7578 0.7572 0.7565
583.000000 0.7558 0.7551 0.7544 0.7538 0.7532
588.000000 0.7527 0.7521 0.7515 0.7509 0.7503
593.000000 0.7497 0.7491 0.7485 0.7479 0.7473
598.000000 0.7469 0.7467 0.7465 0.7463 0.7461
603.000000 0.7463 0.7469 0.7476 0.7482 0.7488
608.000000 0.7494 0.7500 0.7505 0.7531 0.7568
613.000000 0.7605 0.7642 0.7679 0.7716 0.7753
618.000000 0.7789 0.7826 0.7863 0.7900 0.7895
623.000000 0.7890 0.7886 0.7878 0.7872 0.7866
628.000000 0.7859 0.7853 0.7847 0.7841 0.7836
633.000000 0.7831 0.7827 0.7823 0.7819 0.7818
638.000000 0.7817 0.7816 0.7816 0.7816 0.7817
643.000000 0.7817 0.7823 0.7828 0.7834 0.7839
648.000000 0.7845 0.7851 0.7856 0.7857 0.7857
653.000000 0.7857 0.7857 0.7856 0.7851 0.7846
658.000000 0.7842 0.7837 0.7832 0.7818 0.7802
663.000000 0.7787 0.7769 0.7747 0.7725 0.7703
668.000000 0.7682 0.7662 0.7642 0.7622 0.7612
673.000000 0.7608 0.7605 0.7601 0.7604 0.7610
678.000000 0.7620 0.7627 0.7628 0.7607 0.7582
683.000000 0.7544 0.7472 0.7412 0.7352 0.7249
688.000000 0.7142 0.7031 0.6900 0.6640 0.5612
693.000000 0.4946 0.4281 0.3616 0.2951 0.2297
698.000000 0.2320 0.2282 0.2566 0.3204 0.3842
703.000000 0.4479 0.4713 0.4713 0.4559 0.4141
708.000000 0.3723 0.3305 0.2888 0.2470 0.2052
713.000000 0.1889 0.1881 0.2082 0.2691 0.3301
718.000000 0.3910 0.4519 0.5129 0.5738 0.6347
723.000000 0.6848 0.6926 0.7002 0.7055 0.7144
728.000000 0.7092 0.7078 0.7027 0.6795 0.6564
733.000000 0.6333 0.6102 0.5870 0.5639 0.5353
738.000000 0.5353 0.5375 0.5672 0.5969 0.6265
743.000000 0.6536 0.6705 0.6827 0.6887 0.6931
748.000000 0.6972 0.7176 0.7398 0.7746 0.7815
753.000000 0.7870 0.7907 0.7935 0.7954 0.7973
758.000000 0.7989 0.8001 0.8013 0.8026 0.8038
763.000000 0.8044 0.8047 0.8050 0.8053 0.8056
768.000000 0.8058 0.8056 0.8066 0.8052 0.8050
773.000000 0.8048 0.8046 0.8044 0.8041 0.8039
778.000000 0.8036 0.8033 0.8030 0.8027 0.8024
783.000000 0.8019 0.8013 0.8006 0.8000 0.7994
788.000000 0.7987 0.7981 0.7975 0.7965 0.7949
793.000000 0.7933 0.7916 0.7897 0.7878 0.7859
798.000000 0.7840 0.7820 0.7801 0.7774 0.7748
803.000000 0.7722 0.7695 0.7662 0.7620 0.7579
808.000000 0.7537 0.7495 0.7451 0.7391 0.7331
813.000000 0.7271 0.7211 0.7099 0.6975 0.6833
818.000000 0.6683 0.6521 0.6348 0.6151 0.5954
823.000000 0.5757 0.5560 0.5363 0.5166 0.4970
828.000000 0.4773 0.4576 0.4379 0.4251 0.4166
833.000000 0.4126 0.4119 0.4119 0.4215 0.4434
838.000000 0.4653 0.4873 0.5092 0.5134 0.5134
843.000000 0.5161 0.5130 0.5117 0.5053 0.4927
848.000000 0.4801 0.4675 0.4549 0.4423 0.4376
853.000000 0.4378 0.4368 0.4387 0.4401 0.4421
858.000000 0.4472 0.4562 0.4644 0.4734 0.4901
863.000000 0.4966 0.5070 0.5307 0.5543 0.5779
868.000000 0.6016 0.6252 0.6488 0.6725 0.7016
873.000000 0.7177 0.7307 0.7428 0.7548 0.7638
878.000000 0.7698 0.7759 0.7804 0.7846 0.7882
883.000000 0.7908 0.7929 0.7943 0.7956 0.7970
888.000000 0.7984 0.7998 0.8012 0.8025 0.8038
893.000000 0.8051 0.8064 0.8077 0.8090 0.8103
898.000000 0.8112 0.8119 0.8126 0.8133 0.8152
903.000000 0.8138 0.8139 0.8140 0.8141 0.8139
908.000000 0.8133 0.8128 0.8123 0.8116 0.8103
913.000000 0.8089 0.8082 0.8078 0.8080 0.8084
918.000000 0.8087 0.8091 0.8095 0.8099 0.8102
923.000000 0.8104 0.8106 0.8103 0.8100 0.8097
928.000000 0.8094 0.8091 0.8088 0.8077 0.8067
933.000000 0.8056 0.8045 0.8034 0.8022 0.8011
938.000000 0.8000 0.7988 0.7976 0.7963 0.7950
943.000000 0.7938 0.7925 0.7912 0.7899 0.7885
948.000000 0.7871 0.7856 0.7840 0.7824 0.7807
953.000000 0.7790 0.7774 0.7757 0.7741 0.7724
958.000000 0.7707 0.7691 0.7674 0.7656 0.7636
963.000000 0.7617 0.7597 0.7578 0.7558 0.7539
968.000000 0.7527 0.7516 0.7504 0.7493 0.7481
973.000000 0.7470 0.7456 0.7437 0.7418 0.7399
978.000000 0.7379 0.7361 0.7346 0.7331 0.7316
983.000000 0.7301 0.7281 0.7260 0.7231 0.7200
988.000000 0.7170 0.7139 0.7066 0.6979 0.6695
993.000000 0.6386 0.6218 0.6187 0.6283 0.6520
998.000000 0.6758 0.6995 0.7168 0.7178 0.7189
1003.000000 0.7191 0.7191 0.7191 0.7218 0.7189
1008.000000 0.7186 0.7183 0.7180 0.7171 0.7163
1013.000000 0.7154 0.7141 0.7128 0.7115 0.7101
1018.000000 0.7075 0.7024 0.6973 0.6895 0.6796
1023.000000 0.6692 0.6696 0.6700 0.6825 0.6957
1028.000000 0.7088 0.7220 0.7238 0.7248 0.7254
1033.000000 0.7260 0.7267 0.7274 0.7281 0.7288
1038.000000 0.7295 0.7302 0.7308 0.7315 0.7322
1043.000000 0.7328 0.7335 0.7342 0.7349 0.7356
1048.000000 0.7363 0.7370 0.7378 0.7422 0.7394
1053.000000 0.7400 0.7400 0.7389 0.7372 0.7352
1058.000000 0.7326 0.7293 0.7245 0.7175 0.7160
1063.000000 0.7133 0.7148 0.7150 0.7155 0.7192
1068.000000 0.7239 0.7292 0.7345 0.7385 0.7407
1073.000000 0.7423 0.7423 0.7438 0.7406 0.7392
1078.000000 0.7367 0.7344 0.7325 0.7307 0.7286
1083.000000 0.7263 0.7240 0.7217 0.7195 0.7176
1088.000000 0.7155 0.7116 0.7050 0.6954 0.6885
1093.000000 0.6875 0.6868 0.6864 0.6859 0.6659
1098.000000 0.6420 0.6181 0.5941 0.5702 0.5620
1103.000000 0.5563 0.5524 0.5497 0.5471 0.5442
1108.000000 0.5362 0.4889 0.4358 0.3828 0.3298
1113.000000 0.2767 0.2237 0.1871 0.1866 0.1855
1118.000000 0.1869 0.2362 0.3130 0.3898 0.4667
1123.000000 0.6002 0.6181 0.6351 0.6502 0.6662
1128.000000 0.6844 0.7100 0.7246 0.7301 0.7353
1133.000000 0.7393 0.7422 0.7451 0.7474 0.7488
1138.000000 0.7499 0.7509 0.7520 0.7526 0.7532
1143.000000 0.7538 0.7543 0.7541 0.7539 0.7537
1148.000000 0.7531 0.7525 0.7518 0.7528 0.7540
1153.000000 0.7572 0.7616 0.7663 0.7702 0.7730
1158.000000 0.7745 0.7755 0.7765 0.7772 0.7777
1163.000000 0.7781 0.7783 0.7812 0.7787 0.7789
1168.000000 0.7786 0.7773 0.7756 0.7725 0.7689
1173.000000 0.7650 0.7606 0.7565 0.7525 0.7485
1178.000000 0.7452 0.7423 0.7395 0.7386 0.7381
1183.000000 0.7400 0.7427 0.7474 0.7525 0.7583
1188.000000 0.7641 0.7695 0.7739 0.7785 0.7836
1193.000000 0.7864 0.7898 0.7870 0.7874 0.7878
1198.000000 0.7884 0.7890 0.7895 0.7901 0.7906
1203.000000 0.7911 0.7915 0.7915 0.7915 0.7915
1208.000000 0.7915 0.7915 0.7915 0.7915 0.7915
1213.000000 0.7915 0.7915 0.7915 0.7915 0.7916
1218.000000 0.7916 0.7916 0.7916 0.7916 0.7916
1223.000000 0.7916 0.7916 0.7916 0.7916 0.7916
1228.000000 0.7916 0.7916 0.7916 0.7916 0.7916
1233.000000 0.7916 0.7914 0.7913 0.7910 0.7906
1238.000000 0.7902 0.7898 0.7892 0.7887 0.7881
1243.000000 0.7872 0.7860 0.7840 0.7820 0.7800
1248.000000 0.7774 0.7748 0.7719 0.7688 0.7656
1253.000000 0.7626 0.7596 0.7579 0.7573 0.7575
1258.000000 0.7566 0.7572 0.7582 0.7596 0.7610
1263.000000 0.7641 0.7674 0.7717 0.7759 0.7804
1268.000000 0.7829 0.7850 0.7834 0.7831 0.7828
1273.000000 0.7825 0.7819 0.7810 0.7800 0.7791
1278.000000 0.7781 0.7770 0.7760 0.7749 0.7739
1283.000000 0.7728 0.7717 0.7706 0.7695 0.7683
1288.000000 0.7672 0.7661 0.7650 0.7638 0.7625
1293.000000 0.7613 0.7600 0.7588 0.7487 0.7311
1298.000000 0.7135 0.7097 0.7096 0.7126 0.7300
1303.000000 0.7413 0.7526 0.7639 0.7752 0.7865
1308.000000 0.7970 0.8065 0.8088 0.8084 0.8103
1313.000000 0.8077 0.8077 0.8077 0.8078 0.8073
1318.000000 0.8031 0.7988 0.7944 0.7890 0.7838
1323.000000 0.7789 0.7769 0.7760 0.7761 0.7773
1328.000000 0.7787 0.7829 0.7902 0.8035 0.8110
1333.000000 0.8184 0.8257 0.8406 0.8571 0.8638
1338.000000 0.8675 0.8692 0.8671 0.8666 0.8661
1343.000000 0.8654 0.8645 0.8636 0.8628 0.8619
1348.000000 0.8611 0.8602 0.8594 0.8585 0.8577
1353.000000 0.8568 0.8563 0.8558 0.8553 0.8547
1358.000000 0.8542 0.8537 0.8532 0.8527 0.8519
1363.000000 0.8507 0.8495 0.8475 0.8449 0.8412
1368.000000 0.8341 0.8228 0.8215 0.8210 0.8220
1373.000000 0.8232 0.8254 0.8278 0.8304 0.8330
1378.000000 0.8356 0.8381 0.8405 0.8430 0.8455
1383.000000 0.8480 0.8506 0.8532 0.8556 0.8566
1388.000000 0.8575 0.8598 0.8587 0.8580 0.8571
1393.000000 0.8555 0.8536 0.8518 0.8499 0.8480
1398.000000 0.8461 0.8438 0.8415 0.8392 0.8369
1403.000000 0.8338 0.8299 0.8260 0.8184 0.8087
1408.000000 0.8003 0.7909 0.7778 0.7694 0.7610
1413.000000 0.7526 0.7375 0.7183 0.6885 0.5793
1418.000000 0.5284 0.4378 0.3473 0.2567 0.1661
1423.000000 0.0755 0.0716 0.0713 0.2521 0.4367
1428.000000 0.6213 0.8060 0.8908 0.9009 0.9048
1433.000000 0.9087 0.9108 0.9126 0.9137 0.9144
1438.000000 0.9151 0.9158 0.9179 0.9158 0.9157
1443.000000 0.9156 0.9153 0.9151 0.9148 0.9146
1448.000000 0.9143 0.9139 0.9134 0.9128 0.9123
1453.000000 0.9118 0.9112 0.9107 0.9102 0.9095
1458.000000 0.9089 0.9082 0.9076 0.9069 0.9061
1463.000000 0.9052 0.9043 0.9025 0.8990 0.8956
1468.000000 0.8909 0.8863 0.8803 0.8743 0.8677
1473.000000 0.8610 0.8543 0.8390 0.8012 0.7587
1478.000000 0.7162 0.6737 0.6499 0.6498 0.6502
1483.000000 0.6934 0.7419 0.7903 0.8388 0.8873
1488.000000 0.9056 0.9113 0.9139 0.9155 0.9167
1493.000000 0.9171 0.9176 0.9178 0.9180 0.9181
1498.000000 0.9183 0.9184 0.9185 0.9221 0.9187
1503.000000 0.9187 0.9187 0.9187 0.9187 0.9186
1508.000000 0.9183 0.9181 0.9179 0.9176 0.9174
1513.000000 0.9170 0.9166 0.9161 0.9157 0.9153
1518.000000 0.9148 0.9142 0.9135 0.9129 0.9122
1523.000000 0.9115 0.9108 0.9102 0.9095 0.9088
1528.000000 0.9083 0.9078 0.9073 0.9068 0.9063
1533.000000 0.9058 0.9051 0.9043 0.9035 0.9027
1538.000000 0.9018 0.8998 0.8977 0.8957 0.8941
1543.000000 0.8925 0.8910 0.8901 0.8893 0.8885
1548.000000 0.8876 0.8868 0.8858 0.8847 0.8836
1553.000000 0.8825 0.8815 0.8799 0.8782 0.8764
1558.000000 0.8738 0.8427 0.8115 0.8088 0.8065
1563.000000 0.8208 0.8412 0.8616 0.8820 0.8914
1568.000000 0.8871 0.8858 0.8830 0.8782 0.8728
1573.000000 0.8678 0.8632 0.8584 0.8535 0.8454
1578.000000 0.8364 0.8238 0.7684 0.7306 0.6929
1583.000000 0.6551 0.6174 0.6006 0.5991 0.6207
1588.000000 0.6891 0.7575 0.8259 0.8786 0.8809
1593.000000 0.8827 0.8841 0.8848 0.8854 0.8854
1598.000000 0.8855 0.8855 0.8855 0.8855 0.8855
1603.000000 0.8856 0.8854 0.8850 0.8845 0.8840
1608.000000 0.8836 0.8827 0.8814 0.8802 0.8800
1613.000000 0.8812 0.8825 0.8848 0.8872 0.8889
1618.000000 0.8906 0.8915 0.8920 0.8921 0.8923
1623.000000 0.8924 0.8928 0.8923 0.8922 0.8921
1628.000000 0.8918 0.8914 0.8911 0.8908 0.8905
1633.000000 0.8899 0.8890 0.8881 0.8872 0.8862
1638.000000 0.8848 0.8833 0.8818 0.8804 0.8789
1643.000000 0.8772 0.8756 0.8739 0.8723 0.8706
1648.000000 0.8690 0.8675 0.8659 0.8643 0.8628
1653.000000 0.8612 0.8597 0.8590 0.8587 0.8558
1658.000000 0.8592 0.8598 0.8607 0.8616 0.8625
1663.000000 0.8636 0.8650 0.8663 0.8680 0.8698
1668.000000 0.8717 0.8730 0.8742 0.8754 0.8767
1673.000000 0.8779 0.8790 0.8819 0.8811 0.8815
1678.000000 0.8815 0.8815 0.8813 0.8812 0.8811
1683.000000 0.8810 0.8808 0.8807 0.8806 0.8804
1688.000000 0.8802 0.8799 0.8797 0.8794 0.8792
1693.000000 0.8790 0.8787 0.8785 0.8783 0.8780
1698.000000 0.8778 0.8776 0.8773 0.8771 0.8769
1703.000000 0.8766 0.8765 0.8765 0.8764 0.8763
1708.000000 0.8762 0.8762 0.8761 0.8760 0.8759
1713.000000 0.8757 0.8755 0.8754 0.8752 0.8751
1718.000000 0.8749 0.8748 0.8746 0.8745 0.8743
1723.000000 0.8741 0.8739 0.8737 0.8735 0.8733
1728.000000 0.8731 0.8728 0.8726 0.8724 0.8722
1733.000000 0.8720 0.8718 0.8715 0.8713 0.8711
1738.000000 0.8709 0.8707 0.8704 0.8702 0.8700
1743.000000 0.8698 0.8695 0.8693 0.8685 0.8676
1748.000000 0.8668 0.8659 0.8650 0.8638 0.8625
1753.000000 0.8613 0.8600 0.8588 0.8575 0.8563
1758.000000 0.8551 0.8538 0.8528 0.8520 0.8513
1763.000000 0.8505 0.8498 0.8490 0.8483 0.8475
1768.000000 0.8474 0.8467 0.8465 0.8470 0.8482
1773.000000 0.8494 0.8506 0.8518 0.8530 0.8543
1778.000000 0.8555 0.8566 0.8578 0.8589 0.8597
1783.000000 0.8599 0.8600 0.8602 0.8604 0.8604
1788.000000 0.8602 0.8600 0.8578 0.8596 0.8595
1793.000000 0.8593 0.8591 0.8589 0.8585 0.8578
1798.000000 0.8570 0.8562 0.8554 0.8544 0.8529
1803.000000 0.8514 0.8500 0.8485 0.8460 0.8425
1808.000000 0.8390 0.8355 0.8320 0.8276 0.8231
1813.000000 0.8186 0.8162 0.8141 0.8134 0.8131
1818.000000 0.8100 0.8131 0.8131 0.8135 0.8141
1823.000000 0.8154 0.8167 0.8181 0.8195 0.8209
1828.000000 0.8223 0.8237 0.8255 0.8276 0.8297
1833.000000 0.8318 0.8339 0.8360 0.8381 0.8403
1838.000000 0.8424 0.8435 0.8446 0.8457 0.8469
1843.000000 0.8481 0.8494 0.8510 0.8527 0.8538
1848.000000 0.8544 0.8549 0.8555 0.8560 0.8563
1853.000000 0.8563 0.8563 0.8571 0.8564 0.8563
1858.000000 0.8560 0.8558 0.8555 0.8552 0.8544
1863.000000 0.8536 0.8527 0.8515 0.8504 0.8481
1868.000000 0.8455 0.8429 0.8390 0.8341 0.8294
1873.000000 0.8248 0.8201 0.8160 0.8120 0.8080
1878.000000 0.8041 0.8001 0.7959 0.7916 0.7877
1883.000000 0.7874 0.7862 0.7881 0.7891 0.7901
1888.000000 0.7912 0.7930 0.7948 0.7964 0.7981
1893.000000 0.7997 0.8019 0.8042 0.8065 0.8088
1898.000000 0.8111 0.8133 0.8154 0.8176 0.8203
1903.000000 0.8233 0.8264 0.8294 0.8325 0.8345
1908.000000 0.8362 0.8378 0.8393 0.8403 0.8411
1913.000000 0.8418 0.8426 0.8434 0.8443 0.8452
1918.000000 0.8461 0.8471 0.8477 0.8479 0.8481
1923.000000 0.8483 0.8486 0.8487 0.8500 0.8482
1928.000000 0.8479 0.8477 0.8474 0.8469 0.8463
1933.000000 0.8457 0.8449 0.8439 0.8430 0.8411
1938.000000 0.8382 0.8358 0.8333 0.8309 0.8284
1943.000000 0.8254 0.8223 0.8193 0.8164 0.8137
1948.000000 0.8110 0.8083 0.8056 0.8030 0.8006
1953.000000 0.7982 0.7958 0.7944 0.7934 0.7930
1958.000000 0.7899 0.7936 0.7941 0.7956 0.7977
1963.000000 0.8010 0.8038 0.8061 0.8085 0.8104
1968.000000 0.8124 0.8142 0.8157 0.8172 0.8187
1973.000000 0.8202 0.8218 0.8235 0.8252 0.8269
1978.000000 0.8288 0.8307 0.8326 0.8345 0.8362
1983.000000 0.8376 0.8390 0.8403 0.8411 0.8418
1988.000000 0.8425 0.8433 0.8440 0.8447 0.8455
1993.000000 0.8468 0.8481 0.8494 0.8507 0.8558
1998.000000 0.8634 0.8710 0.8786 0.8794 0.8802
2003.000000 0.8797 0.8793 0.8789 0.8790 0.8781
2008.000000 0.8778 0.8775 0.8772 0.8768 0.8765
2013.000000 0.8762 0.8759 0.8756 0.8754 0.8752
2018.000000 0.8750 0.8747 0.8745 0.8743 0.8742
2023.000000 0.8740 0.8739 0.8737 0.8735 0.8733
2028.000000 0.8732 0.8730 0.8728 0.8725 0.8722
2033.000000 0.8719 0.8717 0.8714 0.8711 0.8708
2038.000000 0.8706 0.8703 0.8701 0.8698 0.8695
2043.000000 0.8692 0.8689 0.8686 0.8684 0.8681
2048.000000 0.8678 0.8675 0.8672 0.8669 0.8666
2053.000000 0.8663 0.8660 0.8657 0.8654 0.8651
2058.000000 0.8648 0.8645 0.8642 0.8639 0.8636
2063.000000 0.8632 0.8629 0.8626 0.8623 0.8620
2068.000000 0.8617 0.8614 0.8611 0.8608 0.8605
2073.000000 0.8602 0.8599 0.8596 0.8594 0.8591
2078.000000 0.8588 0.8585 0.8583 0.8580 0.8577
2083.000000 0.8574 0.8571 0.8568 0.8566 0.8563
2088.000000 0.8561 0.8558 0.8555 0.8552 0.8550
2093.000000 0.8547 0.8544 0.8541 0.8539 0.8536
2098.000000 0.8534 0.8531 0.8528 0.8525 0.8523
2103.000000 0.8520 0.8517 0.8514 0.8512 0.8509
2108.000000 0.8507 0.8504 0.8502 0.8499 0.8497
2113.000000 0.8494 0.8491 0.8488 0.8486 0.8483
2118.000000 0.8481 0.8478 0.8476 0.8473 0.8471
2123.000000 0.8468 0.8466 0.8463 0.8460 0.8456
2128.000000 0.8453 0.8449 0.8446 0.8443 0.8440
2133.000000 0.8436 0.8433 0.8429 0.8426 0.8422
2138.000000 0.8419 0.8416 0.8413 0.8409 0.8406
2143.000000 0.8402 0.8399 0.8395 0.8392 0.8388
2148.000000 0.8385 0.8381 0.8378 0.8374 0.8371
2153.000000 0.8367 0.8363 0.8359 0.8356 0.8352
2158.000000 0.8349 0.8345 0.8342 0.8337 0.8333
2163.000000 0.8328 0.8324 0.8319 0.8315 0.8310
2168.000000 0.8306 0.8302 0.8298 0.8293 0.8289
2173.000000 0.8284 0.8280 0.8275 0.8271 0.8266
2178.000000 0.8262 0.8257 0.8252 0.8247 0.8243
2183.000000 0.8238 0.8234 0.8230 0.8226 0.8222
2188.000000 0.8219 0.8215 0.8212 0.8208 0.8205
2193.000000 0.8201 0.8198 0.8194 0.8191 0.8187
2198.000000 0.8183 0.8179 0.8175 0.8171 0.8167
2203.000000 0.8163 0.8159 0.8155 0.8151 0.8147
2208.000000 0.8143 0.8139 0.8135 0.8130 0.8126
2213.000000 0.8122 0.8119 0.8115 0.8112 0.8108
2218.000000 0.8105 0.8101 0.8098 0.8094 0.8091
2223.000000 0.8087 0.8084 0.8080 0.8076 0.8072
2228.000000 0.8069 0.8065 0.8062 0.8058 0.8055
2233.000000 0.8053 0.8051 0.8049 0.8048 0.8046
2238.000000 0.8044 0.8042 0.8040 0.8038 0.8037
2243.000000 0.8035 0.8033 0.8031 0.8030 0.8028
2248.000000 0.8026 0.8024 0.8023 0.8021 0.8019
2253.000000 0.8017 0.8016 0.8014 0.8013 0.8011
2258.000000 0.8010 0.8009 0.8008 0.8006 0.8005
2263.000000 0.8003 0.8002 0.8001 0.8000 0.7998
2268.000000 0.7997 0.7992 0.7987 0.7981 0.7976
2273.000000 0.7970 0.7964 0.7958 0.7952 0.7946
2278.000000 0.7940 0.7931 0.7923 0.7913 0.7903
2283.000000 0.7893 0.7883 0.7873 0.7863 0.7861
2288.000000 0.7860 0.7861 0.7862 0.7863 0.7864
2293.000000 0.7865 0.7866 0.7866 0.7867 0.7867
2298.000000 0.7868 0.7867 0.7867 0.7867 0.7867
2303.000000 0.7866 0.7866 0.7866 0.7866 0.7864
2308.000000 0.7863 0.7861 0.7859 0.7857 0.7855
2313.000000 0.7852 0.7850 0.7848 0.7847 0.7845
2318.000000 0.7843 0.7841 0.7840 0.7838 0.7836
2323.000000 0.7834 0.7833 0.7831 0.7830 0.7828
2328.000000 0.7826 0.7825 0.7824 0.7822 0.7821
2333.000000 0.7820 0.7819 0.7818 0.7817 0.7816
2338.000000 0.7815 0.7813 0.7812 0.7811 0.7810
2343.000000 0.7809 0.7808 0.7806 0.7805 0.7804
2348.000000 0.7803 0.7802 0.7801 0.7800 0.7799
2353.000000 0.7798 0.7797 0.7796 0.7795 0.7794
2358.000000 0.7793 0.7792 0.7791 0.7790 0.7790
2363.000000 0.7791 0.7792 0.7792 0.7793 0.7793
2368.000000 0.7794 0.7795 0.7796 0.7796 0.7797
2373.000000 0.7797 0.7798 0.7796 0.7795 0.7793
2378.000000 0.7792 0.7790 0.7788 0.7786 0.7785
2383.000000 0.7783 0.7781 0.7779 0.7778 0.7776
2388.000000 0.7774 0.7771 0.7769 0.7767 0.7765
2393.000000 0.7763 0.7761 0.7759 0.7757 0.7755
2398.000000 0.7753 0.7751 0.7749 0.7746 0.7744
2403.000000 0.7742 0.7740 0.7738 0.7736 0.7733
2408.000000 0.7731 0.7729 0.7727 0.7724 0.7722
2413.000000 0.7720 0.7718 0.7715 0.7713 0.7711
2418.000000 0.7709 0.7707 0.7705 0.7702 0.7700
2423.000000 0.7698 0.7696 0.7693 0.7691 0.7689
2428.000000 0.7687 0.7684 0.7682 0.7679 0.7677
2433.000000 0.7675 0.7673 0.7670 0.7668 0.7666
2438.000000 0.7664 0.7661 0.7659 0.7656 0.7654
2443.000000 0.7652 0.7650 0.7649 0.7648 0.7646
2448.000000 0.7645 0.7643 0.7642 0.7641 0.7640
2453.000000 0.7638 0.7637 0.7635 0.7634 0.7632
2458.000000 0.7631 0.7631 0.7631 0.7634 0.7637
2463.000000 0.7639 0.7642 0.7645 0.7648 0.7644
2468.000000 0.7641 0.7635 0.7629 0.7623 0.7617
2473.000000 0.7611 0.7605 0.7595 0.7586 0.7577
2478.000000 0.7569 0.7561 0.7553 0.7545 0.7537
2483.000000 0.7529 0.7521 0.7515 0.7509 0.7504
2488.000000 0.7500 0.7495 0.7491 0.7486 0.7482
2493.000000 0.7477 0.7473 0.7469 0.7465 0.7461
2498.000000 0.7457 0.7453 0.7449 0.7445 0.7441
2503.000000 0.7437 0.7433 0.7429 0.7426 0.7424
2508.000000 0.7423 0.7421 0.7420 0.7418 0.7417
2513.000000 0.7415 0.7414 0.7412 0.7411 0.7409
2518.000000 0.7408 0.7406 0.7405 0.7403 0.7402
2523.000000 0.7400 0.7399 0.7397 0.7395 0.7392
2528.000000 0.7390 0.7388 0.7386 0.7383 0.7381
2533.000000 0.7379 0.7377 0.7374 0.7372 0.7369
2538.000000 0.7367 0.7365 0.7363 0.7360 0.7358
2543.000000 0.7355 0.7353 0.7351 0.7349 0.7346
2548.000000 0.7344 0.7341 0.7339 0.7337 0.7335
2553.000000 0.7332 0.7330 0.7327 0.7325 0.7322
2558.000000 0.7319 0.7315 0.7311 0.7307 0.7304
2563.000000 0.7300 0.7296 0.7292 0.7289 0.7285
2568.000000 0.7282 0.7278 0.7274 0.7271 0.7269
2573.000000 0.7267 0.7265 0.7262 0.7260 0.7257
2578.000000 0.7255 0.7252 0.7250 0.7247 0.7245
2583.000000 0.7242 0.7240 0.7236 0.7233 0.7229
2588.000000 0.7226 0.7222 0.7219 0.7216 0.7213
2593.000000 0.7209 0.7206 0.7202 0.7199 0.7195
2598.000000 0.7192 0.7189 0.7186 0.7182 0.7179
2603.000000 0.7176 0.7173 0.7170 0.7168 0.7165
2608.000000 0.7163 0.7160 0.7157 0.7154 0.7152
2613.000000 0.7149 0.7147 0.7144 0.7141 0.7138
2618.000000 0.7136 0.7133 0.7131 0.7128 0.7126
2623.000000 0.7123 0.7120 0.7117 0.7114 0.7111
2628.000000 0.7109 0.7106 0.7103 0.7100 0.7097
2633.000000 0.7094 0.7092 0.7089 0.7086 0.7083
2638.000000 0.7080 0.7077 0.7075 0.7072 0.7069
2643.000000 0.7066 0.7063 0.7060 0.7057 0.7053
2648.000000 0.7050 0.7046 0.7043 0.7039 0.7036
2653.000000 0.7032 0.7029 0.7025 0.7022 0.7018
2658.000000 0.7014 0.7010 0.7007 0.7003 0.7000
2663.000000 0.6996 0.6993 0.6989 0.6986 0.6983
2668.000000 0.6980 0.6977 0.6974 0.6971 0.6968
2673.000000 0.6964 0.6961 0.6958 0.6955 0.6952
2678.000000 0.6949 0.6946 0.6943 0.6940 0.6937
2683.000000 0.6933 0.6929 0.6924 0.6920 0.6915
2688.000000 0.6911 0.6906 0.6901 0.6897 0.6893
2693.000000 0.6891 0.6889 0.6887 0.6885 0.6882
2698.000000 0.6880 0.6878 0.6876 0.6874 0.6872
2703.000000 0.6869 0.6867 0.6865 0.6863 0.6860
2708.000000 0.6857 0.6853 0.6850 0.6846 0.6843
2713.000000 0.6839 0.6836 0.6832 0.6829 0.6825
2718.000000 0.6822 0.6818 0.6815 0.6811 0.6807
2723.000000 0.6803 0.6800 0.6796 0.6793 0.6788
2728.000000 0.6783 0.6778 0.6774 0.6769 0.6764
2733.000000 0.6759 0.6755 0.6750 0.6745 0.6740
2738.000000 0.6736 0.6731 0.6727 0.6722 0.6717
2743.000000 0.6712 0.6708 0.6703 0.6698 0.6693
2748.000000 0.6689 0.6684 0.6680 0.6675 0.6671
2753.000000 0.6666 0.6662 0.6657 0.6653 0.6648
2758.000000 0.6644 0.6640 0.6636 0.6631 0.6627
2763.000000 0.6622 0.6618 0.6613 0.6609 0.6604
2768.000000 0.6600 0.6596 0.6592 0.6587 0.6583
2773.000000 0.6578 0.6574 0.6570 0.6566 0.6563
2778.000000 0.6561 0.6558 0.6556 0.6553 0.6551
2783.000000 0.6548 0.6546 0.6543 0.6541 0.6538
2788.000000 0.6536 0.6533 0.6531 0.6528 0.6526
2793.000000 0.6522 0.6519 0.6514 0.6509 0.6504
2798.000000 0.6500 0.6495 0.6490 0.6485 0.6481
2803.000000 0.6476 0.6471 0.6466 0.6461 0.6456
2808.000000 0.6452 0.6447 0.6442 0.6436 0.6430
2813.000000 0.6424 0.6418 0.6412 0.6406 0.6400
2818.000000 0.6394 0.6388 0.6382 0.6376 0.6370
2823.000000 0.6364 0.6358 0.6352 0.6347 0.6340
2828.000000 0.6333 0.6323 0.6314 0.6305 0.6296
2833.000000 0.6287 0.6278 0.6268 0.6259 0.6250
2838.000000 0.6241 0.6232 0.6223 0.6214 0.6205
2843.000000 0.6195 0.6186 0.6177 0.6168 0.6159
2848.000000 0.6151 0.6142 0.6134 0.6125 0.6117
2853.000000 0.6108 0.6100 0.6092 0.6085 0.6078
2858.000000 0.6071 0.6064 0.6058 0.6051 0.6045
2863.000000 0.6038 0.6032 0.6025 0.6019 0.6012
2868.000000 0.6006 0.5999 0.5993 0.5986 0.5980
2873.000000 0.5973 0.5967 0.5961 0.5955 0.5948
2878.000000 0.5942 0.5935 0.5929 0.5922 0.5916
2883.000000 0.5909 0.5903 0.5895 0.5887 0.5879
2888.000000 0.5872 0.5864 0.5856 0.5848 0.5840
2893.000000 0.5832 0.5825 0.5817 0.5809 0.5801
2898.000000 0.5794 0.5786 0.5778 0.5770 0.5762
2903.000000 0.5754 0.5747 0.5739 0.5731 0.5724
2908.000000 0.5717 0.5709 0.5702 0.5695 0.5688
2913.000000 0.5680 0.5673 0.5665 0.5658 0.5651
2918.000000 0.5644 0.5636 0.5629 0.5622 0.5615
2923.000000 0.5609 0.5604 0.5598 0.5593 0.5587
2928.000000 0.5582 0.5576 0.5571 0.5566 0.5561
2933.000000 0.5555 0.5550 0.5544 0.5539 0.5533
2938.000000 0.5528 0.5523 0.5518 0.5508 0.5499
2943.000000 0.5488 0.5477 0.5466 0.5456 0.5445
2948.000000 0.5435 0.5424 0.5414 0.5403 0.5393
2953.000000 0.5382 0.5371 0.5360 0.5350 0.5339
2958.000000 0.5329 0.5317 0.5305 0.5293 0.5281
2963.000000 0.5269 0.5257 0.5245 0.5233 0.5221
2968.000000 0.5209 0.5195 0.5182 0.5168 0.5154
2973.000000 0.5140 0.5126 0.5111 0.5097 0.5083
2978.000000 0.5069 0.5055 0.5041 0.5026 0.5012
2983.000000 0.4996 0.4981 0.4962 0.4944 0.4925
2988.000000 0.4907 0.4888 0.4869 0.4850 0.4832
2993.000000 0.4791 0.4751 0.4708 0.4665 0.4622
2998.000000 0.4579 0.4536 0.4494 0.4451 0.4408
3003.000000 0.4365 0.4322 0.4279 0.4236 0.4184
3008.000000 0.4132 0.4081 0.4031 0.3990 0.3950
3013.000000 0.3921 0.3892 0.3873 0.3854 0.3840
3018.000000 0.3826 0.3816 0.3806 0.3807 0.3808
3023.000000 0.3807 0.3807 0.3799 0.3791 0.3758
3028.000000 0.3725 0.3701 0.3678 0.3672 0.3649
3033.000000 0.3660 0.3654 0.3704 0.3754 0.3832
3038.000000 0.3911 0.3990 0.4069 0.4090 0.4111
3043.000000 0.4114 0.4134 0.4083 0.4048 0.3970
3048.000000 0.3892 0.3814 0.3736 0.3658 0.3580
3053.000000 0.3502 0.3425 0.3347 0.3269 0.3191
3058.000000 0.3113 0.3097 0.3091 0.3099 0.3116
3063.000000 0.3159 0.3202 0.3245 0.3288 0.3321
3068.000000 0.3354 0.3355 0.3357 0.3291 0.3227
3073.000000 0.3109 0.2992 0.2874 0.2757 0.2639
3078.000000 0.2522 0.2549 0.2486 0.2720 0.2865
3083.000000 0.3009 0.3154 0.3299 0.3444 0.3588
3088.000000 0.3733 0.3807 0.3882 0.3879 0.3908
3093.000000 0.3872 0.3869 0.3868 0.3867 0.3868
3098.000000 0.3869 0.3869 0.3870 0.3870 0.3870
3103.000000 0.3869 0.3868 0.3866 0.3865 0.3858
3108.000000 0.3851 0.3835 0.3820 0.3804 0.3788
3113.000000 0.3772 0.3757 0.3746 0.3735 0.3724
3118.000000 0.3714 0.3703 0.3693 0.3681 0.3670
3123.000000 0.3649 0.3628 0.3600 0.3572 0.3530
3128.000000 0.3488 0.3464 0.3440 0.3420 0.3400
3133.000000 0.3386 0.3373 0.3359 0.3345 0.3331
3138.000000 0.3318 0.3306 0.3294 0.3285 0.3276
3143.000000 0.3267 0.3258 0.3249 0.3241 0.3235
3148.000000 0.3229 0.3223 0.3218 0.3213 0.3208
3153.000000 0.3202 0.3197 0.3187 0.3177 0.3162
3158.000000 0.3148 0.3133 0.3119 0.3104 0.3089
3163.000000 0.3073 0.3058 0.3043 0.3028 0.3013
3168.000000 0.2998 0.2981 0.2965 0.2946 0.2927
3173.000000 0.2907 0.2888 0.2868 0.2849 0.2836
3178.000000 0.2823 0.2810 0.2797 0.2784 0.2772
3183.000000 0.2759 0.2746 0.2733 0.2721 0.2708
3188.000000 0.2695 0.2682 0.2670 0.2658 0.2646
3193.000000 0.2633 0.2621 0.2609 0.2597 0.2584
3198.000000 0.2572 0.2560 0.2548 0.2536 0.2524
3203.000000 0.2512 0.2501 0.2489 0.2478 0.2466
3208.000000 0.2455 0.2447 0.2440 0.2432 0.2425
3213.000000 0.2417 0.2409 0.2401 0.2394 0.2386
3218.000000 0.2379 0.2371 0.2363 0.2355 0.2347
3223.000000 0.2338 0.2330 0.2322 0.2314 0.2308
3228.000000 0.2302 0.2296 0.2291 0.2285 0.2279
3233.000000 0.2273 0.2268 0.2264 0.2260 0.2256
3238.000000 0.2253 0.2249 0.2246 0.2242 0.2239
3243.000000 0.2236 0.2234 0.2232 0.2230 0.2228
3248.000000 0.2227 0.2225 0.2223 0.2221 0.2219
3253.000000 0.2217 0.2215 0.2213 0.2212 0.2211
3258.000000 0.2210 0.2209 0.2209 0.2208 0.2208
3263.000000 0.2208 0.2185 0.2209 0.2211 0.2212
3268.000000 0.2214 0.2215 0.2217 0.2218 0.2220
3273.000000 0.2221 0.2223 0.2224 0.2226 0.2228
3278.000000 0.2230 0.2233 0.2236 0.2239 0.2243
3283.000000 0.2246 0.2249 0.2253 0.2258 0.2262
3288.000000 0.2267 0.2272 0.2277 0.2281 0.2286
3293.000000 0.2291 0.2296 0.2300 0.2305 0.2310
3298.000000 0.2315 0.2319 0.2324 0.2332 0.2341
3303.000000 0.2350 0.2359 0.2368 0.2377 0.2386
3308.000000 0.2395 0.2404 0.2413 0.2422 0.2431
3313.000000 0.2440 0.2449 0.2458 0.2468 0.2477
3318.000000 0.2486 0.2495 0.2505 0.2508 0.2512
3323.000000 0.2514 0.2516 0.2518 0.2521 0.2526
3328.000000 0.2531 0.2562 0.2593 0.2615 0.2637
3333.000000 0.2652 0.2668 0.2680 0.2693 0.2706
3338.000000 0.2719 0.2731 0.2744 0.2757 0.2770
3343.000000 0.2783 0.2797 0.2810 0.2823 0.2836
3348.000000 0.2849 0.2865 0.2882 0.2899 0.2917
3353.000000 0.2935 0.2953 0.2970 0.2988 0.3006
3358.000000 0.3024 0.3041 0.3058 0.3074 0.3090
3363.000000 0.3106 0.3122 0.3138 0.3154 0.3170
3368.000000 0.3187 0.3203 0.3219 0.3235 0.3251
3373.000000 0.3268 0.3285 0.3301 0.3318 0.3334
3378.000000 0.3351 0.3367 0.3384 0.3401 0.3418
3383.000000 0.3435 0.3452 0.3468 0.3485 0.3502
3388.000000 0.3519 0.3536 0.3553 0.3569 0.3586
3393.000000 0.3603 0.3620 0.3636 0.3653 0.3672
3398.000000 0.3691 0.3712 0.3734 0.3755 0.3777
3403.000000 0.3799 0.3821 0.3842 0.3864 0.3888
3408.000000 0.3912 0.3943 0.3975 0.4006 0.4038
3413.000000 0.4070 0.4102 0.4133 0.4165 0.4187
3418.000000 0.4210 0.4231 0.4253 0.4275 0.4297
3423.000000 0.4318 0.4340 0.4358 0.4377 0.4395
3428.000000 0.4413 0.4431 0.4449 0.4467 0.4485
3433.000000 0.4503 0.4521 0.4538 0.4555 0.4570
3438.000000 0.4586 0.4601 0.4616 0.4631 0.4647
3443.000000 0.4662 0.4677 0.4692 0.4707 0.4722
3448.000000 0.4738 0.4752 0.4766 0.4779 0.4793
3453.000000 0.4807 0.4821 0.4834 0.4848 0.4862
3458.000000 0.4876 0.4889 0.4903 0.4916 0.4930
3463.000000 0.4944 0.4958 0.4971 0.4985 0.4998
3468.000000 0.5012 0.5026 0.5040 0.5051 0.5062
3473.000000 0.5072 0.5083 0.5093 0.5104 0.5114
3478.000000 0.5125 0.5135 0.5146 0.5156 0.5166
3483.000000 0.5175 0.5184 0.5193 0.5203 0.5212
3488.000000 0.5221 0.5230 0.5240 0.5249 0.5258
3493.000000 0.5266 0.5275 0.5281 0.5287 0.5293
3498.000000 0.5299 0.5305 0.5311 0.5316 0.5322
3503.000000 0.5328 0.5334 0.5340 0.5346 0.5351
3508.000000 0.5357 0.5360 0.5364 0.5368 0.5372
3513.000000 0.5375 0.5379 0.5382 0.5386 0.5390
3518.000000 0.5394 0.5397 0.5401 0.5404 0.5407
3523.000000 0.5410 0.5414 0.5417 0.5421 0.5424
3528.000000 0.5428 0.5431 0.5434 0.5437 0.5441
3533.000000 0.5444 0.5448 0.5449 0.5451 0.5451
3538.000000 0.5443 0.5452 0.5453 0.5454 0.5455
3543.000000 0.5455 0.5456 0.5456 0.5457 0.5457
3548.000000 0.5458 0.5458 0.5459 0.5460 0.5461
3553.000000 0.5461 0.5462 0.5462 0.5463 0.5463
3558.000000 0.5464 0.5463 0.5463 0.5463 0.5463
3563.000000 0.5463 0.5463 0.5463 0.5463 0.5462
3568.000000 0.5462 0.5462 0.5462 0.5462 0.5462
3573.000000 0.5462 0.5462 0.5460 0.5458 0.5455
3578.000000 0.5452 0.5448 0.5445 0.5442 0.5439
3583.000000 0.5436 0.5433 0.5429 0.5426 0.5423
3588.000000 0.5420 0.5417 0.5414 0.5411 0.5408
3593.000000 0.5405 0.5402 0.5398 0.5395 0.5392
3598.000000 0.5389 0.5386 0.5383 0.5380 0.5377
3603.000000 0.5374 0.5371 0.5368 0.5365 0.5362
3608.000000 0.5359 0.5356 0.5354 0.5351 0.5349
3613.000000 0.5346 0.5344 0.5341 0.5339 0.5336
3618.000000 0.5334 0.5331 0.5329 0.5326 0.5324
3623.000000 0.5321 0.5319 0.5316 0.5314 0.5312
3628.000000 0.5310 0.5308 0.5306 0.5304 0.5302
3633.000000 0.5300 0.5299 0.5297 0.5295 0.5293
3638.000000 0.5291 0.5289 0.5287 0.5285 0.5283
3643.000000 0.5281 0.5280 0.5278 0.5276 0.5274
3648.000000 0.5272 0.5270 0.5268 0.5266 0.5264
3653.000000 0.5262 0.5261 0.5259 0.5257 0.5255
3658.000000 0.5253 0.5251 0.5249 0.5247 0.5246
3663.000000 0.5244 0.5242 0.5240 0.5238 0.5236
3668.000000 0.5234 0.5232 0.5230 0.5228 0.5227
3673.000000 0.5225 0.5223 0.5221 0.5219 0.5217
3678.000000 0.5215 0.5213 0.5212 0.5210 0.5208
3683.000000 0.5206 0.5204 0.5202 0.5200 0.5198
3688.000000 0.5196 0.5194 0.5192 0.5190 0.5188
3693.000000 0.5186 0.5184 0.5182 0.5180 0.5177
3698.000000 0.5175 0.5173 0.5171 0.5169 0.5167
3703.000000 0.5165 0.5163 0.5160 0.5158 0.5156
3708.000000 0.5154 0.5152 0.5150 0.5148 0.5146
3713.000000 0.5143 0.5141 0.5139 0.5137 0.5135
3718.000000 0.5133 0.5131 0.5129 0.5126 0.5124
3723.000000 0.5122 0.5120 0.5117 0.5115 0.5112
3728.000000 0.5110 0.5107 0.5104 0.5101 0.5099
3733.000000 0.5096 0.5094 0.5091 0.5089 0.5086
3738.000000 0.5084 0.5081 0.5079 0.5076 0.5074
3743.000000 0.5071 0.5069 0.5066 0.5064 0.5061
3748.000000 0.5059 0.5056 0.5054 0.5051 0.5049
3753.000000 0.5046 0.5044 0.5041 0.5039 0.5036
3758.000000 0.5034 0.5031 0.5029 0.5026 0.5024
3763.000000 0.5021 0.5019 0.5016 0.5014 0.5011
3768.000000 0.5009 0.5006 0.5004 0.5001 0.4999
3773.000000 0.4996 0.4994 0.4991 0.4989 0.4986
3778.000000 0.4984 0.4981 0.4979 0.4976 0.4974
3783.000000 0.4973 0.4972 0.4971 0.4970 0.4968
3788.000000 0.4967 0.4966 0.4965 0.4964 0.4963
3793.000000 0.4962 0.4961 0.4960 0.4959 0.4958
3798.000000 0.4957 0.4956 0.4955 0.4954 0.4953
3803.000000 0.4952 0.4951 0.4949 0.4948 0.4946
3808.000000 0.4945 0.4943 0.4942 0.4940 0.4939
3813.000000 0.4937 0.4936 0.4934 0.4933 0.4931
3818.000000 0.4930 0.4928 0.4927 0.4925 0.4924
3823.000000 0.4924 0.4924
##END=
