##TITLE=Silanol, triphenyl-
##JCAMP-DX=4.24
##DATA TYPE=INFRARED SPECTRUM
##CLASS=COBLENTZ II
##ORIGIN=DOW CORNING CORP.
##OWNER=Copyright (C) 1987 by the Coblentz Society
Collection (C) 2018 copyright by the U.S. Secretary of Commerce
on behalf of the United States of America. All rights reserved.
##DATE=1967/03/29
##NAMES=triphenylsilanol
##CAS REGISTRY NO=791-31-1
##MOLFORM=C18 H16 O Si
##MP=151 C
##SOURCE REFERENCE=COBLENTZ NO. 5572
##$NIST SOURCE=COBLENTZ
##$NIST IMAGE=cob5572
##SPECTROMETER/DATA SYSTEM=PERKIN-ELMER 521 (GRATING)
##INSTRUMENT PARAMETERS=FILTERS AT 3150, 2500, 2000, 1150, 700, 410. GRATING CHANGES: 2000, 630
##STATE=SOLUTION (2% CCl4 FOR 3800-1300, 2% CS2 FOR 1300-650, AND 2% CCl4 FOR 650-250)
##PATH LENGTH=0.052 CM, 0.011 CM, AND 0.009 CM
##RESOLUTION=2
##XUNITS=1/CM
##YUNITS=TRANSMITTANCE
##XFACTOR=1.0
##YFACTOR=1
##FIRSTX=245
##LASTX=3810
##FIRSTY=0.6674
##MAXX=3810
##MINX=245
##MAXY=0.9214
##MINY=0.026
##NPOINTS=3566
##XYDATA=(X++(Y..Y))
245.000000 0.6674 0.6665 0.6657 0.6648 0.6638
250.000000 0.6628 0.6618 0.6608 0.6590 0.6573
255.000000 0.6556 0.6538 0.6521 0.6504 0.6487
260.000000 0.6470 0.6453 0.6436 0.6419 0.6404
265.000000 0.6391 0.6378 0.6365 0.6352 0.6339
270.000000 0.6326 0.6321 0.6317 0.6313 0.6310
275.000000 0.6309 0.6307 0.6306 0.6301 0.6280
280.000000 0.6268 0.6268 0.6291 0.6268 0.6269
285.000000 0.6286 0.6322 0.6359 0.6395 0.6431
290.000000 0.6465 0.6500 0.6534 0.6568 0.6607
295.000000 0.6649 0.6690 0.6731 0.6767 0.6803
300.000000 0.6839 0.6872 0.6902 0.6933 0.6950
305.000000 0.6960 0.6970 0.6981 0.6991 0.6993
310.000000 0.6996 0.6999 0.7002 0.7004 0.7007
315.000000 0.7007 0.7007 0.7007 0.7007 0.7007
320.000000 0.7006 0.7006 0.7008 0.7019 0.7040
325.000000 0.7064 0.7087 0.7110 0.7118 0.7127
330.000000 0.7136 0.7140 0.7140 0.7140 0.7139
335.000000 0.7139 0.7139 0.7139 0.7139 0.7143
340.000000 0.7147 0.7151 0.7155 0.7158 0.7162
345.000000 0.7166 0.7170 0.7174 0.7181 0.7189
350.000000 0.7197 0.7205 0.7213 0.7221 0.7230
355.000000 0.7238 0.7246 0.7254 0.7266 0.7280
360.000000 0.7294 0.7308 0.7322 0.7334 0.7332
365.000000 0.7329 0.7327 0.7325 0.7323 0.7321
370.000000 0.7322 0.7323 0.7325 0.7332 0.7345
375.000000 0.7359 0.7373 0.7386 0.7399 0.7411
380.000000 0.7423 0.7434 0.7446 0.7450 0.7443
385.000000 0.7437 0.7430 0.7424 0.7428 0.7433
390.000000 0.7437 0.7442 0.7441 0.7437 0.7432
395.000000 0.7407 0.7362 0.7335 0.7333 0.7339
400.000000 0.7382 0.7423 0.7465 0.7507 0.7529
405.000000 0.7546 0.7557 0.7558 0.7558 0.7558
410.000000 0.7558 0.7555 0.7551 0.7548 0.7544
415.000000 0.7538 0.7527 0.7515 0.7504 0.7492
420.000000 0.7480 0.7466 0.7451 0.7436 0.7421
425.000000 0.7403 0.7385 0.7367 0.7349 0.7331
430.000000 0.7313 0.7304 0.7309 0.7288 0.7298
435.000000 0.7308 0.7320 0.7335 0.7351 0.7367
440.000000 0.7382 0.7399 0.7419 0.7438 0.7457
445.000000 0.7477 0.7497 0.7523 0.7549 0.7574
450.000000 0.7600 0.7626 0.7651 0.7682 0.7713
455.000000 0.7745 0.7777 0.7808 0.7833 0.7852
460.000000 0.7870 0.7888 0.7923 0.7900 0.7898
465.000000 0.7891 0.7884 0.7877 0.7866 0.7846
470.000000 0.7795 0.7729 0.7668 0.7610 0.7562
475.000000 0.7515 0.7468 0.7420 0.7356 0.7306
480.000000 0.7300 0.7308 0.7355 0.7437 0.7479
485.000000 0.7485 0.7485 0.7484 0.7481 0.7513
490.000000 0.7386 0.7220 0.7085 0.6960 0.6841
495.000000 0.6748 0.6655 0.6565 0.6320 0.5961
500.000000 0.5602 0.5242 0.4883 0.4524 0.4165
505.000000 0.3805 0.3446 0.3087 0.2728 0.2632
510.000000 0.2639 0.2776 0.3283 0.3790 0.4297
515.000000 0.4803 0.5310 0.5817 0.6324 0.6831
520.000000 0.7363 0.7419 0.7476 0.7533 0.7590
525.000000 0.7648 0.7708 0.7768 0.7816 0.7860
530.000000 0.7901 0.7920 0.7939 0.7957 0.7966
535.000000 0.7975 0.7983 0.7989 0.7994 0.8000
540.000000 0.8005 0.8011 0.8016 0.8021 0.8026
545.000000 0.8030 0.8035 0.8040 0.8044 0.8049
550.000000 0.8054 0.8055 0.8056 0.8056 0.8057
555.000000 0.8057 0.8058 0.8059 0.8059 0.8060
560.000000 0.8061 0.8063 0.8066 0.8070 0.8074
565.000000 0.8078 0.8081 0.8085 0.8089 0.8093
570.000000 0.8096 0.8100 0.8104 0.8108 0.8112
575.000000 0.8115 0.8119 0.8123 0.8127 0.8131
580.000000 0.8135 0.8139 0.8143 0.8147 0.8151
585.000000 0.8156 0.8160 0.8166 0.8177 0.8189
590.000000 0.8200 0.8210 0.8215 0.8221 0.8236
595.000000 0.8231 0.8236 0.8240 0.8235 0.8230
600.000000 0.8224 0.8219 0.8210 0.8195 0.8181
605.000000 0.8166 0.8152 0.8137 0.8123 0.8109
610.000000 0.8096 0.8087 0.8083 0.8087 0.8119
615.000000 0.8157 0.8211 0.8308 0.8442 0.8490
620.000000 0.8493 0.8496 0.8496 0.8495 0.8495
625.000000 0.8495 0.8494 0.8490 0.8484 0.8478
630.000000 0.8472 0.8466 0.8459 0.8453 0.8451
635.000000 0.8480 0.8518 0.8563 0.8617 0.8680
640.000000 0.8735 0.8754 0.8772 0.8791 0.8809
645.000000 0.8827 0.8846 0.8857 0.8867 0.8911
650.000000 0.8874 0.8871 0.8847 0.8721 0.8654
655.000000 0.8639 0.8634 0.8631 0.8633 0.8634
660.000000 0.8635 0.8637 0.8638 0.8640 0.8638
665.000000 0.8623 0.8603 0.8584 0.8564 0.8536
670.000000 0.8504 0.8476 0.8454 0.8432 0.8410
675.000000 0.8399 0.8394 0.8389 0.8384 0.8380
680.000000 0.8375 0.8371 0.8367 0.8362 0.8358
685.000000 0.8354 0.8338 0.8319 0.8300 0.8271
690.000000 0.8236 0.8150 0.8000 0.7608 0.7422
695.000000 0.7306 0.7189 0.6806 0.6071 0.5337
700.000000 0.4602 0.3867 0.3133 0.2947 0.3260
705.000000 0.4056 0.4853 0.5210 0.5225 0.5217
710.000000 0.4976 0.4673 0.4370 0.4067 0.3928
715.000000 0.3945 0.4331 0.4928 0.5525 0.6122
720.000000 0.6719 0.7222 0.7294 0.7376 0.7467
725.000000 0.7541 0.7603 0.7656 0.7677 0.7684
730.000000 0.7704 0.7679 0.7672 0.7632 0.7577
735.000000 0.7423 0.7121 0.6819 0.6518 0.6216
740.000000 0.5914 0.5612 0.5468 0.5468 0.5835
745.000000 0.6261 0.6687 0.7113 0.7540 0.7823
750.000000 0.7941 0.8026 0.8091 0.8142 0.8178
755.000000 0.8180 0.8196 0.8176 0.8175 0.8175
760.000000 0.8175 0.8176 0.8176 0.8174 0.8169
765.000000 0.8164 0.8159 0.8153 0.8148 0.8143
770.000000 0.8138 0.8125 0.8111 0.8097 0.8082
775.000000 0.8068 0.8054 0.8034 0.8014 0.7993
780.000000 0.7973 0.7952 0.7897 0.7842 0.7787
785.000000 0.7732 0.7672 0.7607 0.7542 0.7476
790.000000 0.7411 0.7342 0.7273 0.7203 0.7133
795.000000 0.7047 0.6944 0.6840 0.6730 0.6592
800.000000 0.6455 0.6334 0.6221 0.6122 0.6025
805.000000 0.5970 0.5919 0.5868 0.5785 0.5753
810.000000 0.5726 0.5715 0.5711 0.5718 0.5755
815.000000 0.5813 0.5868 0.5906 0.5989 0.6079
820.000000 0.6168 0.6258 0.6348 0.6438 0.6527
825.000000 0.6617 0.6707 0.6797 0.6886 0.6976
830.000000 0.7066 0.7156 0.7245 0.7335 0.7425
835.000000 0.7481 0.7523 0.7576 0.7630 0.7694
840.000000 0.7760 0.7804 0.7845 0.7876 0.7908
845.000000 0.7931 0.7937 0.7944 0.7949 0.7955
850.000000 0.7960 0.7966 0.7971 0.7977 0.7981
855.000000 0.7984 0.7986 0.7989 0.7992 0.8034
860.000000 0.7997 0.8000 0.8002 0.8005 0.8007
865.000000 0.8008 0.8009 0.8010 0.8009 0.8008
870.000000 0.8007 0.8005 0.8003 0.7998 0.7993
875.000000 0.7989 0.7984 0.7971 0.7957 0.7942
880.000000 0.7908 0.7868 0.7826 0.7776 0.7735
885.000000 0.7718 0.7714 0.7709 0.7700 0.7742
890.000000 0.7794 0.7849 0.7919 0.7993 0.8079
895.000000 0.8183 0.8310 0.8350 0.8390 0.8424
900.000000 0.8453 0.8473 0.8484 0.8491 0.8490
905.000000 0.8489 0.8486 0.8481 0.8477 0.8474
910.000000 0.8471 0.8468 0.8469 0.8472 0.8474
915.000000 0.8476 0.8483 0.8491 0.8499 0.8507
920.000000 0.8514 0.8522 0.8529 0.8536 0.8543
925.000000 0.8544 0.8546 0.8547 0.8548 0.8548
930.000000 0.8548 0.8548 0.8549 0.8549 0.8549
935.000000 0.8550 0.8553 0.8556 0.8559 0.8562
940.000000 0.8565 0.8568 0.8571 0.8574 0.8577
945.000000 0.8579 0.8582 0.8585 0.8587 0.8587
950.000000 0.8587 0.8584 0.8581 0.8578 0.8575
955.000000 0.8573 0.8570 0.8567 0.8564 0.8562
960.000000 0.8591 0.8556 0.8553 0.8551 0.8548
965.000000 0.8546 0.8543 0.8540 0.8538 0.8535
970.000000 0.8533 0.8530 0.8528 0.8525 0.8523
975.000000 0.8524 0.8524 0.8524 0.8524 0.8525
980.000000 0.8525 0.8525 0.8526 0.8526 0.8526
985.000000 0.8525 0.8523 0.8522 0.8521 0.8516
990.000000 0.8503 0.8490 0.8477 0.8459 0.8439
995.000000 0.8365 0.8168 0.7972 0.7942 0.7925
1000.000000 0.7940 0.8040 0.8159 0.8277 0.8395
1005.000000 0.8514 0.8583 0.8591 0.8595 0.8600
1010.000000 0.8609 0.8607 0.8609 0.8608 0.8606
1015.000000 0.8605 0.8604 0.8594 0.8580 0.8566
1020.000000 0.8550 0.8535 0.8524 0.8514 0.8485
1025.000000 0.8427 0.8369 0.8311 0.8254 0.8196
1030.000000 0.8163 0.8156 0.8167 0.8487 0.8648
1035.000000 0.8650 0.8665 0.8669 0.8667 0.8665
1040.000000 0.8663 0.8660 0.8655 0.8651 0.8644
1045.000000 0.8637 0.8630 0.8623 0.8620 0.8616
1050.000000 0.8613 0.8610 0.8615 0.8619 0.8619
1055.000000 0.8614 0.8609 0.8603 0.8588 0.8573
1060.000000 0.8558 0.8543 0.8528 0.8512 0.8494
1065.000000 0.8477 0.8471 0.8468 0.8465 0.8486
1070.000000 0.8531 0.8568 0.8578 0.8578 0.8579
1075.000000 0.8579 0.8573 0.8568 0.8561 0.8549
1080.000000 0.8537 0.8525 0.8512 0.8489 0.8466
1085.000000 0.8444 0.8434 0.8423 0.8412 0.8402
1090.000000 0.8392 0.8386 0.8380 0.8373 0.8367
1095.000000 0.8360 0.8349 0.8336 0.8314 0.8265
1100.000000 0.8216 0.8131 0.8040 0.7937 0.7797
1105.000000 0.7636 0.7471 0.7306 0.7141 0.6976
1110.000000 0.6922 0.6924 0.6929 0.6385 0.5777
1115.000000 0.5169 0.4561 0.3953 0.3345 0.3105
1120.000000 0.3098 0.3120 0.3960 0.4953 0.5945
1125.000000 0.6937 0.7209 0.7320 0.7478 0.7617
1130.000000 0.7763 0.7933 0.8175 0.8233 0.8262
1135.000000 0.8291 0.8315 0.8331 0.8346 0.8361
1140.000000 0.8374 0.8388 0.8401 0.8408 0.8410
1145.000000 0.8412 0.8415 0.8409 0.8402 0.8396
1150.000000 0.8390 0.8386 0.8385 0.8384 0.8384
1155.000000 0.8390 0.8397 0.8403 0.8409 0.8415
1160.000000 0.8422 0.8430 0.8438 0.8446 0.8454
1165.000000 0.8461 0.8471 0.8484 0.8497 0.8504
1170.000000 0.8520 0.8501 0.8499 0.8493 0.8473
1175.000000 0.8454 0.8430 0.8398 0.8367 0.8335
1180.000000 0.8307 0.8281 0.8255 0.8229 0.8194
1185.000000 0.8140 0.8119 0.8125 0.8092 0.8141
1190.000000 0.8188 0.8243 0.8295 0.8342 0.8387
1195.000000 0.8430 0.8477 0.8531 0.8554 0.8565
1200.000000 0.8576 0.8586 0.8597 0.8591 0.8594
1205.000000 0.8595 0.8596 0.8597 0.8598 0.8599
1210.000000 0.8599 0.8599 0.8600 0.8600 0.8600
1215.000000 0.8600 0.8598 0.8595 0.8593 0.8590
1220.000000 0.8587 0.8585 0.8582 0.8580 0.8577
1225.000000 0.8575 0.8573 0.8571 0.8568 0.8566
1230.000000 0.8564 0.8559 0.8554 0.8548 0.8543
1235.000000 0.8538 0.8532 0.8527 0.8522 0.8516
1240.000000 0.8510 0.8504 0.8498 0.8491 0.8485
1245.000000 0.8479 0.8473 0.8466 0.8460 0.8454
1250.000000 0.8447 0.8441 0.8434 0.8428 0.8421
1255.000000 0.8415 0.8408 0.8402 0.8398 0.8397
1260.000000 0.8396 0.8395 0.8394 0.8393 0.8402
1265.000000 0.8428 0.8443 0.8454 0.8465 0.8476
1270.000000 0.8487 0.8491 0.8495 0.8498 0.8501
1275.000000 0.8505 0.8504 0.8503 0.8502 0.8501
1280.000000 0.8500 0.8498 0.8496 0.8494 0.8493
1285.000000 0.8491 0.8489 0.8487 0.8484 0.8478
1290.000000 0.8472 0.8466 0.8460 0.8454 0.8448
1295.000000 0.8442 0.8432 0.8418 0.8405 0.8241
1300.000000 0.7929 0.7617 0.7347 0.7329 0.7356
1305.000000 0.7473 0.7336 0.7685 0.7761 0.7822
1310.000000 0.7903 0.8018 0.8131 0.8182 0.8204
1315.000000 0.8215 0.8212 0.8212 0.8191 0.8174
1320.000000 0.8152 0.8097 0.8051 0.7999 0.7946
1325.000000 0.7892 0.7829 0.7765 0.7684 0.7586
1330.000000 0.7401 0.7374 0.7355 0.7482 0.7598
1335.000000 0.7709 0.7818 0.8035 0.8136 0.8233
1340.000000 0.8293 0.8352 0.8430 0.8512 0.8588
1345.000000 0.8649 0.8670 0.8672 0.8684 0.8673
1350.000000 0.8663 0.8643 0.8621 0.8597 0.8572
1355.000000 0.8554 0.8537 0.8519 0.8502 0.8483
1360.000000 0.8464 0.8445 0.8425 0.8405 0.8385
1365.000000 0.8364 0.8343 0.8309 0.8267 0.8224
1370.000000 0.8176 0.8116 0.8057 0.7917 0.7841
1375.000000 0.7809 0.7800 0.7778 0.7868 0.8001
1380.000000 0.8082 0.8169 0.8242 0.8305 0.8352
1385.000000 0.8398 0.8428 0.8456 0.8475 0.8495
1390.000000 0.8530 0.8558 0.8543 0.8573 0.8569
1395.000000 0.8563 0.8556 0.8548 0.8539 0.8531
1400.000000 0.8523 0.8516 0.8508 0.8501 0.8494
1405.000000 0.8476 0.8457 0.8437 0.8417 0.8397
1410.000000 0.8376 0.8354 0.8332 0.8311 0.8286
1415.000000 0.8259 0.8233 0.8203 0.8136 0.8069
1420.000000 0.7895 0.7358 0.6738 0.5879 0.4994
1425.000000 0.4110 0.3225 0.2340 0.1455 0.0570
1430.000000 0.0303 0.0288 0.0260 0.2679 0.4084
1435.000000 0.5488 0.6893 0.7399 0.7654 0.8024
1440.000000 0.8221 0.8272 0.8321 0.8343 0.8364
1445.000000 0.8386 0.8405 0.8421 0.8437 0.8452
1450.000000 0.8468 0.8483 0.8495 0.8507 0.8518
1455.000000 0.8530 0.8539 0.8546 0.8543 0.8556
1460.000000 0.8548 0.8539 0.8529 0.8523 0.8519
1465.000000 0.8516 0.8518 0.8521 0.8524 0.8537
1470.000000 0.8549 0.8559 0.8567 0.8570 0.8555
1475.000000 0.8536 0.8482 0.8418 0.8357 0.8285
1480.000000 0.8194 0.8106 0.8018 0.7702 0.7298
1485.000000 0.6894 0.6491 0.6478 0.7029 0.8253
1490.000000 0.8333 0.8433 0.8538 0.8591 0.8644
1495.000000 0.8670 0.8697 0.8723 0.8746 0.8766
1500.000000 0.8786 0.8806 0.8826 0.8846 0.8860
1505.000000 0.8870 0.8881 0.8891 0.8901 0.8907
1510.000000 0.8911 0.8915 0.8919 0.8920 0.8920
1515.000000 0.8932 0.8919 0.8919 0.8919 0.8918
1520.000000 0.8916 0.8913 0.8910 0.8908 0.8905
1525.000000 0.8897 0.8888 0.8880 0.8859 0.8836
1530.000000 0.8812 0.8789 0.8765 0.8740 0.8716
1535.000000 0.8691 0.8667 0.8645 0.8626 0.8607
1540.000000 0.8588 0.8569 0.8550 0.8531 0.8515
1545.000000 0.8498 0.8482 0.8479 0.8477 0.8479
1550.000000 0.8493 0.8511 0.8528 0.8530 0.8525
1555.000000 0.8519 0.8505 0.8491 0.8477 0.8462
1560.000000 0.8445 0.8428 0.8412 0.8395 0.8380
1565.000000 0.8368 0.8356 0.8344 0.8340 0.8342
1570.000000 0.8403 0.8410 0.8417 0.8418 0.8417
1575.000000 0.8409 0.8379 0.8296 0.8227 0.8154
1580.000000 0.8076 0.7998 0.7916 0.7833 0.7708
1585.000000 0.7468 0.7086 0.6704 0.6322 0.5965
1590.000000 0.5959 0.5947 0.6306 0.6942 0.7577
1595.000000 0.8198 0.8373 0.8468 0.8541 0.8597
1600.000000 0.8639 0.8674 0.8702 0.8718 0.8726
1605.000000 0.8735 0.8739 0.8736 0.8744 0.8703
1610.000000 0.8670 0.8634 0.8596 0.8548 0.8497
1615.000000 0.8466 0.8434 0.8423 0.8424 0.8394
1620.000000 0.8460 0.8507 0.8549 0.8590 0.8634
1625.000000 0.8662 0.8682 0.8704 0.8724 0.8741
1630.000000 0.8748 0.8753 0.8754 0.8753 0.8752
1635.000000 0.8786 0.8751 0.8751 0.8750 0.8750
1640.000000 0.8747 0.8742 0.8738 0.8724 0.8705
1645.000000 0.8686 0.8667 0.8648 0.8622 0.8559
1650.000000 0.8497 0.8425 0.8361 0.8309 0.8260
1655.000000 0.8219 0.8196 0.8193 0.8194 0.8210
1660.000000 0.8231 0.8269 0.8326 0.8382 0.8438
1665.000000 0.8500 0.8567 0.8593 0.8609 0.8620
1670.000000 0.8622 0.8622 0.8619 0.8617 0.8637
1675.000000 0.8679 0.8707 0.8734 0.8748 0.8756
1680.000000 0.8765 0.8769 0.8770 0.8770 0.8770
1685.000000 0.8771 0.8771 0.8771 0.8771 0.8772
1690.000000 0.8772 0.8772 0.8773 0.8773 0.8773
1695.000000 0.8773 0.8774 0.8774 0.8774 0.8775
1700.000000 0.8775 0.8775 0.8775 0.8776 0.8774
1705.000000 0.8773 0.8771 0.8769 0.8767 0.8766
1710.000000 0.8767 0.8791 0.8816 0.8847 0.8872
1715.000000 0.8890 0.8897 0.8904 0.8908 0.8909
1720.000000 0.8910 0.8911 0.8912 0.8913 0.8917
1725.000000 0.8920 0.8923 0.8926 0.8930 0.8933
1730.000000 0.8936 0.8939 0.8943 0.8946 0.8950
1735.000000 0.8953 0.8957 0.8960 0.8963 0.8963
1740.000000 0.8963 0.8964 0.8964 0.8964 0.8964
1745.000000 0.8965 0.8966 0.8968 0.8969 0.8969
1750.000000 0.8969 0.8968 0.8968 0.8967 0.8950
1755.000000 0.8933 0.8916 0.8896 0.8877 0.8848
1760.000000 0.8818 0.8787 0.8743 0.8692 0.8641
1765.000000 0.8593 0.8544 0.8507 0.8478 0.8449
1770.000000 0.8434 0.8437 0.8412 0.8449 0.8444
1775.000000 0.8433 0.8434 0.8474 0.8536 0.8594
1780.000000 0.8654 0.8718 0.8772 0.8814 0.8844
1785.000000 0.8855 0.8865 0.8875 0.8884 0.8894
1790.000000 0.8902 0.8901 0.8914 0.8895 0.8888
1795.000000 0.8882 0.8889 0.8900 0.8910 0.8911
1800.000000 0.8910 0.8903 0.8884 0.8870 0.8859
1805.000000 0.8848 0.8838 0.8831 0.8818 0.8805
1810.000000 0.8791 0.8763 0.8724 0.8665 0.8583
1815.000000 0.8475 0.8379 0.8300 0.8213 0.8120
1820.000000 0.7802 0.7710 0.7685 0.7685 0.7704
1825.000000 0.7784 0.7948 0.8042 0.8127 0.8185
1830.000000 0.8272 0.8330 0.8354 0.8368 0.8384
1835.000000 0.8404 0.8425 0.8463 0.8509 0.8554
1840.000000 0.8598 0.8642 0.8683 0.8723 0.8763
1845.000000 0.8802 0.8844 0.8886 0.8927 0.8943
1850.000000 0.8959 0.8963 0.8966 0.8958 0.8964
1855.000000 0.8963 0.8963 0.8963 0.8964 0.8964
1860.000000 0.8962 0.8959 0.8956 0.8953 0.8950
1865.000000 0.8943 0.8935 0.8928 0.8915 0.8900
1870.000000 0.8886 0.8871 0.8856 0.8842 0.8827
1875.000000 0.8808 0.8789 0.8769 0.8746 0.8718
1880.000000 0.8689 0.8646 0.8591 0.8370 0.8266
1885.000000 0.8161 0.8057 0.7953 0.7864 0.7874
1890.000000 0.7901 0.8003 0.8105 0.8212 0.8228
1895.000000 0.8233 0.8218 0.8234 0.8229 0.8217
1900.000000 0.8193 0.8153 0.8110 0.8107 0.8089
1905.000000 0.8117 0.8191 0.8265 0.8454 0.8535
1910.000000 0.8620 0.8669 0.8718 0.8749 0.8775
1915.000000 0.8801 0.8829 0.8859 0.8889 0.8919
1920.000000 0.8948 0.8976 0.9005 0.9005 0.9028
1925.000000 0.9006 0.9004 0.9001 0.8998 0.8995
1930.000000 0.8993 0.8990 0.8985 0.8979 0.8972
1935.000000 0.8966 0.8959 0.8953 0.8946 0.8939
1940.000000 0.8932 0.8925 0.8915 0.8904 0.8880
1945.000000 0.8853 0.8826 0.8785 0.8738 0.8690
1950.000000 0.8638 0.8579 0.8520 0.8465 0.8418
1955.000000 0.8372 0.8322 0.8103 0.7885 0.7686
1960.000000 0.7684 0.7680 0.8009 0.8200 0.8364
1965.000000 0.8396 0.8400 0.8400 0.8403 0.8396
1970.000000 0.8385 0.8368 0.8342 0.8318 0.8310
1975.000000 0.8286 0.8479 0.8624 0.8717 0.8793
1980.000000 0.8853 0.8914 0.8966 0.8969 0.8972
1985.000000 0.8974 0.8973 0.8972 0.8973 0.8985
1990.000000 0.8998 0.9020 0.9036 0.8991 0.9034
1995.000000 0.9026 0.8996 0.8967 0.8956 0.8946
2000.000000 0.8950 0.9001 0.9052 0.9066 0.9081
2005.000000 0.9081 0.9082 0.9082 0.9083 0.9083
2010.000000 0.9084 0.9084 0.9085 0.9085 0.9086
2015.000000 0.9085 0.9085 0.9085 0.9085 0.9085
2020.000000 0.9085 0.9085 0.9085 0.9084 0.9084
2025.000000 0.9084 0.9084 0.9085 0.9086 0.9087
2030.000000 0.9088 0.9089 0.9091 0.9092 0.9093
2035.000000 0.9094 0.9095 0.9096 0.9097 0.9098
2040.000000 0.9099 0.9100 0.9102 0.9102 0.9103
2045.000000 0.9104 0.9105 0.9106 0.9107 0.9108
2050.000000 0.9109 0.9110 0.9111 0.9112 0.9113
2055.000000 0.9114 0.9115 0.9116 0.9117 0.9118
2060.000000 0.9119 0.9119 0.9120 0.9121 0.9122
2065.000000 0.9123 0.9124 0.9124 0.9125 0.9126
2070.000000 0.9127 0.9128 0.9129 0.9129 0.9130
2075.000000 0.9131 0.9132 0.9133 0.9134 0.9134
2080.000000 0.9135 0.9136 0.9137 0.9137 0.9137
2085.000000 0.9136 0.9136 0.9135 0.9134 0.9133
2090.000000 0.9133 0.9132 0.9132 0.9131 0.9131
2095.000000 0.9130 0.9130 0.9129 0.9129 0.9127
2100.000000 0.9125 0.9123 0.9121 0.9119 0.9118
2105.000000 0.9116 0.9114 0.9112 0.9110 0.9108
2110.000000 0.9106 0.9106 0.9106 0.9108 0.9110
2115.000000 0.9112 0.9114 0.9116 0.9119 0.9121
2120.000000 0.9123 0.9124 0.9125 0.9125 0.9126
2125.000000 0.9126 0.9127 0.9127 0.9128 0.9128
2130.000000 0.9129 0.9128 0.9128 0.9127 0.9126
2135.000000 0.9125 0.9125 0.9124 0.9123 0.9122
2140.000000 0.9121 0.9120 0.9119 0.9118 0.9118
2145.000000 0.9117 0.9116 0.9116 0.9116 0.9116
2150.000000 0.9116 0.9116 0.9116 0.9116 0.9116
2155.000000 0.9116 0.9116 0.9116 0.9116 0.9116
2160.000000 0.9116 0.9116 0.9116 0.9116 0.9116
2165.000000 0.9116 0.9116 0.9116 0.9116 0.9116
2170.000000 0.9116 0.9116 0.9116 0.9116 0.9116
2175.000000 0.9116 0.9116 0.9116 0.9116 0.9116
2180.000000 0.9116 0.9116 0.9116 0.9116 0.9116
2185.000000 0.9116 0.9116 0.9116 0.9116 0.9115
2190.000000 0.9115 0.9115 0.9116 0.9115 0.9115
2195.000000 0.9114 0.9114 0.9113 0.9113 0.9112
2200.000000 0.9111 0.9110 0.9109 0.9108 0.9107
2205.000000 0.9105 0.9104 0.9102 0.9101 0.9099
2210.000000 0.9098 0.9095 0.9092 0.9087 0.9082
2215.000000 0.9076 0.9071 0.9064 0.9058 0.9047
2220.000000 0.9037 0.9026 0.9016 0.9002 0.8989
2225.000000 0.8989 0.8990 0.8990 0.8991 0.8992
2230.000000 0.8993 0.8994 0.8996 0.8997 0.8999
2235.000000 0.9001 0.9003 0.9005 0.9007 0.9010
2240.000000 0.9013 0.9016 0.9019 0.9022 0.9026
2245.000000 0.9029 0.9032 0.9035 0.9039 0.9042
2250.000000 0.9046 0.9049 0.9052 0.9055 0.9059
2255.000000 0.9062 0.9066 0.9069 0.9073 0.9074
2260.000000 0.9076 0.9077 0.9079 0.9080 0.9082
2265.000000 0.9083 0.9085 0.9086 0.9088 0.9089
2270.000000 0.9091 0.9093 0.9095 0.9096 0.9098
2275.000000 0.9098 0.9099 0.9099 0.9100 0.9101
2280.000000 0.9102 0.9102 0.9102 0.9101 0.9100
2285.000000 0.9099 0.9099 0.9098 0.9097 0.9096
2290.000000 0.9096 0.9093 0.9090 0.9087 0.9085
2295.000000 0.9082 0.9080 0.9075 0.9071 0.9066
2300.000000 0.9062 0.9057 0.9053 0.9046 0.9039
2305.000000 0.9031 0.9023 0.9013 0.9004 0.8992
2310.000000 0.8980 0.8971 0.8963 0.8962 0.8961
2315.000000 0.8960 0.8960 0.8959 0.8958 0.8963
2320.000000 0.8968 0.8985 0.9002 0.9028 0.9054
2325.000000 0.9068 0.9082 0.9081 0.9080 0.9079
2330.000000 0.9078 0.9077 0.9077 0.9076 0.9076
2335.000000 0.9076 0.9076 0.9074 0.9072 0.9061
2340.000000 0.9051 0.9042 0.9034 0.9030 0.9027
2345.000000 0.9024 0.9022 0.9023 0.9025 0.9046
2350.000000 0.9067 0.9081 0.9095 0.9101 0.9108
2355.000000 0.9106 0.9104 0.9098 0.9092 0.9086
2360.000000 0.9080 0.9074 0.9069 0.9070 0.9071
2365.000000 0.9075 0.9079 0.9086 0.9093 0.9098
2370.000000 0.9103 0.9102 0.9102 0.9101 0.9100
2375.000000 0.9090 0.9081 0.9080 0.9079 0.9079
2380.000000 0.9079 0.9079 0.9079 0.9079 0.9079
2385.000000 0.9084 0.9090 0.9095 0.9101 0.9107
2390.000000 0.9114 0.9121 0.9128 0.9128 0.9128
2395.000000 0.9127 0.9126 0.9125 0.9124 0.9122
2400.000000 0.9121 0.9118 0.9115 0.9111 0.9108
2405.000000 0.9105 0.9102 0.9101 0.9101 0.9100
2410.000000 0.9100 0.9099 0.9099 0.9098 0.9098
2415.000000 0.9097 0.9097 0.9096 0.9096 0.9098
2420.000000 0.9101 0.9105 0.9109 0.9115 0.9122
2425.000000 0.9130 0.9138 0.9155 0.9172 0.9170
2430.000000 0.9169 0.9167 0.9165 0.9163 0.9162
2435.000000 0.9160 0.9158 0.9156 0.9154 0.9152
2440.000000 0.9150 0.9148 0.9147 0.9145 0.9143
2445.000000 0.9141 0.9139 0.9137 0.9135 0.9133
2450.000000 0.9132 0.9130 0.9129 0.9128 0.9127
2455.000000 0.9125 0.9124 0.9122 0.9121 0.9119
2460.000000 0.9118 0.9117 0.9116 0.9115 0.9114
2465.000000 0.9116 0.9118 0.9119 0.9121 0.9123
2470.000000 0.9125 0.9133 0.9142 0.9154 0.9167
2475.000000 0.9164 0.9161 0.9158 0.9155 0.9152
2480.000000 0.9149 0.9146 0.9143 0.9140 0.9137
2485.000000 0.9134 0.9131 0.9128 0.9125 0.9122
2490.000000 0.9119 0.9116 0.9113 0.9111 0.9109
2495.000000 0.9107 0.9105 0.9103 0.9102 0.9100
2500.000000 0.9099 0.9097 0.9096 0.9094 0.9093
2505.000000 0.9091 0.9089 0.9087 0.9086 0.9084
2510.000000 0.9083 0.9083 0.9083 0.9082 0.9082
2515.000000 0.9082 0.9082 0.9082 0.9082 0.9082
2520.000000 0.9082 0.9082 0.9082 0.9082 0.9082
2525.000000 0.9082 0.9082 0.9082 0.9082 0.9082
2530.000000 0.9082 0.9082 0.9083 0.9084 0.9085
2535.000000 0.9086 0.9087 0.9088 0.9089 0.9090
2540.000000 0.9091 0.9091 0.9092 0.9093 0.9094
2545.000000 0.9094 0.9095 0.9095 0.9095 0.9094
2550.000000 0.9094 0.9094 0.9094 0.9093 0.9093
2555.000000 0.9092 0.9091 0.9088 0.9086 0.9083
2560.000000 0.9081 0.9080 0.9079 0.9079 0.9080
2565.000000 0.9080 0.9081 0.9081 0.9082 0.9082
2570.000000 0.9083 0.9083 0.9084 0.9085 0.9086
2575.000000 0.9085 0.9085 0.9080 0.9075 0.9070
2580.000000 0.9065 0.9056 0.9048 0.9038 0.9029
2585.000000 0.9017 0.9005 0.8997 0.8990 0.8992
2590.000000 0.8995 0.9004 0.9014 0.9027 0.9041
2595.000000 0.9055 0.9069 0.9074 0.9080 0.9081
2600.000000 0.9082 0.9083 0.9084 0.9084 0.9084
2605.000000 0.9083 0.9083 0.9082 0.9081 0.9080
2610.000000 0.9080 0.9077 0.9075 0.9069 0.9064
2615.000000 0.9058 0.9052 0.9050 0.9049 0.9050
2620.000000 0.9051 0.9061 0.9072 0.9082 0.9093
2625.000000 0.9105 0.9118 0.9118 0.9119 0.9119
2630.000000 0.9119 0.9119 0.9119 0.9119 0.9119
2635.000000 0.9119 0.9120 0.9120 0.9121 0.9121
2640.000000 0.9122 0.9122 0.9123 0.9123 0.9123
2645.000000 0.9123 0.9124 0.9124 0.9125 0.9125
2650.000000 0.9125 0.9125 0.9125 0.9124 0.9124
2655.000000 0.9124 0.9124 0.9123 0.9123 0.9123
2660.000000 0.9123 0.9122 0.9122 0.9121 0.9121
2665.000000 0.9120 0.9120 0.9120 0.9121 0.9121
2670.000000 0.9121 0.9121 0.9121 0.9121 0.9121
2675.000000 0.9121 0.9122 0.9119 0.9117 0.9112
2680.000000 0.9107 0.9102 0.9097 0.9091 0.9086
2685.000000 0.9081 0.9076 0.9070 0.9064 0.9050
2690.000000 0.9036 0.9027 0.9018 0.9015 0.9012
2695.000000 0.9008 0.9005 0.9005 0.9005 0.9005
2700.000000 0.9005 0.9005 0.9005 0.9005 0.9005
2705.000000 0.9012 0.9020 0.9032 0.9044 0.9056
2710.000000 0.9069 0.9081 0.9094 0.9105 0.9116
2715.000000 0.9125 0.9135 0.9137 0.9140 0.9141
2720.000000 0.9142 0.9143 0.9144 0.9145 0.9146
2725.000000 0.9147 0.9148 0.9148 0.9148 0.9148
2730.000000 0.9148 0.9148 0.9149 0.9149 0.9149
2735.000000 0.9147 0.9146 0.9144 0.9142 0.9140
2740.000000 0.9139 0.9137 0.9135 0.9133 0.9132
2745.000000 0.9130 0.9129 0.9127 0.9125 0.9123
2750.000000 0.9122 0.9120 0.9118 0.9122 0.9127
2755.000000 0.9132 0.9138 0.9143 0.9149 0.9155
2760.000000 0.9161 0.9161 0.9162 0.9160 0.9159
2765.000000 0.9157 0.9156 0.9155 0.9154 0.9153
2770.000000 0.9152 0.9151 0.9150 0.9149 0.9148
2775.000000 0.9146 0.9145 0.9143 0.9141 0.9139
2780.000000 0.9137 0.9136 0.9135 0.9139 0.9144
2785.000000 0.9148 0.9153 0.9158 0.9163 0.9167
2790.000000 0.9172 0.9176 0.9214 0.9185 0.9190
2795.000000 0.9191 0.9193 0.9194 0.9195 0.9192
2800.000000 0.9189 0.9180 0.9171 0.9163 0.9155
2805.000000 0.9147 0.9139 0.9131 0.9124 0.9117
2810.000000 0.9111 0.9104 0.9098 0.9091 0.9085
2815.000000 0.9078 0.9071 0.9063 0.9056 0.9048
2820.000000 0.9040 0.9035 0.9031 0.9032 0.9033
2825.000000 0.9034 0.9035 0.9036 0.9038 0.9039
2830.000000 0.9040 0.9041 0.9042 0.9043 0.9045
2835.000000 0.9046 0.9047 0.9039 0.9031 0.9018
2840.000000 0.9005 0.8987 0.8970 0.8949 0.8929
2845.000000 0.8904 0.8879 0.8852 0.8825 0.8796
2850.000000 0.8768 0.8740 0.8712 0.8694 0.8677
2855.000000 0.8678 0.8632 0.8680 0.8681 0.8683
2860.000000 0.8685 0.8696 0.8707 0.8743 0.8779
2865.000000 0.8823 0.8867 0.8901 0.8935 0.8950
2870.000000 0.8965 0.8968 0.8972 0.8974 0.8977
2875.000000 0.8977 0.8978 0.8969 0.8993 0.8947
2880.000000 0.8933 0.8914 0.8896 0.8880 0.8864
2885.000000 0.8852 0.8841 0.8829 0.8817 0.8807
2890.000000 0.8797 0.8788 0.8780 0.8780 0.8780
2895.000000 0.8782 0.8785 0.8787 0.8790 0.8792
2900.000000 0.8794 0.8792 0.8790 0.8748 0.8707
2905.000000 0.8653 0.8599 0.8555 0.8512 0.8469
2910.000000 0.8427 0.8429 0.8432 0.8435 0.8433
2915.000000 0.8453 0.8467 0.8494 0.8521 0.8541
2920.000000 0.8561 0.8580 0.8600 0.8619 0.8638
2925.000000 0.8656 0.8675 0.8683 0.8692 0.8694
2930.000000 0.8696 0.8708 0.8721 0.8747 0.8773
2935.000000 0.8783 0.8793 0.8803 0.8814 0.8820
2940.000000 0.8826 0.8829 0.8833 0.8826 0.8820
2945.000000 0.8812 0.8804 0.8793 0.8782 0.8769
2950.000000 0.8757 0.8735 0.8714 0.8668 0.8623
2955.000000 0.8594 0.8565 0.8539 0.8513 0.8487
2960.000000 0.8461 0.8435 0.8410 0.8405 0.8400
2965.000000 0.8400 0.8401 0.8414 0.8427 0.8447
2970.000000 0.8468 0.8480 0.8492 0.8492 0.8493
2975.000000 0.8494 0.8495 0.8493 0.8492 0.8490
2980.000000 0.8489 0.8479 0.8470 0.8460 0.8450
2985.000000 0.8433 0.8417 0.8390 0.8364 0.8330
2990.000000 0.8296 0.8258 0.8220 0.8189 0.8158
2995.000000 0.8119 0.8081 0.7991 0.7901 0.7765
3000.000000 0.7630 0.6823 0.6017 0.5651 0.5286
3005.000000 0.5286 0.5289 0.5447 0.5608 0.5789
3010.000000 0.5970 0.6108 0.6246 0.6235 0.6265
3015.000000 0.6154 0.6084 0.6013 0.5943 0.5873
3020.000000 0.5803 0.5733 0.5663 0.5603 0.5544
3025.000000 0.5541 0.5538 0.5561 0.5584 0.5701
3030.000000 0.5819 0.5936 0.5542 0.6171 0.6289
3035.000000 0.6406 0.6524 0.6641 0.6759 0.6766
3040.000000 0.6785 0.6710 0.6646 0.6422 0.6199
3045.000000 0.5976 0.5753 0.5529 0.5306 0.5083
3050.000000 0.4860 0.4637 0.4414 0.4190 0.3967
3055.000000 0.3744 0.3521 0.3508 0.3496 0.3541
3060.000000 0.3491 0.3754 0.3922 0.4089 0.4256
3065.000000 0.4423 0.4719 0.4650 0.4710 0.4630
3070.000000 0.4550 0.4253 0.3957 0.3660 0.3364
3075.000000 0.3067 0.2771 0.2632 0.2489 0.2494
3080.000000 0.2495 0.3119 0.3743 0.5356 0.6976
3085.000000 0.6961 0.6954 0.6908 0.6862 0.6816
3090.000000 0.6770 0.6724 0.6678 0.6679 0.6680
3095.000000 0.6753 0.6676 0.7049 0.7272 0.7495
3100.000000 0.7719 0.7942 0.8166 0.8389 0.8612
3105.000000 0.8720 0.8829 0.8849 0.8869 0.8876
3110.000000 0.8883 0.8887 0.8892 0.8892 0.8893
3115.000000 0.8894 0.8895 0.8895 0.8895 0.8894
3120.000000 0.8904 0.8888 0.8882 0.8870 0.8858
3125.000000 0.8831 0.8805 0.8781 0.8757 0.8731
3130.000000 0.8706 0.8624 0.8543 0.8462 0.8381
3135.000000 0.8299 0.8218 0.8137 0.8056 0.8018
3140.000000 0.7981 0.7983 0.7977 0.8217 0.8449
3145.000000 0.8690 0.8931 0.8938 0.8946 0.8950
3150.000000 0.8954 0.8958 0.8962 0.8966 0.8970
3155.000000 0.8973 0.8977 0.8977 0.8978 0.8978
3160.000000 0.8979 0.8980 0.8981 0.8981 0.8993
3165.000000 0.8980 0.8979 0.8978 0.8977 0.8976
3170.000000 0.8976 0.8973 0.8971 0.8968 0.8965
3175.000000 0.8962 0.8959 0.8956 0.8953 0.8949
3180.000000 0.8946 0.8942 0.8938 0.8934 0.8931
3185.000000 0.8927 0.8924 0.8922 0.8920 0.8919
3190.000000 0.8919 0.8918 0.8918 0.8920 0.8923
3195.000000 0.8926 0.8929 0.8932 0.8935 0.8934
3200.000000 0.8934 0.8931 0.8928 0.8925 0.8922
3205.000000 0.8918 0.8915 0.8912 0.8910 0.8907
3210.000000 0.8904 0.8901 0.8898 0.8895 0.8892
3215.000000 0.8889 0.8886 0.8883 0.8880 0.8877
3220.000000 0.8874 0.8871 0.8868 0.8865 0.8862
3225.000000 0.8859 0.8856 0.8853 0.8850 0.8846
3230.000000 0.8843 0.8839 0.8836 0.8832 0.8829
3235.000000 0.8826 0.8823 0.8819 0.8816 0.8812
3240.000000 0.8809 0.8806 0.8803 0.8799 0.8796
3245.000000 0.8792 0.8789 0.8786 0.8783 0.8779
3250.000000 0.8776 0.8772 0.8769 0.8765 0.8762
3255.000000 0.8759 0.8756 0.8752 0.8749 0.8745
3260.000000 0.8742 0.8739 0.8736 0.8732 0.8729
3265.000000 0.8725 0.8722 0.8718 0.8715 0.8712
3270.000000 0.8709 0.8705 0.8702 0.8698 0.8695
3275.000000 0.8692 0.8689 0.8685 0.8682 0.8678
3280.000000 0.8675 0.8672 0.8669 0.8665 0.8662
3285.000000 0.8658 0.8655 0.8651 0.8648 0.8645
3290.000000 0.8642 0.8638 0.8635 0.8631 0.8628
3295.000000 0.8625 0.8622 0.8618 0.8615 0.8611
3300.000000 0.8608 0.8604 0.8601 0.8597 0.8594
3305.000000 0.8590 0.8587 0.8583 0.8580 0.8576
3310.000000 0.8573 0.8569 0.8566 0.8562 0.8559
3315.000000 0.8555 0.8552 0.8548 0.8545 0.8541
3320.000000 0.8538 0.8534 0.8531 0.8527 0.8524
3325.000000 0.8520 0.8517 0.8513 0.8510 0.8506
3330.000000 0.8503 0.8499 0.8496 0.8492 0.8489
3335.000000 0.8485 0.8482 0.8478 0.8474 0.8470
3340.000000 0.8467 0.8463 0.8460 0.8456 0.8452
3345.000000 0.8448 0.8445 0.8441 0.8438 0.8434
3350.000000 0.8430 0.8426 0.8423 0.8419 0.8415
3355.000000 0.8411 0.8408 0.8404 0.8401 0.8397
3360.000000 0.8393 0.8389 0.8386 0.8382 0.8379
3365.000000 0.8375 0.8371 0.8367 0.8364 0.8360
3370.000000 0.8356 0.8352 0.8349 0.8345 0.8342
3375.000000 0.8338 0.8334 0.8330 0.8327 0.8323
3380.000000 0.8319 0.8315 0.8312 0.8308 0.8305
3385.000000 0.8301 0.8297 0.8293 0.8290 0.8286
3390.000000 0.8283 0.8279 0.8275 0.8270 0.8266
3395.000000 0.8261 0.8257 0.8252 0.8248 0.8243
3400.000000 0.8238 0.8233 0.8229 0.8224 0.8219
3405.000000 0.8214 0.8210 0.8205 0.8201 0.8196
3410.000000 0.8191 0.8186 0.8182 0.8177 0.8172
3415.000000 0.8167 0.8163 0.8158 0.8154 0.8149
3420.000000 0.8144 0.8139 0.8135 0.8131 0.8128
3425.000000 0.8125 0.8122 0.8119 0.8117 0.8114
3430.000000 0.8111 0.8108 0.8105 0.8102 0.8100
3435.000000 0.8097 0.8094 0.8091 0.8089 0.8086
3440.000000 0.8083 0.8080 0.8077 0.8074 0.8072
3445.000000 0.8069 0.8066 0.8063 0.8061 0.8058
3450.000000 0.8055 0.8053 0.8051 0.8049 0.8047
3455.000000 0.8045 0.8044 0.8044 0.8044 0.8046
3460.000000 0.8048 0.8053 0.8039 0.8064 0.8069
3465.000000 0.8077 0.8086 0.8092 0.8098 0.8101
3470.000000 0.8104 0.8107 0.8110 0.8110 0.8110
3475.000000 0.8108 0.8107 0.8105 0.8104 0.8102
3480.000000 0.8101 0.8099 0.8097 0.8095 0.8094
3485.000000 0.8092 0.8091 0.8090 0.8089 0.8092
3490.000000 0.8096 0.8099 0.8103 0.8106 0.8110
3495.000000 0.8113 0.8117 0.8127 0.8137 0.8148
3500.000000 0.8160 0.8180 0.8200 0.8223 0.8247
3505.000000 0.8263 0.8279 0.8286 0.8294 0.8298
3510.000000 0.8303 0.8308 0.8313 0.8318 0.8323
3515.000000 0.8328 0.8333 0.8338 0.8343 0.8348
3520.000000 0.8353 0.8358 0.8363 0.8367 0.8372
3525.000000 0.8377 0.8382 0.8387 0.8392 0.8397
3530.000000 0.8402 0.8406 0.8411 0.8416 0.8421
3535.000000 0.8425 0.8430 0.8435 0.8440 0.8444
3540.000000 0.8449 0.8454 0.8459 0.8463 0.8468
3545.000000 0.8473 0.8478 0.8482 0.8487 0.8492
3550.000000 0.8497 0.8501 0.8506 0.8510 0.8515
3555.000000 0.8517 0.8520 0.8522 0.8524 0.8526
3560.000000 0.8528 0.8530 0.8533 0.8534 0.8536
3565.000000 0.8537 0.8539 0.8540 0.8542 0.8544
3570.000000 0.8546 0.8548 0.8550 0.8553 0.8557
3575.000000 0.8560 0.8564 0.8567 0.8571 0.8574
3580.000000 0.8578 0.8587 0.8597 0.8606 0.8616
3585.000000 0.8620 0.8625 0.8626 0.8628 0.8623
3590.000000 0.8619 0.8610 0.8601 0.8581 0.8562
3595.000000 0.8532 0.8502 0.8490 0.8478 0.8472
3600.000000 0.8467 0.8462 0.8457 0.8454 0.8451
3605.000000 0.8448 0.8446 0.8443 0.8441 0.8436
3610.000000 0.8432 0.8424 0.8417 0.8409 0.8401
3615.000000 0.8392 0.8384 0.8362 0.8341 0.8311
3620.000000 0.8281 0.8261 0.8241 0.8221 0.8201
3625.000000 0.8181 0.8161 0.8142 0.8123 0.8104
3630.000000 0.8085 0.8066 0.8048 0.8029 0.8011
3635.000000 0.7992 0.7973 0.7952 0.7931 0.7909
3640.000000 0.7888 0.7866 0.7845 0.7823 0.7802
3645.000000 0.7780 0.7759 0.7737 0.7716 0.7696
3650.000000 0.7677 0.7657 0.7637 0.7617 0.7597
3655.000000 0.7577 0.7558 0.7529 0.7500 0.7468
3660.000000 0.7436 0.7395 0.7354 0.7292 0.7230
3665.000000 0.7157 0.7084 0.6745 0.6406 0.6188
3670.000000 0.5970 0.5751 0.5533 0.5315 0.5097
3675.000000 0.4878 0.4660 0.4441 0.4223 0.4005
3680.000000 0.3787 0.3568 0.3350 0.3131 0.2913
3685.000000 0.2695 0.2477 0.2258 0.2040 0.1989
3690.000000 0.1939 0.1938 0.1934 0.1940 0.1942
3695.000000 0.2110 0.2278 0.2636 0.2994 0.3352
3700.000000 0.3710 0.4068 0.4426 0.4784 0.5142
3705.000000 0.5500 0.5858 0.6216 0.6575 0.6933
3710.000000 0.7291 0.7681 0.8071 0.8181 0.8291
3715.000000 0.8397 0.8503 0.8553 0.8603 0.8637
3720.000000 0.8671 0.8702 0.8734 0.8760 0.8786
3725.000000 0.8811 0.8837 0.8855 0.8874 0.8889
3730.000000 0.8905 0.8917 0.8929 0.8935 0.8941
3735.000000 0.8947 0.8953 0.8959 0.8966 0.8972
3740.000000 0.8978 0.8984 0.8990 0.8996 0.8987
3745.000000 0.9006 0.9010 0.9014 0.9018 0.9022
3750.000000 0.9026 0.9030 0.9034 0.9037 0.9041
3755.000000 0.9040 0.9040 0.9039 0.9039 0.9039
3760.000000 0.9039 0.9038 0.9037 0.9036 0.9035
3765.000000 0.9033 0.9032 0.9032 0.9033 0.9034
3770.000000 0.9035 0.9039 0.9043 0.9047 0.9052
3775.000000 0.9056 0.9060 0.9064 0.9069 0.9071
3780.000000 0.9074 0.9076 0.9079 0.9081 0.9083
3785.000000 0.9085 0.9088 0.9090 0.9092 0.9094
3790.000000 0.9097 0.9099 0.9101 0.9102 0.9103
3795.000000 0.9103 0.9103 0.9103 0.9104 0.9104
3800.000000 0.9104 0.9104 0.9104 0.9104 0.9104
3805.000000 0.9104 0.9105 0.9105 0.9105 0.9105
3810.000000 0.9105
##END=
