##TITLE=ACETIC ACID, METHYL ESTER
##JCAMP-DX=4.24
##DATA TYPE=INFRARED SPECTRUM
##CLASS=COBLENTZ III
##ORIGIN=DOW CHEMICAL COMPANY
##OWNER=COBLENTZ SOCIETY
Collection (C) 2018 copyright by the U.S. Secretary of Commerce
on behalf of the United States of America. All rights reserved.
##DATE=1965/08/30
##NAMES=methyl acetate
##CAS REGISTRY NO=79-20-9
##MOLFORM=C3 H6 O2
##SOURCE REFERENCE=COBLENTZ NO. 10169
##$NIST SOURCE=COBLENTZ
##$NIST IMAGE=cob10169
##SPECTROMETER/DATA SYSTEM=DOW KBr FOREPRISM-GRATING
##INSTRUMENT PARAMETERS=BLAZED AT 3.5, 12.0, 20.0 MICRON, CHANGED AT 5.0, 7.5, 14.9 MICRON
##STATE=SOLUTION (10% IN CCl4 FOR 3800-1330, 10% IN CS2 FOR 1330-460 CM^-^1)
##PATH LENGTH=0.011, 0.011 CM
$$SPECTRAL CONTAMINATION DUE TO CCl4 AROUND 1550 CM^-^1
$$ SEE SPECTRUM NO. 6989 FOR "VAPOR" STATE
##SAMPLING PROCEDURE=TRANSMISSION
##RESOLUTION=4
##DATA PROCESSING=DIGITIZED BY NIST FROM HARD COPY (FROM TWO SEGMENTS)
##XUNITS=1/CM
##YUNITS=TRANSMITTANCE
##XFACTOR=1.000000
##YFACTOR=1
##DELTAX=0.853244
##FIRSTX=458.191
##LASTX=3796.08
##FIRSTY=0.86
##MAXX=3796.08
##MINX=458.191
##MAXY=1.021
##MINY=0
##NPOINTS=3913
##XYDATA=(X++(Y..Y))
458.191000 0.8600 0.8600 0.8610 0.8610 0.8610
462.457220 0.8620 0.8620 0.8620 0.8640 0.8640
466.723441 0.8680 0.8690 0.8690 0.8700 0.8700
470.989661 0.8720 0.8720 0.8720 0.8720 0.8730
475.255881 0.8740 0.8760 0.8760 0.8770 0.8780
479.522101 0.8800 0.8810 0.8820 0.8820 0.8840
483.788322 0.8840 0.8850 0.8860 0.8890 0.8890
488.054542 0.8890 0.8900 0.8900 0.8920 0.8920
492.320762 0.8930 0.8930 0.8940 0.8960 0.8970
496.586982 0.8980 0.8980 0.9000 0.9000 0.8980
500.853203 0.9000 0.9010 0.9020 0.9020 0.9020
505.119423 0.9020 0.9020 0.9040 0.9040 0.9040
509.385643 0.9040 0.9050 0.9050 0.9050 0.9050
513.651863 0.9040 0.9040 0.9040 0.9040 0.9040
517.918084 0.9050 0.9050 0.9050 0.9050 0.9060
522.184304 0.9050 0.9050 0.9060 0.9060 0.9060
526.450524 0.9060 0.9060 0.9060 0.9090 0.9100
530.716744 0.9100 0.9100 0.9090 0.9080 0.9060
534.982965 0.9060 0.9080 0.9090 0.9090 0.9090
539.249185 0.9090 0.9090 0.9090 0.9100 0.9100
543.515405 0.9100 0.9100 0.9100 0.9120 0.9120
547.781626 0.9120 0.9120 0.9130 0.9120 0.9120
552.047846 0.9120 0.9130 0.9140 0.9160 0.9160
556.314066 0.9170 0.9170 0.9170 0.9180 0.9180
560.580286 0.9200 0.9180 0.9180 0.9170 0.9170
564.846507 0.9170 0.9170 0.9180 0.9180 0.9180
569.112727 0.9180 0.9180 0.9200 0.9200 0.9170
573.378947 0.9170 0.9160 0.9140 0.9130 0.9130
577.645167 0.9120 0.9120 0.9120 0.9120 0.9090
581.911388 0.9090 0.9080 0.9080 0.9050 0.9040
586.177608 0.9010 0.8970 0.8930 0.8920 0.8900
590.443828 0.8850 0.8770 0.8720 0.8680 0.8620
594.710048 0.8520 0.8480 0.8370 0.8260 0.8100
598.976269 0.7970 0.7601 0.7211 0.6702 0.6133
603.242489 0.5680 0.5100 0.4530 0.4200 0.4200
607.508709 0.4330 0.4679 0.4929 0.5418 0.5997
611.774929 0.6460 0.6880 0.7060 0.7379 0.7560
616.041150 0.7650 0.7939 0.8129 0.8240 0.8300
620.307370 0.8370 0.8420 0.8460 0.8500 0.8500
624.573590 0.8520 0.8520 0.8520 0.8500 0.8490
628.839811 0.8480 0.8460 0.8380 0.8290 0.8200
633.106031 0.8120 0.8010 0.7821 0.7541 0.7102
637.372251 0.6330 0.5490 0.4940 0.4221 0.3821
641.638471 0.3760 0.4488 0.5217 0.5449 0.6933
645.904692 0.7260 0.7660 0.8130 0.8290 0.8320
650.170912 0.8370 0.8410 0.8450 0.8460 0.8480
654.437132 0.8480 0.8490 0.8520 0.8540 0.8580
658.703352 0.8690 0.8720 0.8780 0.8840 0.8900
662.969573 0.8940 0.8980 0.9020 0.9100 0.9120
667.235793 0.9130 0.9200 0.9220 0.9260 0.9280
671.502013 0.9320 0.9360 0.9440 0.9500 0.9540
675.768233 0.9580 0.9680 0.9730 0.9740 0.9780
680.034454 0.9800 0.9800 0.9810 0.9820 0.9820
684.300674 0.9820 0.9810 0.9810 0.9810 0.9810
688.566894 0.9820 0.9820 0.9820 0.9840 0.9840
692.833115 0.9860 0.9880 0.9860 0.9840 0.9810
697.099335 0.9810 0.9840 0.9860 0.9880 0.9900
701.365555 0.9900 0.9860 0.9860 0.9880 0.9880
705.631775 0.9890 0.9900 0.9920 0.9920 0.9930
709.897996 0.9930 0.9930 0.9930 0.9920 0.9920
714.164216 0.9920 0.9920 0.9930 0.9930 0.9940
718.430436 0.9960 0.9960 0.9960 0.9970 0.9980
722.696656 0.9980 0.9980 0.9980 0.9980 0.9970
726.962877 0.9980 0.9980 1.0000 1.0000 1.0000
731.229097 1.0000 1.0000 1.0000 1.0010 1.0010
735.495317 1.0010 1.0000 1.0000 0.9980 0.9980
739.761537 0.9980 0.9980 0.9980 1.0000 1.0000
744.027758 0.9980 0.9980 1.0010 1.0010 1.0010
748.293978 1.0010 1.0010 1.0020 1.0010 1.0010
752.560198 1.0010 1.0000 1.0000 1.0000 1.0010
756.826418 1.0010 1.0020 1.0020 1.0020 1.0010
761.092639 1.0010 1.0000 1.0000 1.0000 1.0000
765.358859 1.0000 1.0000 1.0010 1.0010 1.0000
769.625079 1.0000 1.0000 0.9980 0.9980 0.9970
773.891300 0.9970 0.9960 0.9940 0.9930 0.9920
778.157520 0.9900 0.9890 0.9890 0.9880 0.9850
782.423740 0.9840 0.9820 0.9810 0.9800 0.9770
786.689960 0.9770 0.9760 0.9760 0.9740 0.9730
790.956181 0.9720 0.9720 0.9700 0.9680 0.9660
795.222401 0.9650 0.9650 0.9640 0.9620 0.9620
799.488621 0.9580 0.9560 0.9540 0.9530 0.9520
803.754841 0.9490 0.9480 0.9460 0.9450 0.9400
808.021062 0.9360 0.9330 0.9330 0.9320 0.9300
812.287282 0.9240 0.9200 0.9180 0.9160 0.9100
816.553502 0.9060 0.9010 0.8940 0.8920 0.8850
820.819722 0.8770 0.8680 0.8560 0.8490 0.8380
825.085943 0.8250 0.8120 0.7940 0.7770 0.7560
829.352163 0.7400 0.7051 0.6601 0.6142 0.5891
833.618383 0.5460 0.4860 0.4300 0.3741 0.3051
837.884603 0.2332 0.2260 0.1483 0.1221 0.0961
842.150824 0.0860 0.0860 0.1010 0.1250 0.1450
846.417044 0.1809 0.2409 0.2420 0.3247 0.3768
850.683264 0.4280 0.4760 0.5180 0.5370 0.5620
854.949485 0.5939 0.6169 0.6439 0.6689 0.6780
859.215705 0.6890 0.7020 0.7140 0.7290 0.7410
863.481925 0.7500 0.7580 0.7660 0.7760 0.7820
867.748145 0.7940 0.8010 0.8100 0.8170 0.8290
872.014366 0.8330 0.8370 0.8410 0.8490 0.8530
876.280586 0.8560 0.8610 0.8690 0.8700 0.8760
880.546806 0.8840 0.8920 0.8980 0.9010 0.9100
884.813026 0.9120 0.9170 0.9220 0.9250 0.9320
889.079247 0.9340 0.9370 0.9410 0.9480 0.9500
893.345467 0.9530 0.9540 0.9570 0.9580 0.9610
897.611687 0.9640 0.9650 0.9660 0.9680 0.9690
901.877907 0.9700 0.9740 0.9740 0.9760 0.9760
906.144128 0.9770 0.9770 0.9780 0.9800 0.9800
910.410348 0.9780 0.9800 0.9810 0.9810 0.9820
914.676568 0.9820 0.9840 0.9840 0.9850 0.9860
918.942788 0.9860 0.9860 0.9880 0.9890 0.9900
923.209009 0.9900 0.9920 0.9920 0.9920 0.9930
927.475229 0.9930 0.9930 0.9930 0.9930 0.9920
931.741449 0.9890 0.9890 0.9890 0.9900 0.9900
936.007670 0.9890 0.9880 0.9880 0.9880 0.9890
940.273890 0.9890 0.9890 0.9890 0.9890 0.9890
944.540110 0.9880 0.9880 0.9880 0.9880 0.9880
948.806330 0.9860 0.9860 0.9840 0.9810 0.9780
953.072551 0.9780 0.9770 0.9760 0.9760 0.9720
957.338771 0.9690 0.9660 0.9650 0.9650 0.9620
961.604991 0.9600 0.9560 0.9540 0.9490 0.9460
965.871211 0.9370 0.9320 0.9260 0.9170 0.9120
970.137432 0.8980 0.8840 0.8680 0.8500 0.8330
974.403652 0.8130 0.7941 0.7641 0.7301 0.7051
978.669872 0.6570 0.6570 0.6650 0.6890 0.7020
982.936092 0.7100 0.7399 0.7599 0.7740 0.7959
987.202313 0.8300 0.8330 0.8380 0.8450 0.8500
991.468533 0.8540 0.8580 0.8580 0.8600 0.8600
995.734753 0.8580 0.8580 0.8570 0.8540 0.8540
1000.000974 0.8520 0.8500 0.8490 0.8410 0.8380
1004.267194 0.8360 0.8300 0.8220 0.8180 0.8120
1008.533414 0.8050 0.7980 0.7890 0.7770 0.7700
1012.799634 0.7570 0.7450 0.7330 0.7220 0.7100
1017.065855 0.6821 0.6730 0.6571 0.6381 0.6141
1021.332075 0.5860 0.5560 0.5460 0.5220 0.5020
1025.598295 0.4651 0.4450 0.4280 0.4011 0.3721
1029.864515 0.3370 0.2920 0.2570 0.2450 0.2131
1034.130736 0.1891 0.1571 0.1171 0.1080 0.0980
1038.396956 0.0820 0.0800 0.0400 0.0250 0.0160
1042.663176 0.0130 0.0120 0.0100 0.0090 0.0090
1046.929396 0.0100 0.0120 0.0130 0.0180 0.0300
1051.195617 0.0440 0.0520 0.0610 0.0660 0.1019
1055.461837 0.1290 0.1540 0.1730 0.1980 0.2120
1059.728057 0.2300 0.2879 0.3219 0.3340 0.3609
1063.994277 0.3800 0.3970 0.4140 0.4340 0.4540
1068.260498 0.4660 0.4770 0.4860 0.5129 0.5299
1072.526718 0.5340 0.5400 0.5480 0.5610 0.5650
1076.792938 0.5860 0.6010 0.6140 0.6170 0.6290
1081.059159 0.6370 0.6520 0.6650 0.6740 0.6800
1085.325379 0.6850 0.6900 0.6940 0.6980 0.7060
1089.591599 0.7080 0.7130 0.7220 0.7280 0.7360
1093.857819 0.7400 0.7420 0.7520 0.7570 0.7600
1098.124040 0.7650 0.7680 0.7740 0.7810 0.7860
1102.390260 0.7920 0.7970 0.8000 0.8060 0.8120
1106.656480 0.8130 0.8170 0.8210 0.8240 0.8250
1110.922700 0.8290 0.8330 0.8370 0.8370 0.8400
1115.188921 0.8410 0.8420 0.8450 0.8490 0.8500
1119.455141 0.8500 0.8500 0.8500 0.8520 0.8520
1123.721361 0.8520 0.8520 0.8520 0.8520 0.8520
1127.987581 0.8520 0.8500 0.8500 0.8500 0.8500
1132.253802 0.8490 0.8490 0.8450 0.8440 0.8410
1136.520022 0.8380 0.8370 0.8330 0.8290 0.8170
1140.786242 0.8040 0.8000 0.8000 0.8060 0.8100
1145.052462 0.8130 0.8130 0.8140 0.8170 0.8170
1149.318683 0.8180 0.8180 0.8170 0.8160 0.8130
1153.584903 0.8120 0.8100 0.8100 0.8090 0.8100
1157.851123 0.8100 0.8120 0.8120 0.8130 0.8130
1162.117344 0.8140 0.8160 0.8160 0.8140 0.8140
1166.383564 0.8140 0.8140 0.8120 0.8100 0.8090
1170.649784 0.8020 0.7980 0.7970 0.7940 0.7930
1174.916004 0.7820 0.7780 0.7740 0.7640 0.7560
1179.182225 0.7400 0.7180 0.7060 0.7050 0.7050
1183.448445 0.7050 0.7000 0.6930 0.6820 0.6740
1187.714665 0.6660 0.6600 0.6560 0.6480 0.6420
1191.980885 0.6370 0.6320 0.6290 0.6170 0.6100
1196.247106 0.6020 0.6000 0.5810 0.5730 0.5610
1200.513326 0.5490 0.5330 0.5130 0.4940 0.4780
1204.779546 0.4600 0.4410 0.4200 0.3961 0.3781
1209.045766 0.3540 0.3330 0.3080 0.2800 0.2570
1213.311987 0.2480 0.2300 0.2160 0.1901 0.1730
1217.578207 0.1570 0.1380 0.1260 0.1050 0.0960
1221.844427 0.0860 0.0770 0.0650 0.0540 0.0321
1226.110647 0.0180 0.0120 0.0080 0.0060 0.0050
1230.376868 0.0040 0.0040 0.0020 0.0010 0.0010
1234.643088 0.0000 0.0000 0.0000 0.0000 0.0010
1238.909308 0.0020 0.0020 0.0020 0.0040 0.0050
1243.175529 0.0050 0.0050 0.0050 0.0050 0.0050
1247.441749 0.0050 0.0050 0.0050 0.0050 0.0060
1251.707969 0.0080 0.0090 0.0100 0.0130 0.0170
1255.974189 0.0320 0.0380 0.0420 0.0490 0.0540
1260.240410 0.0651 0.1180 0.1260 0.1300 0.1440
1264.506630 0.1520 0.1650 0.1889 0.1980 0.2060
1268.772850 0.2060 0.2090 0.2090 0.2060 0.2020
1273.039070 0.1980 0.1900 0.1810 0.1740 0.1720
1277.305291 0.1700 0.1720 0.1740 0.1890 0.2100
1281.571511 0.2250 0.2490 0.2650 0.2939 0.3219
1285.837731 0.3381 0.3780 0.3970 0.4140 0.4290
1290.103951 0.4600 0.4860 0.5020 0.5200 0.5409
1294.370172 0.5530 0.5620 0.5730 0.5900 0.6080
1298.636392 0.6160 0.6290 0.6420 0.6530 0.6620
1302.902612 0.6730 0.6740 0.6800 0.6890 0.6900
1307.168833 0.6940 0.6980 0.7010 0.7050 0.7060
1311.435053 0.7080 0.7100 0.7130 0.7140 0.7220
1315.701273 0.7240 0.7260 0.7300 0.7340 0.7380
1319.967493 0.7410 0.7440 0.7480 0.7530 0.7540
1324.233714 0.7560 0.7570 0.7580 0.7600 0.7610
1328.499934 0.7640 0.7640 0.7650 0.7650 0.7660
1332.766154 0.7660 0.7680 0.7680 0.7680 0.7680
1337.032374 0.7660 0.7650 0.7640 0.7610 0.7580
1341.298595 0.7570 0.7540 0.7530 0.7500 0.7480
1345.564815 0.7460 0.7410 0.7380 0.7280 0.7240
1349.831035 0.7140 0.7040 0.6900 0.6740 0.6580
1354.097255 0.6440 0.6290 0.6010 0.5860 0.5620
1358.363476 0.5340 0.5001 0.4761 0.4172 0.3482
1362.629696 0.3139 0.2679 0.2219 0.1340 0.0920
1366.895916 0.0480 0.0250 0.0020 0.0000 0.0000
1371.162136 0.0010 0.0040 0.0090 0.0140 0.0210
1375.428357 0.0380 0.0540 0.1259 0.1729 0.1939
1379.694577 0.2621 0.3080 0.3260 0.3920 0.4080
1383.960797 0.4450 0.4899 0.5130 0.5399 0.5679
1388.227018 0.5860 0.5980 0.6160 0.6300 0.6400
1392.493238 0.6460 0.6490 0.6530 0.6600 0.6610
1396.759458 0.6660 0.6680 0.6700 0.6730 0.6720
1401.025678 0.6690 0.6680 0.6660 0.6620 0.6600
1405.291899 0.6580 0.6530 0.6450 0.6380 0.6320
1409.558119 0.6260 0.6200 0.6140 0.6020 0.6000
1413.824339 0.5900 0.5860 0.5770 0.5730 0.5660
1418.090559 0.5610 0.5540 0.5460 0.5330 0.5121
1422.356780 0.5000 0.4880 0.4680 0.4540 0.4340
1426.623000 0.4090 0.3880 0.3690 0.3281 0.2881
1430.889220 0.2319 0.1799 0.1449 0.1080 0.0940
1435.155440 0.0810 0.0260 0.0160 0.0100 0.0100
1439.421661 0.0210 0.0330 0.0490 0.0640 0.1040
1443.687881 0.1240 0.1520 0.1660 0.1820 0.2039
1447.954101 0.2130 0.2320 0.2530 0.2740 0.2920
1452.220321 0.3080 0.3120 0.3140 0.3170 0.3170
1456.486542 0.3160 0.3140 0.3140 0.3160 0.3210
1460.752762 0.3290 0.3400 0.3520 0.3610 0.3859
1465.018982 0.4050 0.4140 0.4360 0.4540 0.4660
1469.285203 0.4900 0.5080 0.5160 0.5330 0.5490
1473.551423 0.5520 0.5540 0.5600 0.5620 0.5660
1477.817643 0.5680 0.5680 0.5680 0.5640 0.5600
1482.083863 0.5580 0.5570 0.5580 0.5600 0.5610
1486.350084 0.5660 0.5730 0.5780 0.5890 0.6000
1490.616304 0.6200 0.6300 0.6440 0.6450 0.6480
1494.882524 0.6520 0.6570 0.6600 0.6620 0.6650
1499.148744 0.6650 0.6660 0.6660 0.6690 0.6690
1503.414965 0.6680 0.6660 0.6650 0.6640 0.6620
1507.681185 0.6600 0.6580 0.6580 0.6570 0.6540
1511.947405 0.6520 0.6490 0.6480 0.6450 0.6440
1516.213625 0.6440 0.6420 0.6420 0.6410 0.6400
1520.479846 0.6370 0.6300 0.6280 0.6260 0.6260
1524.746066 0.6240 0.6200 0.6170 0.6160 0.6140
1529.012286 0.6130 0.6060 0.6010 0.5930 0.5880
1533.278506 0.5860 0.5800 0.5730 0.5640 0.5600
1537.544727 0.5520 0.5460 0.5440 0.5360 0.5280
1541.810947 0.5160 0.5000 0.4930 0.4880 0.4860
1546.077167 0.4780 0.4760 0.4700 0.4690 0.4660
1550.343388 0.4650 0.4650 0.4650 0.4660 0.4660
1554.609608 0.4700 0.4760 0.4780 0.4860 0.4900
1558.875828 0.5000 0.5010 0.5120 0.5220 0.5290
1563.142048 0.5340 0.5400 0.5480 0.5600 0.5620
1567.408269 0.5730 0.5780 0.5860 0.5890 0.5940
1571.674489 0.6050 0.6130 0.6140 0.6170 0.6210
1575.940709 0.6240 0.6260 0.6260 0.6280 0.6290
1580.206929 0.6300 0.6330 0.6360 0.6380 0.6420
1584.473150 0.6440 0.6450 0.6460 0.6500 0.6570
1588.739370 0.6580 0.6640 0.6730 0.6800 0.6860
1593.005590 0.6930 0.6970 0.7050 0.7080 0.7160
1597.271810 0.7240 0.7290 0.7380 0.7420 0.7480
1601.538031 0.7570 0.7660 0.7740 0.7740 0.7760
1605.804251 0.7800 0.7820 0.7820 0.7840 0.7840
1610.070471 0.7840 0.7820 0.7810 0.7770 0.7740
1614.336692 0.7680 0.7600 0.7570 0.7500 0.7480
1618.602912 0.7460 0.7460 0.7480 0.7520 0.7600
1622.869132 0.7730 0.7760 0.7810 0.7860 0.7930
1627.135352 0.7960 0.8000 0.8060 0.8120 0.8140
1631.401573 0.8160 0.8170 0.8180 0.8200 0.8200
1635.667793 0.8200 0.8180 0.8170 0.8160 0.8140
1639.934013 0.8130 0.8120 0.8100 0.8050 0.8010
1644.200233 0.7970 0.7930 0.7860 0.7810 0.7740
1648.466454 0.7740 0.7730 0.7680 0.7600 0.7560
1652.732674 0.7560 0.7520 0.7520 0.7520 0.7500
1656.998894 0.7500 0.7500 0.7490 0.7490 0.7490
1661.265114 0.7460 0.7440 0.7420 0.7410 0.7400
1665.531335 0.7330 0.7290 0.7260 0.7220 0.7100
1669.797555 0.7060 0.6960 0.6900 0.6770 0.6740
1674.063775 0.6600 0.6490 0.6440 0.6420 0.6330
1678.329995 0.6290 0.6290 0.6260 0.6220 0.6200
1682.596216 0.6170 0.6170 0.6160 0.6160 0.6170
1686.862436 0.6180 0.6200 0.6210 0.6210 0.6210
1691.128656 0.6220 0.6240 0.6240 0.6240 0.6220
1695.394877 0.6210 0.6180 0.6140 0.6060 0.6020
1699.661097 0.5900 0.5770 0.5620 0.5500 0.5340
1703.927317 0.5140 0.5000 0.4770 0.4600 0.4540
1708.193537 0.4530 0.4480 0.4460 0.4440 0.4420
1712.459758 0.4380 0.4340 0.4330 0.4260 0.4170
1716.725978 0.4090 0.4000 0.3960 0.3880 0.3720
1720.992198 0.3540 0.3360 0.3160 0.2980 0.2700
1725.258418 0.2560 0.2330 0.1960 0.1740 0.1650
1729.524639 0.1240 0.1080 0.0920 0.0780 0.0610
1733.790859 0.0420 0.0080 0.0010 0.0000 0.0000
1738.057079 0.0000 0.0000 0.0000 0.0000 0.0000
1742.323299 0.0000 0.0000 0.0000 0.0000 0.0000
1746.589520 0.0000 0.0000 0.0000 0.0000 0.0000
1750.855740 0.0000 0.0000 0.0000 0.0000 0.0000
1755.121960 0.0000 0.0000 0.0000 0.0020 0.0090
1759.388180 0.0100 0.0200 0.0320 0.0480 0.0620
1763.654401 0.0740 0.0891 0.1340 0.1580 0.1800
1767.920621 0.2080 0.2320 0.2560 0.2570 0.3249
1772.186841 0.3261 0.3420 0.3580 0.3770 0.4050
1776.453062 0.4240 0.4450 0.4600 0.4690 0.4880
1780.719282 0.5101 0.5320 0.5480 0.5500 0.5620
1784.985502 0.5740 0.5880 0.6010 0.6140 0.6180
1789.251722 0.6320 0.6440 0.6500 0.6610 0.6740
1793.517943 0.6800 0.6890 0.6920 0.6970 0.7050
1797.784163 0.7060 0.7090 0.7130 0.7240 0.7300
1802.050383 0.7380 0.7460 0.7540 0.7610 0.7740
1806.316603 0.7770 0.7810 0.7930 0.7940 0.8040
1810.582824 0.8130 0.8180 0.8260 0.8330 0.8370
1814.849044 0.8420 0.8490 0.8520 0.8540 0.8580
1819.115264 0.8600 0.8640 0.8690 0.8720 0.8760
1823.381484 0.8800 0.8820 0.8840 0.8860 0.8900
1827.647705 0.8960 0.8980 0.9010 0.9050 0.9100
1831.913925 0.9120 0.9140 0.9170 0.9200 0.9240
1836.180145 0.9260 0.9280 0.9300 0.9300 0.9300
1840.446365 0.9320 0.9330 0.9360 0.9380 0.9400
1844.712586 0.9400 0.9410 0.9410 0.9410 0.9410
1848.978806 0.9420 0.9420 0.9440 0.9440 0.9440
1853.245026 0.9440 0.9440 0.9450 0.9450 0.9450
1857.511247 0.9450 0.9460 0.9460 0.9460 0.9450
1861.777467 0.9440 0.9440 0.9440 0.9420 0.9410
1866.043687 0.9380 0.9370 0.9340 0.9330 0.9320
1870.309907 0.9320 0.9280 0.9240 0.9210 0.9200
1874.576128 0.9170 0.9130 0.9100 0.9090 0.9020
1878.842348 0.8980 0.8940 0.8930 0.8890 0.8810
1883.108568 0.8730 0.8720 0.8690 0.8600 0.8570
1887.374788 0.8540 0.8520 0.8500 0.8490 0.8490
1891.641009 0.8500 0.8540 0.8580 0.8610 0.8690
1895.907229 0.8730 0.8800 0.8840 0.8890 0.8980
1900.173449 0.9100 0.9160 0.9220 0.9300 0.9320
1904.439669 0.9340 0.9380 0.9410 0.9440 0.9450
1908.705890 0.9490 0.9520 0.9530 0.9540 0.9570
1912.972110 0.9600 0.9610 0.9620 0.9640 0.9650
1917.238330 0.9660 0.9680 0.9700 0.9700 0.9720
1921.504551 0.9730 0.9730 0.9730 0.9740 0.9740
1925.770771 0.9740 0.9760 0.9760 0.9760 0.9760
1930.036991 0.9760 0.9760 0.9760 0.9760 0.9760
1934.303211 0.9760 0.9760 0.9760 0.9760 0.9740
1938.569432 0.9740 0.9730 0.9730 0.9720 0.9720
1942.835652 0.9720 0.9700 0.9700 0.9690 0.9690
1947.101872 0.9680 0.9660 0.9660 0.9660 0.9660
1951.368092 0.9660 0.9620 0.9600 0.9600 0.9640
1955.634313 0.9660 0.9680 0.9680 0.9660 0.9650
1959.900533 0.9650 0.9640 0.9640 0.9650 0.9660
1964.166753 0.9660 0.9680 0.9680 0.9660 0.9660
1968.432973 0.9660 0.9680 0.9690 0.9690 0.9690
1972.699194 0.9680 0.9680 0.9690 0.9690 0.9690
1976.965414 0.9690 0.9690 0.9690 0.9690 0.9700
1981.231634 0.9700 0.9720 0.9700 0.9700 0.9700
1985.497854 0.9700 0.9700 0.9700 0.9700 0.9700
1989.764075 0.9700 0.9700 0.9700 0.9700 0.9700
1994.030295 0.9700 0.9700 0.9700 0.9700 0.9690
1998.296515 0.9690 0.9690 0.9690 0.9690 0.9690
2002.562736 0.9690 0.9690 0.9690 0.9690 0.9690
2006.828956 0.9690 0.9685 0.9680 0.9680 0.9680
2011.095176 0.9640 0.9600 0.9550 0.9500 0.9490
2015.361396 0.9480 0.9480 0.9481 0.9511 0.9540
2019.627617 0.9550 0.9560 0.9565 0.9570 0.9575
2023.893837 0.9580 0.9575 0.9570 0.9570 0.9570
2028.160057 0.9565 0.9560 0.9560 0.9560 0.9550
2032.426277 0.9540 0.9540 0.9542 0.9577 0.9610
2036.692498 0.9615 0.9620 0.9620 0.9620 0.9630
2040.958718 0.9640 0.9651 0.9661 0.9676 0.9690
2045.224938 0.9695 0.9701 0.9711 0.9720 0.9720
2049.491158 0.9720 0.9720 0.9719 0.9709 0.9700
2053.757379 0.9700 0.9700 0.9695 0.9690 0.9685
2058.023599 0.9679 0.9664 0.9649 0.9634 0.9619
2062.289819 0.9609 0.9599 0.9584 0.9568 0.9548
2066.556039 0.9530 0.9525 0.9517 0.9482 0.9447
2070.822260 0.9412 0.9376 0.9336 0.9294 0.9229
2075.088480 0.9163 0.9088 0.9018 0.8993 0.8967
2079.354700 0.8932 0.8893 0.8823 0.8751 0.8661
2083.620921 0.8567 0.8436 0.8315 0.8275 0.8238
2087.887141 0.8223 0.8209 0.8204 0.8201 0.8206
2092.153361 0.8212 0.8227 0.8247 0.8307 0.8365
2096.419581 0.8410 0.8452 0.8472 0.8498 0.8563
2100.685802 0.8627 0.8682 0.8742 0.8827 0.8913
2104.952022 0.9008 0.9101 0.9181 0.9253 0.9273
2109.218242 0.9296 0.9336 0.9388 0.9513 0.9624
2113.484462 0.9654 0.9686 0.9731 0.9771 0.9776
2117.750683 0.9782 0.9797 0.9811 0.9816 0.9822
2122.016903 0.9832 0.9842 0.9852 0.9860 0.9860
2126.283123 0.9862 0.9872 0.9880 0.9880 0.9880
2130.549343 0.9880 0.9883 0.9903 0.9927 0.9972
2134.815564 1.0011 1.0016 1.0022 1.0032 1.0041
2139.081784 1.0046 1.0051 1.0056 1.0063 1.0078
2143.348004 1.0091 1.0096 1.0100 1.0100 1.0102
2147.614224 1.0112 1.0121 1.0126 1.0133 1.0148
2151.880445 1.0162 1.0172 1.0182 1.0192 1.0201
2156.146665 1.0206 1.0210 1.0210 1.0210 1.0210
2160.412885 1.0209 1.0204 1.0200 1.0200 1.0198
2164.679106 1.0188 1.0180 1.0180 1.0180 1.0180
2168.945326 1.0180 1.0180 1.0179 1.0174 1.0171
2173.211546 1.0176 1.0180 1.0180 1.0182 1.0192
2177.477766 1.0200 1.0200 1.0198 1.0188 1.0179
2181.743987 1.0174 1.0169 1.0164 1.0158 1.0148
2186.010207 1.0140 1.0140 1.0140 1.0140 1.0140
2190.276427 1.0140 1.0143 1.0153 1.0160 1.0160
2194.542647 1.0160 1.0160 1.0160 1.0160 1.0160
2198.808868 1.0160 1.0157 1.0147 1.0139 1.0134
2203.075088 1.0129 1.0124 1.0116 1.0101 1.0084
2207.341308 1.0064 1.0044 1.0024 1.0009 1.0004
2211.607528 0.9997 0.9987 0.9979 0.9974 0.9963
2215.873749 0.9938 0.9917 0.9907 0.9903 0.9913
2220.139969 0.9921 0.9926 0.9934 0.9949 0.9968
2224.406189 0.9992 1.0015 1.0030 1.0043 1.0053
2228.672410 1.0060 1.0060 1.0063 1.0073 1.0082
2232.938630 1.0087 1.0092 1.0096 1.0103 1.0113
2237.204850 1.0120 1.0120 1.0120 1.0120 1.0120
2241.471070 1.0120 1.0122 1.0127 1.0132 1.0137
2245.737291 1.0143 1.0153 1.0160 1.0160 1.0157
2250.003511 1.0147 1.0138 1.0133 1.0130 1.0130
2254.269731 1.0128 1.0123 1.0120 1.0120 1.0120
2258.535951 1.0120 1.0116 1.0107 1.0098 1.0093
2262.802172 1.0090 1.0090 1.0083 1.0063 1.0045
2267.068392 1.0030 1.0018 1.0013 1.0008 1.0003
2271.334612 0.9995 0.9980 0.9957 0.9922 0.9889
2275.600832 0.9859 0.9827 0.9792 0.9764 0.9749
2279.867053 0.9736 0.9726 0.9714 0.9699 0.9688
2284.133273 0.9683 0.9682 0.9687 0.9692 0.9697
2288.399493 0.9706 0.9721 0.9732 0.9737 0.9748
2292.665713 0.9768 0.9788 0.9808 0.9828 0.9848
2296.931934 0.9860 0.9860 0.9866 0.9881 0.9892
2301.198154 0.9897 0.9900 0.9900 0.9896 0.9886
2305.464374 0.9874 0.9859 0.9850 0.9850 0.9856
2309.730595 0.9871 0.9888 0.9908 0.9939 0.9984
2313.996815 1.0012 1.0017 1.0026 1.0041 1.0052
2318.263035 1.0057 1.0060 1.0060 1.0056 1.0046
2322.529255 1.0032 1.0011 0.9996 0.9986 0.9987
2326.795476 1.0002 1.0012 1.0017 1.0024 1.0034
2331.061696 1.0040 1.0040 1.0036 1.0026 1.0020
2335.327916 1.0020 1.0018 1.0013 1.0010 1.0010
2339.594136 1.0010 1.0010 1.0010 1.0010 1.0012
2343.860357 1.0017 1.0020 1.0020 1.0025 1.0035
2348.126577 1.0040 1.0040 1.0042 1.0047 1.0057
2352.392797 1.0072 1.0085 1.0095 1.0105 1.0115
2356.659017 1.0122 1.0127 1.0130 1.0130 1.0130
2360.925238 1.0130 1.0132 1.0137 1.0140 1.0140
2365.191458 1.0140 1.0140 1.0140 1.0140 1.0140
2369.457678 1.0140 1.0140 1.0140 1.0138 1.0133
2373.723898 1.0130 1.0130 1.0130 1.0130 1.0130
2377.990119 1.0130 1.0130 1.0130 1.0128 1.0123
2382.256339 1.0115 1.0105 1.0097 1.0093 1.0088
2386.522559 1.0083 1.0075 1.0065 1.0060 1.0060
2390.788780 1.0057 1.0052 1.0050 1.0050 1.0047
2395.055000 1.0042 1.0040 1.0040 1.0040 1.0040
2399.321220 1.0035 1.0025 1.0017 1.0012 1.0010
2403.587440 1.0010 1.0007 1.0002 0.9995 0.9985
2407.853661 0.9980 0.9980 0.9980 0.9980 0.9977
2412.119881 0.9972 0.9970 0.9970 0.9970 0.9970
2416.386101 0.9973 0.9978 0.9986 0.9996 1.0000
2420.652321 1.0000 1.0000 1.0000 1.0000 1.0000
2424.918542 1.0000 1.0000 1.0000 1.0000 1.0003
2429.184762 1.0008 1.0010 1.0010 1.0013 1.0018
2433.450982 1.0026 1.0036 1.0040 1.0040 1.0040
2437.717202 1.0040 1.0043 1.0048 1.0050 1.0050
2441.983423 1.0050 1.0050 1.0050 1.0050 1.0047
2446.249643 1.0042 1.0034 1.0024 1.0017 1.0012
2450.515863 1.0010 1.0010 1.0007 1.0002 1.0000
2454.782083 1.0000 0.9994 0.9984 0.9977 0.9972
2459.048304 0.9961 0.9946 0.9934 0.9924 0.9901
2463.314524 0.9871 0.9854 0.9844 0.9834 0.9824
2467.580744 0.9817 0.9812 0.9798 0.9778 0.9767
2471.846965 0.9762 0.9754 0.9744 0.9724 0.9699
2476.113185 0.9681 0.9665 0.9657 0.9652 0.9640
2480.379405 0.9625 0.9617 0.9612 0.9613 0.9618
2484.645625 0.9620 0.9620 0.9630 0.9645 0.9653
2488.911846 0.9658 0.9666 0.9676 0.9686 0.9696
2493.178066 0.9713 0.9733 0.9750 0.9765 0.9773
2497.444286 0.9778 0.9787 0.9797 0.9813 0.9833
2501.710506 0.9847 0.9857 0.9867 0.9877 0.9883
2505.976727 0.9888 0.9893 0.9898 0.9907 0.9917
2510.242947 0.9927 0.9937 0.9947 0.9957 0.9960
2514.509167 0.9960 0.9963 0.9968 0.9970 0.9970
2518.775387 0.9970 0.9970 0.9970 0.9970 0.9973
2523.041608 0.9978 0.9987 0.9997 1.0000 1.0000
2527.307828 1.0000 1.0000 1.0000 1.0000 1.0004
2531.574048 1.0009 1.0010 1.0010 1.0010 1.0010
2535.840269 1.0010 1.0010 1.0014 1.0019 1.0027
2540.106489 1.0037 1.0040 1.0040 1.0033 1.0023
2544.372709 1.0020 1.0020 1.0020 1.0020 1.0020
2548.638929 1.0020 1.0020 1.0020 1.0020 1.0020
2552.905150 1.0020 1.0020 1.0016 1.0011 1.0010
2557.171370 1.0010 1.0006 1.0001 1.0000 1.0000
2561.437590 0.9993 0.9982 0.9980 0.9980 0.9980
2565.703810 0.9980 0.9980 0.9980 0.9980 0.9980
2569.970031 0.9988 0.9998 0.9992 0.9982 0.9980
2574.236251 0.9980 0.9976 0.9971 0.9970 0.9970
2578.502471 0.9966 0.9961 0.9948 0.9933 0.9903
2582.768691 0.9868 0.9852 0.9842 0.9817 0.9787
2587.034912 0.9772 0.9762 0.9752 0.9742 0.9720
2591.301132 0.9695 0.9670 0.9645 0.9628 0.9613
2595.567352 0.9610 0.9610 0.9614 0.9619 0.9636
2599.833572 0.9656 0.9676 0.9696 0.9716 0.9736
2604.099793 0.9752 0.9767 0.9774 0.9779 0.9780
2608.366013 0.9780 0.9780 0.9780 0.9788 0.9798
2612.632233 0.9800 0.9800 0.9800 0.9800 0.9800
2616.898454 0.9800 0.9804 0.9809 0.9814 0.9819
2621.164674 0.9820 0.9820 0.9828 0.9838 0.9840
2625.430894 0.9840 0.9844 0.9849 0.9854 0.9859
2629.697114 0.9868 0.9878 0.9888 0.9898 0.9900
2633.963335 0.9900 0.9892 0.9882 0.9880 0.9880
2638.229555 0.9872 0.9862 0.9860 0.9860 0.9856
2642.495775 0.9851 0.9846 0.9841 0.9832 0.9822
2646.761995 0.9820 0.9820 0.9820 0.9820 0.9829
2651.028216 0.9839 0.9844 0.9849 0.9850 0.9850
2655.294436 0.9850 0.9850 0.9850 0.9850 0.9854
2659.560656 0.9859 0.9869 0.9879 0.9880 0.9880
2663.826876 0.9880 0.9880 0.9871 0.9861 0.9856
2668.093097 0.9851 0.9850 0.9850 0.9846 0.9841
2672.359317 0.9831 0.9821 0.9816 0.9811 0.9810
2676.625537 0.9810 0.9806 0.9801 0.9800 0.9800
2680.891757 0.9791 0.9781 0.9780 0.9780 0.9780
2685.157978 0.9780 0.9780 0.9780 0.9780 0.9780
2689.424198 0.9780 0.9780 0.9780 0.9780 0.9775
2693.690418 0.9770 0.9770 0.9770 0.9770 0.9770
2697.956639 0.9770 0.9770 0.9770 0.9770 0.9770
2702.222859 0.9770 0.9765 0.9760 0.9760 0.9760
2706.489079 0.9751 0.9741 0.9740 0.9740 0.9731
2710.755299 0.9721 0.9701 0.9681 0.9661 0.9641
2715.021520 0.9621 0.9601 0.9586 0.9571 0.9565
2719.287740 0.9560 0.9560 0.9560 0.9546 0.9531
2723.553960 0.9525 0.9520 0.9510 0.9500 0.9500
2727.820180 0.9500 0.9510 0.9520 0.9525 0.9530
2732.086401 0.9545 0.9560 0.9570 0.9580 0.9595
2736.352621 0.9610 0.9615 0.9620 0.9635 0.9650
2740.618841 0.9655 0.9660 0.9675 0.9690 0.9710
2744.885061 0.9730 0.9735 0.9740 0.9740 0.9740
2749.151282 0.9740 0.9740 0.9740 0.9740 0.9750
2753.417502 0.9760 0.9760 0.9760 0.9760 0.9760
2757.683722 0.9760 0.9760 0.9760 0.9760 0.9760
2761.949942 0.9760 0.9760 0.9760 0.9750 0.9740
2766.216163 0.9740 0.9740 0.9735 0.9730 0.9730
2770.482383 0.9730 0.9725 0.9720 0.9710 0.9700
2774.748603 0.9695 0.9690 0.9690 0.9690 0.9690
2779.014824 0.9690 0.9690 0.9690 0.9685 0.9680
2783.281044 0.9670 0.9660 0.9660 0.9660 0.9660
2787.547264 0.9660 0.9660 0.9660 0.9655 0.9649
2791.813484 0.9634 0.9619 0.9609 0.9599 0.9584
2796.079705 0.9570 0.9565 0.9560 0.9560 0.9559
2800.345925 0.9544 0.9529 0.9509 0.9489 0.9474
2804.612145 0.9460 0.9455 0.9450 0.9450 0.9450
2808.878365 0.9450 0.9450 0.9455 0.9460 0.9460
2813.144586 0.9460 0.9460 0.9460 0.9460 0.9460
2817.410806 0.9455 0.9450 0.9450 0.9450 0.9445
2821.677026 0.9439 0.9424 0.9409 0.9394 0.9380
2825.943246 0.9375 0.9369 0.9354 0.9340 0.9335
2830.209467 0.9328 0.9303 0.9277 0.9242 0.9206
2834.475687 0.9166 0.9125 0.9080 0.9036 0.9001
2838.741907 0.8966 0.8931 0.8887 0.8782 0.8654
2843.008128 0.8359 0.8087 0.7977 0.7861 0.7706
2847.274348 0.7519 0.7099 0.6730 0.6730 0.6743
2851.540568 0.6849 0.6976 0.7231 0.7466 0.7581
2855.806788 0.7699 0.7829 0.7951 0.8031 0.8120
2860.073009 0.8260 0.8403 0.8563 0.8706 0.8746
2864.339229 0.8781 0.8791 0.8801 0.8806 0.8811
2868.605449 0.8816 0.8820 0.8820 0.8820 0.8820
2872.871669 0.8819 0.8814 0.8808 0.8793 0.8778
2877.137890 0.8768 0.8758 0.8742 0.8726 0.8701
2881.404110 0.8674 0.8639 0.8603 0.8563 0.8520
2885.670330 0.8459 0.8402 0.8357 0.8316 0.8296
2889.936550 0.8272 0.8232 0.8192 0.8152 0.8113
2894.202771 0.8078 0.8047 0.8032 0.8015 0.7990
2898.468991 0.7961 0.7916 0.7869 0.7809 0.7747
2902.735211 0.7676 0.7611 0.7566 0.7517 0.7457
2907.001431 0.7410 0.7410 0.7427 0.7507 0.7587
2911.267652 0.7667 0.7743 0.7803 0.7853 0.7868
2915.533872 0.7885 0.7910 0.7931 0.7936 0.7940
2919.800092 0.7940 0.7939 0.7934 0.7921 0.7881
2924.066313 0.7841 0.7801 0.7769 0.7764 0.7756
2928.332533 0.7741 0.7715 0.7650 0.7584 0.7514
2932.598753 0.7441 0.7361 0.7279 0.7189 0.7110
2936.864973 0.7070 0.6958 0.6638 0.6360 0.6205
2941.131194 0.6053 0.5908 0.5715 0.5385 0.5091
2945.397414 0.4901 0.4711 0.4521 0.4301 0.3996
2949.663634 0.3682 0.3342 0.3003 0.2668 0.2334
2953.929854 0.2000 0.1760 0.1760 0.1824 0.2054
2958.196075 0.2284 0.2514 0.2843 0.3423 0.3841
2962.462295 0.3846 0.3995 0.4510 0.4881 0.4886
2966.728515 0.4959 0.5204 0.5473 0.5803 0.6100
2970.994735 0.6312 0.6471 0.6506 0.6538 0.6563
2975.260956 0.6574 0.6554 0.6538 0.6533 0.6516
2979.527176 0.6471 0.6422 0.6362 0.6297 0.6222
2983.793396 0.6144 0.6059 0.5979 0.5909 0.5842
2988.059616 0.5781 0.5699 0.5574 0.5433 0.5258
2992.325837 0.5081 0.4901 0.4725 0.4555 0.4396
2996.592057 0.4261 0.4168 0.4163 0.4163 0.4173
3000.858277 0.4218 0.4333 0.4421 0.4456 0.4493
3005.124498 0.4534 0.4588 0.4668 0.4748 0.4828
3009.390718 0.4911 0.5001 0.5098 0.5208 0.5317
3013.656938 0.5422 0.5490 0.5490 0.5490 0.5490
3017.923158 0.5485 0.5470 0.5453 0.5433 0.5411
3022.189379 0.5386 0.5363 0.5343 0.5328 0.5323
3026.455599 0.5322 0.5327 0.5339 0.5364 0.5400
3030.721819 0.5455 0.5533 0.5648 0.5774 0.5919
3034.988039 0.6038 0.6113 0.6199 0.6304 0.6408
3039.254260 0.6509 0.6607 0.6702 0.6809 0.6934
3043.520480 0.7049 0.7149 0.7218 0.7238 0.7274
3047.786700 0.7334 0.7407 0.7502 0.7599 0.7699
3052.052920 0.7788 0.7858 0.7924 0.7984 0.8036
3056.319141 0.8076 0.8106 0.8121 0.8140 0.8165
3060.585361 0.8192 0.8222 0.8250 0.8275 0.8298
3064.851581 0.8318 0.8340 0.8365 0.8386 0.8401
3069.117801 0.8425 0.8460 0.8482 0.8487 0.8496
3073.384022 0.8511 0.8524 0.8534 0.8544 0.8554
3077.650242 0.8562 0.8567 0.8570 0.8570 0.8579
3081.916462 0.8599 0.8621 0.8646 0.8669 0.8689
3086.182683 0.8700 0.8700 0.8700 0.8700 0.8707
3090.448903 0.8722 0.8732 0.8737 0.8747 0.8762
3094.715123 0.8777 0.8792 0.8802 0.8807 0.8812
3098.981343 0.8817 0.8825 0.8835 0.8842 0.8847
3103.247564 0.8857 0.8872 0.8882 0.8887 0.8890
3107.513784 0.8890 0.8892 0.8897 0.8905 0.8915
3111.780004 0.8920 0.8920 0.8920 0.8920 0.8920
3116.046224 0.8920 0.8920 0.8920 0.8920 0.8920
3120.312445 0.8925 0.8935 0.8940 0.8940 0.8950
3124.578665 0.8970 0.8985 0.8995 0.9003 0.9008
3128.844885 0.9010 0.9010 0.9013 0.9018 0.9025
3133.111105 0.9035 0.9043 0.9048 0.9053 0.9058
3137.377326 0.9065 0.9075 0.9080 0.9080 0.9083
3141.643546 0.9088 0.9093 0.9098 0.9100 0.9100
3145.909766 0.9105 0.9115 0.9120 0.9120 0.9120
3150.175987 0.9120 0.9123 0.9128 0.9130 0.9130
3154.442207 0.9130 0.9130 0.9130 0.9130 0.9130
3158.708427 0.9130 0.9130 0.9130 0.9133 0.9138
3162.974647 0.9140 0.9140 0.9140 0.9140 0.9140
3167.240868 0.9140 0.9140 0.9140 0.9140 0.9140
3171.507088 0.9137 0.9132 0.9127 0.9122 0.9120
3175.773308 0.9120 0.9120 0.9120 0.9114 0.9104
3180.039528 0.9100 0.9100 0.9106 0.9116 0.9120
3184.305749 0.9120 0.9120 0.9120 0.9123 0.9128
3188.571969 0.9130 0.9130 0.9133 0.9138 0.9146
3192.838189 0.9156 0.9160 0.9160 0.9160 0.9160
3197.104409 0.9163 0.9168 0.9173 0.9178 0.9186
3201.370630 0.9196 0.9203 0.9208 0.9213 0.9218
3205.636850 0.9220 0.9220 0.9220 0.9220 0.9220
3209.903070 0.9220 0.9220 0.9220 0.9226 0.9236
3214.169290 0.9240 0.9240 0.9240 0.9240 0.9240
3218.435511 0.9240 0.9243 0.9248 0.9250 0.9250
3222.701731 0.9247 0.9242 0.9240 0.9240 0.9240
3226.967951 0.9240 0.9240 0.9240 0.9243 0.9248
3231.234172 0.9250 0.9250 0.9247 0.9242 0.9240
3235.500392 0.9240 0.9240 0.9240 0.9243 0.9248
3239.766612 0.9250 0.9250 0.9253 0.9258 0.9260
3244.032832 0.9260 0.9260 0.9260 0.9260 0.9260
3248.299053 0.9260 0.9260 0.9267 0.9277 0.9273
3252.565273 0.9263 0.9257 0.9252 0.9250 0.9250
3256.831493 0.9253 0.9258 0.9260 0.9260 0.9267
3261.097713 0.9277 0.9283 0.9288 0.9290 0.9290
3265.363934 0.9290 0.9290 0.9280 0.9265 0.9260
3269.630154 0.9260 0.9257 0.9252 0.9250 0.9250
3273.896374 0.9250 0.9250 0.9253 0.9258 0.9260
3278.162594 0.9260 0.9267 0.9277 0.9280 0.9280
3282.428815 0.9280 0.9280 0.9273 0.9263 0.9256
3286.695035 0.9251 0.9250 0.9250 0.9250 0.9250
3290.961255 0.9246 0.9241 0.9233 0.9223 0.9220
3295.227475 0.9220 0.9227 0.9237 0.9240 0.9240
3299.493696 0.9244 0.9249 0.9250 0.9250 0.9246
3303.759916 0.9241 0.9240 0.9240 0.9240 0.9240
3308.026136 0.9240 0.9240 0.9240 0.9240 0.9233
3312.292357 0.9222 0.9216 0.9211 0.9210 0.9210
3316.558577 0.9214 0.9219 0.9220 0.9220 0.9228
3320.824797 0.9238 0.9240 0.9240 0.9240 0.9240
3325.091017 0.9240 0.9240 0.9240 0.9240 0.9240
3329.357238 0.9240 0.9244 0.9249 0.9250 0.9250
3333.623458 0.9250 0.9250 0.9250 0.9250 0.9250
3337.889678 0.9250 0.9250 0.9250 0.9250 0.9250
3342.155898 0.9250 0.9250 0.9246 0.9241 0.9240
3346.422119 0.9240 0.9240 0.9240 0.9244 0.9249
3350.688339 0.9250 0.9250 0.9246 0.9241 0.9232
3354.954559 0.9222 0.9220 0.9220 0.9220 0.9220
3359.220779 0.9228 0.9238 0.9240 0.9240 0.9232
3363.487000 0.9222 0.9220 0.9220 0.9220 0.9220
3367.753220 0.9220 0.9220 0.9216 0.9211 0.9206
3372.019440 0.9201 0.9200 0.9200 0.9200 0.9200
3376.285660 0.9192 0.9182 0.9180 0.9180 0.9180
3380.551881 0.9180 0.9180 0.9180 0.9180 0.9180
3384.818101 0.9180 0.9180 0.9180 0.9180 0.9180
3389.084321 0.9180 0.9180 0.9180 0.9189 0.9199
3393.350542 0.9200 0.9200 0.9191 0.9181 0.9180
3397.616762 0.9180 0.9180 0.9180 0.9180 0.9180
3401.882982 0.9189 0.9199 0.9200 0.9200 0.9200
3406.149202 0.9200 0.9200 0.9200 0.9200 0.9200
3410.415423 0.9191 0.9181 0.9180 0.9180 0.9176
3414.681643 0.9171 0.9166 0.9161 0.9151 0.9141
3418.947863 0.9140 0.9140 0.9136 0.9131 0.9126
3423.214083 0.9121 0.9111 0.9101 0.9100 0.9100
3427.480304 0.9100 0.9100 0.9100 0.9100 0.9100
3431.746524 0.9100 0.9109 0.9119 0.9120 0.9120
3436.012744 0.9120 0.9120 0.9120 0.9120 0.9120
3440.278964 0.9120 0.9120 0.9120 0.9111 0.9101
3444.545185 0.9095 0.9090 0.9090 0.9090 0.9076
3448.811405 0.9061 0.9051 0.9041 0.9012 0.8982
3453.077625 0.8961 0.8941 0.8921 0.8901 0.8895
3457.343846 0.8890 0.8885 0.8880 0.8842 0.8802
3461.610066 0.8762 0.8722 0.8687 0.8652 0.8593
3465.876286 0.8532 0.8511 0.8491 0.8452 0.8411
3470.142506 0.8352 0.8292 0.8266 0.8241 0.8240
3474.408727 0.8240 0.8250 0.8260 0.8274 0.8289
3478.674947 0.8304 0.8319 0.8359 0.8399 0.8444
3482.941167 0.8489 0.8510 0.8530 0.8569 0.8609
3487.207387 0.8664 0.8719 0.8764 0.8809 0.8864
3491.473608 0.8919 0.8969 0.9019 0.9035 0.9050
3495.739828 0.9070 0.9090 0.9105 0.9120 0.9120
3500.006048 0.9120 0.9125 0.9130 0.9145 0.9160
3504.272268 0.9170 0.9180 0.9190 0.9200 0.9200
3508.538489 0.9200 0.9210 0.9220 0.9235 0.9250
3512.804709 0.9270 0.9290 0.9290 0.9290 0.9295
3517.070929 0.9300 0.9300 0.9300 0.9300 0.9300
3521.337149 0.9295 0.9290 0.9290 0.9290 0.9295
3525.603370 0.9300 0.9300 0.9300 0.9310 0.9320
3529.869590 0.9320 0.9320 0.9325 0.9330 0.9330
3534.135810 0.9330 0.9330 0.9330 0.9330 0.9330
3538.402031 0.9330 0.9330 0.9330 0.9330 0.9330
3542.668251 0.9330 0.9330 0.9330 0.9335 0.9340
3546.934471 0.9340 0.9340 0.9340 0.9341 0.9351
3551.200691 0.9360 0.9365 0.9370 0.9370 0.9370
3555.466912 0.9375 0.9381 0.9391 0.9400 0.9400
3559.733132 0.9400 0.9400 0.9400 0.9405 0.9410
3563.999352 0.9410 0.9410 0.9410 0.9410 0.9415
3568.265572 0.9421 0.9436 0.9450 0.9450 0.9450
3572.531793 0.9450 0.9450 0.9450 0.9450 0.9456
3576.798013 0.9460 0.9460 0.9462 0.9477 0.9490
3581.064233 0.9496 0.9502 0.9517 0.9530 0.9530
3585.330453 0.9531 0.9536 0.9541 0.9551 0.9560
3589.596674 0.9560 0.9560 0.9560 0.9560 0.9560
3593.862894 0.9560 0.9560 0.9561 0.9566 0.9571
3598.129114 0.9576 0.9581 0.9591 0.9601 0.9606
3602.395334 0.9610 0.9610 0.9609 0.9604 0.9600
3606.661555 0.9600 0.9601 0.9606 0.9610 0.9610
3610.927775 0.9610 0.9610 0.9611 0.9616 0.9620
3615.193995 0.9620 0.9620 0.9620 0.9620 0.9620
3619.460216 0.9623 0.9638 0.9650 0.9650 0.9649
3623.726436 0.9644 0.9640 0.9640 0.9640 0.9640
3627.992656 0.9640 0.9640 0.9641 0.9646 0.9650
3632.258876 0.9650 0.9651 0.9656 0.9660 0.9660
3636.525097 0.9660 0.9660 0.9660 0.9660 0.9662
3640.791317 0.9672 0.9680 0.9680 0.9680 0.9680
3645.057537 0.9680 0.9680 0.9681 0.9686 0.9690
3649.323757 0.9690 0.9690 0.9690 0.9690 0.9690
3653.589978 0.9691 0.9696 0.9700 0.9700 0.9700
3657.856198 0.9700 0.9702 0.9712 0.9720 0.9720
3662.122418 0.9718 0.9708 0.9699 0.9694 0.9689
3666.388638 0.9684 0.9680 0.9680 0.9678 0.9668
3670.654859 0.9659 0.9654 0.9650 0.9650 0.9650
3674.921079 0.9650 0.9650 0.9650 0.9650 0.9650
3679.187299 0.9650 0.9650 0.9649 0.9644 0.9638
3683.453519 0.9628 0.9620 0.9620 0.9622 0.9633
3687.719740 0.9641 0.9646 0.9654 0.9669 0.9681
3691.985960 0.9686 0.9690 0.9690 0.9691 0.9696
3696.252180 0.9703 0.9713 0.9720 0.9720 0.9721
3700.518401 0.9726 0.9730 0.9730 0.9731 0.9736
3704.784621 0.9743 0.9753 0.9760 0.9760 0.9760
3709.050841 0.9760 0.9760 0.9760 0.9760 0.9760
3713.317061 0.9760 0.9760 0.9760 0.9760 0.9760
3717.583282 0.9760 0.9760 0.9760 0.9761 0.9766
3721.849502 0.9770 0.9770 0.9770 0.9770 0.9770
3726.115722 0.9770 0.9770 0.9770 0.9772 0.9777
3730.381942 0.9780 0.9780 0.9777 0.9767 0.9760
3734.648163 0.9760 0.9760 0.9760 0.9760 0.9760
3738.914383 0.9757 0.9747 0.9740 0.9740 0.9743
3743.180603 0.9753 0.9762 0.9767 0.9770 0.9770
3747.446823 0.9772 0.9777 0.9780 0.9780 0.9777
3751.713044 0.9767 0.9760 0.9760 0.9757 0.9747
3755.979264 0.9740 0.9740 0.9740 0.9740 0.9740
3760.245484 0.9740 0.9740 0.9740 0.9744 0.9754
3764.511705 0.9760 0.9760 0.9760 0.9760 0.9762
3768.777925 0.9767 0.9770 0.9770 0.9765 0.9750
3773.044145 0.9740 0.9740 0.9740 0.9740 0.9740
3777.310365 0.9740 0.9738 0.9733 0.9730 0.9730
3781.576586 0.9732 0.9737 0.9744 0.9754 0.9762
3785.842806 0.9767 0.9768 0.9763 0.9760 0.9760
3790.109026 0.9760 0.9760 0.9760 0.9760 0.9760
3794.375246 0.9760 0.9760 0.9760
##END=
