##TITLE=2,3-Dimethylbutane
##JCAMP-DX=4.24
$$ By DXEDIT 1.05 (RS McDonald)
##DATA TYPE=INFRARED SPECTRUM
##CLASS=COBLENTZ III
##ORIGIN=DOW CHEMICAL COMPANY
##OWNER=COPYRIGHT (C) 1988 by COBLENTZ SOCIETY INC.
Collection (C) 2018 copyright by the U.S. Secretary of Commerce
on behalf of the United States of America. All rights reserved.
##DATE=1960/12/30
##CAS REGISTRY NO=79-29-8
##MOLFORM=C6 H14
##SOURCE REFERENCE=COBLENTZ NO. 06554
##$NIST SOURCE=COBLENTZ
##$NIST IMAGE=cob6554
##SPECTROMETER/DATA SYSTEM=DOW KBr FOREPRISM-GRATING
##INSTRUMENT PARAMETERS=BLAZED AT 3.5, 12.0, 20.0 MICRON AND CHANGED AT 5.0, 7.5, 14.9 MICRON
##STATE=LIQUID (NEAT)
##PATH LENGTH=0.011 CM
##SAMPLING PROCEDURE=TRANSMISSION
##RESOLUTION=2
##DATA PROCESSING=DIGITIZED BY COBLENTZ SOCIETY (BATCH I) FROM HARD COPY
##XUNITS=1/CM
##YUNITS=TRANSMITTANCE
##XFACTOR=1
##YFACTOR=1
##DELTAX=1
##FIRSTX=3800
##LASTX=430
##FIRSTY=0.8353
##MAXX=3800
##MINX=430
##MAXY=0.9325
##MINY=0.006
##NPOINTS=3371
##XYDATA=(X++(Y..Y))
3800.000000 0.8353 0.8353 0.8353 0.8349 0.8345
3795.000000 0.8341 0.8337 0.8333 0.8328 0.8325
3790.000000 0.8321 0.8317 0.8313 0.8309 0.8305
3785.000000 0.8301 0.8297 0.8293 0.8289 0.8285
3780.000000 0.8281 0.8277 0.8274 0.8270 0.8266
3775.000000 0.8262 0.8258 0.8256 0.8254 0.8259
3770.000000 0.8264 0.8282 0.8300 0.8323 0.8346
3765.000000 0.8386 0.8427 0.8471 0.8517 0.8546
3760.000000 0.8575 0.8605 0.8635 0.8656 0.8678
3755.000000 0.8696 0.8715 0.8733 0.8752 0.8765
3750.000000 0.8778 0.8790 0.8802 0.8814 0.8825
3745.000000 0.8838 0.8851 0.8862 0.8873 0.8881
3740.000000 0.8889 0.8891 0.8893 0.8895 0.8898
3735.000000 0.8900 0.8903 0.8905 0.8905 0.8905
3730.000000 0.8903 0.8900 0.8898 0.8896 0.8896
3725.000000 0.8896 0.8898 0.8905 0.8913 0.8921
3720.000000 0.8928 0.8936 0.8944 0.8951 0.8959
3715.000000 0.8973 0.8987 0.9005 0.9023 0.9035
3710.000000 0.9048 0.9051 0.9054 0.9057 0.9060
3705.000000 0.9062 0.9065 0.9066 0.9067 0.9068
3700.000000 0.9070 0.9071 0.9073 0.9074 0.9074
3695.000000 0.9074 0.9074 0.9073 0.9071 0.9065
3690.000000 0.9058 0.9050 0.9042 0.9035 0.9028
3685.000000 0.9025 0.9021 0.9018 0.9015 0.9012
3680.000000 0.9009 0.9006 0.9003 0.9001 0.8999
3675.000000 0.8999 0.9000 0.9001 0.9002 0.9002
3670.000000 0.9003 0.9004 0.9005 0.9005 0.9006
3665.000000 0.9008 0.9011 0.9015 0.9018 0.9023
3660.000000 0.9028 0.9032 0.9036 0.9040 0.9044
3655.000000 0.9048 0.9052 0.9056 0.9060 0.9064
3650.000000 0.9068 0.9073 0.9077 0.9081 0.9085
3645.000000 0.9089 0.9093 0.9097 0.9101 0.9101
3640.000000 0.9102 0.9102 0.9103 0.9103 0.9104
3635.000000 0.9104 0.9105 0.9105 0.9106 0.9106
3630.000000 0.9107 0.9107 0.9107 0.9107 0.9108
3625.000000 0.9108 0.9109 0.9109 0.9110 0.9110
3620.000000 0.9111 0.9111 0.9111 0.9111 0.9111
3615.000000 0.9111 0.9111 0.9110 0.9110 0.9110
3610.000000 0.9110 0.9110 0.9110 0.9110 0.9110
3605.000000 0.9110 0.9110 0.9110 0.9110 0.9110
3600.000000 0.9110 0.9109 0.9109 0.9109 0.9109
3595.000000 0.9109 0.9109 0.9109 0.9109 0.9109
3590.000000 0.9109 0.9109 0.9109 0.9109 0.9110
3585.000000 0.9110 0.9110 0.9110 0.9110 0.9110
3580.000000 0.9110 0.9110 0.9110 0.9110 0.9110
3575.000000 0.9110 0.9110 0.9110 0.9110 0.9110
3570.000000 0.9110 0.9110 0.9110 0.9110 0.9111
3565.000000 0.9111 0.9111 0.9111 0.9112 0.9112
3560.000000 0.9112 0.9112 0.9113 0.9113 0.9114
3555.000000 0.9114 0.9115 0.9115 0.9115 0.9115
3550.000000 0.9116 0.9116 0.9117 0.9117 0.9117
3545.000000 0.9117 0.9118 0.9118 0.9118 0.9118
3540.000000 0.9118 0.9118 0.9118 0.9118 0.9117
3535.000000 0.9116 0.9115 0.9114 0.9114 0.9113
3530.000000 0.9112 0.9111 0.9110 0.9107 0.9105
3525.000000 0.9102 0.9099 0.9096 0.9094 0.9091
3520.000000 0.9088 0.9085 0.9082 0.9078 0.9074
3515.000000 0.9068 0.9063 0.9056 0.9050 0.9038
3510.000000 0.9025 0.9014 0.9002 0.8990 0.8978
3505.000000 0.8962 0.8946 0.8928 0.8912 0.8895
3500.000000 0.8878 0.8860 0.8843 0.8824 0.8806
3495.000000 0.8789 0.8771 0.8759 0.8747 0.8737
3490.000000 0.8727 0.8725 0.8723 0.8721 0.8718
3485.000000 0.8716 0.8714 0.8712 0.8710 0.8707
3480.000000 0.8705 0.8705 0.8706 0.8707 0.8708
3475.000000 0.8709 0.8710 0.8711 0.8712 0.8713
3470.000000 0.8714 0.8715 0.8716 0.8717 0.8718
3465.000000 0.8718 0.8721 0.8721 0.8723 0.8724
3460.000000 0.8725 0.8727 0.8728 0.8728 0.8731
3455.000000 0.8732 0.8733 0.8733 0.8734 0.8731
3450.000000 0.8728 0.8727 0.8725 0.8723 0.8721
3445.000000 0.8718 0.8716 0.8710 0.8705 0.8698
3440.000000 0.8691 0.8683 0.8675 0.8668 0.8661
3435.000000 0.8653 0.8645 0.8636 0.8627 0.8618
3430.000000 0.8609 0.8599 0.8590 0.8581 0.8571
3425.000000 0.8567 0.8562 0.8559 0.8556 0.8555
3420.000000 0.8554 0.8552 0.8551 0.8550 0.8549
3415.000000 0.8548 0.8547 0.8546 0.8545 0.8544
3410.000000 0.8543 0.8542 0.8541 0.8540 0.8539
3405.000000 0.8538 0.8537 0.8535 0.8534 0.8533
3400.000000 0.8532 0.8531 0.8530 0.8528 0.8527
3395.000000 0.8525 0.8525 0.8523 0.8521 0.8521
3390.000000 0.8520 0.8518 0.8517 0.8514 0.8511
3385.000000 0.8507 0.8503 0.8491 0.8480 0.8464
3380.000000 0.8448 0.8425 0.8403 0.8377 0.8351
3375.000000 0.8325 0.8302 0.8287 0.8271 0.8257
3370.000000 0.8242 0.8227 0.8212 0.8197 0.8182
3365.000000 0.8168 0.8154 0.8147 0.8141 0.8134
3360.000000 0.8126 0.8121 0.8115 0.8110 0.8106
3355.000000 0.8101 0.8096 0.8091 0.8087 0.8082
3350.000000 0.8078 0.8078 0.8078 0.8068 0.8065
3345.000000 0.8071 0.8078 0.8087 0.8096 0.8111
3340.000000 0.8128 0.8142 0.8157 0.8168 0.8180
3335.000000 0.8191 0.8202 0.8212 0.8223 0.8233
3330.000000 0.8244 0.8250 0.8256 0.8260 0.8264
3325.000000 0.8268 0.8271 0.8275 0.8305 0.8281
3320.000000 0.8282 0.8283 0.8283 0.8283 0.8283
3315.000000 0.8278 0.8274 0.8266 0.8259 0.8237
3310.000000 0.8215 0.8188 0.8161 0.8145 0.8130
3305.000000 0.8119 0.8110 0.8107 0.8105 0.8101
3300.000000 0.8099 0.8096 0.8094 0.8093 0.8092
3295.000000 0.8091 0.8083 0.8094 0.8099 0.8104
3290.000000 0.8110 0.8115 0.8121 0.8128 0.8138
3285.000000 0.8146 0.8154 0.8158 0.8161 0.8165
3280.000000 0.8171 0.8174 0.8178 0.8178 0.8178
3275.000000 0.8178 0.8180 0.8180 0.8180 0.8180
3270.000000 0.8191 0.8176 0.8175 0.8175 0.8174
3265.000000 0.8172 0.8171 0.8168 0.8165 0.8162
3260.000000 0.8161 0.8158 0.8155 0.8151 0.8147
3255.000000 0.8140 0.8134 0.8126 0.8119 0.8111
3250.000000 0.8105 0.8097 0.8089 0.8080 0.8071
3245.000000 0.8058 0.8044 0.8028 0.8015 0.7998
3240.000000 0.7982 0.7965 0.7949 0.7926 0.7906
3235.000000 0.7882 0.7858 0.7831 0.7805 0.7776
3230.000000 0.7750 0.7718 0.7686 0.7653 0.7619
3225.000000 0.7575 0.7533 0.7478 0.7425 0.7371
3220.000000 0.7318 0.7264 0.7211 0.7165 0.7121
3215.000000 0.7078 0.7038 0.6984 0.6931 0.6821
3210.000000 0.6714 0.6661 0.6611 0.6558 0.6508
3205.000000 0.6457 0.6406 0.6354 0.6303 0.6251
3200.000000 0.6200 0.6148 0.6097 0.6046 0.5995
3195.000000 0.5943 0.5892 0.5840 0.5789 0.5737
3190.000000 0.5686 0.5642 0.5599 0.5566 0.5534
3185.000000 0.5498 0.5462 0.5409 0.5356 0.5316
3180.000000 0.5277 0.5251 0.5225 0.5204 0.5183
3175.000000 0.5164 0.5146 0.5132 0.5118 0.5112
3170.000000 0.5106 0.5101 0.5096 0.5094 0.5092
3165.000000 0.5090 0.5089 0.5089 0.5117 0.5092
3160.000000 0.5094 0.5096 0.5098 0.5114 0.5131
3155.000000 0.5164 0.5198 0.5247 0.5296 0.5342
3150.000000 0.5388 0.5446 0.5505 0.5540 0.5576
3145.000000 0.5609 0.5643 0.5677 0.5712 0.5747
3140.000000 0.5783 0.5819 0.5855 0.5891 0.5927
3135.000000 0.5964 0.6001 0.6038 0.6075 0.6112
3130.000000 0.6150 0.6183 0.6217 0.6248 0.6280
3125.000000 0.6312 0.6344 0.6372 0.6401 0.6428
3120.000000 0.6455 0.6478 0.6504 0.6521 0.6539
3115.000000 0.6556 0.6574 0.6591 0.6608 0.6624
3110.000000 0.6639 0.6653 0.6668 0.6682 0.6696
3105.000000 0.6710 0.6725 0.6735 0.6745 0.6755
3100.000000 0.6765 0.6774 0.6784 0.6790 0.6797
3095.000000 0.6803 0.6810 0.6815 0.6822 0.6828
3090.000000 0.6835 0.6838 0.6841 0.6843 0.6846
3085.000000 0.6848 0.6849 0.6849 0.6848 0.6846
3080.000000 0.6845 0.6838 0.6832 0.6821 0.6810
3075.000000 0.6792 0.6774 0.6746 0.6718 0.6675
3070.000000 0.6633 0.6564 0.6496 0.6390 0.6284
3065.000000 0.6222 0.6160 0.6100 0.6040 0.5987
3060.000000 0.5934 0.5881 0.5828 0.5776 0.5725
3055.000000 0.5674 0.5624 0.5573 0.5523 0.5462
3050.000000 0.5402 0.5338 0.5274 0.5217 0.5160
3045.000000 0.5109 0.5057 0.5004 0.4952 0.4885
3040.000000 0.4818 0.4748 0.4678 0.4608 0.4539
3035.000000 0.4477 0.4416 0.4356 0.4296 0.4236
3030.000000 0.4177 0.4082 0.3989 0.3880 0.3771
3025.000000 0.3674 0.3578 0.3492 0.3406 0.3309
3020.000000 0.3214 0.3089 0.2965 0.2843 0.2722
3015.000000 0.2612 0.2503 0.2416 0.2330 0.2225
3010.000000 0.2121 0.1993 0.1865 0.1739 0.1613
3005.000000 0.1487 0.1361 0.1235 0.1110 0.0984
3000.000000 0.0858 0.0732 0.0606 0.0480 0.0354
2995.000000 0.0280 0.0206 0.0182 0.0159 0.0146
2990.000000 0.0133 0.0123 0.0114 0.0105 0.0099
2985.000000 0.0092 0.0085 0.0079 0.0074 0.0074
2980.000000 0.0074 0.0073 0.0073 0.0073 0.0073
2975.000000 0.0073 0.0073 0.0073 0.0073 0.0073
2970.000000 0.0073 0.0072 0.0072 0.0072 0.0072
2965.000000 0.0072 0.0072 0.0072 0.0072 0.0072
2960.000000 0.0072 0.0071 0.0071 0.0071 0.0071
2955.000000 0.0071 0.0071 0.0071 0.0071 0.0071
2950.000000 0.0071 0.0070 0.0070 0.0070 0.0070
2945.000000 0.0070 0.0070 0.0070 0.0070 0.0070
2940.000000 0.0070 0.0069 0.0069 0.0069 0.0069
2935.000000 0.0069 0.0069 0.0069 0.0069 0.0068
2930.000000 0.0068 0.0068 0.0068 0.0068 0.0068
2925.000000 0.0068 0.0068 0.0068 0.0068 0.0067
2920.000000 0.0067 0.0067 0.0067 0.0067 0.0067
2915.000000 0.0067 0.0067 0.0067 0.0067 0.0066
2910.000000 0.0066 0.0066 0.0066 0.0066 0.0066
2905.000000 0.0066 0.0066 0.0066 0.0066 0.0065
2900.000000 0.0065 0.0065 0.0065 0.0065 0.0065
2895.000000 0.0065 0.0065 0.0065 0.0065 0.0064
2890.000000 0.0064 0.0064 0.0064 0.0064 0.0064
2885.000000 0.0064 0.0064 0.0064 0.0064 0.0063
2880.000000 0.0063 0.0063 0.0063 0.0063 0.0063
2875.000000 0.0063 0.0063 0.0063 0.0063 0.0062
2870.000000 0.0062 0.0062 0.0062 0.0062 0.0062
2865.000000 0.0062 0.0062 0.0062 0.0062 0.0061
2860.000000 0.0061 0.0061 0.0061 0.0061 0.0061
2855.000000 0.0061 0.0061 0.0061 0.0061 0.0060
2850.000000 0.0060 0.0060 0.0060 0.0072 0.0084
2845.000000 0.0109 0.0133 0.0177 0.0221 0.0273
2840.000000 0.0325 0.0397 0.0469 0.0540 0.0611
2835.000000 0.0676 0.0742 0.0803 0.0864 0.0922
2830.000000 0.0980 0.1019 0.1059 0.1096 0.1135
2825.000000 0.1173 0.1212 0.1259 0.1307 0.1344
2820.000000 0.1382 0.1408 0.1434 0.1460 0.1486
2815.000000 0.1507 0.1529 0.1546 0.1565 0.1583
2810.000000 0.1601 0.1618 0.1634 0.1651 0.1668
2805.000000 0.1696 0.1726 0.1757 0.1789 0.1872
2800.000000 0.1956 0.2084 0.2214 0.2342 0.2471
2795.000000 0.2600 0.2729 0.2858 0.2987 0.3116
2790.000000 0.3245 0.3373 0.3502 0.3630 0.3759
2785.000000 0.3889 0.4018 0.4146 0.4275 0.4404
2780.000000 0.4533 0.4621 0.4710 0.4738 0.4767
2775.000000 0.4780 0.4834 0.4799 0.4799 0.4798
2770.000000 0.4793 0.4775 0.4757 0.4737 0.4717
2765.000000 0.4695 0.4673 0.4646 0.4619 0.4593
2760.000000 0.4567 0.4560 0.4553 0.4551 0.4551
2755.000000 0.4553 0.4557 0.4578 0.4599 0.4651
2750.000000 0.4703 0.4754 0.4805 0.4885 0.4966
2745.000000 0.5024 0.5083 0.5140 0.5230 0.5215
2740.000000 0.5234 0.5236 0.5238 0.5238 0.5238
2735.000000 0.5238 0.5238 0.5228 0.5218 0.5177
2730.000000 0.5137 0.5002 0.4867 0.4732 0.4597
2725.000000 0.4460 0.4326 0.4191 0.4056 0.3921
2720.000000 0.3716 0.3744 0.3703 0.3709 0.3714
2715.000000 0.3859 0.4005 0.4237 0.4470 0.4702
2710.000000 0.4935 0.5168 0.5401 0.5633 0.5866
2705.000000 0.5917 0.5969 0.6005 0.6042 0.6088
2700.000000 0.6134 0.6182 0.6230 0.6277 0.6325
2695.000000 0.6373 0.6421 0.6464 0.6508 0.6515
2690.000000 0.6525 0.6533 0.6542 0.6550 0.6558
2685.000000 0.6565 0.6571 0.6571 0.6571 0.6571
2680.000000 0.6572 0.6388 0.6204 0.5937 0.5670
2675.000000 0.5403 0.5136 0.4869 0.4479 0.4539
2670.000000 0.4477 0.4549 0.4621 0.4773 0.4926
2665.000000 0.5078 0.5231 0.5383 0.5536 0.5689
2660.000000 0.5842 0.5994 0.6147 0.6299 0.6451
2655.000000 0.6528 0.6604 0.6625 0.6647 0.6664
2650.000000 0.6682 0.6691 0.6700 0.6705 0.6710
2645.000000 0.6714 0.6718 0.6721 0.6725 0.6728
2640.000000 0.6731 0.6734 0.6737 0.6738 0.6768
2635.000000 0.6741 0.6742 0.6742 0.6742 0.6742
2630.000000 0.6742 0.6738 0.6735 0.6728 0.6722
2625.000000 0.6705 0.6687 0.6660 0.6633 0.6568
2620.000000 0.6504 0.6432 0.6360 0.6095 0.5830
2615.000000 0.5565 0.5300 0.5102 0.4902 0.4900
2610.000000 0.4895 0.4949 0.5003 0.5059 0.5115
2605.000000 0.5171 0.5227 0.5283 0.5339 0.5394
2600.000000 0.5450 0.5460 0.5471 0.5471 0.5503
2595.000000 0.5366 0.5262 0.5152 0.5042 0.4932
2590.000000 0.4822 0.4712 0.4538 0.4538 0.4539
2585.000000 0.4549 0.4560 0.4616 0.4672 0.4885
2580.000000 0.5099 0.5312 0.5527 0.5741 0.5955
2575.000000 0.6215 0.6475 0.6615 0.6757 0.6860
2570.000000 0.6964 0.7038 0.7111 0.7197 0.7282
2565.000000 0.7367 0.7451 0.7537 0.7621 0.7707
2560.000000 0.7793 0.7878 0.7962 0.8048 0.8133
2555.000000 0.8193 0.8254 0.8267 0.8281 0.8295
2550.000000 0.8309 0.8315 0.8321 0.8325 0.8331
2545.000000 0.8335 0.8339 0.8338 0.8338 0.8337
2540.000000 0.8336 0.8336 0.8336 0.8339 0.8342
2535.000000 0.8345 0.8348 0.8354 0.8361 0.8375
2530.000000 0.8389 0.8403 0.8418 0.8430 0.8443
2525.000000 0.8455 0.8468 0.8474 0.8481 0.8484
2520.000000 0.8487 0.8489 0.8499 0.8487 0.8483
2515.000000 0.8478 0.8475 0.8471 0.8468 0.8465
2510.000000 0.8462 0.8457 0.8453 0.8446 0.8439
2505.000000 0.8432 0.8425 0.8418 0.8412 0.8407
2500.000000 0.8403 0.8401 0.8400 0.8399 0.8398
2495.000000 0.8396 0.8395 0.8394 0.8393 0.8392
2490.000000 0.8391 0.8390 0.8390 0.8390 0.8390
2485.000000 0.8389 0.8389 0.8389 0.8389 0.8388
2480.000000 0.8388 0.8388 0.8388 0.8387 0.8386
2475.000000 0.8383 0.8381 0.8378 0.8375 0.8368
2470.000000 0.8364 0.8351 0.8338 0.8325 0.8314
2465.000000 0.8304 0.8295 0.8288 0.8281 0.8278
2460.000000 0.8277 0.8275 0.8273 0.8271 0.8270
2455.000000 0.8270 0.8270 0.8268 0.8268 0.8285
2450.000000 0.8302 0.8321 0.8340 0.8358 0.8377
2445.000000 0.8395 0.8414 0.8437 0.8461 0.8482
2440.000000 0.8503 0.8512 0.8521 0.8525 0.8530
2435.000000 0.8532 0.8535 0.8535 0.8536 0.8536
2430.000000 0.8536 0.8514 0.8493 0.8440 0.8388
2425.000000 0.8318 0.8251 0.8224 0.8197 0.8193
2420.000000 0.8190 0.8186 0.8183 0.8181 0.8180
2415.000000 0.8178 0.8178 0.8191 0.8205 0.8242
2410.000000 0.8278 0.8299 0.8320 0.8325 0.8331
2405.000000 0.8334 0.8337 0.8338 0.8339 0.8339
2400.000000 0.8340 0.8341 0.8342 0.8342 0.8342
2395.000000 0.8341 0.8341 0.8331 0.8321 0.8300
2390.000000 0.8278 0.8246 0.8215 0.8183 0.8151
2385.000000 0.8118 0.8086 0.8047 0.8008 0.7965
2380.000000 0.7925 0.7903 0.7881 0.7858 0.7836
2375.000000 0.7831 0.7826 0.7824 0.7805 0.7818
2370.000000 0.7815 0.7814 0.7811 0.7811 0.7811
2365.000000 0.7848 0.7885 0.7919 0.7956 0.7972
2360.000000 0.7990 0.8017 0.8045 0.8086 0.8128
2355.000000 0.8150 0.8171 0.8193 0.8215 0.8236
2350.000000 0.8258 0.8274 0.8291 0.8307 0.8323
2345.000000 0.8339 0.8355 0.8368 0.8383 0.8395
2340.000000 0.8408 0.8408 0.8408 0.8400 0.8392
2335.000000 0.8384 0.8377 0.8368 0.8361 0.8356
2330.000000 0.8351 0.8346 0.8341 0.8339 0.8337
2325.000000 0.8335 0.8334 0.8333 0.8332 0.8331
2320.000000 0.8331 0.8345 0.8359 0.8371 0.8386
2315.000000 0.8398 0.8411 0.8423 0.8435 0.8440
2310.000000 0.8446 0.8447 0.8449 0.8450 0.8451
2305.000000 0.8452 0.8453 0.8456 0.8460 0.8464
2300.000000 0.8468 0.8473 0.8478 0.8484 0.8491
2295.000000 0.8506 0.8521 0.8535 0.8550 0.8562
2290.000000 0.8575 0.8583 0.8592 0.8601 0.8610
2285.000000 0.8618 0.8627 0.8625 0.8623 0.8618
2280.000000 0.8616 0.8617 0.8618 0.8620 0.8621
2275.000000 0.8624 0.8627 0.8637 0.8648 0.8659
2270.000000 0.8671 0.8683 0.8695 0.8711 0.8727
2265.000000 0.8735 0.8744 0.8740 0.8736 0.8730
2260.000000 0.8724 0.8720 0.8718 0.8718 0.8720
2255.000000 0.8721 0.8723 0.8725 0.8728 0.8736
2250.000000 0.8744 0.8752 0.8760 0.8768 0.8775
2245.000000 0.8784 0.8793 0.8803 0.8813 0.8823
2240.000000 0.8834 0.8833 0.8833 0.8831 0.8828
2235.000000 0.8825 0.8824 0.8802 0.8780 0.8733
2230.000000 0.8687 0.8662 0.8637 0.8638 0.8639
2225.000000 0.8639 0.8640 0.8640 0.8641 0.8642
2220.000000 0.8644 0.8646 0.8648 0.8650 0.8652
2215.000000 0.8654 0.8656 0.8658 0.8660 0.8664
2210.000000 0.8668 0.8673 0.8678 0.8683 0.8688
2205.000000 0.8693 0.8699 0.8705 0.8712 0.8718
2200.000000 0.8727 0.8734 0.8742 0.8749 0.8757
2195.000000 0.8764 0.8771 0.8778 0.8787 0.8796
2190.000000 0.8806 0.8816 0.8827 0.8837 0.8848
2185.000000 0.8859 0.8870 0.8878 0.8889 0.8897
2180.000000 0.8906 0.8915 0.8924 0.8933 0.8942
2175.000000 0.8951 0.8960 0.8967 0.8975 0.8983
2170.000000 0.8991 0.8999 0.9007 0.9015 0.9023
2165.000000 0.9031 0.9039 0.9045 0.9051 0.9056
2160.000000 0.9062 0.9068 0.9074 0.9078 0.9085
2155.000000 0.9087 0.9090 0.9090 0.9090 0.9090
2150.000000 0.9088 0.9085 0.9083 0.9080 0.9078
2145.000000 0.9075 0.9073 0.9070 0.9068 0.9065
2140.000000 0.9063 0.9060 0.9058 0.9055 0.9052
2135.000000 0.9049 0.9047 0.9045 0.9044 0.9042
2130.000000 0.9041 0.9041 0.9042 0.9043 0.9044
2125.000000 0.9045 0.9046 0.9046 0.9047 0.9048
2120.000000 0.9049 0.9049 0.9050 0.9051 0.9052
2115.000000 0.9053 0.9054 0.9055 0.9057 0.9058
2110.000000 0.9059 0.9060 0.9062 0.9063 0.9064
2105.000000 0.9065 0.9067 0.9068 0.9068 0.9070
2100.000000 0.9071 0.9071 0.9071 0.9071 0.9071
2095.000000 0.9071 0.9071 0.9071 0.9071 0.9071
2090.000000 0.9071 0.9071 0.9071 0.9068 0.9068
2085.000000 0.9066 0.9064 0.9062 0.9061 0.9056
2080.000000 0.9051 0.9044 0.9038 0.9028 0.9021
2075.000000 0.9009 0.8997 0.8990 0.8984 0.8983
2070.000000 0.8983 0.8982 0.8982 0.8981 0.8980
2065.000000 0.8978 0.8978 0.8985 0.8991 0.8997
2060.000000 0.9004 0.9011 0.9018 0.9028 0.9040
2055.000000 0.9050 0.9060 0.9068 0.9078 0.9088
2050.000000 0.9098 0.9101 0.9105 0.9105 0.9106
2045.000000 0.9106 0.9107 0.9107 0.9108 0.9108
2040.000000 0.9109 0.9096 0.9083 0.9058 0.9034
2035.000000 0.9015 0.8996 0.8978 0.8963 0.8948
2030.000000 0.8933 0.8921 0.8912 0.8906 0.8900
2025.000000 0.8897 0.8894 0.8893 0.8893 0.8896
2020.000000 0.8899 0.8931 0.8963 0.8978 0.8993
2015.000000 0.9000 0.9008 0.9013 0.9018 0.9024
2010.000000 0.9028 0.9034 0.9039 0.9044 0.9049
2005.000000 0.9054 0.9059 0.9064 0.9068 0.9078
2000.000000 0.9088 0.9097 0.9105 0.9112 0.9120
1995.000000 0.9128 0.9135 0.9143 0.9150 0.9155
1990.000000 0.9161 0.9166 0.9171 0.9175 0.9175
1985.000000 0.9175 0.9173 0.9170 0.9166 0.9163
1980.000000 0.9160 0.9155 0.9149 0.9142 0.9136
1975.000000 0.9128 0.9123 0.9118 0.9114 0.9110
1970.000000 0.9107 0.9106 0.9104 0.9103 0.9103
1965.000000 0.9103 0.9104 0.9108 0.9113 0.9117
1960.000000 0.9125 0.9135 0.9145 0.9151 0.9155
1955.000000 0.9160 0.9164 0.9168 0.9175 0.9180
1950.000000 0.9184 0.9185 0.9185 0.9184 0.9183
1945.000000 0.9182 0.9181 0.9181 0.9181 0.9182
1940.000000 0.9183 0.9184 0.9185 0.9185 0.9186
1935.000000 0.9186 0.9187 0.9182 0.9177 0.9171
1930.000000 0.9166 0.9160 0.9155 0.9148 0.9142
1925.000000 0.9136 0.9130 0.9127 0.9124 0.9121
1920.000000 0.9118 0.9115 0.9112 0.9110 0.9107
1915.000000 0.9104 0.9101 0.9099 0.9097 0.9095
1910.000000 0.9093 0.9091 0.9088 0.9085 0.9082
1905.000000 0.9078 0.9075 0.9071 0.9067 0.9062
1900.000000 0.9057 0.9052 0.9045 0.9030 0.9016
1895.000000 0.8997 0.8977 0.8962 0.8952 0.8941
1890.000000 0.8931 0.8921 0.8913 0.8909 0.8904
1885.000000 0.8900 0.8899 0.8898 0.8898 0.8897
1880.000000 0.8897 0.8896 0.8896 0.8895 0.8894
1875.000000 0.8893 0.8892 0.8892 0.8891 0.8890
1870.000000 0.8889 0.8889 0.8889 0.8890 0.8890
1865.000000 0.8890 0.8891 0.8891 0.8891 0.8892
1860.000000 0.8892 0.8893 0.8895 0.8896 0.8897
1855.000000 0.8898 0.8899 0.8900 0.8902 0.8903
1850.000000 0.8904 0.8905 0.8907 0.8909 0.8912
1845.000000 0.8914 0.8917 0.8920 0.8924 0.8927
1840.000000 0.8931 0.8934 0.8944 0.8955 0.8966
1835.000000 0.8977 0.8989 0.9001 0.9012 0.9014
1830.000000 0.9016 0.9018 0.9020 0.9021 0.9024
1825.000000 0.9025 0.9028 0.9031 0.9033 0.9028
1820.000000 0.9024 0.9018 0.9013 0.9008 0.9006
1815.000000 0.9005 0.9005 0.9005 0.9005 0.9005
1810.000000 0.9005 0.9005 0.9006 0.9006 0.9008
1805.000000 0.9008 0.9009 0.9011 0.9013 0.9015
1800.000000 0.9017 0.9018 0.9021 0.9025 0.9030
1795.000000 0.9035 0.9035 0.9034 0.9031 0.9028
1790.000000 0.9025 0.9018 0.9011 0.9004 0.8997
1785.000000 0.8989 0.8981 0.8970 0.8960 0.8949
1780.000000 0.8944 0.8941 0.8938 0.8935 0.8931
1775.000000 0.8941 0.8924 0.8920 0.8917 0.8913
1770.000000 0.8910 0.8906 0.8903 0.8900 0.8897
1765.000000 0.8895 0.8892 0.8889 0.8886 0.8884
1760.000000 0.8882 0.8881 0.8880 0.8878 0.8878
1755.000000 0.8877 0.8877 0.8857 0.8827 0.8797
1750.000000 0.8764 0.8731 0.8698 0.8665 0.8636
1745.000000 0.8606 0.8577 0.8548 0.8516 0.8485
1740.000000 0.8453 0.8421 0.8393 0.8371 0.8364
1735.000000 0.8363 0.8363 0.8363 0.8362 0.8367
1730.000000 0.8380 0.8393 0.8405 0.8417 0.8428
1725.000000 0.8439 0.8447 0.8454 0.8457 0.8458
1720.000000 0.8458 0.8458 0.8458 0.8458 0.8453
1715.000000 0.8447 0.8441 0.8428 0.8411 0.8394
1710.000000 0.8378 0.8363 0.8349 0.8334 0.8320
1705.000000 0.8306 0.8292 0.8278 0.8264 0.8250
1700.000000 0.8236 0.8224 0.8213 0.8202 0.8190
1695.000000 0.8178 0.8168 0.8157 0.8146 0.8135
1690.000000 0.8122 0.8111 0.8101 0.8089 0.8078
1685.000000 0.8067 0.8055 0.8044 0.8035 0.8025
1680.000000 0.8018 0.8008 0.8001 0.7992 0.7984
1675.000000 0.7975 0.7967 0.7958 0.7950 0.7942
1670.000000 0.7935 0.7928 0.7921 0.7915 0.7910
1665.000000 0.7903 0.7897 0.7891 0.7883 0.7875
1660.000000 0.7869 0.7865 0.7862 0.7860 0.7857
1655.000000 0.7855 0.7853 0.7851 0.7850 0.7848
1650.000000 0.7847 0.7846 0.7844 0.7843 0.7842
1645.000000 0.7842 0.7842 0.7841 0.7841 0.7840
1640.000000 0.7844 0.7869 0.7897 0.7924 0.7950
1635.000000 0.7975 0.8001 0.8025 0.8051 0.8075
1630.000000 0.8099 0.8118 0.8137 0.8156 0.8174
1625.000000 0.8188 0.8200 0.8212 0.8224 0.8231
1620.000000 0.8237 0.8243 0.8249 0.8254 0.8259
1615.000000 0.8264 0.8268 0.8268 0.8270 0.8271
1610.000000 0.8271 0.8271 0.8273 0.8274 0.8278
1605.000000 0.8282 0.8287 0.8291 0.8296 0.8303
1600.000000 0.8311 0.8318 0.8325 0.8332 0.8342
1595.000000 0.8351 0.8361 0.8370 0.8377 0.8378
1590.000000 0.8380 0.8382 0.8384 0.8385 0.8385
1585.000000 0.8383 0.8382 0.8381 0.8375 0.8368
1580.000000 0.8362 0.8355 0.8344 0.8334 0.8323
1575.000000 0.8312 0.8302 0.8291 0.8277 0.8263
1570.000000 0.8248 0.8234 0.8220 0.8206 0.8190
1565.000000 0.8168 0.8149 0.8128 0.8107 0.8086
1560.000000 0.8065 0.8038 0.8008 0.7981 0.7953
1555.000000 0.7924 0.7896 0.7867 0.7838 0.7808
1550.000000 0.7778 0.7749 0.7719 0.7684 0.7649
1545.000000 0.7614 0.7567 0.7518 0.7468 0.7415
1540.000000 0.7361 0.7298 0.7196 0.7090 0.6893
1535.000000 0.6788 0.6690 0.6536 0.6020 0.5647
1530.000000 0.5274 0.4919 0.4946 0.4905 0.4921
1525.000000 0.4942 0.4965 0.4987 0.5010 0.5034
1520.000000 0.5057 0.5077 0.5095 0.5106 0.5110
1515.000000 0.5114 0.5116 0.5145 0.5105 0.5064
1510.000000 0.5012 0.4958 0.4877 0.4758 0.4552
1505.000000 0.4338 0.4102 0.3897 0.3704 0.3509
1500.000000 0.3312 0.3124 0.2952 0.2837 0.2705
1495.000000 0.2528 0.2351 0.2174 0.1996 0.1820
1490.000000 0.1643 0.1466 0.1289 0.1112 0.0935
1485.000000 0.0758 0.0581 0.0480 0.0452 0.0425
1480.000000 0.0371 0.0292 0.0177 0.0156 0.0149
1475.000000 0.0141 0.0133 0.0125 0.0118 0.0110
1470.000000 0.0103 0.0100 0.0098 0.0095 0.0093
1465.000000 0.0090 0.0087 0.0085 0.0085 0.0085
1460.000000 0.0077 0.0077 0.0077 0.0076 0.0076
1455.000000 0.0075 0.0075 0.0075 0.0076 0.0080
1450.000000 0.0084 0.0101 0.0118 0.0134 0.0169
1445.000000 0.0203 0.0242 0.0284 0.0325 0.0367
1440.000000 0.0453 0.0539 0.0620 0.0695 0.0771
1435.000000 0.0875 0.1028 0.1120 0.1229 0.1395
1430.000000 0.1558 0.1721 0.1884 0.2046 0.2209
1425.000000 0.2372 0.2534 0.2698 0.2861 0.3023
1420.000000 0.3185 0.3289 0.3339 0.3364 0.3372
1415.000000 0.3379 0.3380 0.3384 0.3370 0.3358
1410.000000 0.3327 0.3295 0.3244 0.3185 0.3128
1405.000000 0.3042 0.2871 0.2688 0.2533 0.2420
1400.000000 0.2124 0.1829 0.1536 0.1242 0.0947
1395.000000 0.0654 0.0368 0.0286 0.0237 0.0205
1390.000000 0.0172 0.0156 0.0140 0.0125 0.0118
1385.000000 0.0111 0.0104 0.0098 0.0092 0.0087
1380.000000 0.0084 0.0081 0.0079 0.0076 0.0075
1375.000000 0.0071 0.0072 0.0072 0.0073 0.0073
1370.000000 0.0073 0.0072 0.0072 0.0071 0.0081
1365.000000 0.0112 0.0177 0.0250 0.0374 0.0704
1360.000000 0.1082 0.1459 0.1836 0.2214 0.2591
1355.000000 0.2969 0.3278 0.3355 0.3488 0.3632
1350.000000 0.3766 0.3978 0.4174 0.4370 0.4566
1345.000000 0.4762 0.4958 0.5154 0.5350 0.5546
1340.000000 0.5742 0.5938 0.6049 0.6101 0.6154
1335.000000 0.6214 0.6278 0.6360 0.6447 0.6515
1330.000000 0.6590 0.6608 0.6621 0.6628 0.6632
1325.000000 0.6632 0.6633 0.6630 0.6625 0.6608
1320.000000 0.6578 0.6525 0.6401 0.6057 0.5848
1315.000000 0.5645 0.5442 0.5239 0.5036 0.4833
1310.000000 0.4630 0.4474 0.4399 0.4312 0.4242
1305.000000 0.4208 0.4191 0.4170 0.4170 0.4170
1300.000000 0.4170 0.4196 0.4241 0.4293 0.4423
1295.000000 0.4578 0.4734 0.4890 0.5045 0.5090
1290.000000 0.5099 0.5099 0.5098 0.4912 0.4575
1285.000000 0.4237 0.3900 0.3562 0.3400 0.3384
1280.000000 0.3454 0.3756 0.4057 0.4359 0.4660
1275.000000 0.4962 0.5264 0.5474 0.5626 0.6103
1270.000000 0.6312 0.6493 0.6591 0.6689 0.6855
1265.000000 0.7062 0.7128 0.7193 0.7258 0.7325
1260.000000 0.7391 0.7437 0.7478 0.7518 0.7558
1255.000000 0.7595 0.7618 0.7640 0.7662 0.7688
1250.000000 0.7712 0.7738 0.7762 0.7790 0.7817
1245.000000 0.7843 0.7869 0.7896 0.7918 0.7941
1240.000000 0.7962 0.7985 0.8007 0.8028 0.8046
1235.000000 0.8065 0.8084 0.8103 0.8119 0.8133
1230.000000 0.8146 0.8158 0.8171 0.8185 0.8195
1225.000000 0.8202 0.8209 0.8216 0.8223 0.8228
1220.000000 0.8231 0.8233 0.8235 0.8237 0.8239
1215.000000 0.8241 0.8243 0.8245 0.8247 0.8275
1210.000000 0.8252 0.8254 0.8256 0.8258 0.8258
1205.000000 0.8256 0.8249 0.8234 0.8201 0.8158
1200.000000 0.8114 0.7991 0.7945 0.7908 0.7882
1195.000000 0.7874 0.7865 0.7858 0.7860 0.7861
1190.000000 0.7865 0.7872 0.7880 0.7887 0.7892
1185.000000 0.7895 0.7898 0.7901 0.7880 0.7855
1180.000000 0.7819 0.7778 0.7736 0.7693 0.7647
1175.000000 0.7601 0.7556 0.7511 0.7444 0.7367
1170.000000 0.7291 0.7214 0.7046 0.6861 0.6538
1165.000000 0.6210 0.5930 0.5612 0.5432 0.5299
1160.000000 0.5043 0.4277 0.3749 0.3222 0.2695
1155.000000 0.2168 0.1715 0.1692 0.1703 0.1807
1150.000000 0.1994 0.2182 0.2369 0.2557 0.2744
1145.000000 0.2931 0.3119 0.3306 0.3439 0.3404
1140.000000 0.3412 0.3390 0.3162 0.2816 0.2469
1135.000000 0.2123 0.1776 0.1430 0.1083 0.0737
1130.000000 0.0423 0.0310 0.0273 0.0260 0.0253
1125.000000 0.0253 0.0275 0.0323 0.0430 0.0563
1120.000000 0.1166 0.1712 0.2257 0.2803 0.3349
1115.000000 0.3895 0.4487 0.4862 0.5236 0.5610
1110.000000 0.5986 0.6329 0.6486 0.6645 0.6818
1105.000000 0.6962 0.7076 0.7187 0.7261 0.7337
1100.000000 0.7411 0.7476 0.7536 0.7596 0.7655
1095.000000 0.7733 0.7807 0.7851 0.7896 0.7940
1090.000000 0.7982 0.8001 0.8012 0.8018 0.8036
1085.000000 0.8024 0.8022 0.8018 0.8012 0.7978
1080.000000 0.7919 0.7849 0.7757 0.7650 0.7560
1075.000000 0.7478 0.7398 0.7154 0.6901 0.6703
1070.000000 0.6456 0.5953 0.5451 0.4948 0.4540
1065.000000 0.4536 0.4879 0.5247 0.5616 0.5984
1060.000000 0.6353 0.6501 0.6631 0.6714 0.6768
1055.000000 0.6806 0.6821 0.6831 0.6860 0.6836
1050.000000 0.6819 0.6758 0.6680 0.6153 0.5490
1045.000000 0.4828 0.4165 0.3503 0.2841 0.2178
1040.000000 0.1516 0.0987 0.0970 0.0975 0.0988
1035.000000 0.1102 0.1513 0.1925 0.2335 0.2747
1030.000000 0.3159 0.3570 0.3982 0.4393 0.4804
1025.000000 0.5216 0.5627 0.6038 0.6450 0.6895
1020.000000 0.7203 0.7358 0.7434 0.7478 0.7521
1015.000000 0.7551 0.7583 0.7608 0.7628 0.7649
1010.000000 0.7662 0.7669 0.7669 0.7669 0.7658
1005.000000 0.7618 0.7505 0.7328 0.7101 0.6857
1000.000000 0.6640 0.6417 0.5940 0.5462 0.4986
995.000000 0.4509 0.4032 0.3555 0.3078 0.2601
990.000000 0.2381 0.2375 0.2394 0.2948 0.3558
985.000000 0.4168 0.4779 0.5389 0.5999 0.6540
980.000000 0.6922 0.7130 0.7276 0.7408 0.7506
975.000000 0.7597 0.7668 0.7725 0.7762 0.7800
970.000000 0.7831 0.7853 0.7869 0.7883 0.7894
965.000000 0.7896 0.7897 0.7897 0.7891 0.7861
960.000000 0.7821 0.7775 0.7719 0.7665 0.7618
955.000000 0.7585 0.7575 0.7576 0.7578 0.7641
950.000000 0.7690 0.7746 0.7808 0.7856 0.7897
945.000000 0.7935 0.7961 0.7978 0.7990 0.8001
940.000000 0.8030 0.8011 0.8006 0.8001 0.7996
935.000000 0.7975 0.7953 0.7911 0.7864 0.7786
930.000000 0.7694 0.7587 0.7493 0.7349 0.7060
925.000000 0.6769 0.6481 0.6191 0.5902 0.5683
920.000000 0.5680 0.5668 0.5671 0.5683 0.5739
915.000000 0.5830 0.5925 0.5986 0.6045 0.6244
910.000000 0.6538 0.6831 0.7125 0.7397 0.7539
905.000000 0.7689 0.7835 0.7965 0.8074 0.8168
900.000000 0.8235 0.8296 0.8351 0.8396 0.8434
895.000000 0.8468 0.8496 0.8518 0.8528 0.8537
890.000000 0.8545 0.8550 0.8565 0.8557 0.8557
885.000000 0.8555 0.8554 0.8552 0.8541 0.8528
880.000000 0.8501 0.8437 0.8342 0.8225 0.8087
875.000000 0.7650 0.6855 0.6059 0.5264 0.4469
870.000000 0.4342 0.4344 0.4349 0.4717 0.5239
865.000000 0.5760 0.6281 0.6803 0.7324 0.7778
860.000000 0.8022 0.8208 0.8318 0.8413 0.8509
855.000000 0.8577 0.8642 0.8706 0.8754 0.8788
850.000000 0.8821 0.8854 0.8884 0.8904 0.8925
845.000000 0.8945 0.8965 0.8986 0.9006 0.9023
840.000000 0.9035 0.9047 0.9059 0.9071 0.9084
835.000000 0.9096 0.9108 0.9120 0.9132 0.9142
830.000000 0.9151 0.9160 0.9168 0.9178 0.9187
825.000000 0.9194 0.9199 0.9205 0.9210 0.9215
820.000000 0.9220 0.9225 0.9230 0.9236 0.9241
815.000000 0.9246 0.9250 0.9253 0.9256 0.9259
810.000000 0.9262 0.9265 0.9268 0.9271 0.9274
805.000000 0.9277 0.9280 0.9283 0.9285 0.9287
800.000000 0.9288 0.9290 0.9291 0.9293 0.9294
795.000000 0.9296 0.9297 0.9299 0.9300 0.9302
790.000000 0.9303 0.9305 0.9315 0.9309 0.9311
785.000000 0.9314 0.9316 0.9318 0.9321 0.9323
780.000000 0.9325 0.9325 0.9325 0.9325 0.9325
775.000000 0.9325 0.9325 0.9325 0.9325 0.9325
770.000000 0.9325 0.9325 0.9324 0.9324 0.9323
765.000000 0.9320 0.9317 0.9314 0.9311 0.9308
760.000000 0.9305 0.9302 0.9299 0.9296 0.9293
755.000000 0.9290 0.9284 0.9278 0.9271 0.9265
750.000000 0.9259 0.9253 0.9247 0.9238 0.9230
745.000000 0.9221 0.9213 0.9204 0.9187 0.9164
740.000000 0.9141 0.9118 0.9082 0.9043 0.9002
735.000000 0.8949 0.8878 0.8775 0.8715 0.8436
730.000000 0.8136 0.7837 0.7537 0.7446 0.7431
725.000000 0.7434 0.7642 0.7883 0.8122 0.8364
720.000000 0.8602 0.8677 0.8751 0.8825 0.8895
715.000000 0.8961 0.9010 0.9038 0.9065 0.9093
710.000000 0.9113 0.9125 0.9140 0.9153 0.9166
705.000000 0.9178 0.9192 0.9201 0.9208 0.9215
700.000000 0.9221 0.9228 0.9236 0.9242 0.9248
695.000000 0.9253 0.9259 0.9264 0.9270 0.9275
690.000000 0.9281 0.9286 0.9291 0.9293 0.9294
685.000000 0.9296 0.9297 0.9298 0.9300 0.9301
680.000000 0.9301 0.9301 0.9300 0.9299 0.9297
675.000000 0.9296 0.9294 0.9293 0.9318 0.9290
670.000000 0.9288 0.9286 0.9284 0.9282 0.9280
665.000000 0.9278 0.9274 0.9270 0.9267 0.9263
660.000000 0.9259 0.9255 0.9251 0.9248 0.9245
655.000000 0.9241 0.9238 0.9235 0.9232 0.9228
650.000000 0.9225 0.9223 0.9221 0.9218 0.9217
645.000000 0.9215 0.9212 0.9210 0.9208 0.9206
640.000000 0.9204 0.9202 0.9200 0.9198 0.9196
635.000000 0.9194 0.9192 0.9191 0.9189 0.9187
630.000000 0.9185 0.9183 0.9181 0.9178 0.9177
625.000000 0.9175 0.9173 0.9171 0.9168 0.9167
620.000000 0.9166 0.9164 0.9162 0.9160 0.9158
615.000000 0.9156 0.9154 0.9152 0.9150 0.9148
610.000000 0.9146 0.9144 0.9143 0.9141 0.9139
605.000000 0.9138 0.9136 0.9134 0.9133 0.9131
600.000000 0.9130 0.9128 0.9127 0.9125 0.9125
595.000000 0.9124 0.9121 0.9117 0.9113 0.9109
590.000000 0.9105 0.9101 0.9097 0.9091 0.9085
585.000000 0.9080 0.9074 0.9068 0.9064 0.9063
580.000000 0.9063 0.9063 0.9062 0.9062 0.9062
575.000000 0.9062 0.9063 0.9064 0.9065 0.9065
570.000000 0.9064 0.9063 0.9061 0.9058 0.9050
565.000000 0.9036 0.9023 0.9005 0.8975 0.8947
560.000000 0.8918 0.8886 0.8854 0.8821 0.8789
555.000000 0.8749 0.8705 0.8641 0.8574 0.8490
550.000000 0.8405 0.8160 0.7893 0.7625 0.7357
545.000000 0.7090 0.6821 0.6555 0.6287 0.6020
540.000000 0.5979 0.5982 0.6000 0.6320 0.6786
535.000000 0.7251 0.7715 0.7896 0.8028 0.8150
530.000000 0.8255 0.8348 0.8410 0.8468 0.8523
525.000000 0.8564 0.8585 0.8598 0.8604 0.8609
520.000000 0.8615 0.8618 0.8621 0.8625 0.8628
515.000000 0.8633 0.8636 0.8640 0.8643 0.8646
510.000000 0.8649 0.8652 0.8655 0.8657 0.8673
505.000000 0.8663 0.8666 0.8668 0.8668 0.8670
500.000000 0.8668 0.8668 0.8667 0.8666 0.8665
495.000000 0.8661 0.8657 0.8653 0.8649 0.8645
490.000000 0.8637 0.8628 0.8620 0.8611 0.8590
485.000000 0.8554 0.8518 0.8455 0.8384 0.8301
480.000000 0.8195 0.8148 0.8103 0.8075 0.8050
475.000000 0.8024 0.7994 0.7981 0.7978 0.7978
470.000000 0.7976 0.7975 0.7975 0.7975 0.7975
465.000000 0.7974 0.7974 0.7972 0.7972 0.7971
460.000000 0.7971 0.7971 0.7971 0.7971 0.7971
455.000000 0.7971 0.7971 0.7971 0.7971 0.7971
450.000000 0.7971 0.7971 0.7969 0.7968 0.7967
445.000000 0.7965 0.7965 0.7964 0.7962 0.7961
440.000000 0.7961 0.7960 0.7958 0.7958 0.7958
435.000000 0.7958 0.7957 0.7957 0.7957 0.7956
430.000000 0.7956
##END=
