##TITLE=ACETIC ACID, METHYL ESTER
##JCAMP-DX=4.24
##DATA TYPE=INFRARED SPECTRUM
##CLASS=COBLENTZ
##ORIGIN=DOW CHEMICAL COMPANY
##OWNER=COBLENTZ SOCIETY
Collection (C) 2018 copyright by the U.S. Secretary of Commerce
on behalf of the United States of America. All rights reserved.
##DATE=1979/03/30
##NAMES=METHYL ACETATE
##CAS REGISTRY NO=79-20-9
##MOLFORM=C3 H6 O2
##SOURCE REFERENCE=COBLENTZ NO. 10504
##$NIST SOURCE=COBLENTZ
##$NIST IMAGE=cob-r10504
##SPECTROMETER/DATA SYSTEM=BECKMAN IR-9 (GRATING)
##INSTRUMENT PARAMETERS=ORDER CHANGES: 670, 1200, 2000 CM^-^1
$$ ABSORPTION DUE TO AN UNKNOWN AT 1183 CM^-^1.
##STATE=GAS (6.2 mmHg, N2 ADDED, TOTAL PRESSURE 600 mmHg)
##PATH LENGTH=10 CM
##SAMPLING PROCEDURE=TRANSMISSION
##RESOLUTION=2
##DATA PROCESSING=DIGITIZED BY NIST FROM HARD COPY (FROM TWO SEGMENTS)
##XUNITS=1/CM
##YUNITS=TRANSMITTANCE
##XFACTOR=1.000000
##YFACTOR=1
##DELTAX=1.394947
##FIRSTX=207.498
##LASTX=3985.02
##FIRSTY=0
##MAXX=3985.02
##MINX=207.498
##MAXY=0.943
##MINY=0
##NPOINTS=2709
##XYDATA=(X++(Y..Y))
207.498000 0.0000 0.0000 0.0000 0.0000 0.0000
214.472736 0.0000 0.0000 0.0000 0.0000 0.0000
221.447472 0.0000 0.0000 0.0000 0.0000 0.0000
228.422208 0.0000 0.0000 0.0000 0.0000 0.0000
235.396944 0.0000 0.0000 0.0000 0.0000 0.0000
242.371680 0.0000 0.0000 0.0000 0.0000 0.0000
249.346416 0.0000 0.0000 0.0010 0.0010 0.0010
256.321152 0.0010 0.0010 0.0010 0.0010 0.0010
263.295888 0.0050 0.0050 0.0050 0.0050 0.0050
270.270624 0.0050 0.0030 0.0010 0.0030 0.0050
277.245360 0.0050 0.0070 0.0090 0.0110 0.0110
284.220096 0.0130 0.0130 0.0130 0.0110 0.0070
291.194832 0.0030 0.0010 0.0010 0.0010 0.0010
298.169568 0.0010 0.0030 0.0050 0.0070 0.0090
305.144304 0.0110 0.0130 0.0140 0.0140 0.0160
312.119040 0.0180 0.0200 0.0220 0.0240 0.0260
319.093776 0.0280 0.0290 0.0330 0.0350 0.0370
326.068512 0.0390 0.0430 0.0460 0.0480 0.0500
333.043248 0.0540 0.0590 0.0650 0.0710 0.0780
340.017984 0.0820 0.0890 0.1009 0.1040 0.1139
346.992720 0.1190 0.1270 0.1340 0.1490 0.1610
353.967456 0.1660 0.1720 0.1829 0.1939 0.2019
360.942192 0.2110 0.2240 0.2340 0.2490 0.2540
367.916928 0.2650 0.2750 0.2859 0.3009 0.3080
374.891664 0.3160 0.3230 0.3330 0.3420 0.3530
381.866400 0.3610 0.3739 0.3830 0.3910 0.4019
388.841136 0.4100 0.4190 0.4300 0.4410 0.4510
395.815872 0.4560 0.4580 0.4699 0.4809 0.4899
402.790608 0.4960 0.5010 0.5110 0.5200 0.5290
409.765344 0.5410 0.5500 0.5590 0.5689 0.5740
416.740080 0.5800 0.5860 0.5930 0.5990 0.6010
423.714816 0.6020 0.6080 0.6140 0.6210 0.6290
430.689552 0.6320 0.6400 0.6470 0.6490 0.6550
437.664288 0.6610 0.6660 0.6740 0.6790 0.6869
444.639024 0.6910 0.7000 0.7040 0.7150 0.7190
451.613760 0.7320 0.7469 0.7490 0.7560 0.7600
458.588496 0.7650 0.7690 0.7750 0.7800 0.7840
465.563232 0.7880 0.7940 0.7970 0.7990 0.8010
472.537968 0.8070 0.8080 0.8100 0.8120 0.8140
479.512703 0.8160 0.8200 0.8230 0.8250 0.8290
486.487439 0.8290 0.8310 0.8330 0.8350 0.8370
493.462175 0.8370 0.8400 0.8519 0.8520 0.8401
500.436911 0.8330 0.8310 0.8310 0.8330 0.8350
507.411647 0.8350 0.8370 0.8400 0.8480 0.8500
514.386383 0.8520 0.8530 0.8570 0.8590 0.8610
521.361119 0.8650 0.8650 0.8670 0.8670 0.8650
528.335855 0.8630 0.8630 0.8610 0.8590 0.8570
535.310591 0.8550 0.8530 0.8520 0.8520 0.8530
542.285327 0.8530 0.8570 0.8590 0.8610 0.8630
549.260063 0.8650 0.8670 0.8700 0.8720 0.8740
556.234799 0.8760 0.8760 0.8760 0.8760 0.8760
563.209535 0.8740 0.8720 0.8700 0.8680 0.8670
570.184271 0.8630 0.8630 0.8610 0.8590 0.8590
577.159007 0.8590 0.8570 0.8530 0.8520 0.8520
584.133743 0.8530 0.8530 0.8530 0.8520 0.8520
591.108479 0.8520 0.8520 0.8500 0.8500 0.8480
598.083215 0.8480 0.8480 0.8400 0.8370 0.8350
605.057951 0.8310 0.8290 0.8250 0.8230 0.8230
612.032687 0.8230 0.8230 0.8250 0.8270 0.8270
619.007423 0.8270 0.8230 0.8220 0.8200 0.8160
625.982159 0.8120 0.8080 0.8070 0.8030 0.8030
632.956895 0.8010 0.8010 0.8010 0.8010 0.8010
639.931631 0.8030 0.8070 0.8070 0.8080 0.8120
646.906367 0.8120 0.8160 0.8180 0.8220 0.8329
653.881103 0.8460 0.8520 0.8610 0.8700 0.8740
660.855839 0.8800 0.8850 0.8870 0.8890 0.8930
667.830575 0.9020 0.9100 0.8980 0.8980 0.8980
674.805311 0.9020 0.9020 0.9040 0.9040 0.9080
681.780047 0.9080 0.9100 0.9110 0.9110 0.9110
688.754783 0.9110 0.9110 0.9130 0.9150 0.9170
695.729519 0.9170 0.9170 0.9170 0.9190 0.9190
702.704255 0.9190 0.9190 0.9190 0.9210 0.9190
709.678991 0.9190 0.9190 0.9190 0.9210 0.9210
716.653727 0.9230 0.9230 0.9250 0.9250 0.9260
723.628463 0.9260 0.9260 0.9260 0.9260 0.9250
730.603199 0.9250 0.9230 0.9230 0.9230 0.9230
737.577935 0.9230 0.9230 0.9230 0.9250 0.9250
744.552671 0.9250 0.9250 0.9250 0.9250 0.9250
751.527407 0.9250 0.9250 0.9260 0.9260 0.9260
758.502143 0.9260 0.9260 0.9260 0.9280 0.9280
765.476879 0.9280 0.9260 0.9260 0.9260 0.9260
772.451615 0.9260 0.9280 0.9280 0.9280 0.9280
779.426351 0.9280 0.9280 0.9280 0.9280 0.9280
786.401087 0.9280 0.9280 0.9280 0.9280 0.9280
793.375823 0.9280 0.9260 0.9260 0.9250 0.9250
800.350559 0.9250 0.9230 0.9210 0.9210 0.9190
807.325295 0.9170 0.9150 0.9130 0.9100 0.9060
814.300031 0.9040 0.9000 0.9000 0.8970 0.8910
821.274767 0.8830 0.8760 0.8700 0.8610 0.8520
828.249503 0.8400 0.8290 0.8141 0.8011 0.7901
835.224239 0.7790 0.7710 0.7670 0.7670 0.7690
842.198975 0.7730 0.7800 0.7840 0.7880 0.7880
849.173711 0.7840 0.7690 0.7450 0.7430 0.7430
856.148447 0.7490 0.7540 0.7689 0.7879 0.8069
863.123183 0.8220 0.8350 0.8520 0.8610 0.8680
870.097919 0.8800 0.8850 0.8910 0.9000 0.9000
877.072655 0.9020 0.9040 0.9100 0.9110 0.9130
884.047391 0.9130 0.9150 0.9150 0.9150 0.9170
891.022127 0.9190 0.9190 0.9210 0.9210 0.9210
897.996863 0.9210 0.9210 0.9210 0.9210 0.9210
904.971599 0.9230 0.9250 0.9260 0.9280 0.9280
911.946335 0.9280 0.9260 0.9260 0.9250 0.9250
918.921071 0.9250 0.9250 0.9250 0.9230 0.9230
925.895807 0.9230 0.9230 0.9230 0.9250 0.9250
932.870543 0.9250 0.9250 0.9250 0.9260 0.9260
939.845279 0.9260 0.9260 0.9260 0.9260 0.9250
946.820015 0.9250 0.9230 0.9230 0.9230 0.9230
953.794751 0.9210 0.9190 0.9170 0.9170 0.9170
960.769487 0.9150 0.9130 0.9110 0.9100 0.9080
967.744223 0.9020 0.9020 0.9000 0.9000 0.9000
974.718959 0.9000 0.9000 0.9000 0.9000 0.9000
981.693695 0.9000 0.8980 0.8970 0.8950 0.8890
988.668431 0.8890 0.8870 0.8870 0.8890 0.8890
995.643167 0.8910 0.8930 0.8930 0.8910 0.8890
1002.617903 0.8890 0.8870 0.8850 0.8820 0.8800
1009.592639 0.8760 0.8720 0.8680 0.8630 0.8590
1016.567375 0.8530 0.8480 0.8380 0.8330 0.8230
1023.542110 0.8120 0.8050 0.7970 0.7841 0.7711
1030.516846 0.7580 0.7430 0.7220 0.7050 0.6980
1037.491582 0.6850 0.6720 0.6531 0.6361 0.6161
1044.466318 0.6040 0.5840 0.5630 0.5500 0.5200
1051.441054 0.5180 0.5200 0.5260 0.5370 0.5370
1058.415790 0.5220 0.5090 0.5090 0.5200 0.5390
1065.390526 0.5410 0.5440 0.5540 0.5669 0.5819
1072.365262 0.6040 0.6250 0.6490 0.6770 0.6980
1079.339998 0.7170 0.7260 0.7409 0.7559 0.7689
1086.314734 0.7880 0.7990 0.8080 0.8140 0.8200
1093.289470 0.8230 0.8290 0.8350 0.8380 0.8480
1100.264206 0.8500 0.8530 0.8530 0.8570 0.8590
1107.238942 0.8630 0.8650 0.8680 0.8700 0.8720
1114.213678 0.8760 0.8780 0.8780 0.8800 0.8800
1121.188414 0.8800 0.8800 0.8800 0.8800 0.8800
1128.163150 0.8800 0.8780 0.8780 0.8780 0.8780
1135.137886 0.8760 0.8740 0.8720 0.8700 0.8700
1142.112622 0.8680 0.8680 0.8680 0.8680 0.8650
1149.087358 0.8590 0.8590 0.8610 0.8650 0.8700
1156.062094 0.8760 0.8780 0.8820 0.8820 0.8820
1163.036830 0.8820 0.8830 0.8830 0.8820 0.8820
1170.011566 0.8820 0.8820 0.8820 0.8800 0.8780
1176.986302 0.8760 0.8700 0.8590 0.8381 0.8380
1183.961038 0.8480 0.8630 0.8700 0.8720 0.8720
1190.935774 0.8700 0.8680 0.8670 0.8650 0.8650
1197.910510 0.8590 0.8530 0.8500 0.8400 0.8370
1204.885246 0.8310 0.8220 0.8160 0.8100 0.8010
1211.859982 0.7860 0.7770 0.7640 0.7500 0.7350
1218.834718 0.7190 0.6921 0.6661 0.6361 0.6042
1225.809454 0.5609 0.4900 0.4510 0.3970 0.3461
1232.784190 0.2821 0.2471 0.2131 0.1792 0.1462
1239.758926 0.1309 0.1010 0.0800 0.0800 0.0840
1246.733662 0.0860 0.0860 0.0780 0.0690 0.0561
1253.708398 0.0691 0.0950 0.0970 0.0740 0.0710
1260.683134 0.0730 0.0890 0.0910 0.1040 0.1359
1267.657870 0.1941 0.2601 0.3701 0.4790 0.5000
1274.632606 0.5180 0.5559 0.5969 0.6209 0.6230
1281.607342 0.6250 0.6340 0.6550 0.6640 0.6680
1288.582078 0.6700 0.6760 0.6850 0.7069 0.7199
1295.556814 0.7470 0.7690 0.7920 0.8010 0.8100
1302.531550 0.8250 0.8459 0.8530 0.8590 0.8630
1309.506286 0.8650 0.8680 0.8720 0.8740 0.8760
1316.481022 0.8800 0.8820 0.8830 0.8850 0.8870
1323.455758 0.8890 0.8890 0.8870 0.8870 0.8870
1330.430494 0.8850 0.8830 0.8830 0.8830 0.8820
1337.405230 0.8800 0.8780 0.8740 0.8720 0.8720
1344.379966 0.8700 0.8670 0.8650 0.8610 0.8550
1351.354702 0.8500 0.8400 0.8290 0.8180 0.8010
1358.329438 0.7860 0.7710 0.7411 0.7201 0.6852
1365.304174 0.6620 0.6420 0.6210 0.6120 0.6100
1372.278910 0.6060 0.5970 0.5860 0.5691 0.5501
1379.253646 0.5800 0.5800 0.5780 0.5650 0.5520
1386.228382 0.5310 0.5290 0.5310 0.5499 0.5858
1393.203118 0.6511 0.6770 0.7110 0.7410 0.7640
1400.177854 0.7840 0.8030 0.8140 0.8250 0.8290
1407.152590 0.8330 0.8370 0.8400 0.8500 0.8500
1414.127326 0.8520 0.8520 0.8500 0.8500 0.8480
1421.102062 0.8370 0.8270 0.8200 0.8180 0.8140
1428.076798 0.8030 0.7940 0.7731 0.7561 0.7411
1435.051534 0.7220 0.7170 0.7110 0.7020 0.6830
1442.026270 0.6610 0.6530 0.6530 0.6809 0.6920
1449.001006 0.6919 0.6619 0.6250 0.5990 0.5990
1455.975742 0.6210 0.6490 0.6769 0.6920 0.7069
1462.950478 0.7370 0.7520 0.7640 0.7730 0.7790
1469.925214 0.7820 0.7880 0.7900 0.7840 0.7800
1476.899950 0.7800 0.7840 0.7880 0.7920 0.7990
1483.874686 0.8010 0.8050 0.8100 0.8140 0.8160
1490.849422 0.8180 0.8200 0.8220 0.8310 0.8350
1497.824158 0.8370 0.8370 0.8420 0.8530 0.8610
1504.798894 0.8610 0.8530 0.8520 0.8530 0.8590
1511.773630 0.8650 0.8680 0.8720 0.8720 0.8700
1518.748366 0.8700 0.8680 0.8670 0.8670 0.8670
1525.723102 0.8700 0.8720 0.8740 0.8740 0.8780
1532.697838 0.8800 0.8820 0.8830 0.8830 0.8820
1539.672574 0.8800 0.8720 0.8720 0.8740 0.8760
1546.647310 0.8780 0.8800 0.8830 0.8870 0.8870
1553.622046 0.8870 0.8850 0.8830 0.8820 0.8780
1560.596781 0.8680 0.8700 0.8800 0.8850 0.8870
1567.571517 0.8870 0.8870 0.8890 0.8890 0.8910
1574.546253 0.8930 0.8910 0.8850 0.8850 0.8910
1581.520989 0.8950 0.9000 0.9000 0.9000 0.9000
1588.495725 0.9000 0.9020 0.9020 0.9000 0.9000
1595.470461 0.9000 0.8980 0.9000 0.9000 0.8980
1602.445197 0.8980 0.8980 0.8980 0.8980 0.8930
1609.419933 0.8930 0.8910 0.8910 0.8890 0.8890
1616.394669 0.8890 0.8870 0.8890 0.8890 0.8890
1623.369405 0.8850 0.8850 0.8870 0.8870 0.8890
1630.344141 0.8910 0.8910 0.8910 0.8890 0.8850
1637.318877 0.8850 0.8890 0.8980 0.9000 0.8980
1644.293613 0.8930 0.8910 0.8910 0.8890 0.8890
1651.268349 0.8830 0.8800 0.8780 0.8800 0.8830
1658.243085 0.8870 0.8850 0.8830 0.8820 0.8820
1665.217821 0.8820 0.8800 0.8780 0.8740 0.8740
1672.192557 0.8740 0.8740 0.8740 0.8740 0.8740
1679.167293 0.8760 0.8760 0.8720 0.8680 0.8670
1686.142029 0.8680 0.8740 0.8800 0.8820 0.8830
1693.116765 0.8820 0.8800 0.8760 0.8700 0.8650
1700.091501 0.8610 0.8610 0.8650 0.8700 0.8780
1707.066237 0.8800 0.8870 0.8870 0.8830 0.8820
1714.040973 0.8780 0.8700 0.8610 0.8570 0.8630
1721.015709 0.8630 0.8610 0.8610 0.8590 0.8570
1727.990445 0.8530 0.8500 0.8370 0.8310 0.8120
1734.965181 0.7900 0.7770 0.7650 0.7540 0.7301
1741.939917 0.7149 0.6959 0.6700 0.6470 0.6320
1748.914653 0.6270 0.5591 0.4433 0.4211 0.3782
1755.889389 0.3419 0.3069 0.2599 0.2170 0.1760
1762.864125 0.1470 0.1340 0.1340 0.1529 0.1699
1769.838861 0.1981 0.2322 0.2990 0.2989 0.2500
1776.813597 0.1810 0.1211 0.0990 0.1010 0.1080
1783.788333 0.1401 0.1721 0.2151 0.2561 0.3370
1790.763069 0.4079 0.4529 0.4809 0.5089 0.5498
1797.737805 0.5952 0.6442 0.7021 0.7450 0.7620
1804.712541 0.7920 0.8100 0.8330 0.8480 0.8590
1811.687277 0.8680 0.8760 0.8820 0.8890 0.8910
1818.662013 0.9000 0.9000 0.9000 0.9020 0.9020
1825.636749 0.9020 0.9000 0.8980 0.8980 0.9000
1832.611485 0.9020 0.9040 0.9060 0.9080 0.9100
1839.586221 0.9100 0.9060 0.9020 0.9000 0.9000
1846.560957 0.9040 0.9100 0.9110 0.9110 0.9110
1853.535693 0.9110 0.9110 0.9100 0.9100 0.9100
1860.510429 0.9100 0.9100 0.9080 0.9020 0.9020
1867.485165 0.9020 0.9020 0.9020 0.9040 0.9040
1874.459901 0.9020 0.9020 0.9020 0.9020 0.9000
1881.434637 0.9000 0.9000 0.9000 0.8980 0.8950
1888.409373 0.8930 0.8930 0.8930 0.8930 0.8930
1895.384109 0.8950 0.8970 0.8970 0.8970 0.8970
1902.358845 0.8970 0.8970 0.8980 0.9000 0.9000
1909.333581 0.9020 0.9020 0.9000 0.9000 0.9000
1916.308317 0.9000 0.9020 0.9020 0.9020 0.9040
1923.283053 0.9040 0.9060 0.9060 0.9100 0.9100
1930.257789 0.9110 0.9130 0.9130 0.9130 0.9110
1937.232525 0.9100 0.9100 0.9080 0.9080 0.9100
1944.207261 0.9100 0.9100 0.9110 0.9110 0.9130
1951.181997 0.9130 0.9110 0.9110 0.9110 0.9100
1958.156733 0.9100 0.9100 0.9100 0.9100 0.9100
1965.131469 0.9100 0.9080 0.9080 0.9080 0.9060
1972.106205 0.9040 0.9040 0.9040 0.9020 0.9020
1979.080941 0.9040 0.9040 0.9040 0.9040 0.9060
1986.055677 0.9060 0.9040 0.9020 0.9020 0.8980
1993.030413 0.8980 0.8980 0.9000 0.9020 0.9060
2000.005149 0.9060 0.9050 0.9040 0.9040 0.9040
2006.979885 0.9040 0.9040 0.9040 0.9040 0.9040
2013.954621 0.9040 0.9040 0.9040 0.9040 0.9040
2020.929357 0.9040 0.9040 0.9040 0.9040 0.9040
2027.904093 0.9040 0.9040 0.9040 0.9040 0.9040
2034.878829 0.9040 0.9040 0.9040 0.9040 0.9040
2041.853565 0.9040 0.9035 0.9025 0.9020 0.9020
2048.828301 0.9015 0.9006 0.9000 0.9000 0.8986
2055.803037 0.8951 0.8922 0.8902 0.8879 0.8850
2062.777773 0.8825 0.8810 0.8794 0.8774 0.8755
2069.752509 0.8735 0.8720 0.8720 0.8720 0.8720
2076.727245 0.8720 0.8720 0.8720 0.8720 0.8721
2083.701981 0.8731 0.8740 0.8740 0.8741 0.8751
2090.676717 0.8761 0.8791 0.8820 0.8835 0.8850
2097.651453 0.8879 0.8908 0.8938 0.8967 0.8983
2104.626188 0.8998 0.9000 0.9000 0.9008 0.9018
2111.600924 0.9020 0.9020 0.9020 0.9020 0.9035
2118.575660 0.9055 0.9067 0.9077 0.9087 0.9097
2125.550396 0.9100 0.9100 0.9100 0.9100 0.9103
2132.525132 0.9108 0.9110 0.9110 0.9115 0.9125
2139.499868 0.9130 0.9130 0.9130 0.9130 0.9135
2146.474604 0.9144 0.9150 0.9150 0.9150 0.9150
2153.449340 0.9150 0.9150 0.9150 0.9150 0.9150
2160.424076 0.9150 0.9150 0.9150 0.9150 0.9150
2167.398812 0.9150 0.9150 0.9150 0.9150 0.9150
2174.373548 0.9150 0.9150 0.9150 0.9150 0.9150
2181.348284 0.9150 0.9150 0.9150 0.9140 0.9130
2188.323020 0.9130 0.9130 0.9120 0.9111 0.9105
2195.297756 0.9100 0.9091 0.9081 0.9071 0.9061
2202.272492 0.9060 0.9060 0.9052 0.9042 0.9040
2209.247228 0.9040 0.9048 0.9057 0.9067 0.9077
2216.221964 0.9087 0.9097 0.9100 0.9100 0.9100
2223.196700 0.9100 0.9103 0.9108 0.9110 0.9110
2230.171436 0.9116 0.9125 0.9130 0.9130 0.9135
2237.146172 0.9145 0.9150 0.9150 0.9154 0.9164
2244.120908 0.9170 0.9170 0.9166 0.9157 0.9150
2251.095644 0.9150 0.9150 0.9150 0.9150 0.9150
2258.070380 0.9150 0.9150 0.9150 0.9150 0.9148
2265.045116 0.9138 0.9128 0.9119 0.9110 0.9110
2272.019852 0.9110 0.9110 0.9110 0.9110 0.9110
2278.994588 0.9110 0.9110 0.9120 0.9130 0.9130
2285.969324 0.9130 0.9139 0.9149 0.9150 0.9150
2292.944060 0.9168 0.9187 0.9207 0.9227 0.9242
2299.918796 0.9257 0.9268 0.9278 0.9288 0.9297
2306.893532 0.9314 0.9334 0.9347 0.9357 0.9374
2313.868268 0.9393 0.9410 0.9425 0.9430 0.9430
2320.843004 0.9430 0.9430 0.9430 0.9430 0.9430
2327.817740 0.9430 0.9430 0.9430 0.9430 0.9430
2334.792476 0.9426 0.9416 0.9410 0.9410 0.9410
2341.767212 0.9410 0.9410 0.9410 0.9410 0.9410
2348.741948 0.9409 0.9404 0.9397 0.9388 0.9378
2355.716684 0.9368 0.9360 0.9360 0.9358 0.9349
2362.691420 0.9339 0.9329 0.9319 0.9309 0.9298
2369.666156 0.9279 0.9259 0.9244 0.9230 0.9220
2376.640892 0.9210 0.9200 0.9190 0.9181 0.9171
2383.615628 0.9161 0.9151 0.9150 0.9150 0.9150
2390.590364 0.9150 0.9134 0.9114 0.9110 0.9110
2397.565100 0.9110 0.9110 0.9110 0.9110 0.9110
2404.539836 0.9110 0.9110 0.9110 0.9110 0.9110
2411.514572 0.9110 0.9110 0.9110 0.9110 0.9110
2418.489308 0.9110 0.9115 0.9125 0.9130 0.9130
2425.464044 0.9130 0.9130 0.9130 0.9130 0.9130
2432.438780 0.9130 0.9130 0.9130 0.9130 0.9130
2439.413516 0.9130 0.9130 0.9130 0.9130 0.9130
2446.388252 0.9130 0.9130 0.9130 0.9130 0.9130
2453.362988 0.9130 0.9130 0.9130 0.9130 0.9129
2460.337724 0.9119 0.9110 0.9105 0.9099 0.9090
2467.312460 0.9080 0.9080 0.9080 0.9080 0.9080
2474.287196 0.9061 0.9041 0.9040 0.9040 0.9040
2481.261932 0.9040 0.9040 0.9040 0.9048 0.9058
2488.236668 0.9060 0.9060 0.9060 0.9060 0.9067
2495.211404 0.9077 0.9087 0.9097 0.9100 0.9100
2502.186140 0.9100 0.9100 0.9103 0.9108 0.9116
2509.160876 0.9126 0.9130 0.9130 0.9130 0.9130
2516.135612 0.9130 0.9130 0.9130 0.9130 0.9130
2523.110348 0.9130 0.9134 0.9144 0.9150 0.9150
2530.085084 0.9150 0.9150 0.9150 0.9150 0.9150
2537.059820 0.9150 0.9150 0.9150 0.9150 0.9150
2544.034556 0.9150 0.9150 0.9150 0.9150 0.9150
2551.009292 0.9150 0.9150 0.9150 0.9150 0.9150
2557.984028 0.9150 0.9150 0.9150 0.9150 0.9150
2564.958764 0.9150 0.9150 0.9150 0.9150 0.9150
2571.933500 0.9150 0.9141 0.9131 0.9130 0.9130
2578.908236 0.9130 0.9130 0.9130 0.9130 0.9130
2585.882972 0.9130 0.9123 0.9113 0.9106 0.9102
2592.857708 0.9100 0.9100 0.9093 0.9083 0.9074
2599.832444 0.9064 0.9060 0.9060 0.9060 0.9060
2606.807180 0.9060 0.9060 0.9060 0.9060 0.9060
2613.781916 0.9060 0.9069 0.9089 0.9100 0.9100
2620.756652 0.9102 0.9107 0.9110 0.9110 0.9110
2627.731388 0.9110 0.9113 0.9123 0.9130 0.9130
2634.706124 0.9130 0.9130 0.9130 0.9130 0.9130
2641.680859 0.9130 0.9130 0.9130 0.9130 0.9130
2648.655595 0.9130 0.9130 0.9130 0.9130 0.9130
2655.630331 0.9130 0.9130 0.9130 0.9130 0.9130
2662.605067 0.9130 0.9130 0.9130 0.9130 0.9130
2669.579803 0.9130 0.9130 0.9130 0.9130 0.9130
2676.554539 0.9130 0.9130 0.9130 0.9130 0.9130
2683.529275 0.9130 0.9130 0.9130 0.9130 0.9137
2690.504011 0.9147 0.9150 0.9150 0.9150 0.9150
2697.478747 0.9150 0.9150 0.9145 0.9135 0.9130
2704.453483 0.9130 0.9130 0.9130 0.9130 0.9130
2711.428219 0.9130 0.9130 0.9130 0.9130 0.9130
2718.402955 0.9130 0.9127 0.9117 0.9110 0.9110
2725.377691 0.9110 0.9110 0.9110 0.9110 0.9109
2732.352427 0.9104 0.9100 0.9100 0.9100 0.9100
2739.327163 0.9099 0.9089 0.9080 0.9080 0.9081
2746.301899 0.9091 0.9100 0.9100 0.9100 0.9100
2753.276635 0.9100 0.9105 0.9110 0.9110 0.9110
2760.251371 0.9119 0.9129 0.9130 0.9130 0.9130
2767.226107 0.9130 0.9130 0.9130 0.9130 0.9130
2774.200843 0.9130 0.9130 0.9130 0.9130 0.9130
2781.175579 0.9130 0.9123 0.9113 0.9110 0.9110
2788.150315 0.9110 0.9110 0.9110 0.9110 0.9107
2795.125051 0.9102 0.9100 0.9100 0.9095 0.9085
2802.099787 0.9080 0.9080 0.9076 0.9066 0.9056
2809.074523 0.9046 0.9040 0.9040 0.9037 0.9027
2816.049259 0.9020 0.9020 0.9017 0.9007 0.9000
2823.023995 0.9000 0.8992 0.8957 0.8926 0.8906
2829.998731 0.8885 0.8855 0.8821 0.8757 0.8696
2836.973467 0.8662 0.8628 0.8609 0.8589 0.8569
2843.948203 0.8550 0.8535 0.8520 0.8510 0.8500
2850.922939 0.8481 0.8461 0.8441 0.8422 0.8420
2857.897675 0.8420 0.8455 0.8494 0.8521 0.8545
2864.872411 0.8566 0.8586 0.8605 0.8625 0.8630
2871.847147 0.8630 0.8623 0.8613 0.8610 0.8610
2878.821883 0.8610 0.8610 0.8604 0.8594 0.8590
2885.796619 0.8590 0.8584 0.8574 0.8565 0.8555
2892.771355 0.8542 0.8528 0.8496 0.8447 0.8405
2899.746091 0.8370 0.8338 0.8308 0.8286 0.8276
2906.720827 0.8266 0.8256 0.8250 0.8250 0.8250
2913.695563 0.8250 0.8247 0.8237 0.8230 0.8230
2920.670299 0.8227 0.8212 0.8198 0.8188 0.8177
2927.645035 0.8157 0.8139 0.8129 0.8116 0.8071
2934.619771 0.8026 0.7972 0.7917 0.7843 0.7769
2941.594507 0.7656 0.7543 0.7415 0.7287 0.7159
2948.569243 0.7031 0.6926 0.6823 0.6754 0.6690
2955.543979 0.6626 0.6562 0.6518 0.6479 0.6458
2962.518715 0.6443 0.6448 0.6457 0.6471 0.6486
2969.493451 0.6497 0.6507 0.6580 0.6683 0.6862
2976.468187 0.7084 0.7299 0.7511 0.7662 0.7771
2983.442923 0.7855 0.7919 0.7950 0.7950 0.7933
2990.417659 0.7898 0.7859 0.7815 0.7757 0.7684
2997.392395 0.7602 0.7508 0.7513 0.7680 0.7792
3004.367131 0.7797 0.7798 0.7794 0.7782 0.7752
3011.341867 0.7728 0.7718 0.7712 0.7722 0.7738
3018.316603 0.7783 0.7822 0.7832 0.7846 0.7885
3025.291339 0.7921 0.7931 0.7940 0.7945 0.7951
3032.266075 0.7970 0.7990 0.8000 0.8010 0.8044
3039.240811 0.8078 0.8136 0.8195 0.8249 0.8303
3046.215547 0.8367 0.8432 0.8474 0.8514 0.8532
3053.190283 0.8547 0.8566 0.8586 0.8605 0.8625
3060.165019 0.8637 0.8647 0.8657 0.8667 0.8673
3067.139755 0.8678 0.8680 0.8680 0.8686 0.8696
3074.114491 0.8711 0.8731 0.8746 0.8755 0.8771
3081.089227 0.8790 0.8805 0.8815 0.8822 0.8827
3088.063963 0.8830 0.8830 0.8830 0.8830 0.8834
3095.038699 0.8844 0.8853 0.8863 0.8879 0.8909
3102.013435 0.8930 0.8930 0.8933 0.8943 0.8950
3108.988171 0.8950 0.8952 0.8962 0.8970 0.8970
3115.962907 0.8970 0.8970 0.8970 0.8970 0.8970
3122.937643 0.8970 0.8970 0.8975 0.8980 0.8980
3129.912379 0.8980 0.8990 0.9000 0.9000 0.9000
3136.887115 0.9000 0.9000 0.9000 0.9000 0.9000
3143.861851 0.9000 0.9000 0.9000 0.9000 0.9000
3150.836587 0.9000 0.9000 0.9000 0.9000 0.9000
3157.811323 0.9000 0.9000 0.9000 0.9007 0.9016
3164.786059 0.9020 0.9020 0.9020 0.9020 0.9020
3171.760795 0.9020 0.9020 0.9020 0.9015 0.9005
3178.735531 0.9000 0.9000 0.9004 0.9014 0.9020
3185.710266 0.9020 0.9020 0.9020 0.9020 0.9020
3192.685002 0.9020 0.9020 0.9020 0.9020 0.9020
3199.659738 0.9020 0.9020 0.9020 0.9020 0.9020
3206.634474 0.9022 0.9032 0.9040 0.9040 0.9040
3213.609210 0.9040 0.9040 0.9040 0.9040 0.9040
3220.583946 0.9040 0.9050 0.9060 0.9060 0.9060
3227.558682 0.9060 0.9060 0.9060 0.9060 0.9060
3234.533418 0.9060 0.9060 0.9060 0.9060 0.9060
3241.508154 0.9060 0.9060 0.9060 0.9060 0.9060
3248.482890 0.9060 0.9060 0.9060 0.9060 0.9060
3255.457626 0.9060 0.9060 0.9060 0.9060 0.9060
3262.432362 0.9060 0.9060 0.9060 0.9060 0.9060
3269.407098 0.9060 0.9060 0.9060 0.9060 0.9060
3276.381834 0.9060 0.9056 0.9046 0.9040 0.9040
3283.356570 0.9040 0.9040 0.9040 0.9040 0.9040
3290.331306 0.9040 0.9037 0.9028 0.9020 0.9020
3297.306042 0.9020 0.9020 0.9020 0.9020 0.9020
3304.280778 0.9020 0.9021 0.9031 0.9040 0.9040
3311.255514 0.9040 0.9040 0.9040 0.9040 0.9040
3318.230250 0.9040 0.9040 0.9040 0.9040 0.9040
3325.204986 0.9040 0.9040 0.9040 0.9040 0.9040
3332.179722 0.9040 0.9040 0.9040 0.9040 0.9040
3339.154458 0.9040 0.9040 0.9040 0.9040 0.9040
3346.129194 0.9040 0.9040 0.9040 0.9040 0.9040
3353.103930 0.9040 0.9040 0.9040 0.9040 0.9040
3360.078666 0.9040 0.9040 0.9040 0.9040 0.9040
3367.053402 0.9040 0.9040 0.9040 0.9040 0.9040
3374.028138 0.9036 0.9026 0.9020 0.9020 0.9020
3381.002874 0.9020 0.9023 0.9033 0.9040 0.9040
3387.977610 0.9040 0.9040 0.9040 0.9040 0.9040
3394.952346 0.9040 0.9040 0.9040 0.9039 0.9029
3401.927082 0.9020 0.9020 0.9020 0.9020 0.9020
3408.901818 0.9020 0.9020 0.9010 0.9000 0.9000
3415.876554 0.9000 0.9000 0.9000 0.9000 0.9000
3422.851290 0.9000 0.9000 0.9000 0.9000 0.9000
3429.826026 0.9000 0.9000 0.9000 0.9000 0.9000
3436.800762 0.9000 0.9000 0.9000 0.9000 0.9000
3443.775498 0.9000 0.9000 0.9000 0.9000 0.9000
3450.750234 0.9000 0.9000 0.9000 0.9000 0.9000
3457.724970 0.9000 0.9005 0.9015 0.9020 0.9020
3464.699706 0.9020 0.9020 0.9020 0.9020 0.9020
3471.674442 0.9020 0.9020 0.9020 0.9020 0.9020
3478.649178 0.9020 0.9020 0.9020 0.9020 0.9018
3485.623914 0.9008 0.9000 0.9000 0.9000 0.9000
3492.598650 0.8998 0.8983 0.8968 0.8948 0.8929
3499.573386 0.8919 0.8909 0.8889 0.8870 0.8870
3506.548122 0.8870 0.8870 0.8870 0.8870 0.8870
3513.522858 0.8861 0.8851 0.8837 0.8822 0.8812
3520.497594 0.8802 0.8800 0.8800 0.8808 0.8818
3527.472330 0.8820 0.8820 0.8824 0.8829 0.8859
3534.447066 0.8898 0.8930 0.8960 0.8980 0.8994
3541.421802 0.9000 0.9000 0.9000 0.9000 0.9000
3548.396538 0.9000 0.9000 0.9000 0.9000 0.9000
3555.371274 0.9000 0.9000 0.9000 0.9000 0.9000
3562.346010 0.9000 0.9000 0.9000 0.9000 0.9000
3569.320746 0.9000 0.9000 0.9000 0.9000 0.9003
3576.295482 0.9012 0.9020 0.9020 0.9020 0.9020
3583.270218 0.9020 0.9020 0.9020 0.9020 0.9020
3590.244954 0.9020 0.9020 0.9020 0.9020 0.9020
3597.219690 0.9020 0.9020 0.9020 0.9020 0.9020
3604.194426 0.9011 0.9001 0.9000 0.9000 0.9009
3611.169162 0.9019 0.9020 0.9020 0.9012 0.9002
3618.143898 0.9000 0.9000 0.9000 0.9000 0.9000
3625.118634 0.9000 0.9000 0.9000 0.9007 0.9017
3632.093370 0.9026 0.9036 0.9040 0.9040 0.9028
3639.068106 0.9009 0.8994 0.8984 0.8980 0.8980
3646.042842 0.8980 0.8980 0.8985 0.8995 0.9000
3653.017578 0.9000 0.9004 0.9014 0.9016 0.9006
3659.992314 0.9000 0.9000 0.9000 0.9000 0.9000
3666.967050 0.9000 0.9000 0.9000 0.9000 0.9000
3673.941786 0.9000 0.9000 0.9000 0.9000 0.9002
3680.916522 0.9011 0.9021 0.9031 0.9040 0.9040
3687.891258 0.9040 0.9040 0.9040 0.9020 0.9000
3694.865994 0.9000 0.9000 0.9010 0.9020 0.9020
3701.840730 0.9020 0.9020 0.9020 0.9020 0.9020
3708.815466 0.9020 0.9020 0.9020 0.9020 0.9028
3715.790202 0.9038 0.9047 0.9057 0.9060 0.9060
3722.764937 0.9053 0.9043 0.9033 0.9023 0.9014
3729.739673 0.9004 0.9000 0.9000 0.9000 0.9000
3736.714409 0.8995 0.8985 0.8977 0.8973 0.8970
3743.689145 0.8970 0.8972 0.8977 0.8980 0.8980
3750.663881 0.8984 0.8994 0.9000 0.9000 0.9000
3757.638617 0.9000 0.9003 0.9013 0.9020 0.9020
3764.613353 0.9020 0.9020 0.9022 0.9032 0.9040
3771.588089 0.9040 0.9040 0.9040 0.9040 0.9040
3778.562825 0.9040 0.9040 0.9040 0.9040 0.9040
3785.537561 0.9040 0.9040 0.9040 0.9040 0.9040
3792.512297 0.9040 0.9040 0.9040 0.9040 0.9040
3799.487033 0.9040 0.9040 0.9040 0.9040 0.9040
3806.461769 0.9040 0.9040 0.9040 0.9040 0.9040
3813.436505 0.9033 0.9023 0.9020 0.9020 0.9020
3820.411241 0.9020 0.9020 0.9020 0.9014 0.9004
3827.385977 0.9000 0.9000 0.8995 0.8985 0.8980
3834.360713 0.8980 0.8980 0.8980 0.8985 0.8995
3841.335449 0.9000 0.9000 0.9000 0.9000 0.9004
3848.310185 0.9014 0.9020 0.9020 0.9017 0.9007
3855.284921 0.9000 0.9000 0.9000 0.9000 0.9000
3862.259657 0.9000 0.9000 0.9000 0.9000 0.9000
3869.234393 0.9000 0.9000 0.9001 0.9011 0.9020
3876.209129 0.9020 0.9020 0.9020 0.9020 0.9010
3883.183865 0.9000 0.9000 0.9000 0.8991 0.8981
3890.158601 0.8980 0.8980 0.8980 0.8980 0.8980
3897.133337 0.8980 0.8988 0.8998 0.9000 0.9000
3904.108073 0.9000 0.9000 0.9000 0.9000 0.9000
3911.082809 0.9000 0.9000 0.9000 0.9000 0.9000
3918.057545 0.9000 0.9000 0.9000 0.9000 0.9000
3925.032281 0.9000 0.9000 0.9000 0.9000 0.9000
3932.007017 0.9000 0.9000 0.9000 0.9000 0.9000
3938.981753 0.9000 0.9004 0.9014 0.9020 0.9020
3945.956489 0.9017 0.9007 0.9000 0.9000 0.9000
3952.931225 0.9000 0.9000 0.9000 0.9000 0.9000
3959.905961 0.9000 0.9000 0.9000 0.9000 0.9000
3966.880697 0.9000 0.8999 0.8989 0.8980 0.8980
3973.855433 0.8980 0.8980 0.8980 0.8980 0.8980
3980.830169 0.8980 0.8980 0.8980 0.8980
##END=
