##TITLE=ACETIC ACID, METHYL ESTER
##JCAMP-DX=4.24
##DATA TYPE=INFRARED SPECTRUM
##CLASS=COBLENTZ
##ORIGIN=DOW CHEMICAL COMPANY
##OWNER=COBLENTZ SOCIETY
Collection (C) 2018 copyright by the U.S. Secretary of Commerce
on behalf of the United States of America. All rights reserved.
##DATE=1979/03/30
##NAMES=METHYL ACETATE
##CAS REGISTRY NO=79-20-9
##MOLFORM=C3 H6 O2
##SOURCE REFERENCE=COBLENTZ NO. 10503
##$NIST SOURCE=COBLENTZ
##$NIST IMAGE=cob-r10503
##SPECTROMETER/DATA SYSTEM=BECKMAN IR-9 (GRATING)
##INSTRUMENT PARAMETERS=ORDER CHANGES: 670, 1200, 2000 CM^-^1
$$ SPECTRAL FEATURES AT 1999 AND 653 CM^-^1 ARE PROBABLY ARTIFACTS CAUSED BY GRATING CHANGE.
##STATE=GAS (62 mmHg, N2 ADDED, TOTAL PRESSURE 600 mmHg)
$$ SEE ALSO SPECTRUM NO. 10504
##PATH LENGTH=10 CM
##SAMPLING PROCEDURE=TRANSMISSION
##RESOLUTION=2
##DATA PROCESSING=DIGITIZED BY NIST FROM HARD COPY (FROM TWO SEGMENTS)
##XUNITS=1/CM
##YUNITS=TRANSMITTANCE
##XFACTOR=1.000000
##YFACTOR=1
##DELTAX=1.404741
##FIRSTX=201.932
##LASTX=4001.76
##FIRSTY=0
##MAXX=4001.76
##MINX=201.932
##MAXY=0.951
##MINY=0
##NPOINTS=2706
##XYDATA=(X++(Y..Y))
201.932000 0.0000 0.0000 0.0000 0.0000 0.0000
208.955703 0.0000 0.0000 0.0000 0.0000 0.0000
215.979406 0.0000 0.0000 0.0000 0.0000 0.0000
223.003109 0.0000 0.0000 0.0000 0.0000 0.0000
230.026812 0.0000 0.0000 0.0000 0.0000 0.0000
237.050516 0.0000 0.0000 0.0000 0.0000 0.0000
244.074219 0.0000 0.0000 0.0000 0.0000 0.0000
251.097922 0.0000 0.0000 0.0000 0.0000 0.0000
258.121625 0.0000 0.0000 0.0000 0.0010 0.0010
265.145328 0.0010 0.0010 0.0010 0.0010 0.0010
272.169031 0.0010 0.0010 0.0010 0.0010 0.0010
279.192734 0.0010 0.0050 0.0090 0.0110 0.0110
286.216437 0.0130 0.0130 0.0090 0.0000 0.0000
293.240141 0.0000 0.0000 0.0000 0.0000 0.0000
300.263844 0.0000 0.0000 0.0010 0.0010 0.0030
307.287547 0.0050 0.0070 0.0090 0.0110 0.0110
314.311250 0.0130 0.0150 0.0150 0.0160 0.0160
321.334953 0.0180 0.0200 0.0240 0.0280 0.0300
328.358656 0.0310 0.0370 0.0410 0.0450 0.0460
335.382359 0.0500 0.0560 0.0630 0.0690 0.0730
342.406062 0.0820 0.0880 0.0970 0.1010 0.1060
349.429766 0.1120 0.1210 0.1359 0.1459 0.1480
356.453469 0.1530 0.1610 0.1720 0.1800 0.1979
363.477172 0.2080 0.2130 0.2249 0.2339 0.2469
370.500875 0.2570 0.2680 0.2770 0.2880 0.3000
377.524578 0.3090 0.3170 0.3260 0.3389 0.3499
384.548281 0.3600 0.3690 0.3800 0.3900 0.3990
391.571984 0.4090 0.4219 0.4290 0.4370 0.4479
398.595687 0.4520 0.4650 0.4740 0.4870 0.5000
405.619391 0.5080 0.5140 0.5210 0.5290 0.5300
412.643094 0.5290 0.5250 0.5140 0.5020 0.4970
419.666797 0.4910 0.4721 0.4372 0.4052 0.4010
426.690500 0.4010 0.4030 0.4030 0.3990 0.3990
433.714203 0.3950 0.3970 0.3990 0.4030 0.4100
440.737906 0.4160 0.4200 0.4270 0.4310 0.4400
447.761609 0.4540 0.5038 0.5488 0.5937 0.6169
454.785312 0.6470 0.6750 0.7010 0.7220 0.7419
461.809016 0.7559 0.7689 0.7780 0.7869 0.7989
468.832719 0.8030 0.8060 0.8100 0.8160 0.8180
475.856422 0.8210 0.8230 0.8250 0.8270 0.8310
482.880125 0.8340 0.8380 0.8420 0.8460 0.8480
489.903828 0.8490 0.8510 0.8550 0.8570 0.8590
496.927531 0.8780 0.8780 0.8720 0.8590 0.8510
503.951234 0.8510 0.8550 0.8570 0.8590 0.8610
510.974937 0.8610 0.8660 0.8680 0.8720 0.8760
517.998641 0.8780 0.8790 0.8810 0.8850 0.8870
525.022344 0.8890 0.8870 0.8870 0.8830 0.8810
532.046047 0.8780 0.8760 0.8720 0.8680 0.8610
539.069750 0.8590 0.8590 0.8610 0.8630 0.8680
546.093453 0.8740 0.8780 0.8790 0.8830 0.8870
553.117156 0.8930 0.8960 0.8980 0.8980 0.8980
560.140859 0.8960 0.8940 0.8910 0.8870 0.8830
567.164562 0.8790 0.8780 0.8740 0.8680 0.8630
574.188266 0.8550 0.8510 0.8480 0.8420 0.8341
581.211969 0.8250 0.8140 0.8030 0.7990 0.7870
588.235672 0.7800 0.7710 0.7571 0.7481 0.7391
595.259375 0.7290 0.7180 0.7070 0.6920 0.6750
602.283078 0.6541 0.6341 0.6111 0.5921 0.5751
609.306781 0.5600 0.5550 0.5550 0.5590 0.5620
616.330484 0.5680 0.5790 0.5790 0.5750 0.5680
623.354188 0.5550 0.5420 0.5210 0.5000 0.4930
630.377891 0.4840 0.4691 0.4521 0.4480 0.4520
637.401594 0.4550 0.4590 0.4670 0.4740 0.4840
644.425297 0.4999 0.5040 0.5060 0.5000 0.5000
651.449000 0.6920 0.5661 0.5740 0.5999 0.6409
658.472703 0.6858 0.7109 0.7478 0.7758 0.8058
665.496406 0.8290 0.8490 0.8630 0.8760 0.8850
672.520109 0.8780 0.8830 0.8850 0.8910 0.8980
679.543813 0.9000 0.9020 0.9040 0.9080 0.9090
686.567516 0.9110 0.9130 0.9170 0.9210 0.9230
693.591219 0.9240 0.9260 0.9280 0.9300 0.9320
700.614922 0.9320 0.9340 0.9360 0.9360 0.9380
707.638625 0.9380 0.9390 0.9390 0.9390 0.9390
714.662328 0.9390 0.9390 0.9410 0.9410 0.9430
721.686031 0.9430 0.9430 0.9430 0.9410 0.9410
728.709734 0.9410 0.9410 0.9410 0.9410 0.9410
735.733438 0.9390 0.9390 0.9390 0.9390 0.9390
742.757141 0.9390 0.9410 0.9410 0.9410 0.9410
749.780844 0.9410 0.9410 0.9410 0.9430 0.9430
756.804547 0.9430 0.9430 0.9430 0.9430 0.9430
763.828250 0.9410 0.9410 0.9410 0.9410 0.9390
770.851953 0.9390 0.9390 0.9390 0.9380 0.9380
777.875656 0.9380 0.9380 0.9380 0.9380 0.9360
784.899359 0.9360 0.9360 0.9340 0.9340 0.9320
791.923063 0.9320 0.9300 0.9280 0.9260 0.9240
798.946766 0.9210 0.9210 0.9150 0.9080 0.9001
805.970469 0.8960 0.8830 0.8740 0.8590 0.8460
812.994172 0.8291 0.8061 0.7821 0.7562 0.7292
820.017875 0.6960 0.6540 0.6091 0.5641 0.5042
827.041578 0.4781 0.4521 0.3993 0.3304 0.2813
834.065281 0.2400 0.2020 0.1830 0.1720 0.1700
841.088984 0.1720 0.1780 0.1889 0.2019 0.2040
848.112688 0.2080 0.1910 0.1810 0.1531 0.1231
855.136391 0.1250 0.1310 0.1459 0.1659 0.1998
862.160094 0.2340 0.2830 0.3299 0.3689 0.4218
869.183797 0.5117 0.5528 0.5997 0.6388 0.6708
876.207500 0.6990 0.7220 0.7420 0.7670 0.7859
883.231203 0.8059 0.8309 0.8400 0.8529 0.8639
890.254906 0.8760 0.8810 0.8890 0.9000 0.9000
897.278609 0.9020 0.9060 0.9110 0.9150 0.9190
904.302313 0.9240 0.9300 0.9300 0.9320 0.9320
911.326016 0.9340 0.9340 0.9340 0.9340 0.9320
918.349719 0.9320 0.9320 0.9300 0.9300 0.9300
925.373422 0.9280 0.9280 0.9280 0.9280 0.9280
932.397125 0.9280 0.9280 0.9280 0.9280 0.9280
939.420828 0.9280 0.9280 0.9260 0.9260 0.9240
946.444531 0.9230 0.9230 0.9190 0.9170 0.9150
953.468234 0.9110 0.9060 0.9020 0.9000 0.9000
960.491938 0.8890 0.8870 0.8760 0.8680 0.8590
967.515641 0.8490 0.8400 0.8231 0.8121 0.7971
974.539344 0.7780 0.7670 0.7520 0.7480 0.7480
981.563047 0.7480 0.7480 0.7480 0.7480 0.7480
988.586750 0.7420 0.7390 0.7270 0.7220 0.7120
995.610453 0.7090 0.7010 0.7010 0.7050 0.7090
1002.634156 0.7120 0.7140 0.7180 0.7160 0.7090
1009.657859 0.7030 0.6960 0.6791 0.6561 0.6361
1016.681563 0.6170 0.5810 0.5570 0.5121 0.4931
1023.705266 0.4741 0.4202 0.3882 0.3482 0.3023
1030.728969 0.2660 0.2210 0.1761 0.1401 0.0991
1037.752672 0.0781 0.0690 0.0541 0.0451 0.0261
1044.776375 0.0090 0.0000 0.0000 0.0000 0.0000
1051.800078 0.0000 0.0000 0.0000 0.0000 0.0000
1058.823781 0.0000 0.0000 0.0000 0.0000 0.0000
1065.847484 0.0000 0.0010 0.0010 0.0030 0.0050
1072.871188 0.0110 0.0130 0.0200 0.0310 0.0460
1079.894891 0.0649 0.0909 0.1119 0.1329 0.1548
1086.918594 0.1800 0.2060 0.2230 0.2619 0.2939
1093.942297 0.3199 0.3409 0.3629 0.3799 0.4009
1100.966000 0.4240 0.4420 0.4700 0.4800 0.5209
1107.989703 0.5399 0.5599 0.5719 0.5958 0.6109
1115.013406 0.6210 0.6360 0.6510 0.6540 0.6640
1122.037109 0.6690 0.6750 0.6790 0.6810 0.6820
1129.060813 0.6840 0.6840 0.6810 0.6790 0.6790
1136.084516 0.6790 0.6810 0.6810 0.6790 0.6750
1143.108219 0.6690 0.6690 0.6730 0.6750 0.6790
1150.131922 0.6810 0.6820 0.6840 0.6880 0.6900
1157.155625 0.6990 0.7090 0.7140 0.7220 0.7140
1164.179328 0.7140 0.7160 0.7200 0.7240 0.7260
1171.203031 0.7270 0.7260 0.7240 0.7200 0.7180
1178.226734 0.7140 0.7110 0.6991 0.6752 0.6561
1185.250438 0.6560 0.6580 0.6580 0.6560 0.6510
1192.274141 0.6410 0.6261 0.6091 0.5961 0.5662
1199.297844 0.5360 0.5170 0.4990 0.4691 0.4351
1206.321547 0.4011 0.3672 0.3322 0.2962 0.2573
1213.345250 0.2170 0.1740 0.1311 0.0991 0.0671
1220.368953 0.0281 0.0011 0.0000 0.0000 0.0000
1227.392656 0.0000 0.0000 0.0000 0.0000 0.0000
1234.416359 0.0000 0.0000 0.0000 0.0000 0.0000
1241.440063 0.0000 0.0000 0.0000 0.0000 0.0000
1248.463766 0.0000 0.0000 0.0000 0.0000 0.0000
1255.487469 0.0000 0.0000 0.0000 0.0000 0.0000
1262.511172 0.0000 0.0000 0.0000 0.0000 0.0000
1269.534875 0.0000 0.0000 0.0010 0.0030 0.0160
1276.558578 0.0200 0.0130 0.0200 0.0299 0.0350
1283.582281 0.0410 0.0430 0.0450 0.0460 0.0520
1290.605984 0.0669 0.0929 0.1029 0.1308 0.1509
1297.629688 0.2040 0.2619 0.3129 0.3649 0.4098
1304.653391 0.4548 0.5097 0.5359 0.5618 0.5848
1311.677094 0.6060 0.6210 0.6370 0.6540 0.6660
1318.700797 0.6809 0.6919 0.7010 0.7090 0.7090
1325.724500 0.7090 0.7090 0.7090 0.7070 0.7030
1332.748203 0.6990 0.6960 0.6861 0.6820 0.6790
1339.771906 0.6710 0.6580 0.6490 0.6390 0.6280
1346.795609 0.6111 0.5871 0.5572 0.5043 0.4722
1353.819312 0.4400 0.3970 0.3241 0.2472 0.1762
1360.843016 0.1162 0.0672 0.0372 0.0261 0.0220
1367.866719 0.0180 0.0150 0.0010 0.0000 0.0000
1374.890422 0.0000 0.0000 0.0000 0.0000 0.0000
1381.914125 0.0000 0.0000 0.0000 0.0010 0.0050
1388.937828 0.0160 0.0449 0.0689 0.0779 0.1058
1395.961531 0.1500 0.2060 0.2639 0.3219 0.3768
1402.985234 0.4179 0.4399 0.4549 0.4759 0.5098
1410.008937 0.5270 0.5300 0.5300 0.5290 0.5250
1417.032641 0.5190 0.5100 0.4991 0.4722 0.4372
1424.056344 0.3990 0.3540 0.3071 0.2551 0.2022
1431.080047 0.1462 0.1201 0.0971 0.0881 0.0820
1438.103750 0.0710 0.0410 0.0310 0.0330 0.0609
1445.127453 0.0670 0.0670 0.0501 0.0182 0.0111
1452.151156 0.0110 0.0200 0.0330 0.0500 0.0650
1459.174859 0.0899 0.1199 0.1459 0.1629 0.1829
1466.198562 0.2100 0.2340 0.2380 0.2400 0.2599
1473.222266 0.2720 0.2660 0.2660 0.2660 0.2680
1480.245969 0.2680 0.2750 0.2870 0.2980 0.3090
1487.269672 0.3180 0.3349 0.3539 0.3749 0.3919
1494.293375 0.4010 0.4180 0.4290 0.4480 0.4650
1501.317078 0.4819 0.5139 0.5438 0.5549 0.5620
1508.340781 0.5660 0.5700 0.5810 0.6019 0.6110
1515.364484 0.6190 0.6240 0.6300 0.6340 0.6360
1522.388187 0.6390 0.6410 0.6490 0.6520 0.6580
1529.411891 0.6620 0.6670 0.6750 0.6790 0.6820
1536.435594 0.6840 0.6900 0.6990 0.6990 0.6860
1543.459297 0.6880 0.6920 0.6990 0.7030 0.7050
1550.483000 0.7140 0.7200 0.7220 0.7240 0.7270
1557.506703 0.7270 0.7260 0.7121 0.7120 0.7199
1564.530406 0.7310 0.7480 0.7480 0.7500 0.7520
1571.554109 0.7520 0.7560 0.7590 0.7610 0.7630
1578.577812 0.7630 0.7670 0.7740 0.7840 0.7870
1585.601516 0.7910 0.7930 0.7990 0.8010 0.8030
1592.625219 0.8060 0.8080 0.8080 0.8060 0.8060
1599.648922 0.8080 0.8080 0.8010 0.7950 0.7910
1606.672625 0.7860 0.7820 0.7760 0.7690 0.7670
1613.696328 0.7670 0.7670 0.7670 0.7610 0.7521
1620.720031 0.7650 0.7720 0.7720 0.7670 0.7590
1627.743734 0.7570 0.7520 0.7520 0.7520 0.7590
1634.767437 0.7630 0.7630 0.7590 0.7590 0.7670
1641.791141 0.7780 0.7840 0.7860 0.7840 0.7800
1648.814844 0.7710 0.7650 0.7630 0.7590 0.7540
1655.838547 0.7261 0.7240 0.7310 0.7310 0.7270
1662.862250 0.7200 0.7110 0.6990 0.6900 0.6880
1669.885953 0.6810 0.6750 0.6750 0.6790 0.6770
1676.909656 0.6750 0.6730 0.6730 0.6710 0.6710
1683.933359 0.6690 0.6640 0.6620 0.6670 0.6809
1690.957062 0.6880 0.6990 0.7030 0.7120 0.7120
1697.980766 0.7140 0.7160 0.7180 0.7200 0.7260
1705.004469 0.7370 0.7420 0.7420 0.7390 0.7390
1712.028172 0.7330 0.7240 0.7111 0.6961 0.6712
1719.051875 0.6410 0.6110 0.5960 0.5850 0.5700
1726.075578 0.5531 0.5361 0.5062 0.4822 0.4572
1733.099281 0.4140 0.3480 0.2721 0.2081 0.1571
1740.122984 0.1142 0.0821 0.0561 0.0222 0.0111
1747.146687 0.0000 0.0000 0.0000 0.0000 0.0000
1754.170391 0.0000 0.0000 0.0000 0.0000 0.0000
1761.194094 0.0000 0.0000 0.0000 0.0000 0.0000
1768.217797 0.0000 0.0000 0.0000 0.0000 0.0000
1775.241500 0.0000 0.0000 0.0000 0.0000 0.0000
1782.265203 0.0000 0.0000 0.0000 0.0000 0.0000
1789.288906 0.0000 0.0000 0.0010 0.0050 0.0070
1796.312609 0.0110 0.0369 0.0927 0.1178 0.1478
1803.336312 0.1890 0.2400 0.2999 0.3619 0.4248
1810.360016 0.5465 0.5958 0.6388 0.6768 0.7048
1817.383719 0.7370 0.7590 0.7780 0.7970 0.8120
1824.407422 0.8249 0.8330 0.8380 0.8479 0.8530
1831.431125 0.8590 0.8630 0.8680 0.8740 0.8780
1838.454828 0.8810 0.8850 0.8910 0.8910 0.8890
1845.478531 0.8870 0.8890 0.8910 0.8940 0.8980
1852.502234 0.9000 0.9000 0.8980 0.8980 0.8960
1859.525937 0.8930 0.8890 0.8850 0.8810 0.8790
1866.549641 0.8740 0.8720 0.8640 0.8590 0.8491
1873.573344 0.8420 0.8400 0.8340 0.8310 0.8230
1880.597047 0.8180 0.8100 0.8030 0.7990 0.7891
1887.620750 0.7860 0.7780 0.7720 0.7690 0.7630
1894.644453 0.7610 0.7590 0.7590 0.7590 0.7610
1901.668156 0.7630 0.7650 0.7670 0.7690 0.7710
1908.691859 0.7720 0.7800 0.7890 0.7890 0.8029
1915.715562 0.8040 0.8080 0.8180 0.8230 0.8310
1922.739266 0.8420 0.8490 0.8570 0.8610 0.8699
1929.762969 0.8760 0.8790 0.8830 0.8870 0.8910
1936.786672 0.8940 0.9000 0.9000 0.9020 0.9020
1943.810375 0.9020 0.9020 0.9020 0.9020 0.9020
1950.834078 0.9020 0.9020 0.9020 0.9020 0.9020
1957.857781 0.9020 0.9020 0.9020 0.9000 0.9000
1964.881484 0.9000 0.8980 0.8940 0.8940 0.8940
1971.905187 0.8940 0.8960 0.8980 0.8980 0.8980
1978.928891 0.8980 0.8980 0.8980 0.9000 0.9000
1985.952594 0.9000 0.9020 0.9020 0.9020 0.9020
1992.976297 0.9000 0.8930 0.8811 0.8611 0.8997
2000.000000 0.8780 0.8760 0.8740 0.8710 0.8680
2007.023703 0.8670 0.8660 0.8645 0.8630 0.8609
2014.047406 0.8589 0.8559 0.8529 0.8494 0.8457
2021.071109 0.8382 0.8310 0.8299 0.8291 0.8301
2028.094812 0.8311 0.8321 0.8331 0.8346 0.8360
2035.118516 0.8360 0.8360 0.8360 0.8359 0.8349
2042.142219 0.8340 0.8340 0.8339 0.8334 0.8330
2049.165922 0.8330 0.8329 0.8319 0.8307 0.8287
2056.189625 0.8265 0.8235 0.8200 0.8145 0.8074
2063.213328 0.7933 0.7791 0.7641 0.7494 0.7364
2070.237031 0.7232 0.7097 0.6958 0.6808 0.6668
2077.260734 0.6568 0.6471 0.6386 0.6315 0.6295
2084.284437 0.6280 0.6280 0.6283 0.6293 0.6303
2091.308141 0.6313 0.6330 0.6365 0.6399 0.6429
2098.331844 0.6463 0.6508 0.6607 0.6833 0.7065
2105.355547 0.7310 0.7533 0.7703 0.7855 0.7967
2112.379250 0.8065 0.8135 0.8196 0.8241 0.8277
2119.402953 0.8297 0.8323 0.8358 0.8408 0.8483
2126.426656 0.8559 0.8634 0.8701 0.8756 0.8814
2133.450359 0.8874 0.8928 0.8973 0.9016 0.9057
2140.474062 0.9100 0.9145 0.9179 0.9199 0.9226
2147.497766 0.9261 0.9285 0.9295 0.9300 0.9300
2154.521469 0.9309 0.9329 0.9345 0.9355 0.9365
2161.545172 0.9375 0.9382 0.9387 0.9390 0.9390
2168.568875 0.9390 0.9390 0.9390 0.9390 0.9390
2175.592578 0.9390 0.9387 0.9382 0.9375 0.9364
2182.616281 0.9354 0.9344 0.9334 0.9324 0.9314
2189.639984 0.9304 0.9289 0.9268 0.9251 0.9236
2196.663687 0.9224 0.9214 0.9191 0.9161 0.9131
2203.687391 0.9101 0.9074 0.9049 0.9021 0.8991
2210.711094 0.8967 0.8947 0.8937 0.8932 0.8923
2217.734797 0.8913 0.8910 0.8910 0.8910 0.8910
2224.758500 0.8917 0.8927 0.8934 0.8939 0.8954
2231.782203 0.8974 0.9002 0.9032 0.9047 0.9057
2238.805906 0.9067 0.9077 0.9121 0.9176 0.9209
2245.829609 0.9234 0.9262 0.9293 0.9308 0.9318
2252.853312 0.9328 0.9338 0.9340 0.9340 0.9332
2259.877016 0.9322 0.9312 0.9302 0.9292 0.9282
2266.900719 0.9260 0.9234 0.9214 0.9193 0.9165
2273.924422 0.9135 0.9109 0.9084 0.9054 0.9024
2280.948125 0.9011 0.9001 0.8991 0.8981 0.8980
2287.971828 0.8980 0.8980 0.8980 0.8989 0.8999
2294.995531 0.9009 0.9019 0.9029 0.9039 0.9091
2302.019234 0.9146 0.9192 0.9237 0.9278 0.9318
2309.042937 0.9363 0.9409 0.9439 0.9469 0.9480
2316.066641 0.9490 0.9500 0.9510 0.9510 0.9510
2323.090344 0.9500 0.9490 0.9490 0.9490 0.9490
2330.114047 0.9490 0.9490 0.9490 0.9469 0.9450
2337.137750 0.9439 0.9430 0.9430 0.9430 0.9430
2344.161453 0.9429 0.9419 0.9410 0.9410 0.9410
2351.185156 0.9410 0.9411 0.9421 0.9430 0.9430
2358.208859 0.9430 0.9430 0.9430 0.9430 0.9430
2365.232562 0.9430 0.9430 0.9430 0.9430 0.9430
2372.256266 0.9430 0.9430 0.9428 0.9418 0.9408
2379.279969 0.9398 0.9390 0.9390 0.9387 0.9372
2386.303672 0.9358 0.9348 0.9338 0.9328 0.9320
2393.327375 0.9320 0.9320 0.9320 0.9318 0.9308
2400.351078 0.9298 0.9288 0.9275 0.9255 0.9239
2407.374781 0.9234 0.9225 0.9205 0.9182 0.9152
2414.398484 0.9127 0.9117 0.9107 0.9097 0.9090
2421.422188 0.9090 0.9090 0.9090 0.9093 0.9103
2428.445891 0.9113 0.9123 0.9130 0.9130 0.9133
2435.469594 0.9143 0.9157 0.9177 0.9194 0.9204
2442.493297 0.9210 0.9210 0.9210 0.9210 0.9210
2449.517000 0.9210 0.9210 0.9210 0.9206 0.9196
2456.540703 0.9186 0.9176 0.9162 0.9141 0.9126
2463.564406 0.9116 0.9095 0.9060 0.9031 0.9011
2470.588109 0.8984 0.8949 0.8912 0.8871 0.8828
2477.611813 0.8783 0.8745 0.8715 0.8685 0.8655
2484.635516 0.8627 0.8602 0.8585 0.8575 0.8565
2491.659219 0.8555 0.8550 0.8550 0.8555 0.8565
2498.682922 0.8570 0.8570 0.8581 0.8601 0.8630
2505.706625 0.8665 0.8718 0.8783 0.8845 0.8905
2512.730328 0.8945 0.8970 0.8986 0.8996 0.9012
2519.754031 0.9032 0.9052 0.9072 0.9089 0.9104
2526.777734 0.9122 0.9143 0.9156 0.9167 0.9177
2533.801438 0.9187 0.9203 0.9223 0.9233 0.9238
2540.825141 0.9254 0.9274 0.9287 0.9297 0.9307
2547.848844 0.9317 0.9320 0.9320 0.9320 0.9320
2554.872547 0.9320 0.9320 0.9320 0.9320 0.9320
2561.896250 0.9320 0.9320 0.9320 0.9320 0.9320
2568.919953 0.9312 0.9302 0.9300 0.9300 0.9292
2575.943656 0.9282 0.9272 0.9262 0.9252 0.9242
2582.967359 0.9228 0.9213 0.9202 0.9192 0.9165
2589.991063 0.9135 0.9113 0.9093 0.9090 0.9090
2597.014766 0.9077 0.9062 0.9026 0.8985 0.8950
2604.038469 0.8915 0.8866 0.8816 0.8801 0.8791
2611.062172 0.8786 0.8781 0.8762 0.8742 0.8731
2618.085875 0.8721 0.8711 0.8701 0.8709 0.8719
2625.109578 0.8729 0.8739 0.8773 0.8808 0.8839
2632.133281 0.8869 0.8923 0.8978 0.8990 0.9000
2639.156984 0.9010 0.9020 0.9030 0.9040 0.9060
2646.180688 0.9080 0.9085 0.9090 0.9100 0.9110
2653.204391 0.9110 0.9110 0.9120 0.9130 0.9130
2660.228094 0.9130 0.9140 0.9150 0.9150 0.9150
2667.251797 0.9150 0.9151 0.9161 0.9170 0.9170
2674.275500 0.9169 0.9159 0.9149 0.9139 0.9129
2681.299203 0.9119 0.9110 0.9110 0.9110 0.9110
2688.322906 0.9110 0.9110 0.9110 0.9110 0.9110
2695.346609 0.9110 0.9110 0.9110 0.9112 0.9122
2702.370313 0.9134 0.9154 0.9170 0.9170 0.9170
2709.394016 0.9170 0.9170 0.9170 0.9168 0.9158
2716.417719 0.9148 0.9138 0.9128 0.9118 0.9106
2723.441422 0.9091 0.9078 0.9067 0.9055 0.9034
2730.465125 0.9017 0.9007 0.9000 0.9000 0.8991
2737.488828 0.8961 0.8939 0.8934 0.8930 0.8930
2744.512531 0.8930 0.8930 0.8927 0.8917 0.8910
2751.536234 0.8910 0.8910 0.8910 0.8910 0.8910
2758.559938 0.8910 0.8910 0.8914 0.8924 0.8943
2765.583641 0.8978 0.9004 0.9014 0.9024 0.9034
2772.607344 0.9044 0.9054 0.9064 0.9074 0.9080
2779.631047 0.9080 0.9076 0.9066 0.9056 0.9045
2786.654750 0.9035 0.9025 0.9020 0.9020 0.9015
2793.678453 0.9005 0.8995 0.8985 0.8970 0.8950
2800.702156 0.8918 0.8873 0.8835 0.8805 0.8773
2807.725859 0.8738 0.8715 0.8705 0.8676 0.8631
2814.749563 0.8594 0.8564 0.8539 0.8519 0.8468
2821.773266 0.8393 0.8346 0.8321 0.8282 0.8232
2828.796969 0.8184 0.8139 0.8077 0.8001 0.7865
2835.820672 0.7684 0.7448 0.7174 0.6836 0.6460
2842.844375 0.6153 0.5887 0.5730 0.5634 0.5558
2849.868078 0.5493 0.5386 0.5255 0.5187 0.5152
2856.891781 0.5127 0.5107 0.5057 0.4992 0.4920
2863.915484 0.4844 0.4947 0.5135 0.5364 0.5610
2870.939188 0.5795 0.5955 0.6040 0.6095 0.6117
2877.962891 0.6127 0.6123 0.6113 0.6095 0.6075
2884.986594 0.6051 0.6026 0.6012 0.6002 0.5958
2892.010297 0.5903 0.5851 0.5800 0.5678 0.5538
2899.034000 0.5305 0.5049 0.4919 0.4819 0.4706
2906.057703 0.4591 0.4463 0.4333 0.4273 0.4228
2913.081406 0.4233 0.4248 0.4250 0.4250 0.4246
2920.105109 0.4241 0.4231 0.4221 0.4211 0.4201
2927.128813 0.4182 0.4162 0.4111 0.4055 0.3982
2934.152516 0.3907 0.3772 0.3632 0.3359 0.3073
2941.176219 0.2681 0.2280 0.1906 0.1535 0.1225
2948.199922 0.0919 0.0781 0.0654 0.0616 0.0581
2955.223625 0.0516 0.0451 0.0440 0.0430 0.0430
2962.247328 0.0430 0.0420 0.0410 0.0400 0.0390
2969.271031 0.0400 0.0412 0.0542 0.0673 0.0834
2976.294734 0.0999 0.1339 0.1674 0.1910 0.2143
2983.318438 0.2344 0.2539 0.2670 0.2790 0.2790
2990.342141 0.2787 0.2752 0.2696 0.2431 0.2164
2997.365844 0.1893 0.1640 0.1545 0.1507 0.1948
3004.389547 0.2339 0.2329 0.2319 0.2309 0.2298
3011.413250 0.2288 0.2280 0.2280 0.2254 0.2093
3018.436953 0.1985 0.2130 0.2269 0.2380 0.2493
3025.460656 0.2618 0.2735 0.2815 0.2869 0.2814
3032.484359 0.2778 0.2819 0.2856 0.2881 0.2966
3039.508063 0.3242 0.3491 0.3656 0.3842 0.4088
3046.531766 0.4377 0.4794 0.5134 0.5265 0.5386
3053.555469 0.5481 0.5578 0.5678 0.5780 0.5885
3060.579172 0.5969 0.5999 0.6031 0.6066 0.6106
3067.602875 0.6157 0.6208 0.6264 0.6326 0.6401
3074.626578 0.6473 0.6538 0.6617 0.6722 0.6813
3081.650281 0.6878 0.6940 0.6995 0.7050 0.7106
3088.673984 0.7159 0.7210 0.7263 0.7318 0.7373
3095.697688 0.7428 0.7483 0.7538 0.7591 0.7642
3102.721391 0.7685 0.7720 0.7758 0.7798 0.7836
3109.745094 0.7871 0.7913 0.7963 0.7999 0.8019
3116.768797 0.8046 0.8082 0.8115 0.8145 0.8168
3123.792500 0.8183 0.8195 0.8205 0.8225 0.8256
3130.816203 0.8286 0.8316 0.8343 0.8368 0.8391
3137.839906 0.8411 0.8436 0.8466 0.8494 0.8519
3144.863609 0.8541 0.8562 0.8576 0.8586 0.8602
3151.887313 0.8622 0.8633 0.8638 0.8646 0.8656
3158.911016 0.8672 0.8692 0.8712 0.8732 0.8746
3165.934719 0.8756 0.8766 0.8776 0.8783 0.8788
3172.958422 0.8796 0.8807 0.8817 0.8827 0.8837
3179.982125 0.8847 0.8857 0.8867 0.8877 0.8887
3187.005828 0.8897 0.8907 0.8910 0.8910 0.8917
3194.029531 0.8927 0.8934 0.8939 0.8947 0.8957
3201.053234 0.8967 0.8978 0.8988 0.8998 0.9000
3208.076938 0.9000 0.9000 0.9000 0.9000 0.9000
3215.100641 0.9008 0.9018 0.9028 0.9038 0.9056
3222.124344 0.9076 0.9084 0.9089 0.9098 0.9108
3229.148047 0.9118 0.9128 0.9130 0.9130 0.9130
3236.171750 0.9130 0.9139 0.9149 0.9159 0.9169
3243.195453 0.9170 0.9170 0.9170 0.9170 0.9170
3250.219156 0.9170 0.9170 0.9170 0.9170 0.9170
3257.242859 0.9170 0.9170 0.9179 0.9189 0.9190
3264.266563 0.9190 0.9199 0.9210 0.9220 0.9230
3271.290266 0.9230 0.9230 0.9230 0.9230 0.9230
3278.313969 0.9230 0.9230 0.9230 0.9230 0.9230
3285.337672 0.9230 0.9230 0.9230 0.9230 0.9220
3292.361375 0.9210 0.9200 0.9190 0.9190 0.9190
3299.385078 0.9180 0.9170 0.9170 0.9170 0.9170
3306.408781 0.9170 0.9170 0.9170 0.9170 0.9170
3313.432484 0.9170 0.9170 0.9170 0.9170 0.9170
3320.456188 0.9171 0.9181 0.9190 0.9190 0.9191
3327.479891 0.9201 0.9211 0.9221 0.9230 0.9230
3334.503594 0.9231 0.9236 0.9240 0.9240 0.9240
3341.527297 0.9240 0.9240 0.9240 0.9240 0.9240
3348.551000 0.9240 0.9240 0.9239 0.9234 0.9230
3355.574703 0.9230 0.9230 0.9230 0.9230 0.9230
3362.598406 0.9228 0.9218 0.9210 0.9210 0.9210
3369.622109 0.9210 0.9210 0.9210 0.9210 0.9210
3376.645813 0.9210 0.9210 0.9210 0.9210 0.9210
3383.669516 0.9210 0.9213 0.9223 0.9230 0.9230
3390.693219 0.9230 0.9230 0.9230 0.9230 0.9232
3397.716922 0.9237 0.9240 0.9240 0.9238 0.9233
3404.740625 0.9230 0.9230 0.9230 0.9230 0.9230
3411.764328 0.9230 0.9230 0.9230 0.9230 0.9230
3418.788031 0.9230 0.9230 0.9226 0.9216 0.9210
3425.811734 0.9210 0.9210 0.9210 0.9205 0.9195
3432.835438 0.9185 0.9175 0.9165 0.9155 0.9150
3439.859141 0.9150 0.9145 0.9135 0.9130 0.9130
3446.882844 0.9130 0.9130 0.9135 0.9145 0.9150
3453.906547 0.9150 0.9155 0.9165 0.9170 0.9170
3460.930250 0.9176 0.9186 0.9190 0.9190 0.9190
3467.953953 0.9190 0.9190 0.9190 0.9190 0.9190
3474.977656 0.9184 0.9174 0.9164 0.9154 0.9138
3482.001359 0.9117 0.9104 0.9094 0.9074 0.9049
3489.025063 0.9034 0.9024 0.9013 0.9003 0.8977
3496.048766 0.8942 0.8884 0.8813 0.8716 0.8606
3503.072469 0.8506 0.8410 0.8254 0.8068 0.7937
3510.096172 0.7830 0.7724 0.7619 0.7579 0.7564
3517.119875 0.7571 0.7586 0.7675 0.7790 0.7734
3524.143578 0.7619 0.7470 0.7309 0.7270 0.7270
3531.167281 0.7285 0.7305 0.7375 0.7461 0.7590
3538.190984 0.7733 0.7873 0.8014 0.8170 0.8331
3545.214688 0.8475 0.8615 0.8698 0.8768 0.8855
3552.238391 0.8945 0.9010 0.9071 0.9118 0.9163
3559.262094 0.9170 0.9170 0.9153 0.9133 0.9112
3566.285797 0.9092 0.9090 0.9090 0.9090 0.9090
3573.309500 0.9090 0.9090 0.9090 0.9090 0.9085
3580.333203 0.9080 0.9071 0.9061 0.9051 0.9041
3587.356906 0.9040 0.9040 0.9049 0.9059 0.9060
3594.380609 0.9060 0.9060 0.9060 0.9075 0.9090
3601.404313 0.9100 0.9110 0.9130 0.9150 0.9170
3608.428016 0.9190 0.9200 0.9210 0.9210 0.9210
3615.451719 0.9220 0.9230 0.9245 0.9260 0.9271
3622.475422 0.9278 0.9253 0.9230 0.9230 0.9230
3629.499125 0.9235 0.9241 0.9251 0.9262 0.9282
3636.522828 0.9301 0.9311 0.9320 0.9320 0.9319
3643.546531 0.9309 0.9292 0.9227 0.9168 0.9147
3650.570234 0.9130 0.9130 0.9132 0.9142 0.9153
3657.593938 0.9173 0.9194 0.9214 0.9230 0.9230
3664.617641 0.9226 0.9206 0.9186 0.9166 0.9144
3671.641344 0.9114 0.9089 0.9084 0.9080 0.9080
3678.665047 0.9081 0.9086 0.9095 0.9115 0.9133
3685.688750 0.9143 0.9153 0.9163 0.9173 0.9183
3692.712453 0.9193 0.9203 0.9210 0.9210 0.9213
3699.736156 0.9223 0.9230 0.9230 0.9224 0.9204
3706.759859 0.9183 0.9163 0.9147 0.9137 0.9127
3713.783563 0.9117 0.9114 0.9124 0.9130 0.9130
3720.807266 0.9141 0.9171 0.9197 0.9217 0.9232
3727.830969 0.9237 0.9240 0.9240 0.9238 0.9233
3734.854672 0.9230 0.9230 0.9230 0.9230 0.9221
3741.878375 0.9201 0.9190 0.9190 0.9181 0.9161
3748.902078 0.9150 0.9150 0.9150 0.9150 0.9159
3755.925781 0.9179 0.9202 0.9227 0.9245 0.9255
3762.949484 0.9265 0.9275 0.9285 0.9295 0.9300
3769.973188 0.9300 0.9300 0.9300 0.9305 0.9315
3776.996891 0.9320 0.9320 0.9320 0.9320 0.9325
3784.020594 0.9336 0.9346 0.9356 0.9366 0.9376
3791.044297 0.9374 0.9364 0.9354 0.9344 0.9322
3798.068000 0.9292 0.9280 0.9280 0.9268 0.9248
3805.091703 0.9240 0.9240 0.9259 0.9289 0.9300
3812.115406 0.9300 0.9294 0.9284 0.9280 0.9280
3819.139109 0.9273 0.9263 0.9260 0.9260 0.9260
3826.162813 0.9260 0.9260 0.9260 0.9260 0.9260
3833.186516 0.9260 0.9260 0.9253 0.9243 0.9240
3840.210219 0.9240 0.9247 0.9257 0.9260 0.9260
3847.233922 0.9252 0.9242 0.9236 0.9231 0.9222
3854.257625 0.9212 0.9210 0.9210 0.9210 0.9210
3861.281328 0.9210 0.9210 0.9218 0.9228 0.9230
3868.305031 0.9230 0.9230 0.9230 0.9230 0.9230
3875.328734 0.9234 0.9239 0.9240 0.9240 0.9249
3882.352438 0.9259 0.9260 0.9260 0.9251 0.9241
3889.376141 0.9240 0.9240 0.9236 0.9231 0.9221
3896.399844 0.9211 0.9210 0.9210 0.9201 0.9191
3903.423547 0.9190 0.9190 0.9190 0.9190 0.9190
3910.447250 0.9190 0.9190 0.9190 0.9200 0.9210
3917.470953 0.9220 0.9230 0.9220 0.9210 0.9210
3924.494656 0.9210 0.9200 0.9190 0.9190 0.9190
3931.518359 0.9180 0.9170 0.9160 0.9150 0.9150
3938.542063 0.9150 0.9150 0.9150 0.9150 0.9150
3945.565766 0.9150 0.9150 0.9150 0.9150 0.9150
3952.589469 0.9151 0.9161 0.9170 0.9170 0.9171
3959.613172 0.9181 0.9190 0.9190 0.9189 0.9179
3966.636875 0.9170 0.9170 0.9170 0.9170 0.9169
3973.660578 0.9158 0.9150 0.9150 0.9148 0.9138
3980.684281 0.9128 0.9118 0.9107 0.9092 0.9080
3987.707984 0.9080 0.9078 0.9068 0.9060 0.9060
3994.731688 0.9056 0.9035 0.9018 0.9008 0.9000
4001.755391 0.9000
##END=
