##TITLE=PROPANOIC ACID, 2-METHYL-
##JCAMP-DX=4.24
##DATA TYPE=INFRARED SPECTRUM
##CLASS=COBLENTZ II
##ORIGIN=DOW CORNING CORP.
##OWNER=COBLENTZ SOCIETY
Collection (C) 2018 copyright by the U.S. Secretary of Commerce
on behalf of the United States of America. All rights reserved.
##DATE=1965
##NAMES=2-methylpropanoic acid
ISO-BUTYRIC ACID
##CAS REGISTRY NO=79-31-2
##MOLFORM=C4 H8 O2
##BP=153 C
##SOURCE REFERENCE=COBLENTZ NO. 4821
##$NIST SOURCE=COBLENTZ
##$NIST IMAGE=cob4821
##SPECTROMETER/DATA SYSTEM=PERKIN-ELMER 521 (GRATING)
##INSTRUMENT PARAMETERS=GRATING CHANGES AT 2000, 630 CM^-^1
##STATE=SOLUTION (2% IN CCl4 FOR 3800-1300, 2% IN CS2 FOR 1300-650, 2% IN CCl4 FOR 650-250 CM^-^1) VERSUS SOLVENT
##PATH LENGTH=0.011, 0.010, AND 0.011 CM (CsBr CELL)
$$ 97% PURE
##SAMPLING PROCEDURE=TRANSMISSION
##RESOLUTION=4
##DATA PROCESSING=DIGITIZED BY NIST FROM HARD COPY (FROM TWO SEGMENTS)
##XUNITS=1/CM
##YUNITS=TRANSMITTANCE
##XFACTOR=1.000000
##YFACTOR=1
##DELTAX=0.984686
##FIRSTX=277.79
##LASTX=3795.09
##FIRSTY=0.775
##MAXX=3795.09
##MINX=277.79
##MAXY=0.939
##MINY=0.017
##NPOINTS=3573
##XYDATA=(X++(Y..Y))
277.790000 0.7750 0.7740 0.7740 0.7720 0.7720
282.713428 0.7720 0.7720 0.7720 0.7740 0.7740
287.636857 0.7760 0.7760 0.7790 0.7800 0.7800
292.560285 0.7830 0.7830 0.7820 0.7800 0.7800
297.483713 0.7800 0.7800 0.7790 0.7790 0.7790
302.407141 0.7780 0.7780 0.7780 0.7780 0.7790
307.330570 0.7790 0.7800 0.7800 0.7800 0.7800
312.253998 0.7800 0.7800 0.7800 0.7800 0.7800
317.177426 0.7800 0.7800 0.7800 0.7800 0.7790
322.100855 0.7790 0.7800 0.7820 0.7820 0.7830
327.024283 0.7840 0.7860 0.7860 0.7870 0.7870
331.947711 0.7870 0.7880 0.7900 0.7900 0.7900
336.871139 0.7870 0.7870 0.7870 0.7880 0.7880
341.794568 0.7880 0.7870 0.7870 0.7860 0.7860
346.717996 0.7840 0.7840 0.7840 0.7830 0.7820
351.641424 0.7820 0.7800 0.7800 0.7790 0.7780
356.564853 0.7780 0.7780 0.7790 0.7790 0.7790
361.488281 0.7790 0.7800 0.7820 0.7830 0.7840
366.411709 0.7860 0.7870 0.7870 0.7900 0.7940
371.335137 0.7980 0.8030 0.8040 0.8060 0.8100
376.258566 0.8120 0.8140 0.8160 0.8180 0.8200
381.181994 0.8200 0.8200 0.8220 0.8220 0.8220
386.105422 0.8220 0.8220 0.8220 0.8200 0.8200
391.028851 0.8200 0.8200 0.8180 0.8180 0.8160
395.952279 0.8140 0.8120 0.8110 0.8100 0.8080
400.875707 0.8080 0.8070 0.8070 0.8060 0.8060
405.799135 0.8060 0.8040 0.8040 0.8040 0.8030
410.722564 0.8020 0.8030 0.8020 0.8000 0.8000
415.645992 0.8000 0.7990 0.7990 0.7990 0.7980
420.569420 0.7980 0.7960 0.7960 0.7950 0.7950
425.492849 0.7950 0.7960 0.7960 0.7980 0.7980
430.416277 0.7980 0.7990 0.7990 0.8000 0.8000
435.339705 0.8020 0.8020 0.8020 0.8030 0.8030
440.263133 0.8040 0.8060 0.8080 0.8080 0.8100
445.186562 0.8100 0.8110 0.8120 0.8140 0.8160
450.109990 0.8190 0.8220 0.8230 0.8240 0.8260
455.033418 0.8270 0.8280 0.8300 0.8310 0.8320
459.956847 0.8340 0.8340 0.8350 0.8350 0.8350
464.880275 0.8350 0.8360 0.8380 0.8350 0.8390
469.803703 0.8390 0.8400 0.8390 0.8400 0.8400
474.727131 0.8420 0.8420 0.8420 0.8420 0.8420
479.650560 0.8420 0.8430 0.8430 0.8430 0.8430
484.573988 0.8430 0.8430 0.8430 0.8430 0.8430
489.497416 0.8430 0.8430 0.8420 0.8420 0.8420
494.420845 0.8420 0.8400 0.8400 0.8400 0.8390
499.344273 0.8380 0.8380 0.8360 0.8350 0.8350
504.267701 0.8340 0.8320 0.8320 0.8300 0.8270
509.191129 0.8260 0.8240 0.8230 0.8200 0.8180
514.114558 0.8160 0.8140 0.8100 0.8030 0.7950
519.037986 0.7880 0.7840 0.7800 0.7790 0.7800
523.961414 0.7820 0.7830 0.7860 0.7870 0.7870
528.884843 0.7870 0.7840 0.7820 0.7780 0.7740
533.808271 0.7740 0.7710 0.7680 0.7520 0.7500
538.731699 0.7520 0.7580 0.7630 0.7700 0.7750
543.655127 0.7860 0.7880 0.7940 0.7980 0.8000
548.578556 0.8040 0.8080 0.8110 0.8120 0.8140
553.501984 0.8140 0.8150 0.8150 0.8160 0.8150
558.425412 0.8150 0.8150 0.8140 0.8140 0.8120
563.348841 0.8120 0.8110 0.8110 0.8100 0.8100
568.272269 0.8080 0.8080 0.8070 0.8070 0.8060
573.195697 0.8030 0.8020 0.8020 0.8000 0.8000
578.119125 0.7990 0.7990 0.7980 0.7960 0.7960
583.042554 0.7960 0.7960 0.7960 0.7950 0.7950
587.965982 0.7950 0.7950 0.7940 0.7940 0.7940
592.889410 0.7940 0.7940 0.7940 0.7950 0.7950
597.812839 0.7950 0.7960 0.7960 0.7960 0.7980
602.736267 0.7980 0.7980 0.8000 0.8000 0.8020
607.659695 0.8030 0.8030 0.8040 0.8060 0.8070
612.583123 0.8070 0.8080 0.8100 0.8110 0.8110
617.506552 0.8120 0.8140 0.8150 0.8150 0.8160
622.429980 0.8180 0.8190 0.8200 0.8200 0.8220
627.353408 0.8230 0.8240 0.8240 0.8270 0.8280
632.276837 0.8310 0.8320 0.8340 0.8350 0.8350
637.200265 0.8380 0.8400 0.8430 0.8460 0.8470
642.123693 0.8470 0.8510 0.8550 0.8620 0.8640
647.047121 0.8660 0.8770 0.8860 0.8870 0.8930
651.970550 0.8930 0.8930 0.8940 0.8950 0.8950
656.893978 0.8980 0.8990 0.9020 0.9020 0.9010
661.817406 0.9010 0.9020 0.9030 0.9070 0.9090
666.740835 0.9100 0.9100 0.9100 0.9100 0.9090
671.664263 0.9100 0.9100 0.9110 0.9130 0.9130
676.587691 0.9110 0.9130 0.9130 0.9130 0.9130
681.511119 0.9140 0.9150 0.9170 0.9180 0.9180
686.434548 0.9190 0.9170 0.9170 0.9180 0.9190
691.357976 0.9220 0.9230 0.9230 0.9250 0.9260
696.281404 0.9270 0.9270 0.9290 0.9290 0.9300
701.204833 0.9300 0.9290 0.9300 0.9330 0.9340
706.128261 0.9350 0.9350 0.9350 0.9370 0.9370
711.051689 0.9380 0.9380 0.9380 0.9380 0.9380
715.975117 0.9380 0.9370 0.9370 0.9350 0.9340
720.898546 0.9340 0.9340 0.9330 0.9330 0.9330
725.821974 0.9330 0.9310 0.9310 0.9310 0.9310
730.745402 0.9330 0.9310 0.9310 0.9300 0.9290
735.668831 0.9290 0.9290 0.9290 0.9290 0.9290
740.592259 0.9290 0.9290 0.9290 0.9290 0.9290
745.515687 0.9300 0.9300 0.9300 0.9300 0.9290
750.439115 0.9300 0.9300 0.9300 0.9300 0.9310
755.362544 0.9310 0.9310 0.9310 0.9330 0.9340
760.285972 0.9340 0.9340 0.9340 0.9340 0.9340
765.209400 0.9330 0.9310 0.9300 0.9290 0.9270
770.132829 0.9260 0.9250 0.9250 0.9250 0.9230
775.056257 0.9230 0.9230 0.9230 0.9250 0.9250
779.979685 0.9220 0.9210 0.9210 0.9190 0.9170
784.903113 0.9170 0.9150 0.9140 0.9140 0.9130
789.826542 0.9110 0.9090 0.9070 0.9060 0.9020
794.749970 0.8980 0.8970 0.8910 0.8850 0.8740
799.673398 0.8580 0.8470 0.8300 0.8110 0.7940
804.596827 0.7760 0.7580 0.7580 0.7779 0.8179
809.520255 0.8500 0.8770 0.8860 0.8910 0.8910
814.443683 0.8950 0.9060 0.9070 0.9070 0.9070
819.367111 0.9070 0.9070 0.9070 0.9070 0.9060
824.290540 0.9060 0.9060 0.9060 0.9060 0.9060
829.213968 0.9050 0.9050 0.9030 0.9030 0.9020
834.137396 0.9020 0.9010 0.9010 0.9010 0.8990
839.060825 0.8980 0.8970 0.8950 0.8910 0.8890
843.984253 0.8870 0.8860 0.8850 0.8830 0.8790
848.907681 0.8770 0.8740 0.8750 0.8740 0.8720
853.831109 0.8720 0.8720 0.8710 0.8710 0.8700
858.754538 0.8680 0.8680 0.8680 0.8670 0.8660
863.677966 0.8630 0.8600 0.8590 0.8590 0.8550
868.601394 0.8520 0.8510 0.8500 0.8470 0.8460
873.524823 0.8440 0.8420 0.8420 0.8420 0.8400
878.448251 0.8380 0.8360 0.8340 0.8340 0.8320
883.371679 0.8300 0.8270 0.8200 0.8160 0.8150
888.295107 0.8100 0.8070 0.7990 0.7990 0.7980
893.218536 0.7940 0.7870 0.7790 0.7760 0.7700
898.141964 0.7620 0.7520 0.7510 0.7440 0.7310
903.065392 0.7250 0.7230 0.7090 0.6990 0.6870
907.988821 0.6760 0.6650 0.6650 0.7000 0.7030
912.912249 0.7010 0.7000 0.6960 0.6930 0.6880
917.835677 0.6830 0.6760 0.6690 0.6590 0.6530
922.759105 0.6470 0.6410 0.6400 0.6360 0.6320
927.682534 0.6280 0.6250 0.6240 0.6220 0.6210
932.605962 0.6210 0.6200 0.6200 0.6200 0.6200
937.529390 0.6210 0.6220 0.6240 0.6250 0.6290
942.452819 0.6320 0.6350 0.6410 0.6480 0.6610
947.376247 0.6680 0.6770 0.6840 0.6910 0.7040
952.299675 0.7120 0.7230 0.7250 0.7280 0.7370
957.223103 0.7450 0.7520 0.7600 0.7720 0.7790
962.146532 0.7910 0.7980 0.8070 0.8150 0.8190
967.069960 0.8260 0.8310 0.8380 0.8540 0.8560
971.993388 0.8580 0.8590 0.8630 0.8670 0.8770
976.916817 0.8810 0.8830 0.8890 0.8930 0.8940
981.840245 0.8940 0.8970 0.8980 0.9020 0.9060
986.763673 0.9060 0.9070 0.9090 0.9100 0.9150
991.687101 0.9150 0.9150 0.9170 0.9180 0.9190
996.610530 0.9210 0.9230 0.9250 0.9290 0.9310
1001.533958 0.9340 0.9340 0.9350 0.9350 0.9350
1006.457386 0.9370 0.9370 0.9380 0.9380 0.9380
1011.380815 0.9380 0.9380 0.9390 0.9390 0.9390
1016.304243 0.9390 0.9390 0.9390 0.9390 0.9380
1021.227671 0.9380 0.9380 0.9380 0.9380 0.9380
1026.151099 0.9380 0.9380 0.9380 0.9370 0.9370
1031.074528 0.9350 0.9340 0.9330 0.9310 0.9310
1035.997956 0.9300 0.9290 0.9290 0.9270 0.9260
1040.921384 0.9260 0.9250 0.9230 0.9230 0.9230
1045.844813 0.9220 0.9220 0.9220 0.9220 0.9190
1050.768241 0.9150 0.9170 0.9150 0.9140 0.9130
1055.691669 0.9110 0.9100 0.9090 0.9070 0.9060
1060.615097 0.8980 0.8970 0.8940 0.8870 0.8780
1065.538526 0.8680 0.8580 0.8460 0.8320 0.8160
1070.461954 0.8070 0.8040 0.7900 0.7820 0.7790
1075.385382 0.7780 0.7790 0.7860 0.8100 0.8180
1080.308811 0.8190 0.8190 0.8180 0.8160 0.8150
1085.232239 0.8140 0.8120 0.8070 0.8030 0.7920
1090.155667 0.7820 0.7710 0.7600 0.7580 0.7600
1095.079095 0.7700 0.7780 0.7870 0.8000 0.8190
1100.002524 0.8230 0.8320 0.8350 0.8350 0.8380
1104.925952 0.8390 0.8400 0.8420 0.8430 0.8440
1109.849380 0.8470 0.8500 0.8520 0.8540 0.8550
1114.772809 0.8600 0.8620 0.8640 0.8710 0.8740
1119.696237 0.8780 0.8820 0.8890 0.8940 0.8940
1124.619665 0.8950 0.8980 0.9010 0.9020 0.9020
1129.543093 0.9030 0.9030 0.9050 0.9050 0.9050
1134.466522 0.9050 0.9050 0.9050 0.9050 0.9050
1139.389950 0.9050 0.9050 0.9030 0.9030 0.9020
1144.313378 0.8970 0.8930 0.8900 0.8870 0.8850
1149.236807 0.8820 0.8770 0.8710 0.8620 0.8560
1154.160235 0.8460 0.8350 0.8240 0.8140 0.7830
1159.083663 0.7630 0.7440 0.7230 0.7190 0.7230
1164.007091 0.7390 0.7500 0.7680 0.7781 0.8270
1168.930520 0.8400 0.8520 0.8600 0.8620 0.8670
1173.853948 0.8720 0.8770 0.8790 0.8810 0.8810
1178.777376 0.8810 0.8790 0.8780 0.8780 0.8770
1183.700805 0.8740 0.8720 0.8700 0.8680 0.8670
1188.624233 0.8660 0.8630 0.8620 0.8600 0.8590
1193.547661 0.8580 0.8550 0.8520 0.8520 0.8510
1198.471089 0.8480 0.8440 0.8390 0.8360 0.8320
1203.394518 0.8310 0.8270 0.8150 0.8070 0.7990
1208.317946 0.7950 0.7820 0.7750 0.7660 0.7600
1213.241374 0.7440 0.7360 0.7240 0.7090 0.6970
1218.164803 0.6840 0.6680 0.6480 0.6141 0.5891
1223.088231 0.5689 0.5379 0.5089 0.4790 0.4510
1228.011659 0.4300 0.4060 0.3400 0.3230 0.3020
1232.935087 0.2990 0.3000 0.3040 0.3110 0.3190
1237.858516 0.3300 0.3560 0.4030 0.4370 0.4909
1242.781944 0.5161 0.5481 0.5880 0.6080 0.6250
1247.705372 0.6430 0.6650 0.6870 0.7070 0.7230
1252.628801 0.7330 0.7450 0.7510 0.7520 0.7540
1257.552229 0.7550 0.7540 0.7520 0.7520 0.7480
1262.475657 0.7440 0.7410 0.7370 0.7330 0.7310
1267.399085 0.7270 0.7230 0.7130 0.7080 0.6950
1272.322514 0.6910 0.6880 0.6770 0.6670 0.6550
1277.245942 0.6410 0.6280 0.6160 0.6130 0.6050
1282.169370 0.6000 0.5980 0.6000 0.6010 0.6060
1287.092799 0.6120 0.6170 0.6240 0.6250 0.6809
1292.016227 0.7090 0.7110 0.7120 0.7150 0.7150
1296.939655 0.7190 0.7190 0.7200 0.7210 0.7310
1301.863083 0.7320 0.7330 0.7330 0.7330 0.7320
1306.786512 0.7310 0.7310 0.7290 0.7290 0.7280
1311.709940 0.7270 0.7250 0.7240 0.7230 0.7190
1316.633368 0.7170 0.7130 0.7110 0.7090 0.7090
1321.556797 0.7070 0.7040 0.7040 0.7030 0.7030
1326.480225 0.7000 0.6990 0.6990 0.6970 0.6970
1331.403653 0.6970 0.6970 0.6990 0.7000 0.7030
1336.327081 0.7040 0.7160 0.7200 0.7230 0.7270
1341.250510 0.7330 0.7360 0.7440 0.7520 0.7600
1346.173938 0.7630 0.7640 0.7720 0.7740 0.7750
1351.097366 0.7790 0.7800 0.7800 0.7800 0.7790
1356.020794 0.7790 0.7780 0.7760 0.7760 0.7710
1360.944223 0.7680 0.7640 0.7620 0.7550 0.7440
1365.867651 0.7360 0.7240 0.7120 0.7120 0.7310
1370.791079 0.7480 0.7540 0.7640 0.7740 0.7720
1375.714508 0.7710 0.7670 0.7630 0.7580 0.7560
1380.637936 0.7500 0.7370 0.7240 0.7120 0.6970
1385.561364 0.6830 0.6830 0.6880 0.7150 0.7200
1390.484792 0.7331 0.7470 0.7510 0.7510 0.7500
1395.408221 0.7480 0.7450 0.7440 0.7410 0.7400
1400.331649 0.7360 0.7330 0.7290 0.7230 0.7110
1405.255077 0.7000 0.6880 0.6770 0.6640 0.6490
1410.178506 0.6329 0.6129 0.5890 0.5730 0.5600
1415.101934 0.5380 0.5090 0.5090 0.5280 0.5340
1420.025362 0.5451 0.5730 0.5880 0.5960 0.6020
1424.948790 0.6180 0.6370 0.6550 0.6640 0.6710
1429.872219 0.6930 0.6990 0.7130 0.7160 0.7270
1434.795647 0.7320 0.7330 0.7350 0.7350 0.7350
1439.719075 0.7330 0.7330 0.7310 0.7280 0.7230
1444.642504 0.7150 0.7110 0.7080 0.7070 0.7040
1449.565932 0.7040 0.7030 0.7010 0.7010 0.7010
1454.489360 0.7000 0.6960 0.6890 0.6790 0.6750
1459.412788 0.6710 0.6690 0.6670 0.6670 0.6650
1464.336217 0.6610 0.6490 0.6400 0.6310 0.5881
1469.259645 0.5729 0.5540 0.5379 0.4939 0.4650
1474.183073 0.4370 0.4070 0.4070 0.4460 0.4570
1479.106502 0.5134 0.6142 0.6810 0.6970 0.7200
1484.029930 0.7430 0.7550 0.7620 0.7780 0.7880
1488.953358 0.7920 0.7950 0.7980 0.8000 0.8020
1493.876786 0.8040 0.8060 0.8060 0.8060 0.8060
1498.800215 0.8060 0.8040 0.8040 0.8040 0.8030
1503.723643 0.8030 0.8030 0.8020 0.8020 0.8020
1508.647071 0.8000 0.8000 0.8000 0.8000 0.7990
1513.570500 0.7990 0.7990 0.7980 0.7960 0.7960
1518.493928 0.7950 0.7950 0.7940 0.7940 0.7920
1523.417356 0.7920 0.7910 0.7900 0.7880 0.7870
1528.340784 0.7860 0.7840 0.7830 0.7820 0.7800
1533.264213 0.7790 0.7780 0.7760 0.7760 0.7750
1538.187641 0.7750 0.7750 0.7740 0.7740 0.7720
1543.111069 0.7720 0.7720 0.7740 0.7740 0.7740
1548.034498 0.7750 0.7750 0.7760 0.7780 0.7790
1552.957926 0.7800 0.7820 0.7820 0.7830 0.7840
1557.881354 0.7860 0.7870 0.7880 0.7900 0.7910
1562.804782 0.7920 0.7920 0.7940 0.7940 0.7950
1567.728211 0.7950 0.7950 0.7960 0.7960 0.7960
1572.651639 0.7960 0.7960 0.7960 0.7960 0.7960
1577.575067 0.7960 0.7950 0.7950 0.7950 0.7950
1582.498496 0.7950 0.7950 0.7960 0.7960 0.7960
1587.421924 0.7960 0.7960 0.7980 0.7980 0.7980
1592.345352 0.7980 0.7990 0.7990 0.8000 0.8000
1597.268780 0.8020 0.8020 0.8030 0.8030 0.8030
1602.192209 0.8030 0.8030 0.8040 0.8040 0.8040
1607.115637 0.8040 0.8040 0.8040 0.8060 0.8060
1612.039065 0.8060 0.8060 0.8060 0.8060 0.8060
1616.962494 0.8060 0.8040 0.8040 0.8030 0.8030
1621.885922 0.8030 0.8020 0.8020 0.8000 0.8000
1626.809350 0.7990 0.7990 0.7980 0.7960 0.7950
1631.732778 0.7920 0.7900 0.7880 0.7880 0.7860
1636.656207 0.7840 0.7830 0.7830 0.7820 0.7800
1641.579635 0.7790 0.7780 0.7780 0.7760 0.7760
1646.503063 0.7750 0.7720 0.7710 0.7680 0.7660
1651.426492 0.7640 0.7620 0.7600 0.7580 0.7550
1656.349920 0.7510 0.7500 0.7450 0.7440 0.7440
1661.273348 0.7430 0.7410 0.7400 0.7390 0.7330
1666.196776 0.7280 0.7270 0.7250 0.7240 0.7120
1671.120205 0.7070 0.7050 0.7030 0.6950 0.6890
1676.043633 0.6810 0.6790 0.6750 0.6690 0.6600
1680.967061 0.6490 0.6360 0.6240 0.6100 0.5970
1685.890490 0.5778 0.5329 0.5159 0.4999 0.4820
1690.813918 0.4659 0.4300 0.4090 0.3870 0.3670
1695.737346 0.3459 0.3257 0.2478 0.1889 0.1689
1700.660774 0.1410 0.1180 0.0960 0.0650 0.0410
1705.584203 0.0260 0.0180 0.0170 0.0170 0.0180
1710.507631 0.0250 0.0290 0.0330 0.0360 0.0440
1715.431059 0.0460 0.0490 0.0570 0.0610 0.0651
1720.354488 0.1010 0.1160 0.1330 0.1590 0.1870
1725.277916 0.2191 0.2541 0.2901 0.3271 0.3671
1730.201344 0.4060 0.4460 0.4850 0.5100 0.5360
1735.124772 0.5681 0.5860 0.5940 0.6010 0.6160
1740.048201 0.6310 0.6440 0.6530 0.6530 0.6560
1744.971629 0.6600 0.6630 0.6640 0.6650 0.6650
1749.895057 0.6650 0.6670 0.6670 0.6670 0.6670
1754.818486 0.6680 0.6680 0.6690 0.6720 0.6760
1759.741914 0.6880 0.6950 0.7160 0.7240 0.7270
1764.665342 0.7320 0.7430 0.7520 0.7590 0.7620
1769.588770 0.7680 0.7740 0.7800 0.7820 0.7830
1774.512199 0.7840 0.7870 0.7900 0.7920 0.7940
1779.435627 0.7940 0.7950 0.7950 0.7960 0.7960
1784.359055 0.7960 0.7960 0.7980 0.7960 0.7980
1789.282484 0.7990 0.7990 0.8020 0.8020 0.8020
1794.205912 0.8020 0.8020 0.8030 0.8030 0.8030
1799.129340 0.8030 0.8040 0.8040 0.8020 0.8020
1804.052768 0.8020 0.8020 0.8020 0.8020 0.8020
1808.976197 0.8020 0.8020 0.8030 0.8030 0.8030
1813.899625 0.8030 0.8030 0.8030 0.8030 0.8030
1818.823053 0.8030 0.8040 0.8040 0.8030 0.8030
1823.746482 0.8030 0.8030 0.8040 0.8040 0.8060
1828.669910 0.8070 0.8080 0.8100 0.8100 0.8110
1833.593338 0.8110 0.8120 0.8120 0.8120 0.8120
1838.516766 0.8120 0.8140 0.8150 0.8160 0.8160
1843.440195 0.8180 0.8190 0.8180 0.8190 0.8200
1848.363623 0.8200 0.8220 0.8230 0.8240 0.8260
1853.287051 0.8260 0.8260 0.8260 0.8260 0.8260
1858.210480 0.8270 0.8270 0.8280 0.8300 0.8310
1863.133908 0.8310 0.8310 0.8310 0.8310 0.8310
1868.057336 0.8310 0.8310 0.8310 0.8280 0.8280
1872.980764 0.8300 0.8300 0.8300 0.8310 0.8310
1877.904193 0.8310 0.8310 0.8320 0.8320 0.8320
1882.827621 0.8320 0.8320 0.8320 0.8320 0.8310
1887.751049 0.8310 0.8310 0.8340 0.8340 0.8320
1892.674478 0.8340 0.8340 0.8320 0.8320 0.8320
1897.597906 0.8340 0.8340 0.8340 0.8340 0.8340
1902.521334 0.8350 0.8340 0.8320 0.8320 0.8320
1907.444762 0.8320 0.8320 0.8320 0.8320 0.8340
1912.368191 0.8340 0.8340 0.8340 0.8340 0.8340
1917.291619 0.8340 0.8340 0.8340 0.8340 0.8340
1922.215047 0.8320 0.8320 0.8320 0.8320 0.8310
1927.138476 0.8310 0.8300 0.8300 0.8310 0.8320
1932.061904 0.8340 0.8320 0.8320 0.8320 0.8320
1936.985332 0.8320 0.8340 0.8340 0.8340 0.8340
1941.908760 0.8340 0.8340 0.8340 0.8340 0.8340
1946.832189 0.8340 0.8340 0.8320 0.8320 0.8350
1951.755617 0.8340 0.8340 0.8340 0.8340 0.8340
1956.679045 0.8340 0.8340 0.8350 0.8350 0.8350
1961.602474 0.8340 0.8340 0.8340 0.8340 0.8340
1966.525902 0.8340 0.8340 0.8320 0.8320 0.8350
1971.449330 0.8350 0.8340 0.8340 0.8340 0.8340
1976.372758 0.8340 0.8340 0.8340 0.8340 0.8340
1981.296187 0.8340 0.8340 0.8340 0.8340 0.8340
1986.219615 0.8340 0.8340 0.8340 0.8340 0.8340
1991.143043 0.8350 0.8350 0.8360 0.8360 0.8380
1996.066472 0.8400 0.8430 0.8440 0.8460 0.8500
2000.989900 0.8505 0.8510 0.8535 0.8560 0.8580
2005.913328 0.8600 0.8610 0.8620 0.8620 0.8620
2010.836756 0.8620 0.8620 0.8620 0.8620 0.8620
2015.760185 0.8620 0.8620 0.8620 0.8620 0.8620
2020.683613 0.8620 0.8620 0.8625 0.8630 0.8630
2025.607041 0.8630 0.8630 0.8630 0.8630 0.8630
2030.530470 0.8630 0.8630 0.8630 0.8630 0.8630
2035.453898 0.8630 0.8630 0.8630 0.8630 0.8630
2040.377326 0.8630 0.8630 0.8635 0.8640 0.8640
2045.300754 0.8640 0.8640 0.8640 0.8640 0.8640
2050.224183 0.8649 0.8659 0.8660 0.8660 0.8660
2055.147611 0.8660 0.8665 0.8670 0.8670 0.8670
2060.071039 0.8684 0.8699 0.8700 0.8700 0.8700
2064.994468 0.8700 0.8700 0.8700 0.8700 0.8700
2069.917896 0.8705 0.8710 0.8710 0.8710 0.8710
2074.841324 0.8710 0.8705 0.8700 0.8691 0.8681
2079.764752 0.8675 0.8670 0.8670 0.8670 0.8670
2084.688181 0.8670 0.8670 0.8670 0.8670 0.8670
2089.611609 0.8674 0.8679 0.8680 0.8680 0.8680
2094.535037 0.8680 0.8689 0.8699 0.8704 0.8709
2099.458466 0.8706 0.8701 0.8700 0.8700 0.8700
2104.381894 0.8700 0.8700 0.8700 0.8691 0.8681
2109.305322 0.8680 0.8680 0.8680 0.8680 0.8676
2114.228750 0.8671 0.8670 0.8670 0.8670 0.8670
2119.152179 0.8670 0.8670 0.8666 0.8661 0.8660
2124.075607 0.8660 0.8660 0.8660 0.8651 0.8641
2128.999035 0.8636 0.8631 0.8630 0.8630 0.8630
2133.922464 0.8630 0.8630 0.8630 0.8630 0.8630
2138.845892 0.8630 0.8630 0.8630 0.8630 0.8630
2143.769320 0.8630 0.8630 0.8630 0.8630 0.8630
2148.692748 0.8630 0.8630 0.8630 0.8630 0.8630
2153.616177 0.8630 0.8630 0.8630 0.8634 0.8639
2158.539605 0.8640 0.8640 0.8640 0.8640 0.8636
2163.463033 0.8631 0.8626 0.8621 0.8620 0.8620
2168.386462 0.8620 0.8620 0.8612 0.8602 0.8600
2173.309890 0.8600 0.8600 0.8600 0.8600 0.8600
2178.233318 0.8608 0.8618 0.8620 0.8620 0.8620
2183.156746 0.8620 0.8620 0.8620 0.8624 0.8629
2188.080175 0.8630 0.8630 0.8634 0.8639 0.8640
2193.003603 0.8640 0.8648 0.8658 0.8660 0.8660
2197.927031 0.8660 0.8660 0.8660 0.8660 0.8652
2202.850460 0.8642 0.8640 0.8640 0.8640 0.8640
2207.773888 0.8640 0.8640 0.8640 0.8640 0.8640
2212.697316 0.8640 0.8640 0.8640 0.8636 0.8631
2217.620744 0.8634 0.8639 0.8640 0.8640 0.8636
2222.544173 0.8631 0.8626 0.8621 0.8620 0.8620
2227.467601 0.8613 0.8603 0.8600 0.8600 0.8596
2232.391029 0.8591 0.8590 0.8590 0.8586 0.8581
2237.314458 0.8580 0.8580 0.8587 0.8597 0.8600
2242.237886 0.8600 0.8600 0.8600 0.8596 0.8591
2247.161314 0.8586 0.8581 0.8580 0.8580 0.8580
2252.084742 0.8580 0.8580 0.8580 0.8580 0.8580
2257.008171 0.8580 0.8580 0.8584 0.8589 0.8594
2261.931599 0.8599 0.8600 0.8600 0.8600 0.8600
2266.855027 0.8600 0.8600 0.8597 0.8592 0.8590
2271.778456 0.8590 0.8587 0.8582 0.8580 0.8580
2276.701884 0.8580 0.8580 0.8580 0.8580 0.8573
2281.625312 0.8563 0.8560 0.8560 0.8560 0.8560
2286.548740 0.8560 0.8560 0.8557 0.8552 0.8550
2291.472169 0.8550 0.8547 0.8542 0.8540 0.8540
2296.395597 0.8540 0.8540 0.8533 0.8523 0.8520
2301.319025 0.8520 0.8517 0.8512 0.8507 0.8502
2306.242454 0.8493 0.8483 0.8477 0.8472 0.8467
2311.165882 0.8462 0.8454 0.8444 0.8440 0.8440
2316.089310 0.8440 0.8440 0.8437 0.8432 0.8427
2321.012738 0.8422 0.8414 0.8404 0.8406 0.8416
2325.936167 0.8414 0.8404 0.8400 0.8400 0.8400
2330.859595 0.8400 0.8397 0.8392 0.8390 0.8390
2335.783023 0.8390 0.8390 0.8393 0.8398 0.8400
2340.706452 0.8400 0.8394 0.8384 0.8380 0.8380
2345.629880 0.8380 0.8380 0.8380 0.8380 0.8380
2350.553308 0.8380 0.8380 0.8380 0.8380 0.8380
2355.476736 0.8380 0.8380 0.8383 0.8388 0.8390
2360.400165 0.8390 0.8387 0.8382 0.8380 0.8380
2365.323593 0.8380 0.8380 0.8380 0.8380 0.8380
2370.247021 0.8380 0.8374 0.8364 0.8360 0.8360
2375.170450 0.8360 0.8360 0.8360 0.8360 0.8357
2380.093878 0.8352 0.8347 0.8342 0.8340 0.8340
2385.017306 0.8334 0.8324 0.8320 0.8320 0.8320
2389.940734 0.8320 0.8317 0.8312 0.8310 0.8310
2394.864163 0.8310 0.8310 0.8310 0.8310 0.8310
2399.787591 0.8310 0.8307 0.8302 0.8295 0.8285
2404.711019 0.8280 0.8280 0.8277 0.8272 0.8262
2409.634448 0.8247 0.8237 0.8232 0.8230 0.8230
2414.557876 0.8227 0.8222 0.8212 0.8197 0.8171
2419.481304 0.8136 0.8117 0.8112 0.8107 0.8102
2424.404732 0.8100 0.8100 0.8100 0.8100 0.8092
2429.328161 0.8077 0.8070 0.8070 0.8067 0.8062
2434.251589 0.8060 0.8060 0.8060 0.8060 0.8055
2439.175017 0.8045 0.8035 0.8025 0.8012 0.7997
2444.098446 0.7982 0.7968 0.7955 0.7945 0.7942
2449.021874 0.7947 0.7948 0.7943 0.7935 0.7925
2453.945302 0.7915 0.7905 0.7895 0.7885 0.7875
2458.868730 0.7865 0.7855 0.7845 0.7838 0.7833
2463.792159 0.7828 0.7823 0.7820 0.7820 0.7815
2468.715587 0.7805 0.7800 0.7800 0.7798 0.7793
2473.639015 0.7788 0.7783 0.7780 0.7780 0.7775
2478.562444 0.7765 0.7758 0.7753 0.7750 0.7750
2483.485872 0.7748 0.7743 0.7735 0.7725 0.7718
2488.409300 0.7713 0.7708 0.7703 0.7700 0.7700
2493.332728 0.7695 0.7685 0.7678 0.7673 0.7668
2498.256157 0.7663 0.7651 0.7631 0.7611 0.7591
2503.179585 0.7573 0.7558 0.7541 0.7521 0.7504
2508.103013 0.7489 0.7474 0.7459 0.7448 0.7443
2513.026442 0.7433 0.7418 0.7401 0.7381 0.7368
2517.949870 0.7363 0.7360 0.7360 0.7358 0.7353
2522.873298 0.7344 0.7329 0.7318 0.7313 0.7302
2527.796726 0.7282 0.7262 0.7242 0.7222 0.7202
2532.720155 0.7182 0.7162 0.7138 0.7108 0.7082
2537.643583 0.7062 0.7042 0.7022 0.6992 0.6947
2542.567011 0.6912 0.6892 0.6872 0.6852 0.6834
2547.490440 0.6819 0.6806 0.6796 0.6784 0.6769
2552.413868 0.6754 0.6739 0.6728 0.6723 0.6718
2557.337296 0.6713 0.6710 0.6710 0.6712 0.6717
2562.260724 0.6726 0.6741 0.6752 0.6757 0.6762
2567.184153 0.6767 0.6774 0.6784 0.6799 0.6824
2572.107581 0.6842 0.6847 0.6863 0.6898 0.6927
2577.031009 0.6947 0.6962 0.6967 0.6974 0.6984
2581.954438 0.6992 0.6997 0.7000 0.7000 0.7000
2586.877866 0.7000 0.6998 0.6993 0.6990 0.6990
2591.801294 0.6987 0.6977 0.6968 0.6963 0.6960
2596.724722 0.6960 0.6958 0.6953 0.6947 0.6937
2601.648151 0.6928 0.6923 0.6918 0.6913 0.6907
2606.571579 0.6897 0.6888 0.6883 0.6878 0.6873
2611.495007 0.6867 0.6857 0.6844 0.6824 0.6807
2616.418436 0.6797 0.6777 0.6738 0.6707 0.6697
2621.341864 0.6681 0.6651 0.6625 0.6611 0.6594
2626.265292 0.6574 0.6550 0.6515 0.6475 0.6425
2631.188720 0.6387 0.6377 0.6362 0.6338 0.6319
2636.112149 0.6314 0.6307 0.6297 0.6290 0.6290
2641.035577 0.6290 0.6290 0.6290 0.6290 0.6290
2645.959005 0.6290 0.6293 0.6303 0.6311 0.6316
2650.882434 0.6320 0.6320 0.6320 0.6320 0.6321
2655.805862 0.6326 0.6334 0.6349 0.6360 0.6360
2660.729290 0.6365 0.6385 0.6401 0.6406 0.6414
2665.652718 0.6429 0.6440 0.6440 0.6445 0.6465
2670.576147 0.6484 0.6499 0.6513 0.6523 0.6534
2675.499575 0.6549 0.6560 0.6560 0.6561 0.6566
2680.423003 0.6572 0.6582 0.6590 0.6590 0.6591
2685.346432 0.6596 0.6600 0.6600 0.6600 0.6600
2690.269860 0.6600 0.6600 0.6600 0.6600 0.6600
2695.193288 0.6600 0.6600 0.6600 0.6599 0.6594
2700.116716 0.6590 0.6590 0.6588 0.6578 0.6570
2705.040145 0.6570 0.6570 0.6570 0.6570 0.6570
2709.963573 0.6569 0.6564 0.6560 0.6560 0.6560
2714.887001 0.6560 0.6560 0.6560 0.6559 0.6554
2719.810430 0.6548 0.6538 0.6529 0.6524 0.6520
2724.733858 0.6520 0.6519 0.6514 0.6508 0.6498
2729.657286 0.6490 0.6490 0.6489 0.6484 0.6479
2734.580714 0.6474 0.6470 0.6470 0.6467 0.6452
2739.504143 0.6439 0.6434 0.6430 0.6430 0.6430
2744.427571 0.6430 0.6430 0.6430 0.6430 0.6430
2749.350999 0.6430 0.6430 0.6431 0.6436 0.6440
2754.274428 0.6440 0.6440 0.6440 0.6441 0.6446
2759.197856 0.6450 0.6450 0.6450 0.6450 0.6450
2764.121284 0.6450 0.6450 0.6450 0.6450 0.6450
2769.044712 0.6450 0.6450 0.6450 0.6450 0.6450
2773.968141 0.6450 0.6449 0.6444 0.6439 0.6434
2778.891569 0.6429 0.6419 0.6409 0.6399 0.6388
2783.814997 0.6368 0.6348 0.6333 0.6320 0.6320
2788.738426 0.6319 0.6314 0.6310 0.6310 0.6309
2793.661854 0.6299 0.6290 0.6290 0.6289 0.6284
2798.585282 0.6279 0.6274 0.6269 0.6259 0.6248
2803.508710 0.6234 0.6219 0.6209 0.6199 0.6183
2808.432139 0.6169 0.6164 0.6160 0.6160 0.6159
2813.355567 0.6149 0.6140 0.6135 0.6126 0.6086
2818.278995 0.6049 0.6034 0.6018 0.5998 0.5979
2823.202424 0.5969 0.5958 0.5928 0.5899 0.5889
2828.125852 0.5878 0.5858 0.5838 0.5818 0.5799
2833.049280 0.5789 0.5779 0.5759 0.5738 0.5713
2837.972708 0.5688 0.5663 0.5638 0.5608 0.5579
2842.896137 0.5569 0.5559 0.5550 0.5539 0.5519
2847.819565 0.5498 0.5468 0.5438 0.5403 0.5369
2852.742993 0.5354 0.5340 0.5340 0.5339 0.5309
2857.666422 0.5278 0.5238 0.5198 0.5148 0.5099
2862.589850 0.5069 0.5039 0.5019 0.4999 0.4948
2867.513278 0.4896 0.4811 0.4728 0.4668 0.4607
2872.436706 0.4533 0.4460 0.4445 0.4430 0.4430
2877.360135 0.4431 0.4461 0.4490 0.4515 0.4540
2882.283563 0.4565 0.4590 0.4610 0.4630 0.4640
2887.206991 0.4650 0.4650 0.4650 0.4640 0.4630
2892.130420 0.4625 0.4620 0.4605 0.4590 0.4585
2897.053848 0.4580 0.4565 0.4550 0.4540 0.4530
2901.977276 0.4510 0.4490 0.4475 0.4460 0.4445
2906.900704 0.4430 0.4410 0.4390 0.4370 0.4350
2911.824133 0.4340 0.4330 0.4310 0.4290 0.4275
2916.747561 0.4260 0.4240 0.4221 0.4196 0.4171
2921.670989 0.4160 0.4150 0.4126 0.4101 0.4056
2926.594418 0.4011 0.3990 0.3971 0.3951 0.3931
2931.517846 0.3911 0.3891 0.3871 0.3851 0.3850
2936.441274 0.3850 0.3860 0.3870 0.3941 0.4016
2941.364702 0.4034 0.4049 0.4074 0.4098 0.4157
2946.288131 0.4217 0.4220 0.4220 0.4215 0.4210
2951.211559 0.4196 0.4181 0.4166 0.4151 0.4131
2956.134987 0.4111 0.4101 0.4091 0.4076 0.4061
2961.058416 0.4009 0.3954 0.3890 0.3825 0.3746
2965.981844 0.3665 0.3529 0.3390 0.3218 0.3043
2970.905272 0.2951 0.2867 0.2786 0.2707 0.2631
2975.828700 0.2557 0.2550 0.2550 0.2604 0.2664
2980.752129 0.2720 0.2774 0.2816 0.2856 0.2977
2985.675557 0.3109 0.3275 0.3445 0.3591 0.3736
2990.598985 0.3840 0.3940 0.4031 0.4121 0.4188
2995.522414 0.4253 0.4327 0.4402 0.4472 0.4542
3000.445842 0.4647 0.4757 0.4809 0.4854 0.4860
3005.369270 0.4860 0.4864 0.4869 0.4870 0.4870
3010.292698 0.4870 0.4870 0.4879 0.4889 0.4894
3015.216127 0.4899 0.4904 0.4909 0.4919 0.4929
3020.139555 0.4930 0.4930 0.4934 0.4939 0.4944
3025.062983 0.4949 0.4959 0.4969 0.4970 0.4970
3029.986412 0.4974 0.4979 0.4980 0.4980 0.4980
3034.909840 0.4980 0.4980 0.4980 0.4988 0.4998
3039.833268 0.5000 0.5000 0.5004 0.5009 0.5010
3044.756696 0.5010 0.5010 0.5010 0.5014 0.5019
3049.680125 0.5033 0.5048 0.5062 0.5077 0.5088
3054.603553 0.5098 0.5108 0.5118 0.5120 0.5120
3059.526981 0.5128 0.5138 0.5140 0.5140 0.5148
3064.450410 0.5158 0.5160 0.5160 0.5164 0.5169
3069.373838 0.5170 0.5170 0.5170 0.5170 0.5170
3074.297266 0.5170 0.5174 0.5179 0.5188 0.5198
3079.220694 0.5200 0.5200 0.5200 0.5200 0.5200
3084.144123 0.5200 0.5204 0.5209 0.5210 0.5210
3089.067551 0.5210 0.5210 0.5214 0.5219 0.5220
3093.990979 0.5220 0.5228 0.5238 0.5244 0.5249
3098.914408 0.5262 0.5277 0.5288 0.5298 0.5312
3103.837836 0.5327 0.5334 0.5339 0.5348 0.5358
3108.761264 0.5364 0.5369 0.5374 0.5379 0.5407
3113.684692 0.5442 0.5465 0.5485 0.5501 0.5516
3118.608121 0.5543 0.5572 0.5595 0.5615 0.5627
3123.531549 0.5638 0.5648 0.5658 0.5668 0.5678
3128.454977 0.5687 0.5697 0.5711 0.5726 0.5745
3133.378406 0.5765 0.5785 0.5805 0.5821 0.5836
3138.301834 0.5855 0.5875 0.5884 0.5889 0.5901
3143.225262 0.5916 0.5935 0.5955 0.5964 0.5969
3148.148690 0.5985 0.6005 0.6035 0.6070 0.6098
3153.072119 0.6123 0.6134 0.6139 0.6147 0.6157
3157.995547 0.6164 0.6169 0.6184 0.6204 0.6231
3162.918975 0.6261 0.6274 0.6279 0.6280 0.6280
3167.842404 0.6284 0.6289 0.6297 0.6307 0.6313
3172.765832 0.6318 0.6334 0.6354 0.6370 0.6385
3177.689260 0.6404 0.6424 0.6437 0.6447 0.6464
3182.612688 0.6484 0.6497 0.6507 0.6513 0.6518
3187.536117 0.6523 0.6528 0.6537 0.6547 0.6557
3192.459545 0.6567 0.6583 0.6603 0.6617 0.6627
3197.382973 0.6643 0.6663 0.6677 0.6687 0.6710
3202.306402 0.6740 0.6757 0.6767 0.6777 0.6787
3207.229830 0.6803 0.6823 0.6837 0.6847 0.6863
3212.153258 0.6883 0.6896 0.6906 0.6916 0.6926
3217.076686 0.6936 0.6946 0.6963 0.6983 0.6993
3222.000115 0.6998 0.7013 0.7033 0.7043 0.7048
3226.923543 0.7060 0.7075 0.7090 0.7105 0.7129
3231.846971 0.7159 0.7176 0.7186 0.7190 0.7190
3236.770400 0.7193 0.7198 0.7203 0.7208 0.7216
3241.693828 0.7226 0.7243 0.7263 0.7273 0.7278
3246.617256 0.7283 0.7288 0.7299 0.7314 0.7335
3251.540684 0.7360 0.7379 0.7394 0.7403 0.7408
3256.464113 0.7416 0.7426 0.7433 0.7438 0.7458
3261.387541 0.7488 0.7515 0.7540 0.7559 0.7574
3266.310969 0.7580 0.7580 0.7583 0.7588 0.7593
3271.234398 0.7598 0.7606 0.7616 0.7623 0.7628
3276.157826 0.7642 0.7661 0.7679 0.7694 0.7711
3281.081254 0.7732 0.7740 0.7740 0.7743 0.7748
3286.004682 0.7753 0.7758 0.7771 0.7791 0.7808
3290.928111 0.7823 0.7833 0.7838 0.7846 0.7856
3295.851539 0.7874 0.7899 0.7910 0.7910 0.7918
3300.774967 0.7933 0.7943 0.7948 0.7950 0.7950
3305.698396 0.7953 0.7958 0.7968 0.7983 0.7990
3310.621824 0.7990 0.7993 0.7998 0.8005 0.8015
3315.545252 0.8023 0.8028 0.8033 0.8038 0.8045
3320.468680 0.8055 0.8063 0.8068 0.8073 0.8078
3325.392109 0.8085 0.8095 0.8103 0.8108 0.8118
3330.315537 0.8133 0.8143 0.8148 0.8153 0.8158
3335.238965 0.8165 0.8175 0.8183 0.8188 0.8190
3340.162394 0.8190 0.8193 0.8198 0.8200 0.8200
3345.085822 0.8205 0.8215 0.8223 0.8228 0.8233
3350.009250 0.8237 0.8240 0.8240 0.8247 0.8262
3354.932678 0.8277 0.8292 0.8302 0.8307 0.8310
3359.856107 0.8310 0.8317 0.8332 0.8345 0.8355
3364.779535 0.8360 0.8360 0.8367 0.8382 0.8392
3369.702963 0.8397 0.8405 0.8415 0.8420 0.8420
3374.626392 0.8420 0.8420 0.8422 0.8427 0.8432
3379.549820 0.8437 0.8450 0.8469 0.8487 0.8502
3384.473248 0.8510 0.8510 0.8512 0.8517 0.8525
3389.396676 0.8535 0.8540 0.8540 0.8542 0.8547
3394.320105 0.8552 0.8557 0.8560 0.8560 0.8560
3399.243533 0.8560 0.8560 0.8560 0.8560 0.8560
3404.166961 0.8560 0.8560 0.8564 0.8574 0.8580
3409.090390 0.8580 0.8580 0.8580 0.8580 0.8580
3414.013818 0.8582 0.8587 0.8590 0.8590 0.8592
3418.937246 0.8597 0.8600 0.8600 0.8600 0.8600
3423.860674 0.8600 0.8600 0.8600 0.8600 0.8604
3428.784103 0.8614 0.8622 0.8627 0.8632 0.8637
3433.707531 0.8644 0.8654 0.8660 0.8660 0.8662
3438.630959 0.8667 0.8668 0.8663 0.8662 0.8667
3443.554388 0.8670 0.8670 0.8672 0.8677 0.8680
3448.477816 0.8680 0.8680 0.8680 0.8684 0.8694
3453.401244 0.8696 0.8686 0.8680 0.8680 0.8680
3458.324672 0.8680 0.8684 0.8694 0.8702 0.8707
3463.248101 0.8710 0.8710 0.8710 0.8710 0.8708
3468.171529 0.8703 0.8702 0.8707 0.8710 0.8710
3473.094957 0.8710 0.8710 0.8710 0.8710 0.8710
3478.018385 0.8710 0.8712 0.8717 0.8720 0.8720
3482.941814 0.8718 0.8713 0.8710 0.8710 0.8710
3487.865242 0.8710 0.8710 0.8710 0.8710 0.8710
3492.788670 0.8710 0.8710 0.8710 0.8710 0.8712
3497.712099 0.8717 0.8720 0.8720 0.8718 0.8713
3502.635527 0.8710 0.8710 0.8710 0.8710 0.8708
3507.558955 0.8703 0.8700 0.8700 0.8700 0.8700
3512.482383 0.8697 0.8687 0.8680 0.8680 0.8678
3517.405812 0.8673 0.8665 0.8650 0.8638 0.8633
3522.329240 0.8628 0.8623 0.8617 0.8607 0.8598
3527.252668 0.8593 0.8590 0.8590 0.8590 0.8590
3532.176097 0.8591 0.8596 0.8603 0.8613 0.8629
3537.099525 0.8659 0.8683 0.8693 0.8701 0.8706
3542.022953 0.8711 0.8716 0.8720 0.8720 0.8724
3546.946381 0.8739 0.8756 0.8776 0.8793 0.8803
3551.869810 0.8811 0.8816 0.8820 0.8820 0.8821
3556.793238 0.8826 0.8830 0.8830 0.8833 0.8843
3561.716666 0.8850 0.8850 0.8850 0.8850 0.8850
3566.640095 0.8850 0.8850 0.8850 0.8850 0.8850
3571.563523 0.8852 0.8862 0.8870 0.8870 0.8870
3576.486951 0.8870 0.8870 0.8870 0.8870 0.8870
3581.410379 0.8870 0.8870 0.8870 0.8870 0.8872
3586.333808 0.8882 0.8890 0.8890 0.8890 0.8890
3591.257236 0.8890 0.8890 0.8890 0.8890 0.8890
3596.180664 0.8890 0.8891 0.8896 0.8900 0.8900
3601.104093 0.8901 0.8906 0.8910 0.8910 0.8909
3606.027521 0.8904 0.8900 0.8900 0.8897 0.8882
3610.950949 0.8870 0.8870 0.8873 0.8888 0.8900
3615.874377 0.8900 0.8900 0.8900 0.8901 0.8906
3620.797806 0.8910 0.8910 0.8909 0.8904 0.8900
3625.721234 0.8900 0.8900 0.8900 0.8899 0.8894
3630.644662 0.8890 0.8890 0.8891 0.8896 0.8901
3635.568091 0.8906 0.8910 0.8910 0.8910 0.8910
3640.491519 0.8910 0.8910 0.8910 0.8910 0.8909
3645.414947 0.8904 0.8900 0.8900 0.8900 0.8900
3650.338375 0.8901 0.8906 0.8909 0.8904 0.8900
3655.261804 0.8900 0.8899 0.8894 0.8890 0.8890
3660.185232 0.8888 0.8878 0.8870 0.8870 0.8870
3665.108660 0.8870 0.8870 0.8870 0.8870 0.8870
3670.032089 0.8870 0.8870 0.8870 0.8870 0.8870
3674.955517 0.8870 0.8870 0.8870 0.8870 0.8870
3679.878945 0.8870 0.8870 0.8870 0.8870 0.8871
3684.802373 0.8881 0.8891 0.8896 0.8900 0.8900
3689.725802 0.8900 0.8900 0.8900 0.8900 0.8900
3694.649230 0.8900 0.8901 0.8906 0.8910 0.8910
3699.572658 0.8909 0.8904 0.8901 0.8906 0.8910
3704.496087 0.8910 0.8910 0.8910 0.8910 0.8910
3709.419515 0.8910 0.8910 0.8910 0.8910 0.8910
3714.342943 0.8910 0.8911 0.8921 0.8930 0.8930
3719.266371 0.8930 0.8930 0.8930 0.8930 0.8930
3724.189800 0.8930 0.8930 0.8930 0.8930 0.8930
3729.113228 0.8930 0.8930 0.8930 0.8930 0.8930
3734.036656 0.8930 0.8930 0.8930 0.8930 0.8930
3738.960085 0.8930 0.8930 0.8930 0.8930 0.8930
3743.883513 0.8930 0.8930 0.8930 0.8930 0.8930
3748.806941 0.8930 0.8930 0.8930 0.8930 0.8930
3753.730369 0.8930 0.8930 0.8930 0.8930 0.8930
3758.653798 0.8930 0.8930 0.8930 0.8930 0.8930
3763.577226 0.8930 0.8930 0.8930 0.8930 0.8935
3768.500654 0.8940 0.8940 0.8940 0.8940 0.8940
3773.424083 0.8940 0.8940 0.8940 0.8940 0.8940
3778.347511 0.8940 0.8940 0.8940 0.8940 0.8940
3783.270939 0.8940 0.8940 0.8940 0.8940 0.8940
3788.194367 0.8940 0.8940 0.8940 0.8940 0.8940
3793.117796 0.8940 0.8940 0.8940
##END=
