##TITLE=ETHANE, 1,1,2,2-TETRACHLORO-
##JCAMP-DX=4.24
##DATA TYPE=INFRARED SPECTRUM
##CLASS=COBLENTZ III
##ORIGIN=DOW CHEMICAL COMPANY
##OWNER=COBLENTZ SOCIETY
Collection (C) 2018 copyright by the U.S. Secretary of Commerce
on behalf of the United States of America. All rights reserved.
##DATE=1959/03/13
##NAMES=1,1,2,2-tetrachloroethane
##CAS REGISTRY NO=79-34-5
##MOLFORM=C2 H2 Cl4
##MP=-42 C
##BP=146 C
##SOURCE REFERENCE=COBLENTZ NO. 10608
##$NIST SOURCE=COBLENTZ
##$NIST IMAGE=cob10608
##SPECTROMETER/DATA SYSTEM=DOW KBr FOREPRISM-GRATING
##INSTRUMENT PARAMETERS=BLAZED AT 3.5, 12.0, 20.0 MICRON, CHANGED AT 5.0, 7.5, 14.9 MICRON
##STATE=SOLUTION (10% IN CCl4 FOR 3800-1330, 10% IN CS2 FOR 1330-450 CM^-^1)
##PATH LENGTH=0.011, 0.011 CM
$$ SEE SPECTRUM NO. 10607 FOR "LIQUID (NEAT)" STATE
$$SPECTRAL CONTAMINATION DUE TO CCl4 AROUND 1550, AND CS2 AROUND 855 CM^-^1
##SAMPLING PROCEDURE=TRANSMISSION
##RESOLUTION=4
##DATA PROCESSING=DIGITIZED BY NIST FROM HARD COPY (FROM TWO SEGMENTS)
##XUNITS=1/CM
##YUNITS=TRANSMITTANCE
##XFACTOR=1.000000
##YFACTOR=1
##DELTAX=0.939599
##FIRSTX=453.423
##LASTX=3800.27
##FIRSTY=0.893
##MAXX=3800.27
##MINX=453.423
##MAXY=1.03
##MINY=0.017
##NPOINTS=3563
##XYDATA=(X++(Y..Y))
453.423000 0.8930 0.8940 0.8940 0.8940 0.8960
458.120995 0.8960 0.8960 0.8960 0.8960 0.8970
462.818990 0.8970 0.8970 0.8970 0.8970 0.8970
467.516986 0.8970 0.8990 0.8990 0.8990 0.8990
472.214981 0.8990 0.8990 0.8990 0.8990 0.9000
476.912976 0.9000 0.9020 0.9020 0.9030 0.9030
481.610971 0.9030 0.9030 0.9030 0.9030 0.9030
486.308966 0.9030 0.9030 0.9030 0.9020 0.9000
491.006961 0.9000 0.9000 0.9020 0.9050 0.9050
495.704957 0.9050 0.9060 0.9060 0.9060 0.9060
500.402952 0.9060 0.9060 0.9060 0.9060 0.9060
505.100947 0.9060 0.9060 0.9050 0.9050 0.9050
509.798942 0.9050 0.9050 0.9050 0.9050 0.9050
514.496937 0.9050 0.9050 0.9030 0.9030 0.9030
519.194932 0.9030 0.9020 0.9020 0.9020 0.9020
523.892928 0.9020 0.9020 0.9000 0.9000 0.8990
528.590923 0.8990 0.8960 0.8940 0.8930 0.8910
533.288918 0.8830 0.8770 0.8621 0.8511 0.8361
537.986913 0.7950 0.7790 0.7630 0.7081 0.6392
542.684908 0.5762 0.5132 0.4214 0.3633 0.3312
547.382903 0.2970 0.3430 0.3889 0.6954 0.7848
552.080899 0.8069 0.8259 0.8539 0.8640 0.8779
556.778894 0.8840 0.8940 0.9050 0.9130 0.9210
561.476889 0.9250 0.9340 0.9370 0.9400 0.9410
566.174884 0.9430 0.9480 0.9500 0.9530 0.9560
570.872879 0.9560 0.9570 0.9570 0.9590 0.9590
575.570875 0.9600 0.9600 0.9600 0.9600 0.9600
580.268870 0.9600 0.9590 0.9570 0.9570 0.9560
584.966865 0.9560 0.9540 0.9530 0.9540 0.9570
589.664860 0.9600 0.9630 0.9640 0.9640 0.9640
594.362855 0.9640 0.9640 0.9640 0.9640 0.9620
599.060850 0.9620 0.9620 0.9620 0.9600 0.9600
603.758846 0.9600 0.9600 0.9600 0.9600 0.9590
608.456841 0.9590 0.9570 0.9570 0.9570 0.9560
613.154836 0.9560 0.9560 0.9540 0.9530 0.9510
617.852831 0.9480 0.9470 0.9440 0.9430 0.9410
622.550826 0.9400 0.9380 0.9340 0.9320 0.9280
627.248821 0.9270 0.9250 0.9210 0.9150 0.9150
631.946817 0.9120 0.9050 0.8910 0.8830 0.8720
636.644812 0.8580 0.8430 0.8290 0.7792 0.7591
641.342807 0.7370 0.7250 0.6960 0.5911 0.5590
646.040802 0.5251 0.4303 0.3533 0.2753 0.2740
650.738797 0.6370 0.6710 0.7410 0.7820 0.8130
655.436792 0.8260 0.8519 0.8679 0.8869 0.8910
660.134788 0.8990 0.9190 0.9210 0.9240 0.9500
664.832783 0.9540 0.9560 0.9560 0.9560 0.9560
669.530778 0.9570 0.9640 0.9660 0.9660 0.9660
674.228773 0.9670 0.9670 0.9690 0.9700 0.9700
678.926768 0.9700 0.9700 0.9700 0.9690 0.9690
683.624763 0.9690 0.9670 0.9660 0.9640 0.9640
688.322759 0.9630 0.9620 0.9600 0.9590 0.9560
693.020754 0.9540 0.9500 0.9410 0.9350 0.9340
697.718749 0.9250 0.9150 0.9050 0.8930 0.8770
702.416744 0.8560 0.8351 0.8161 0.7762 0.7631
707.114739 0.7499 0.6810 0.6070 0.5780 0.5480
711.812735 0.4891 0.4302 0.3921 0.3701 0.3700
716.510730 0.4210 0.4460 0.5150 0.5350 0.5180
721.208725 0.5050 0.4900 0.4671 0.4481 0.4171
725.906720 0.4070 0.3890 0.3450 0.3220 0.2970
730.604715 0.2451 0.1922 0.1402 0.1131 0.0871
735.302710 0.0390 0.0320 0.0300 0.0320 0.0350
740.000706 0.0560 0.1049 0.1658 0.2198 0.3852
744.698701 0.4000 0.4050 0.4050 0.3880 0.3311
749.396696 0.2721 0.1723 0.1152 0.1021 0.0871
754.094691 0.0710 0.0620 0.0620 0.0780 0.1309
758.792686 0.1819 0.3904 0.4448 0.4779 0.5755
763.490681 0.6330 0.6910 0.7430 0.7780 0.7860
768.188677 0.7910 0.7910 0.7890 0.7810 0.7760
772.886672 0.7700 0.7640 0.7590 0.7410 0.7270
777.584667 0.7220 0.6931 0.6392 0.6141 0.5921
782.282662 0.5530 0.5340 0.5150 0.4890 0.4071
786.980657 0.3591 0.2752 0.1913 0.1293 0.0673
791.678652 0.0480 0.0230 0.0170 0.0170 0.0200
796.376648 0.0230 0.0290 0.0370 0.0450 0.0619
801.074643 0.0800 0.0860 0.1590 0.2209 0.3947
805.772638 0.4070 0.4778 0.5637 0.6068 0.6607
810.470633 0.7160 0.7210 0.7380 0.7760 0.7920
815.168628 0.7970 0.8130 0.8200 0.8320 0.8360
819.866624 0.8560 0.8620 0.8700 0.8740 0.8910
824.564619 0.8990 0.9050 0.9130 0.9160 0.9220
829.262614 0.9250 0.9270 0.9270 0.9250 0.9250
833.960609 0.9240 0.9210 0.9190 0.9180 0.9160
838.658604 0.9000 0.8900 0.8890 0.8800 0.8740
843.356599 0.8710 0.8620 0.8510 0.8390 0.8350
848.054595 0.8300 0.8200 0.8170 0.8160 0.8160
852.752590 0.8170 0.8180 0.8180 0.8200 0.8210
857.450585 0.8260 0.8320 0.8370 0.8420 0.8420
862.148580 0.8510 0.8540 0.8590 0.8709 0.8720
866.846575 0.8750 0.8780 0.8830 0.8870 0.8900
871.544570 0.8910 0.8940 0.8990 0.9030 0.9120
876.242566 0.9130 0.9160 0.9190 0.9250 0.9310
880.940561 0.9350 0.9380 0.9430 0.9470 0.9540
885.638556 0.9600 0.9640 0.9690 0.9720 0.9760
890.336551 0.9820 0.9850 0.9850 0.9880 0.9910
895.034546 0.9940 0.9940 0.9970 0.9980 0.9980
899.732541 1.0000 1.0000 1.0000 1.0010 1.0010
904.430537 1.0020 1.0020 1.0040 1.0040 1.0050
909.128532 1.0070 1.0070 1.0070 1.0100 1.0110
913.826527 1.0130 1.0140 1.0140 1.0160 1.0170
918.524522 1.0170 1.0170 1.0160 1.0160 1.0160
923.222517 1.0160 1.0160 1.0140 1.0140 1.0140
927.920512 1.0170 1.0180 1.0200 1.0200 1.0210
932.618508 1.0210 1.0210 1.0210 1.0200 1.0200
937.316503 1.0200 1.0210 1.0210 1.0210 1.0230
942.014498 1.0230 1.0230 1.0210 1.0210 1.0210
946.712493 1.0230 1.0230 1.0210 1.0170 1.0160
951.410488 1.0140 1.0140 1.0140 1.0130 1.0130
956.108484 1.0130 1.0110 1.0100 1.0070 1.0040
960.806479 1.0020 1.0010 1.0010 1.0010 1.0000
965.504474 0.9980 0.9970 0.9970 0.9950 0.9940
970.202469 0.9920 0.9910 0.9910 0.9890 0.9880
974.900464 0.9640 0.9640 0.9889 0.9920 0.9970
979.598459 1.0000 1.0020 1.0020 1.0040 1.0040
984.296455 1.0040 1.0020 1.0020 1.0020 1.0020
988.994450 1.0020 1.0020 1.0010 1.0010 1.0000
993.692445 1.0000 0.9970 0.9940 0.9910 0.9910
998.390440 0.9850 0.9790 0.9730 0.9670 0.9660
1003.088435 0.9620 0.9570 0.9540 0.9470 0.9350
1007.786430 0.9320 0.9020 0.8910 0.8460 0.8180
1012.484426 0.7910 0.7631 0.7091 0.7020 0.6701
1017.182421 0.6700 0.6750 0.7000 0.8140 0.8300
1021.880416 0.8370 0.8490 0.8540 0.8610 0.8700
1026.578411 0.8750 0.8830 0.8900 0.9030 0.9310
1031.276406 0.9350 0.9430 0.9540 0.9570 0.9690
1035.974401 0.9700 0.9760 0.9780 0.9790 0.9810
1040.672397 0.9850 0.9860 0.9880 0.9890 0.9890
1045.370392 0.9920 0.9920 0.9950 0.9970 0.9970
1050.068387 0.9970 0.9950 0.9940 0.9940 0.9940
1054.766382 0.9940 0.9940 0.9940 0.9940 0.9920
1059.464377 0.9910 0.9890 0.9880 0.9880 0.9880
1064.162373 0.9860 0.9850 0.9830 0.9830 0.9850
1068.860368 0.9850 0.9850 0.9850 0.9830 0.9820
1073.558363 0.9810 0.9810 0.9810 0.9820 0.9820
1078.256358 0.9830 0.9850 0.9850 0.9850 0.9850
1082.954353 0.9860 0.9860 0.9860 0.9860 0.9860
1087.652348 0.9860 0.9880 0.9890 0.9890 0.9910
1092.350344 0.9920 0.9950 0.9970 0.9980 0.9980
1097.048339 1.0000 1.0000 1.0000 1.0010 1.0020
1101.746334 1.0020 1.0040 1.0040 1.0040 1.0040
1106.444329 1.0040 1.0040 1.0040 1.0020 1.0020
1111.142324 1.0010 1.0010 1.0010 1.0000 1.0000
1115.840319 1.0000 1.0000 1.0000 0.9980 0.9980
1120.538315 0.9980 0.9980 0.9980 1.0000 1.0000
1125.236310 1.0000 1.0000 1.0000 1.0000 0.9980
1129.934305 0.9980 0.9980 0.9980 0.9980 0.9970
1134.632300 0.9970 0.9950 0.9950 0.9940 0.9920
1139.330295 0.9890 0.9860 0.9850 0.9860 0.9860
1144.028290 0.9890 0.9890 0.9910 0.9910 0.9910
1148.726286 0.9890 0.9890 0.9950 0.9970 0.9980
1153.424281 0.9980 0.9980 0.9970 0.9950 0.9940
1158.122276 0.9940 0.9920 0.9910 0.9890 0.9890
1162.820271 0.9860 0.9830 0.9820 0.9820 0.9820
1167.518266 0.9810 0.9810 0.9780 0.9760 0.9730
1172.216261 0.9700 0.9600 0.9570 0.9540 0.9430
1176.914257 0.9340 0.9310 0.9080 0.8810 0.8580
1181.612252 0.8300 0.8240 0.8230 0.8230 0.8240
1186.310247 0.8240 0.8240 0.8230 0.8180 0.8110
1191.008242 0.8040 0.7940 0.7751 0.7571 0.7381
1195.706237 0.7240 0.7100 0.6430 0.5860 0.5131
1200.404233 0.4401 0.3622 0.3620 0.3939 0.4050
1205.102228 0.4432 0.5950 0.6480 0.6720 0.7429
1209.800223 0.7450 0.7410 0.7400 0.7270 0.6991
1214.498218 0.6830 0.6560 0.6560 0.6810 0.7050
1219.196213 0.8128 0.8369 0.8749 0.8810 0.8959
1223.894208 0.9030 0.9130 0.9180 0.9190 0.9210
1228.592204 0.9250 0.9270 0.9270 0.9270 0.9250
1233.290199 0.9240 0.9210 0.9190 0.9130 0.9100
1237.988194 0.8970 0.8741 0.8461 0.8460 0.8560
1242.686189 0.8610 0.8670 0.8770 0.8960 0.9120
1247.384184 0.9160 0.9240 0.9310 0.9320 0.9320
1252.082179 0.9310 0.9310 0.9310 0.9310 0.9320
1256.780175 0.9320 0.9340 0.9340 0.9320 0.9310
1261.478170 0.9280 0.9270 0.9240 0.9190 0.9160
1266.176165 0.9130 0.9120 0.9100 0.8941 0.8910
1270.874160 0.8710 0.8610 0.8330 0.8130 0.7890
1275.572155 0.7640 0.7280 0.6272 0.5253 0.5250
1280.270150 0.6081 0.6611 0.7001 0.8160 0.8540
1284.968146 0.8780 0.8910 0.9050 0.9120 0.9240
1289.666141 0.9320 0.9320 0.9370 0.9370 0.9380
1294.364136 0.9380 0.9380 0.9400 0.9410 0.9430
1299.062131 0.9440 0.9440 0.9450 0.9470 0.9510
1303.760126 0.9510 0.9540 0.9560 0.9560 0.9590
1308.458122 0.9620 0.9660 0.9700 0.9750 0.9760
1313.156117 0.9790 0.9810 0.9810 0.9810 0.9810
1317.854112 0.9820 0.9820 0.9820 0.9820 0.9810
1322.552107 0.9790 0.9810 0.9830 0.9850 0.9880
1327.250102 0.9890 0.9910 0.9910 0.9920 0.9920
1331.948097 0.9920 0.9920 0.9940 0.9920 0.9920
1336.646093 0.9920 0.9910 0.9910 0.9890 0.9890
1341.344088 0.9890 0.9890 0.9910 0.9910 0.9920
1346.042083 0.9940 0.9940 0.9980 1.0000 1.0010
1350.740078 1.0010 1.0020 1.0040 1.0040 1.0040
1355.438073 1.0050 1.0100 1.0110 1.0140 1.0180
1360.136068 1.0200 1.0200 1.0180 1.0160 1.0140
1364.834064 1.0140 1.0130 1.0130 1.0130 1.0140
1369.532059 1.0140 1.0140 1.0160 1.0160 1.0160
1374.230054 1.0140 1.0140 1.0140 1.0140 1.0160
1378.928049 1.0230 1.0240 1.0240 1.0240 1.0230
1383.626044 1.0210 1.0160 1.0140 1.0130 1.0130
1388.324039 1.0130 1.0130 1.0130 1.0130 1.0130
1393.022035 1.0130 1.0130 1.0130 1.0130 1.0110
1397.720030 1.0100 1.0080 1.0070 1.0050 1.0050
1402.418025 1.0040 1.0020 1.0020 1.0010 1.0010
1407.116020 1.0010 1.0000 0.9920 0.9890 0.9880
1411.814015 0.9860 0.9850 0.9850 0.9860 0.9860
1416.512010 0.9880 0.9890 0.9910 0.9910 0.9910
1421.210006 0.9910 0.9910 0.9910 0.9910 0.9890
1425.908001 0.9890 0.9890 0.9880 0.9860 0.9850
1430.605996 0.9830 0.9830 0.9830 0.9830 0.9830
1435.303991 0.9820 0.9790 0.9780 0.9760 0.9760
1440.001986 0.9730 0.9720 0.9720 0.9720 0.9720
1444.699982 0.9700 0.9700 0.9700 0.9700 0.9700
1449.397977 0.9700 0.9700 0.9720 0.9720 0.9750
1454.095972 0.9760 0.9760 0.9750 0.9720 0.9690
1458.793967 0.9670 0.9670 0.9670 0.9670 0.9670
1463.491962 0.9670 0.9670 0.9670 0.9660 0.9660
1468.189957 0.9660 0.9660 0.9660 0.9660 0.9640
1472.887953 0.9620 0.9600 0.9590 0.9560 0.9540
1477.585948 0.9500 0.9450 0.9410 0.9380 0.9350
1482.283943 0.9350 0.9320 0.9310 0.9250 0.9220
1486.981938 0.9190 0.9150 0.9120 0.9000 0.8910
1491.679933 0.8900 0.8860 0.8840 0.8840 0.8810
1496.377928 0.8740 0.8680 0.8580 0.8510 0.8390
1501.075924 0.8360 0.8350 0.8330 0.8320 0.8260
1505.773919 0.8170 0.8140 0.7950 0.7940 0.7810
1510.471914 0.7780 0.7760 0.7720 0.7670 0.7630
1515.169909 0.7570 0.7560 0.7530 0.7480 0.7430
1519.867904 0.7400 0.7320 0.7270 0.7240 0.7180
1524.565899 0.7100 0.7060 0.7060 0.6990 0.6740
1529.263895 0.6670 0.6490 0.6450 0.6350 0.6161
1533.961890 0.6040 0.6010 0.5880 0.5850 0.5660
1538.659885 0.5500 0.5450 0.5410 0.5350 0.5280
1543.357880 0.5240 0.5130 0.5100 0.5060 0.5050
1548.055875 0.5050 0.5060 0.5090 0.5100 0.5130
1552.753871 0.5240 0.5280 0.5290 0.5530 0.5640
1557.451866 0.5750 0.5780 0.5880 0.5910 0.6010
1562.149861 0.6070 0.6300 0.6320 0.6430 0.6560
1566.847856 0.6640 0.6770 0.6840 0.6870 0.6890
1571.545851 0.6900 0.6930 0.6990 0.7000 0.7000
1576.243846 0.7020 0.7020 0.7060 0.7090 0.7120
1580.941842 0.7130 0.7160 0.7180 0.7240 0.7280
1585.639837 0.7340 0.7430 0.7480 0.7590 0.7809
1590.337832 0.7850 0.7860 0.7950 0.8110 0.8140
1595.035827 0.8230 0.8330 0.8510 0.8560 0.8650
1599.733822 0.8740 0.8910 0.8910 0.8970 0.9100
1604.431817 0.9180 0.9240 0.9320 0.9340 0.9400
1609.129813 0.9480 0.9500 0.9540 0.9600 0.9670
1613.827808 0.9720 0.9730 0.9750 0.9750 0.9760
1618.525803 0.9780 0.9880 0.9890 0.9910 0.9920
1623.223798 0.9920 0.9920 0.9940 0.9940 0.9980
1627.921793 1.0000 1.0040 1.0200 1.0210 1.0200
1632.619788 1.0180 1.0180 1.0200 1.0200 1.0210
1637.317784 1.0230 1.0240 1.0260 1.0260 1.0270
1642.015779 1.0290 1.0300 1.0300 1.0300 1.0300
1646.713774 1.0300 1.0290 1.0290 1.0230 1.0170
1651.411769 1.0130 1.0110 1.0100 1.0100 1.0100
1656.109764 1.0080 1.0080 1.0080 1.0070 1.0050
1660.807759 1.0050 1.0050 1.0040 1.0040 1.0040
1665.505755 1.0040 1.0040 1.0040 1.0040 1.0040
1670.203750 1.0040 1.0020 1.0010 1.0010 1.0010
1674.901745 1.0010 1.0000 1.0010 1.0020 1.0040
1679.599740 1.0050 1.0020 1.0010 0.9980 0.9920
1684.297735 0.9920 0.9910 0.9910 0.9910 0.9910
1688.995731 0.9920 0.9970 0.9970 0.9980 0.9980
1693.693726 0.9980 0.9970 0.9970 0.9950 0.9940
1698.391721 0.9940 0.9940 0.9940 0.9940 0.9920
1703.089716 0.9920 0.9910 0.9910 0.9890 0.9890
1707.787711 0.9890 0.9890 0.9910 0.9920 0.9920
1712.485706 0.9920 0.9910 0.9910 0.9880 0.9830
1717.183702 0.9810 0.9760 0.9750 0.9720 0.9720
1721.881697 0.9700 0.9700 0.9720 0.9720 0.9730
1726.579692 0.9750 0.9760 0.9780 0.9780 0.9780
1731.277687 0.9750 0.9750 0.9730 0.9730 0.9730
1735.975682 0.9750 0.9760 0.9760 0.9760 0.9780
1740.673677 0.9790 0.9810 0.9820 0.9830 0.9860
1745.371673 0.9880 0.9880 0.9890 0.9890 0.9890
1750.069668 0.9910 0.9910 0.9910 0.9920 0.9920
1754.767663 0.9920 0.9940 0.9950 0.9970 0.9980
1759.465658 0.9980 1.0000 1.0010 1.0010 1.0020
1764.163653 1.0020 1.0040 1.0050 1.0050 1.0040
1768.861648 1.0020 1.0010 1.0010 1.0010 1.0010
1773.559644 1.0000 1.0000 1.0000 1.0000 1.0000
1778.257639 0.9980 0.9980 0.9980 0.9980 0.9980
1782.955634 0.9980 0.9980 0.9980 0.9980 0.9980
1787.653629 0.9980 0.9980 0.9980 0.9980 0.9980
1792.351624 0.9980 0.9980 0.9980 0.9980 0.9980
1797.049620 0.9980 0.9980 0.9980 0.9980 1.0000
1801.747615 1.0000 1.0000 1.0000 0.9980 0.9980
1806.445610 0.9980 0.9980 0.9970 0.9950 0.9940
1811.143605 0.9940 0.9910 0.9910 0.9910 0.9910
1815.841600 0.9920 0.9920 0.9940 0.9940 0.9940
1820.539595 0.9950 0.9950 0.9970 0.9970 0.9970
1825.237591 0.9970 0.9970 0.9970 0.9970 0.9970
1829.935586 0.9970 0.9970 0.9970 0.9970 0.9970
1834.633581 0.9970 0.9970 0.9970 0.9970 0.9970
1839.331576 0.9970 0.9970 0.9970 0.9970 0.9970
1844.029571 0.9950 0.9950 0.9950 0.9950 0.9940
1848.727566 0.9920 0.9910 0.9890 0.9890 0.9890
1853.425562 0.9910 0.9910 0.9910 0.9920 0.9920
1858.123557 0.9940 0.9950 0.9950 0.9970 0.9970
1862.821552 0.9970 0.9970 0.9980 0.9980 0.9980
1867.519547 0.9980 0.9980 0.9980 0.9980 0.9980
1872.217542 0.9980 0.9980 0.9980 0.9980 0.9980
1876.915537 0.9980 1.0000 1.0000 1.0010 1.0010
1881.613533 1.0010 1.0010 1.0020 1.0020 1.0020
1886.311528 1.0020 1.0020 1.0020 1.0020 1.0020
1891.009523 1.0020 1.0020 1.0010 1.0010 1.0010
1895.707518 1.0010 1.0010 1.0010 1.0010 1.0010
1900.405513 1.0010 1.0010 1.0010 1.0010 1.0010
1905.103508 1.0010 1.0010 1.0010 1.0010 1.0010
1909.801504 1.0010 1.0010 1.0010 1.0010 1.0010
1914.499499 1.0010 1.0010 1.0020 1.0020 1.0020
1919.197494 1.0020 1.0020 1.0010 1.0010 1.0010
1923.895489 1.0010 1.0010 1.0010 1.0010 1.0010
1928.593484 1.0010 1.0010 1.0010 1.0010 1.0010
1933.291480 1.0010 1.0010 1.0010 1.0010 1.0010
1937.989475 1.0010 1.0010 1.0010 1.0010 1.0020
1942.687470 1.0010 1.0010 1.0010 1.0010 1.0010
1947.385465 1.0010 1.0010 1.0010 1.0010 1.0010
1952.083460 1.0010 1.0010 1.0010 1.0010 1.0010
1956.781455 1.0010 1.0000 1.0000 1.0000 1.0000
1961.479451 1.0000 1.0000 1.0000 1.0000 1.0000
1966.177446 1.0000 1.0000 0.9980 0.9980 0.9980
1970.875441 0.9980 0.9980 0.9970 0.9970 0.9970
1975.573436 0.9970 0.9970 0.9970 0.9970 0.9970
1980.271431 0.9970 0.9970 0.9950 0.9950 0.9950
1984.969426 0.9950 0.9950 0.9950 0.9950 0.9950
1989.667422 0.9940 0.9940 0.9920 0.9920 0.9920
1994.365417 0.9920 0.9920 0.9920 0.9920 0.9910
1999.063412 0.9910 0.9890 0.9890 0.9890 0.9885
2003.761407 0.9880 0.9880 0.9880 0.9880 0.9880
2008.459402 0.9880 0.9880 0.9885 0.9890 0.9890
2013.157397 0.9890 0.9890 0.9890 0.9899 0.9909
2017.855393 0.9910 0.9910 0.9914 0.9919 0.9920
2022.553388 0.9920 0.9920 0.9920 0.9928 0.9938
2027.251383 0.9944 0.9949 0.9950 0.9950 0.9950
2031.949378 0.9950 0.9958 0.9968 0.9970 0.9970
2036.647373 0.9970 0.9970 0.9970 0.9970 0.9970
2041.345369 0.9970 0.9970 0.9970 0.9970 0.9970
2046.043364 0.9970 0.9970 0.9974 0.9979 0.9980
2050.741359 0.9980 0.9980 0.9980 0.9980 0.9980
2055.439354 0.9987 0.9997 1.0000 1.0000 1.0000
2060.137349 1.0000 1.0000 1.0000 1.0003 1.0008
2064.835344 1.0010 1.0010 1.0010 1.0010 1.0010
2069.533340 1.0010 1.0010 1.0010 1.0007 1.0002
2074.231335 0.9995 0.9984 0.9980 0.9980 0.9980
2078.929330 0.9980 0.9980 0.9980 0.9980 0.9980
2083.627325 0.9980 0.9980 0.9980 0.9980 0.9980
2088.325320 0.9980 0.9980 0.9980 0.9980 0.9980
2093.023315 0.9980 0.9980 0.9980 0.9980 0.9980
2097.721311 0.9980 0.9980 0.9980 0.9980 0.9980
2102.419306 0.9984 0.9994 1.0000 1.0000 1.0000
2107.117301 1.0000 1.0000 1.0000 1.0000 1.0000
2111.815296 1.0000 1.0000 1.0000 1.0000 1.0000
2116.513291 1.0000 1.0000 1.0000 1.0000 1.0000
2121.211286 1.0001 1.0006 1.0011 1.0016 1.0020
2125.909282 1.0020 1.0020 1.0020 1.0020 1.0020
2130.607277 1.0020 1.0020 1.0020 1.0020 1.0020
2135.305272 1.0020 1.0020 1.0020 1.0020 1.0020
2140.003267 1.0019 1.0014 1.0010 1.0010 1.0010
2144.701262 1.0010 1.0010 1.0010 1.0010 1.0010
2149.399257 1.0010 1.0010 1.0010 1.0010 1.0010
2154.097253 1.0005 1.0000 1.0000 1.0000 1.0000
2158.795248 1.0000 1.0000 1.0000 1.0000 1.0000
2163.493243 1.0000 1.0000 1.0000 1.0000 1.0000
2168.191238 1.0000 1.0000 1.0000 1.0000 1.0000
2172.889233 1.0000 1.0000 1.0000 1.0000 1.0000
2177.587229 1.0000 1.0000 1.0000 1.0000 1.0000
2182.285224 1.0000 1.0000 1.0000 1.0000 1.0000
2186.983219 1.0000 1.0000 1.0000 1.0000 1.0000
2191.681214 1.0000 1.0000 1.0000 1.0000 1.0000
2196.379209 1.0000 1.0000 1.0000 1.0000 1.0000
2201.077204 1.0000 1.0000 1.0000 1.0000 0.9992
2205.775200 0.9982 0.9980 0.9980 0.9980 0.9980
2210.473195 0.9980 0.9980 0.9980 0.9980 0.9980
2215.171190 0.9980 0.9980 0.9980 0.9977 0.9972
2219.869185 0.9970 0.9970 0.9970 0.9970 0.9970
2224.567180 0.9970 0.9970 0.9970 0.9970 0.9970
2229.265175 0.9964 0.9954 0.9950 0.9950 0.9950
2233.963171 0.9950 0.9950 0.9950 0.9950 0.9950
2238.661166 0.9950 0.9950 0.9947 0.9942 0.9940
2243.359161 0.9940 0.9935 0.9925 0.9920 0.9920
2248.057156 0.9920 0.9920 0.9917 0.9912 0.9910
2252.755151 0.9910 0.9905 0.9895 0.9888 0.9883
2257.453146 0.9880 0.9880 0.9876 0.9866 0.9860
2262.151142 0.9860 0.9860 0.9860 0.9858 0.9853
2266.849137 0.9850 0.9850 0.9846 0.9836 0.9830
2271.547132 0.9830 0.9828 0.9823 0.9820 0.9820
2276.245127 0.9818 0.9813 0.9810 0.9810 0.9807
2280.943122 0.9797 0.9790 0.9790 0.9788 0.9783
2285.641118 0.9780 0.9780 0.9777 0.9767 0.9759
2290.339113 0.9754 0.9750 0.9750 0.9748 0.9738
2295.037108 0.9730 0.9730 0.9729 0.9724 0.9720
2299.735103 0.9720 0.9718 0.9708 0.9700 0.9700
2304.433098 0.9700 0.9700 0.9702 0.9712 0.9720
2309.131093 0.9720 0.9721 0.9726 0.9731 0.9741
2313.829089 0.9751 0.9756 0.9760 0.9760 0.9761
2318.527084 0.9771 0.9780 0.9785 0.9791 0.9801
2323.225079 0.9810 0.9810 0.9810 0.9815 0.9820
2327.923074 0.9825 0.9830 0.9830 0.9830 0.9840
2332.621069 0.9850 0.9855 0.9860 0.9870 0.9880
2337.319064 0.9880 0.9880 0.9885 0.9890 0.9900
2342.017060 0.9910 0.9915 0.9920 0.9929 0.9939
2346.715055 0.9940 0.9940 0.9945 0.9950 0.9959
2351.413050 0.9969 0.9974 0.9979 0.9993 1.0008
2356.111045 1.0010 1.0010 1.0014 1.0019 1.0020
2360.809040 1.0020 1.0029 1.0038 1.0040 1.0040
2365.507035 1.0040 1.0040 1.0040 1.0040 1.0040
2370.205031 1.0040 1.0040 1.0040 1.0032 1.0022
2374.903026 1.0020 1.0020 1.0016 1.0011 1.0006
2379.601021 1.0001 0.9993 0.9983 0.9976 0.9971
2384.299016 0.9952 0.9927 0.9906 0.9886 0.9863
2388.997011 0.9838 0.9813 0.9788 0.9770 0.9755
2393.695006 0.9750 0.9750 0.9744 0.9734 0.9727
2398.393002 0.9722 0.9720 0.9720 0.9714 0.9704
2403.090997 0.9700 0.9700 0.9700 0.9700 0.9700
2407.788992 0.9700 0.9706 0.9716 0.9723 0.9728
2412.486987 0.9735 0.9745 0.9753 0.9758 0.9765
2417.184982 0.9775 0.9780 0.9780 0.9783 0.9787
2421.882978 0.9790 0.9790 0.9790 0.9790 0.9790
2426.580973 0.9790 0.9788 0.9783 0.9774 0.9759
2431.278968 0.9744 0.9729 0.9716 0.9706 0.9700
2435.976963 0.9700 0.9700 0.9700 0.9700 0.9700
2440.674958 0.9700 0.9700 0.9704 0.9714 0.9720
2445.372953 0.9720 0.9722 0.9727 0.9740 0.9769
2450.070949 0.9795 0.9810 0.9824 0.9840 0.9852
2454.768944 0.9856 0.9863 0.9873 0.9880 0.9880
2459.466939 0.9880 0.9880 0.9880 0.9880 0.9880
2464.164934 0.9880 0.9878 0.9868 0.9859 0.9854
2468.862929 0.9850 0.9850 0.9848 0.9838 0.9830
2473.560924 0.9830 0.9830 0.9830 0.9829 0.9824
2478.258920 0.9818 0.9803 0.9789 0.9784 0.9779
2482.956915 0.9769 0.9760 0.9760 0.9760 0.9755
2487.654910 0.9750 0.9750 0.9750 0.9750 0.9750
2492.352905 0.9755 0.9761 0.9771 0.9781 0.9796
2497.050900 0.9811 0.9831 0.9850 0.9855 0.9860
2501.748895 0.9870 0.9880 0.9880 0.9880 0.9880
2506.446891 0.9880 0.9870 0.9860 0.9855 0.9850
2511.144886 0.9850 0.9850 0.9850 0.9850 0.9841
2515.842881 0.9831 0.9821 0.9811 0.9810 0.9810
2520.540876 0.9801 0.9791 0.9790 0.9790 0.9790
2525.238871 0.9790 0.9803 0.9818 0.9820 0.9820
2529.936867 0.9833 0.9848 0.9854 0.9859 0.9868
2534.634862 0.9878 0.9892 0.9907 0.9914 0.9919
2539.332857 0.9920 0.9920 0.9920 0.9920 0.9920
2544.030852 0.9920 0.9916 0.9911 0.9899 0.9884
2548.728847 0.9880 0.9880 0.9873 0.9863 0.9860
2553.426842 0.9860 0.9857 0.9852 0.9850 0.9850
2558.124838 0.9850 0.9850 0.9853 0.9858 0.9860
2562.822833 0.9860 0.9860 0.9860 0.9866 0.9876
2567.520828 0.9889 0.9904 0.9913 0.9918 0.9920
2572.218823 0.9920 0.9920 0.9920 0.9920 0.9920
2576.916818 0.9920 0.9920 0.9917 0.9912 0.9910
2581.614813 0.9910 0.9910 0.9910 0.9910 0.9910
2586.312809 0.9913 0.9918 0.9920 0.9920 0.9920
2591.010804 0.9920 0.9920 0.9920 0.9920 0.9920
2595.708799 0.9920 0.9920 0.9920 0.9920 0.9920
2600.406794 0.9920 0.9920 0.9920 0.9920 0.9920
2605.104789 0.9918 0.9913 0.9906 0.9896 0.9890
2609.802784 0.9890 0.9890 0.9890 0.9890 0.9890
2614.500780 0.9890 0.9890 0.9890 0.9890 0.9893
2619.198775 0.9903 0.9910 0.9910 0.9910 0.9910
2623.896770 0.9910 0.9910 0.9910 0.9910 0.9910
2628.594765 0.9910 0.9910 0.9910 0.9910 0.9910
2633.292760 0.9910 0.9910 0.9910 0.9910 0.9908
2637.990755 0.9898 0.9890 0.9890 0.9890 0.9890
2642.688751 0.9890 0.9890 0.9890 0.9890 0.9890
2647.386746 0.9890 0.9891 0.9901 0.9910 0.9910
2652.084741 0.9910 0.9910 0.9910 0.9910 0.9910
2656.782736 0.9910 0.9910 0.9910 0.9910 0.9910
2661.480731 0.9910 0.9910 0.9910 0.9910 0.9910
2666.178727 0.9910 0.9910 0.9900 0.9890 0.9890
2670.876722 0.9890 0.9890 0.9890 0.9890 0.9890
2675.574717 0.9890 0.9890 0.9890 0.9890 0.9890
2680.272712 0.9890 0.9890 0.9890 0.9890 0.9890
2684.970707 0.9890 0.9890 0.9904 0.9919 0.9920
2689.668702 0.9920 0.9916 0.9911 0.9910 0.9910
2694.366698 0.9910 0.9910 0.9910 0.9910 0.9902
2699.064693 0.9892 0.9886 0.9881 0.9880 0.9880
2703.762688 0.9880 0.9880 0.9880 0.9880 0.9880
2708.460683 0.9880 0.9880 0.9880 0.9880 0.9880
2713.158678 0.9880 0.9880 0.9880 0.9880 0.9880
2717.856673 0.9880 0.9884 0.9889 0.9890 0.9890
2722.554669 0.9890 0.9890 0.9890 0.9890 0.9890
2727.252664 0.9890 0.9890 0.9890 0.9890 0.9890
2731.950659 0.9890 0.9890 0.9890 0.9890 0.9890
2736.648654 0.9890 0.9890 0.9890 0.9890 0.9890
2741.346649 0.9890 0.9890 0.9890 0.9890 0.9890
2746.044644 0.9890 0.9895 0.9905 0.9910 0.9910
2750.742640 0.9905 0.9895 0.9890 0.9890 0.9890
2755.440635 0.9890 0.9895 0.9905 0.9905 0.9895
2760.138630 0.9890 0.9890 0.9890 0.9890 0.9890
2764.836625 0.9890 0.9890 0.9890 0.9890 0.9890
2769.534620 0.9894 0.9904 0.9910 0.9910 0.9910
2774.232616 0.9910 0.9910 0.9910 0.9910 0.9910
2778.930611 0.9910 0.9910 0.9906 0.9897 0.9890
2783.628606 0.9890 0.9890 0.9890 0.9890 0.9890
2788.326601 0.9889 0.9884 0.9880 0.9880 0.9880
2793.024596 0.9880 0.9880 0.9880 0.9880 0.9880
2797.722591 0.9881 0.9886 0.9890 0.9890 0.9890
2802.420587 0.9890 0.9890 0.9890 0.9890 0.9890
2807.118582 0.9890 0.9890 0.9889 0.9884 0.9880
2811.816577 0.9880 0.9880 0.9880 0.9880 0.9880
2816.514572 0.9880 0.9880 0.9881 0.9886 0.9890
2821.212567 0.9890 0.9890 0.9885 0.9880 0.9880
2825.910562 0.9880 0.9880 0.9879 0.9869 0.9860
2830.608558 0.9860 0.9860 0.9855 0.9850 0.9840
2835.306553 0.9830 0.9830 0.9830 0.9830 0.9830
2840.004548 0.9830 0.9830 0.9830 0.9830 0.9830
2844.702543 0.9830 0.9830 0.9830 0.9830 0.9830
2849.400538 0.9825 0.9820 0.9815 0.9810 0.9801
2854.098533 0.9791 0.9790 0.9790 0.9790 0.9790
2858.796529 0.9790 0.9790 0.9790 0.9790 0.9799
2863.494524 0.9809 0.9810 0.9810 0.9810 0.9810
2868.192519 0.9810 0.9810 0.9810 0.9810 0.9814
2872.890514 0.9819 0.9820 0.9820 0.9824 0.9829
2877.588509 0.9830 0.9830 0.9838 0.9848 0.9850
2882.286504 0.9850 0.9850 0.9850 0.9850 0.9850
2886.984500 0.9850 0.9850 0.9850 0.9850 0.9850
2891.682495 0.9850 0.9850 0.9850 0.9843 0.9833
2896.380490 0.9827 0.9822 0.9820 0.9820 0.9817
2901.078485 0.9812 0.9810 0.9810 0.9804 0.9794
2905.776480 0.9790 0.9790 0.9790 0.9790 0.9790
2910.474476 0.9790 0.9790 0.9790 0.9790 0.9790
2915.172471 0.9790 0.9790 0.9787 0.9782 0.9775
2919.870466 0.9765 0.9757 0.9752 0.9745 0.9735
2924.568461 0.9728 0.9723 0.9715 0.9705 0.9698
2929.266456 0.9693 0.9685 0.9675 0.9670 0.9670
2933.964451 0.9670 0.9670 0.9670 0.9670 0.9674
2938.662447 0.9684 0.9690 0.9690 0.9690 0.9690
2943.360442 0.9692 0.9697 0.9700 0.9700 0.9704
2948.058437 0.9714 0.9720 0.9720 0.9717 0.9707
2952.756432 0.9700 0.9700 0.9698 0.9693 0.9687
2957.454427 0.9677 0.9666 0.9651 0.9640 0.9640
2962.152422 0.9640 0.9640 0.9639 0.9634 0.9630
2966.850418 0.9630 0.9629 0.9624 0.9614 0.9590
2971.548413 0.9567 0.9552 0.9540 0.9540 0.9539
2976.246408 0.9534 0.9522 0.9478 0.9433 0.9388
2980.944403 0.9346 0.9315 0.9285 0.9250 0.9214
2985.642398 0.9169 0.9104 0.8900 0.8696 0.8487
2990.340393 0.8278 0.8059 0.7841 0.7627 0.7430
2995.038389 0.7430 0.7432 0.7472 0.7513 0.7567
2999.736384 0.7629 0.7890 0.8140 0.8150 0.8160
3004.434379 0.8170 0.8180 0.8190 0.8200 0.8205
3009.132374 0.8210 0.8225 0.8240 0.8279 0.8319
3013.830369 0.8339 0.8359 0.8445 0.8534 0.8591
3018.528365 0.8646 0.8710 0.8776 0.8928 0.9087
3023.226360 0.9123 0.9148 0.9168 0.9188 0.9230
3027.924355 0.9275 0.9311 0.9345 0.9376 0.9406
3032.622350 0.9440 0.9474 0.9488 0.9498 0.9504
3037.320345 0.9509 0.9522 0.9537 0.9564 0.9594
3042.018340 0.9612 0.9627 0.9634 0.9639 0.9652
3046.716336 0.9667 0.9670 0.9670 0.9677 0.9687
3051.414331 0.9694 0.9699 0.9711 0.9726 0.9741
3056.112326 0.9756 0.9760 0.9760 0.9767 0.9777
3060.810321 0.9780 0.9780 0.9783 0.9788 0.9790
3065.508316 0.9790 0.9796 0.9806 0.9810 0.9810
3070.206311 0.9813 0.9818 0.9820 0.9820 0.9823
3074.904307 0.9828 0.9830 0.9830 0.9836 0.9846
3079.602302 0.9850 0.9850 0.9853 0.9858 0.9860
3084.300297 0.9860 0.9860 0.9860 0.9865 0.9875
3088.998292 0.9880 0.9880 0.9882 0.9887 0.9890
3093.696287 0.9890 0.9895 0.9905 0.9910 0.9910
3098.394282 0.9910 0.9910 0.9912 0.9917 0.9924
3103.092278 0.9934 0.9942 0.9947 0.9950 0.9950
3107.790273 0.9954 0.9964 0.9970 0.9970 0.9970
3112.488268 0.9970 0.9972 0.9977 0.9980 0.9980
3117.186263 0.9980 0.9980 0.9980 0.9980 0.9980
3121.884258 0.9980 0.9983 0.9993 1.0000 1.0000
3126.582253 1.0000 1.0000 1.0000 1.0000 1.0000
3131.280249 1.0000 1.0001 1.0006 1.0010 1.0010
3135.978244 1.0010 1.0010 1.0010 1.0010 1.0010
3140.676239 1.0010 1.0010 1.0010 1.0010 1.0010
3145.374234 1.0010 1.0010 1.0010 1.0010 1.0010
3150.072229 1.0010 1.0010 1.0010 1.0011 1.0016
3154.770225 1.0020 1.0020 1.0020 1.0020 1.0020
3159.468220 1.0020 1.0020 1.0020 1.0020 1.0020
3164.166215 1.0020 1.0020 1.0020 1.0030 1.0040
3168.864210 1.0045 1.0050 1.0060 1.0070 1.0070
3173.562205 1.0070 1.0070 1.0070 1.0070 1.0070
3178.260200 1.0070 1.0070 1.0070 1.0070 1.0070
3182.958196 1.0070 1.0070 1.0070 1.0070 1.0070
3187.656191 1.0070 1.0070 1.0061 1.0051 1.0045
3192.354186 1.0040 1.0031 1.0021 1.0020 1.0020
3197.052181 1.0029 1.0039 1.0040 1.0040 1.0040
3201.750176 1.0040 1.0044 1.0049 1.0050 1.0050
3206.448171 1.0058 1.0068 1.0070 1.0070 1.0070
3211.146167 1.0070 1.0070 1.0070 1.0070 1.0070
3215.844162 1.0070 1.0070 1.0070 1.0070 1.0070
3220.542157 1.0070 1.0070 1.0070 1.0070 1.0070
3225.240152 1.0070 1.0070 1.0070 1.0070 1.0073
3229.938147 1.0078 1.0080 1.0080 1.0080 1.0080
3234.636142 1.0090 1.0105 1.0110 1.0110 1.0110
3239.334138 1.0110 1.0110 1.0110 1.0110 1.0110
3244.032133 1.0110 1.0110 1.0107 1.0102 1.0100
3248.730128 1.0100 1.0100 1.0100 1.0100 1.0100
3253.428123 1.0100 1.0100 1.0100 1.0100 1.0100
3258.126118 1.0100 1.0100 1.0100 1.0102 1.0107
3262.824114 1.0110 1.0110 1.0110 1.0110 1.0115
3267.522109 1.0125 1.0130 1.0130 1.0130 1.0130
3272.220104 1.0130 1.0130 1.0130 1.0130 1.0130
3276.918099 1.0130 1.0130 1.0130 1.0130 1.0130
3281.616094 1.0132 1.0137 1.0140 1.0140 1.0140
3286.314089 1.0140 1.0140 1.0140 1.0140 1.0140
3291.012085 1.0140 1.0140 1.0140 1.0140 1.0140
3295.710080 1.0140 1.0140 1.0140 1.0140 1.0140
3300.408075 1.0143 1.0152 1.0160 1.0160 1.0160
3305.106070 1.0160 1.0160 1.0160 1.0161 1.0166
3309.804065 1.0170 1.0170 1.0170 1.0170 1.0170
3314.502060 1.0170 1.0170 1.0170 1.0170 1.0170
3319.200056 1.0170 1.0170 1.0170 1.0170 1.0170
3323.898051 1.0170 1.0170 1.0170 1.0170 1.0170
3328.596046 1.0170 1.0170 1.0170 1.0165 1.0160
3333.294041 1.0160 1.0160 1.0160 1.0160 1.0160
3337.992036 1.0160 1.0160 1.0160 1.0160 1.0160
3342.690031 1.0160 1.0160 1.0160 1.0160 1.0160
3347.388027 1.0160 1.0160 1.0160 1.0160 1.0160
3352.086022 1.0160 1.0160 1.0160 1.0160 1.0160
3356.784017 1.0160 1.0165 1.0170 1.0175 1.0180
3361.482012 1.0180 1.0180 1.0189 1.0199 1.0200
3366.180007 1.0200 1.0200 1.0200 1.0200 1.0200
3370.878002 1.0200 1.0200 1.0200 1.0200 1.0192
3375.575998 1.0182 1.0180 1.0180 1.0180 1.0180
3380.273993 1.0180 1.0180 1.0180 1.0180 1.0180
3384.971988 1.0180 1.0180 1.0180 1.0180 1.0180
3389.669983 1.0180 1.0180 1.0187 1.0197 1.0204
3394.367978 1.0208 1.0210 1.0210 1.0210 1.0210
3399.065974 1.0210 1.0210 1.0217 1.0227 1.0233
3403.763969 1.0238 1.0240 1.0240 1.0240 1.0240
3408.461964 1.0240 1.0240 1.0237 1.0232 1.0230
3413.159959 1.0230 1.0230 1.0230 1.0224 1.0214
3417.857954 1.0210 1.0210 1.0210 1.0210 1.0210
3422.555949 1.0210 1.0207 1.0202 1.0200 1.0200
3427.253945 1.0200 1.0200 1.0200 1.0200 1.0200
3431.951940 1.0200 1.0200 1.0200 1.0196 1.0185
3436.649935 1.0180 1.0180 1.0180 1.0180 1.0178
3441.347930 1.0173 1.0168 1.0163 1.0156 1.0146
3446.045925 1.0140 1.0140 1.0140 1.0140 1.0140
3450.743920 1.0140 1.0138 1.0133 1.0127 1.0117
3455.441916 1.0110 1.0110 1.0110 1.0110 1.0110
3460.139911 1.0110 1.0109 1.0104 1.0100 1.0100
3464.837906 1.0100 1.0100 1.0100 1.0100 1.0100
3469.535901 1.0100 1.0100 1.0100 1.0098 1.0088
3474.233896 1.0080 1.0080 1.0080 1.0080 1.0079
3478.931891 1.0074 1.0070 1.0070 1.0068 1.0058
3483.629887 1.0050 1.0050 1.0050 1.0050 1.0050
3488.327882 1.0050 1.0049 1.0044 1.0040 1.0040
3493.025877 1.0040 1.0040 1.0040 1.0040 1.0039
3497.723872 1.0029 1.0020 1.0020 1.0020 1.0015
3502.421867 1.0010 1.0010 1.0010 1.0010 1.0010
3507.119863 1.0010 1.0010 1.0010 1.0010 1.0010
3511.817858 1.0010 1.0010 1.0010 1.0005 1.0000
3516.515853 1.0000 1.0000 1.0000 1.0000 1.0000
3521.213848 1.0000 1.0000 1.0000 1.0000 1.0000
3525.911843 1.0000 1.0000 1.0000 1.0000 1.0000
3530.609838 1.0000 1.0000 1.0000 0.9991 0.9981
3535.307834 0.9980 0.9980 0.9980 0.9980 0.9980
3540.005829 0.9980 0.9980 0.9980 0.9980 0.9980
3544.703824 0.9976 0.9971 0.9970 0.9970 0.9970
3549.401819 0.9970 0.9970 0.9970 0.9974 0.9979
3554.099814 0.9980 0.9980 0.9980 0.9980 0.9980
3558.797809 0.9980 0.9980 0.9980 0.9987 0.9997
3563.495805 1.0000 1.0000 1.0000 1.0000 1.0000
3568.193800 1.0000 1.0000 1.0000 1.0003 1.0008
3572.891795 1.0010 1.0010 1.0010 1.0010 1.0010
3577.589790 1.0010 1.0007 1.0002 1.0000 1.0000
3582.287785 1.0000 1.0000 0.9994 0.9984 0.9980
3586.985780 0.9980 0.9980 0.9980 0.9980 0.9980
3591.683776 0.9980 0.9980 0.9980 0.9980 0.9980
3596.381771 0.9980 0.9980 0.9980 0.9980 0.9980
3601.079766 0.9985 0.9995 1.0000 1.0000 1.0000
3605.777761 1.0000 1.0000 1.0000 1.0000 1.0000
3610.475756 1.0000 1.0000 1.0000 1.0000 1.0000
3615.173752 1.0000 1.0000 1.0000 1.0000 1.0000
3619.871747 1.0000 1.0000 0.9997 0.9987 0.9980
3624.569742 0.9980 0.9980 0.9980 0.9980 0.9980
3629.267737 0.9980 0.9980 0.9980 0.9980 0.9980
3633.965732 0.9980 0.9980 0.9980 0.9980 0.9980
3638.663727 0.9979 0.9974 0.9970 0.9970 0.9970
3643.361723 0.9970 0.9970 0.9970 0.9970 0.9970
3648.059718 0.9968 0.9958 0.9950 0.9950 0.9950
3652.757713 0.9950 0.9950 0.9950 0.9950 0.9950
3657.455708 0.9950 0.9950 0.9950 0.9950 0.9951
3662.153703 0.9961 0.9970 0.9970 0.9970 0.9970
3666.851698 0.9970 0.9970 0.9970 0.9970 0.9970
3671.549694 0.9970 0.9970 0.9970 0.9970 0.9970
3676.247689 0.9970 0.9970 0.9970 0.9970 0.9970
3680.945684 0.9970 0.9970 0.9970 0.9970 0.9970
3685.643679 0.9970 0.9970 0.9970 0.9970 0.9970
3690.341674 0.9975 0.9980 0.9980 0.9980 0.9980
3695.039669 0.9980 0.9980 0.9980 0.9980 0.9980
3699.737665 0.9976 0.9971 0.9970 0.9970 0.9957
3704.435660 0.9942 0.9940 0.9940 0.9927 0.9913
3709.133655 0.9898 0.9883 0.9880 0.9880 0.9880
3713.831650 0.9880 0.9884 0.9889 0.9890 0.9890
3718.529645 0.9898 0.9908 0.9910 0.9910 0.9921
3723.227640 0.9936 0.9951 0.9966 0.9970 0.9970
3727.925636 0.9974 0.9979 0.9980 0.9980 0.9980
3732.623631 0.9980 0.9987 0.9997 1.0000 1.0000
3737.321626 1.0000 1.0000 1.0000 1.0000 1.0000
3742.019621 1.0000 1.0000 1.0000 1.0000 1.0000
3746.717616 1.0000 1.0000 1.0000 1.0000 1.0000
3751.415612 1.0000 1.0000 1.0000 0.9995 0.9985
3756.113607 0.9980 0.9980 0.9980 0.9980 0.9977
3760.811602 0.9972 0.9970 0.9970 0.9965 0.9955
3765.509597 0.9950 0.9950 0.9950 0.9950 0.9948
3770.207592 0.9943 0.9940 0.9940 0.9929 0.9904
3774.905587 0.9884 0.9869 0.9858 0.9853 0.9846
3779.603583 0.9836 0.9828 0.9823 0.9814 0.9799
3784.301578 0.9782 0.9763 0.9739 0.9709 0.9687
3788.999573 0.9677 0.9673 0.9683 0.9695 0.9710
3793.697568 0.9722 0.9727 0.9724 0.9704 0.9695
3798.395563 0.9709 0.9721 0.9726
##END=
