##TITLE=N-ETHYL-P-TOLUENE SULFONAMIDE
##JCAMP-DX=4.24
##DATA TYPE=INFRARED SPECTRUM
##CLASS=COBLENTZ
##ORIGIN=WYANDOTTE CHEMICALS CORP., WYANDOTTE, MICHIGAN, USA
##OWNER=COBLENTZ SOCIETY
Collection (C) 2018 copyright by the U.S. Secretary of Commerce
on behalf of the United States of America. All rights reserved.
##DATE=Not specified, most likely prior to 1970
##NAMES=N-ethyl-4-methylbenzenesulfonamide
##CAS REGISTRY NO=80-39-7
##MOLFORM=C9 H13 N O2 S
##MP=62-65 C
##SOURCE REFERENCE=COBLENTZ NO. 1359
##$NIST SOURCE=COBLENTZ
##$NIST IMAGE=cob1359
##SPECTROMETER/DATA SYSTEM=Not specified, most likely a prism, grating, or hybrid spectrometer.
##STATE=SOLID (MINERAL OIL MULL)
##SAMPLING PROCEDURE=TRANSMISSION
##RESOLUTION=4
##DATA PROCESSING=DIGITIZED BY NIST FROM HARD COPY
##XUNITS=MICROMETERS
##YUNITS=TRANSMITTANCE
##XFACTOR=1.000000
##YFACTOR=1
##DELTAX=000.006809
##FIRSTX=2.041
##LASTX=15.9797
##FIRSTY=0.429
##MAXX=15.9797
##MINX=2.041
##MAXY=1.011
##MINY=0.03
##NPOINTS=2048
##XYDATA=(X++(Y..Y))
2.041000 0.4290 0.4290 0.4290 0.4290 0.4290
2.075063 0.4290 0.4290 0.4310 0.4310 0.4310
2.109000 0.4310 0.4310 0.4320 0.4340 0.4340
2.143063 0.4360 0.4360 0.4360 0.4340 0.4340
2.177000 0.4320 0.4310 0.4310 0.4290 0.4270
2.211063 0.4270 0.4270 0.4270 0.4290 0.4290
2.245000 0.4290 0.4310 0.4310 0.4320 0.4320
2.279063 0.4320 0.4320 0.4340 0.4340 0.4360
2.313000 0.4360 0.4360 0.4380 0.4380 0.4390
2.347063 0.4390 0.4410 0.4410 0.4410 0.4430
2.381000 0.4440 0.4460 0.4490 0.4530 0.4560
2.415063 0.4580 0.4600 0.4660 0.4700 0.4710
2.449000 0.4730 0.4730 0.4730 0.4730 0.4750
2.483063 0.4750 0.4750 0.4750 0.4750 0.4770
2.518000 0.4770 0.4770 0.4800 0.4850 0.4880
2.552063 0.4950 0.5040 0.5120 0.5170 0.5170
2.586000 0.5170 0.5160 0.5090 0.5020 0.5000
2.620063 0.5000 0.5090 0.5170 0.5210 0.5220
2.654000 0.5260 0.5280 0.5290 0.5310 0.5330
2.688063 0.5310 0.5290 0.5280 0.5260 0.5280
2.722000 0.5290 0.5290 0.5290 0.5290 0.5290
2.756063 0.5280 0.5280 0.5240 0.5240 0.5240
2.790000 0.5260 0.5260 0.5280 0.5280 0.5290
2.824063 0.5290 0.5310 0.5310 0.5310 0.5310
2.858000 0.5330 0.5330 0.5330 0.5330 0.5310
2.892063 0.5260 0.5240 0.5210 0.5210 0.5210
2.926000 0.5210 0.5210 0.5210 0.5210 0.5220
2.960063 0.5220 0.5220 0.5220 0.5220 0.5220
2.994000 0.5160 0.4830 0.4510 0.4170 0.3800
3.028063 0.3410 0.3000 0.2540 0.2070 0.1560
3.062000 0.1010 0.0710 0.0690 0.0690 0.0730
3.096063 0.0960 0.1180 0.1370 0.1540 0.1710
3.130000 0.1860 0.2020 0.2150 0.2300 0.2440
3.164063 0.2580 0.2710 0.2850 0.2980 0.3050
3.198000 0.3200 0.3320 0.3440 0.3480 0.3480
3.232063 0.3440 0.3390 0.3310 0.3200 0.3070
3.267000 0.2900 0.2850 0.2810 0.2800 0.2780
3.301063 0.2690 0.2560 0.2300 0.1950 0.1460
3.335000 0.1010 0.0660 0.0520 0.0500 0.0390
3.369063 0.0370 0.0350 0.0330 0.0320 0.0300
3.403000 0.0300 0.0320 0.0320 0.0330 0.0350
3.437063 0.0390 0.0400 0.0400 0.0370 0.0370
3.471000 0.0370 0.0370 0.0370 0.0390 0.0400
3.505063 0.0450 0.0570 0.0830 0.1200 0.1850
3.539000 0.2630 0.3340 0.3880 0.4310 0.4610
3.573063 0.4830 0.5000 0.5140 0.5260 0.5380
3.607000 0.5530 0.5600 0.5610 0.5600 0.5580
3.641063 0.5550 0.5460 0.5390 0.5390 0.5410
3.675000 0.5440 0.5510 0.5600 0.5700 0.5800
3.709063 0.5820 0.5840 0.5850 0.5870 0.5890
3.743000 0.5920 0.5970 0.6040 0.6120 0.6170
3.777063 0.6230 0.6230 0.6240 0.6260 0.6280
3.811000 0.6280 0.6280 0.6280 0.6280 0.6260
3.845063 0.6240 0.6230 0.6210 0.6210 0.6230
3.879000 0.6240 0.6280 0.6330 0.6430 0.6500
3.913063 0.6580 0.6650 0.6740 0.6790 0.6840
3.947000 0.6870 0.6890 0.6910 0.6920 0.6940
3.981063 0.6960 0.6970 0.7010 0.7010 0.7020
4.016000 0.7020 0.7010 0.7010 0.6990 0.6970
4.050063 0.6970 0.6960 0.6920 0.6850 0.6820
4.084000 0.6790 0.6770 0.6750 0.6720 0.6720
4.118063 0.6770 0.6850 0.6940 0.6970 0.7010
4.152000 0.7020 0.7020 0.7020 0.7020 0.7020
4.186063 0.6990 0.6970 0.6970 0.6960 0.6940
4.220000 0.6910 0.6890 0.6850 0.6840 0.6800
4.254063 0.6790 0.6800 0.6840 0.6890 0.6990
4.288000 0.7110 0.7180 0.7230 0.7260 0.7280
4.322063 0.7300 0.7330 0.7360 0.7430 0.7520
4.356000 0.7640 0.7670 0.7690 0.7700 0.7690
4.390063 0.7670 0.7650 0.7640 0.7600 0.7600
4.424000 0.7620 0.7640 0.7670 0.7690 0.7690
4.458063 0.7700 0.7700 0.7700 0.7700 0.7700
4.492000 0.7720 0.7720 0.7720 0.7720 0.7720
4.526063 0.7740 0.7750 0.7750 0.7790 0.7820
4.560000 0.7840 0.7860 0.7870 0.7910 0.7960
4.594063 0.7970 0.7990 0.7990 0.8010 0.8030
4.628000 0.8060 0.8110 0.8140 0.8160 0.8160
4.662063 0.8180 0.8200 0.8200 0.8210 0.8210
4.696000 0.8250 0.8260 0.8300 0.8330 0.8370
4.730063 0.8400 0.8430 0.8450 0.8470 0.8470
4.765000 0.8500 0.8500 0.8500 0.8500 0.8500
4.799063 0.8500 0.8520 0.8550 0.8550 0.8570
4.833000 0.8570 0.8590 0.8600 0.8620 0.8620
4.867063 0.8640 0.8640 0.8650 0.8650 0.8690
4.901000 0.8690 0.8690 0.8690 0.8690 0.8700
4.935063 0.8720 0.8740 0.8740 0.8740 0.8740
4.969000 0.8740 0.8760 0.8760 0.8770 0.8790
5.003063 0.8810 0.8810 0.8820 0.8820 0.8820
5.037000 0.8860 0.8870 0.8870 0.8870 0.8890
5.071063 0.8890 0.8890 0.8910 0.8890 0.8890
5.105000 0.8890 0.8890 0.8890 0.8890 0.8890
5.139063 0.8890 0.8890 0.8890 0.8890 0.8890
5.173000 0.8890 0.8870 0.8870 0.8870 0.8860
5.207063 0.8840 0.8520 0.8040 0.7450 0.7310
5.241000 0.7310 0.7350 0.7860 0.8230 0.8500
5.275063 0.8700 0.8810 0.8870 0.8870 0.8890
5.309000 0.8980 0.8990 0.9010 0.9030 0.9040
5.343063 0.9060 0.9060 0.9080 0.9100 0.9180
5.377000 0.9230 0.9320 0.9380 0.9380 0.9380
5.411063 0.9320 0.9210 0.9210 0.9200 0.9200
5.446000 0.9210 0.9400 0.9420 0.9400 0.9380
5.480063 0.9280 0.9200 0.9200 0.9200 0.9330
5.514000 0.9330 0.9300 0.8990 0.8720 0.8200
5.548063 0.7990 0.7990 0.7990 0.8200 0.8700
5.582000 0.8870 0.9100 0.9180 0.9180 0.9180
5.616063 0.9180 0.9180 0.9150 0.9150 0.9130
5.650000 0.9110 0.9110 0.9080 0.9030 0.8910
5.684063 0.8890 0.8840 0.8810 0.8810 0.8810
5.718000 0.8860 0.8980 0.9040 0.9040 0.9100
5.752063 0.9180 0.9330 0.9380 0.9370 0.9330
5.786000 0.9010 0.9040 0.9060 0.9300 0.9330
5.820063 0.9320 0.9280 0.9150 0.9060 0.9010
5.854000 0.9060 0.9150 0.9210 0.9380 0.9400
5.888063 0.9330 0.9210 0.9180 0.9130 0.9100
5.922000 0.9080 0.9080 0.9060 0.9100 0.9110
5.956063 0.9130 0.9130 0.9130 0.9130 0.9100
5.990000 0.8870 0.8590 0.8250 0.8090 0.7910
6.024063 0.7860 0.7870 0.8110 0.8380 0.8590
6.058000 0.8670 0.8690 0.8760 0.8770 0.8790
6.092063 0.8690 0.8600 0.8590 0.8620 0.8650
6.126000 0.8670 0.8670 0.8690 0.8690 0.8480
6.160063 0.8380 0.8060 0.7740 0.7430 0.7280
6.195000 0.7130 0.5870 0.3150 0.2750 0.2710
6.229063 0.2750 0.4560 0.5340 0.5670 0.5900
6.263000 0.6110 0.6260 0.6400 0.6510 0.6600
6.297063 0.6720 0.6820 0.6960 0.7090 0.7130
6.331000 0.7180 0.7180 0.7180 0.7210 0.7310
6.365063 0.7430 0.7520 0.7750 0.7890 0.7870
6.399000 0.7840 0.7740 0.7580 0.7520 0.7520
6.433063 0.7520 0.7580 0.7650 0.7700 0.7720
6.467000 0.7740 0.7740 0.7700 0.7550 0.7480
6.501063 0.7430 0.7360 0.7350 0.7300 0.7300
6.535000 0.7280 0.7260 0.7240 0.7190 0.7130
6.569063 0.7010 0.6960 0.6890 0.6870 0.6840
6.603000 0.6740 0.6510 0.6140 0.5530 0.4650
6.637063 0.3920 0.3440 0.2850 0.2830 0.2860
6.671000 0.3170 0.3870 0.3900 0.3900 0.3730
6.705063 0.3080 0.2630 0.2320 0.2150 0.2070
6.739000 0.2020 0.2000 0.1930 0.1790 0.1560
6.773063 0.1170 0.1060 0.0960 0.0860 0.0790
6.807000 0.0740 0.0690 0.0640 0.0610 0.0560
6.841063 0.0470 0.0420 0.0420 0.0440 0.0540
6.875000 0.0620 0.0690 0.0740 0.0780 0.0810
6.909063 0.0840 0.0910 0.0980 0.1080 0.1100
6.944000 0.1100 0.1080 0.0980 0.0960 0.0930
6.978063 0.0910 0.0890 0.0880 0.0860 0.0860
7.012000 0.0840 0.0860 0.0890 0.0930 0.0980
7.046063 0.1060 0.1170 0.1290 0.1420 0.1590
7.080000 0.1760 0.1950 0.2150 0.2290 0.2370
7.114063 0.2470 0.2560 0.2680 0.2780 0.3020
7.148000 0.3080 0.3080 0.3080 0.3030 0.2590
7.182063 0.2410 0.2200 0.2030 0.1960 0.1980
7.216000 0.2030 0.2100 0.2200 0.2320 0.2510
7.250063 0.2730 0.2980 0.3320 0.3700 0.3830
7.284000 0.3850 0.3870 0.3880 0.3880 0.3900
7.318063 0.3920 0.3920 0.3920 0.3900 0.3700
7.352000 0.3480 0.3220 0.2950 0.2680 0.2390
7.386063 0.2120 0.1830 0.1560 0.1300 0.1150
7.420000 0.1100 0.1100 0.1120 0.1200 0.1220
7.454063 0.1220 0.1200 0.1130 0.1050 0.0960
7.488000 0.0860 0.0790 0.0710 0.0620 0.0560
7.522063 0.0490 0.0420 0.0370 0.0370 0.0370
7.556000 0.0370 0.0370 0.0390 0.0400 0.0440
7.590063 0.0470 0.0500 0.0520 0.0540 0.0540
7.625000 0.0560 0.0590 0.0620 0.0670 0.0730
7.659063 0.0810 0.0910 0.1030 0.1060 0.1100
7.693000 0.1100 0.1010 0.1000 0.0960 0.0890
7.727063 0.0830 0.0810 0.0830 0.0930 0.1010
7.761000 0.1180 0.1300 0.1420 0.1520 0.1590
7.795063 0.1680 0.1730 0.1790 0.1860 0.1930
7.829000 0.2020 0.2120 0.2220 0.2350 0.2510
7.863063 0.2690 0.2920 0.3150 0.3310 0.3440
7.897000 0.3580 0.3700 0.3800 0.3900 0.3980
7.931063 0.4070 0.4150 0.4220 0.4270 0.4340
7.965000 0.4390 0.4430 0.4480 0.4510 0.4550
7.999063 0.4600 0.4610 0.4650 0.4680 0.4710
8.033000 0.4750 0.4780 0.4820 0.4850 0.4880
8.067063 0.4880 0.4900 0.4900 0.4900 0.4900
8.101000 0.4900 0.4920 0.4920 0.4940 0.4940
8.135063 0.4940 0.4920 0.4900 0.4880 0.4880
8.169000 0.4850 0.4830 0.4780 0.4780 0.4770
8.203063 0.4770 0.4770 0.4750 0.4710 0.4700
8.237000 0.4700 0.4680 0.4660 0.4630 0.4550
8.271063 0.4440 0.4390 0.4360 0.4320 0.4260
8.305000 0.4210 0.4140 0.4090 0.4020 0.3920
8.339063 0.3800 0.3650 0.3460 0.3220 0.2920
8.374000 0.2580 0.2270 0.2050 0.1740 0.1730
8.408063 0.1740 0.1910 0.2030 0.2070 0.2120
8.442000 0.2100 0.1980 0.1810 0.1740 0.1660
8.476063 0.1560 0.1440 0.1320 0.1200 0.1080
8.510000 0.0960 0.0860 0.0760 0.0660 0.0520
8.544063 0.0500 0.0450 0.0440 0.0420 0.0400
8.578000 0.0390 0.0390 0.0390 0.0390 0.0390
8.612063 0.0390 0.0390 0.0390 0.0390 0.0390
8.646000 0.0400 0.0400 0.0400 0.0420 0.0420
8.680063 0.0440 0.0440 0.0440 0.0440 0.0440
8.714000 0.0450 0.0490 0.0520 0.0560 0.0620
8.748063 0.0690 0.0760 0.0840 0.0910 0.0980
8.782000 0.1050 0.1120 0.1200 0.1290 0.1370
8.816063 0.1400 0.1400 0.1420 0.1420 0.1400
8.850000 0.1220 0.1120 0.1000 0.0890 0.0790
8.884063 0.0670 0.0640 0.0640 0.0640 0.0670
8.918000 0.0760 0.0830 0.0960 0.1030 0.1100
8.952063 0.1200 0.1230 0.1230 0.1230 0.1230
8.986000 0.1200 0.1170 0.1130 0.1060 0.1010
9.020063 0.0980 0.0960 0.0910 0.0860 0.0810
9.054000 0.0740 0.0690 0.0660 0.0610 0.0570
9.088063 0.0520 0.0470 0.0450 0.0420 0.0420
9.123000 0.0440 0.0610 0.0710 0.0860 0.1050
9.157063 0.1290 0.1560 0.1860 0.2190 0.2510
9.191000 0.2830 0.3140 0.3440 0.3730 0.3980
9.225063 0.4210 0.4360 0.4510 0.4660 0.4730
9.259000 0.4780 0.4850 0.4880 0.4850 0.4770
9.293063 0.4680 0.4580 0.4490 0.4410 0.4310
9.327000 0.4210 0.4050 0.3870 0.3650 0.3360
9.361063 0.3000 0.2760 0.2560 0.2370 0.2190
9.395000 0.1980 0.1730 0.1400 0.1350 0.1340
9.429063 0.1370 0.1520 0.1740 0.1950 0.2150
9.463000 0.2370 0.2590 0.2810 0.3050 0.3270
9.497063 0.3490 0.3630 0.3750 0.3850 0.3930
9.531000 0.4020 0.4090 0.4150 0.4220 0.4310
9.565063 0.4380 0.4480 0.4560 0.4710 0.4850
9.599000 0.5000 0.5170 0.5330 0.5480 0.5650
9.633063 0.5800 0.5970 0.6120 0.6280 0.6430
9.667000 0.6570 0.6680 0.6820 0.6920 0.7020
9.701063 0.7110 0.7210 0.7310 0.7330 0.7310
9.735000 0.7140 0.6890 0.6510 0.6110 0.5800
9.769063 0.5330 0.5310 0.5330 0.5970 0.6630
9.804000 0.7110 0.7450 0.7690 0.7820 0.7910
9.838063 0.7960 0.8010 0.8080 0.8180 0.8250
9.872000 0.8310 0.8330 0.8370 0.8400 0.8420
9.906063 0.8430 0.8450 0.8480 0.8480 0.8520
9.940000 0.8530 0.8550 0.8570 0.8600 0.8620
9.974063 0.8670 0.8700 0.8770 0.8820 0.8890
10.008000 0.8930 0.8960 0.8990 0.9010 0.9030
10.042063 0.9040 0.9080 0.9080 0.9060 0.9060
10.076000 0.9040 0.9010 0.8960 0.8910 0.8840
10.110063 0.8810 0.8740 0.8690 0.8620 0.8550
10.144000 0.8500 0.8480 0.8450 0.8450 0.8450
10.178063 0.8420 0.8380 0.8370 0.8330 0.8300
10.212000 0.8230 0.8180 0.8160 0.8130 0.8060
10.246063 0.7990 0.7860 0.7700 0.7550 0.7380
10.280000 0.7210 0.7090 0.6990 0.6940 0.6890
10.314063 0.6840 0.6800 0.6750 0.6630 0.6510
10.348000 0.6380 0.6240 0.6110 0.5950 0.5780
10.382063 0.5610 0.5430 0.5220 0.5000 0.4770
10.416000 0.4510 0.4260 0.3970 0.3650 0.3320
10.450063 0.2970 0.2580 0.2470 0.2290 0.2050
10.484000 0.1780 0.1520 0.1270 0.1060 0.0930
10.518063 0.0810 0.0790 0.0780 0.0790 0.0840
10.553000 0.0950 0.1050 0.1200 0.1370 0.1560
10.587063 0.1780 0.2020 0.2250 0.2510 0.2780
10.621000 0.3050 0.3340 0.3610 0.3880 0.4150
10.655063 0.4530 0.4880 0.5220 0.5530 0.5840
10.689000 0.6120 0.6380 0.6630 0.6890 0.7110
10.723063 0.7310 0.7520 0.7700 0.7870 0.8040
10.757000 0.8200 0.8350 0.8480 0.8600 0.8720
10.791063 0.8820 0.8930 0.9030 0.9110 0.9200
10.825000 0.9280 0.9350 0.9380 0.9420 0.9470
10.859063 0.9520 0.9570 0.9620 0.9690 0.9740
10.893000 0.9770 0.9810 0.9840 0.9890 0.9940
10.927063 1.0000 1.0010 1.0010 1.0030 1.0060
10.961000 1.0060 1.0080 1.0100 1.0110 1.0110
10.995063 1.0110 1.0110 1.0110 1.0110 1.0110
11.029000 1.0110 1.0110 1.0110 1.0110 1.0110
11.063063 1.0100 1.0100 1.0100 1.0100 1.0100
11.097000 1.0060 1.0060 1.0050 1.0030 1.0010
11.131063 1.0000 0.9960 0.9910 0.9860 0.9810
11.165000 0.9760 0.9690 0.9600 0.9520 0.9430
11.199063 0.9350 0.9250 0.9150 0.9040 0.8930
11.233000 0.8810 0.8690 0.8550 0.8430 0.8280
11.267063 0.8140 0.8010 0.7860 0.7700 0.7530
11.302000 0.7380 0.7210 0.7060 0.6870 0.6680
11.336063 0.6480 0.6280 0.6070 0.5870 0.5670
11.370000 0.5460 0.5240 0.5040 0.4850 0.4650
11.404063 0.4460 0.4270 0.4120 0.3950 0.3820
11.438000 0.3680 0.3560 0.3460 0.3370 0.3310
11.472063 0.3170 0.3120 0.3120 0.3120 0.3140
11.506000 0.3140 0.3190 0.3220 0.3270 0.3320
11.540063 0.3370 0.3420 0.3490 0.3560 0.3630
11.574000 0.3700 0.3760 0.3830 0.3920 0.4000
11.608063 0.4090 0.4150 0.4240 0.4320 0.4430
11.642000 0.4510 0.4600 0.4680 0.4770 0.4850
11.676063 0.4940 0.5040 0.5110 0.5210 0.5310
11.710000 0.5390 0.5480 0.5560 0.5630 0.5720
11.744063 0.5780 0.5850 0.5920 0.5990 0.6060
11.778000 0.6110 0.6170 0.6240 0.6310 0.6380
11.812063 0.6450 0.6500 0.6530 0.6550 0.6550
11.846000 0.6550 0.6550 0.6550 0.6550 0.6510
11.880063 0.6380 0.6280 0.6060 0.5800 0.5500
11.914000 0.5220 0.4990 0.4710 0.4700 0.4710
11.948063 0.4900 0.5190 0.5530 0.5900 0.6230
11.982000 0.6460 0.6550 0.6720 0.6820 0.6910
12.016063 0.6940 0.6970 0.6990 0.7010 0.7010
12.051000 0.7020 0.7020 0.7010 0.6990 0.6940
12.085063 0.6910 0.6840 0.6790 0.6740 0.6670
12.119000 0.6580 0.6500 0.6400 0.6290 0.6170
12.153063 0.6060 0.5900 0.5750 0.5600 0.5410
12.187000 0.5210 0.4940 0.4650 0.4360 0.4070
12.221063 0.3800 0.3510 0.3220 0.2930 0.2640
12.255000 0.2370 0.2080 0.1790 0.1520 0.1250
12.289063 0.0960 0.0810 0.0670 0.0570 0.0490
12.323000 0.0470 0.0420 0.0400 0.0420 0.0440
12.357063 0.0470 0.0540 0.0620 0.0740 0.0890
12.391000 0.1060 0.1290 0.1540 0.1850 0.2190
12.425063 0.2580 0.2780 0.3000 0.3220 0.3460
12.459000 0.3700 0.3920 0.4120 0.4290 0.4440
12.493063 0.4550 0.4580 0.4610 0.4650 0.4650
12.527000 0.4630 0.4510 0.4480 0.4480 0.4490
12.561063 0.4580 0.4710 0.4880 0.5070 0.5310
12.595000 0.5560 0.5820 0.6090 0.6340 0.6570
12.629063 0.6740 0.6910 0.7040 0.7160 0.7280
12.663000 0.7360 0.7470 0.7530 0.7570 0.7600
12.697063 0.7640 0.7650 0.7670 0.7690 0.7690
12.732000 0.7690 0.7690 0.7690 0.7700 0.7700
12.766063 0.7700 0.7700 0.7690 0.7690 0.7670
12.800000 0.7620 0.7600 0.7580 0.7570 0.7570
12.834063 0.7550 0.7530 0.7500 0.7500 0.7480
12.868000 0.7470 0.7470 0.7450 0.7430 0.7410
12.902063 0.7400 0.7380 0.7360 0.7350 0.7300
12.936000 0.7280 0.7260 0.7240 0.7240 0.7230
12.970063 0.7210 0.7190 0.7180 0.7160 0.7140
13.004000 0.7110 0.7090 0.7060 0.7040 0.7020
13.038063 0.7010 0.6970 0.6960 0.6940 0.6920
13.072000 0.6910 0.6910 0.6890 0.6870 0.6850
13.106063 0.6840 0.6820 0.6800 0.6770 0.6720
13.140000 0.6680 0.6650 0.6600 0.6570 0.6530
13.174063 0.6480 0.6460 0.6460 0.6450 0.6450
13.208000 0.6410 0.6400 0.6380 0.6340 0.6330
13.242063 0.6280 0.6230 0.6170 0.6160 0.6140
13.276000 0.6120 0.6110 0.6040 0.6010 0.5990
13.310063 0.5940 0.5890 0.5850 0.5800 0.5780
13.344000 0.5750 0.5720 0.5700 0.5670 0.5630
13.378063 0.5610 0.5560 0.5530 0.5480 0.5410
13.412000 0.5360 0.5340 0.5310 0.5260 0.5220
13.446063 0.5170 0.5160 0.5120 0.5090 0.5050
13.481000 0.5020 0.4950 0.4900 0.4850 0.4830
13.515063 0.4820 0.4800 0.4750 0.4700 0.4650
13.549000 0.4610 0.4580 0.4560 0.4510 0.4510
13.583063 0.4490 0.4440 0.4410 0.4360 0.4310
13.617000 0.4270 0.4240 0.4220 0.4210 0.4170
13.651063 0.4150 0.4120 0.4090 0.4050 0.4000
13.685000 0.3930 0.3870 0.3830 0.3780 0.3730
13.719063 0.3700 0.3680 0.3650 0.3610 0.3540
13.753000 0.3490 0.3480 0.3460 0.3440 0.3360
13.787063 0.3320 0.3290 0.3240 0.3200 0.3150
13.821000 0.3080 0.3030 0.2980 0.2970 0.2950
13.855063 0.2880 0.2880 0.2860 0.2850 0.2830
13.889000 0.2810 0.2780 0.2760 0.2710 0.2660
13.923063 0.2660 0.2630 0.2610 0.2590 0.2580
13.957000 0.2560 0.2560 0.2520 0.2510 0.2510
13.991063 0.2470 0.2440 0.2410 0.2350 0.2290
14.025000 0.2240 0.2150 0.2070 0.2070 0.2050
14.059063 0.2030 0.2000 0.1980 0.1950 0.1900
14.093000 0.1780 0.1690 0.1620 0.1560 0.1520
14.127063 0.1470 0.1440 0.1400 0.1350 0.1320
14.161000 0.1290 0.1270 0.1270 0.1290 0.1320
14.195063 0.1370 0.1440 0.1520 0.1610 0.1690
14.230000 0.1790 0.1900 0.2020 0.2120 0.2200
14.264063 0.2300 0.2390 0.2460 0.2460 0.2490
14.298000 0.2520 0.2560 0.2590 0.2580 0.2560
14.332063 0.2560 0.2510 0.2440 0.2420 0.2350
14.366000 0.2320 0.2320 0.2300 0.2290 0.2250
14.400063 0.2220 0.2190 0.2130 0.2100 0.2080
14.434000 0.2080 0.2070 0.2070 0.2050 0.2030
14.468063 0.2020 0.2000 0.1980 0.1960 0.1950
14.502000 0.1930 0.1910 0.1900 0.1880 0.1860
14.536063 0.1850 0.1850 0.1830 0.1810 0.1790
14.570000 0.1790 0.1780 0.1760 0.1740 0.1740
14.604063 0.1730 0.1730 0.1710 0.1710 0.1690
14.638000 0.1680 0.1680 0.1680 0.1680 0.1680
14.672063 0.1660 0.1660 0.1660 0.1660 0.1660
14.706000 0.1660 0.1660 0.1640 0.1620 0.1620
14.740063 0.1610 0.1610 0.1610 0.1610 0.1610
14.774000 0.1610 0.1610 0.1610 0.1610 0.1620
14.808063 0.1620 0.1620 0.1620 0.1640 0.1640
14.842000 0.1640 0.1640 0.1640 0.1640 0.1620
14.876063 0.1620 0.1620 0.1620 0.1620 0.1620
14.911000 0.1620 0.1620 0.1640 0.1640 0.1660
14.945063 0.1680 0.1690 0.1710 0.1740 0.1780
14.979000 0.1830 0.1880 0.1950 0.2000 0.2050
15.013063 0.2100 0.2120 0.2130 0.2170 0.2190
15.047000 0.2250 0.2250 0.2250 0.2250 0.2240
15.081063 0.2220 0.2170 0.2130 0.2120 0.2100
15.115000 0.2100 0.2070 0.2050 0.2030 0.2030
15.149063 0.2030 0.2070 0.2080 0.2100 0.2130
15.183000 0.2190 0.2240 0.2270 0.2320 0.2350
15.217063 0.2390 0.2420 0.2460 0.2490 0.2540
15.251000 0.2580 0.2590 0.2630 0.2640 0.2680
15.285063 0.2710 0.2750 0.2780 0.2830 0.2880
15.319000 0.2920 0.2970 0.3020 0.3050 0.3100
15.353063 0.3140 0.3170 0.3200 0.3240 0.3270
15.387000 0.3310 0.3370 0.3440 0.3530 0.3590
15.421063 0.3660 0.3710 0.3750 0.3780 0.3820
15.455000 0.3870 0.3920 0.4000 0.4020 0.4050
15.489063 0.4120 0.4170 0.4220 0.4220 0.4260
15.523000 0.4290 0.4310 0.4320 0.4320 0.4340
15.557063 0.4340 0.4380 0.4390 0.4390 0.4410
15.591000 0.4430 0.4430 0.4440 0.4460 0.4460
15.625063 0.4460 0.4480 0.4480 0.4460 0.4460
15.660000 0.4440 0.4440 0.4430 0.4430 0.4430
15.694063 0.4440 0.4440 0.4460 0.4460 0.4460
15.728000 0.4460 0.4440 0.4440 0.4440 0.4440
15.762063 0.4440 0.4430 0.4430 0.4410 0.4410
15.796000 0.4410 0.4410 0.4390 0.4390 0.4390
15.830063 0.4380 0.4380 0.4380 0.4360 0.4360
15.864000 0.4340 0.4320 0.4320 0.4310 0.4290
15.898063 0.4260 0.4260 0.4260 0.4270 0.4270
15.932000 0.4310 0.4310 0.4320 0.4320 0.4340
15.966063 0.4340 0.4340 0.4340
##END=
