##TITLE=Alpha PINENE
##JCAMP-DX=4.24
##DATA TYPE=INFRARED SPECTRUM
##CLASS=COBLENTZ
##ORIGIN=INTERNATIONAL FLAVORS & FRAGRANCES, INC.
##OWNER=COBLENTZ SOCIETY
Collection (C) 2018 copyright by the U.S. Secretary of Commerce
on behalf of the United States of America. All rights reserved.
##DATE=Not specified, most likely prior to 1970
##NAMES=2,6,6-trimethylbicyclo[3.1.1]hept-2-ene
##CAS REGISTRY NO=80-56-8
##MOLFORM=C10 H16
##SOURCE REFERENCE=COBLENTZ NO. 4986
##$NIST SOURCE=COBLENTZ
##$NIST IMAGE=cob4986
##SPECTROMETER/DATA SYSTEM=Not specified, most likely a prism, grating, or hybrid spectrometer.
##SAMPLING PROCEDURE=TRANSMISSION
##RESOLUTION=4
##DATA PROCESSING=DIGITIZED BY NIST FROM HARD COPY (FROM TWO SEGMENTS)
##XUNITS=MICROMETERS
##YUNITS=TRANSMITTANCE
##XFACTOR=1.000000
##YFACTOR=1
##DELTAX=0.006042
##FIRSTX=2.021
##LASTX=14.9932
##FIRSTY=0.901
##MAXX=14.9932
##MINX=2.021
##MAXY=0.933
##MINY=0.031
##NPOINTS=2148
##XYDATA=(X++(Y..Y))
2.021000 0.9010 0.9010 0.9010 0.9010 0.9010
2.051210 0.9010 0.9010 0.9010 0.9010 0.9010
2.081420 0.9010 0.9010 0.9010 0.9010 0.9010
2.111630 0.9010 0.9010 0.9010 0.9001 0.9000
2.141840 0.9000 0.9000 0.9000 0.9000 0.9000
2.172050 0.9000 0.9000 0.9000 0.8981 0.8980
2.202260 0.8980 0.8970 0.8969 0.8938 0.8880
2.232470 0.8879 0.8859 0.8828 0.8768 0.8679
2.262680 0.8632 0.8602 0.8543 0.8474 0.8357
2.292890 0.8331 0.8330 0.8349 0.8359 0.8388
2.323100 0.8421 0.8480 0.8510 0.8530 0.8540
2.353310 0.8560 0.8600 0.8620 0.8630 0.8630
2.383520 0.8649 0.8659 0.8678 0.8680 0.8689
2.413730 0.8690 0.8708 0.8710 0.8710 0.8692
2.443940 0.8680 0.8680 0.8680 0.8690 0.8690
2.474150 0.8719 0.8740 0.8740 0.8750 0.8750
2.504360 0.8750 0.8750 0.8750 0.8750 0.8750
2.534570 0.8768 0.8770 0.8770 0.8770 0.8770
2.564780 0.8780 0.8780 0.8799 0.8800 0.8829
2.594990 0.8830 0.8859 0.8879 0.8889 0.8909
2.625200 0.8920 0.8920 0.8921 0.8940 0.8941
2.655410 0.8971 0.9000 0.9000 0.9010 0.9010
2.685620 0.9010 0.9010 0.9010 0.9010 0.9010
2.715830 0.9010 0.9029 0.9030 0.9030 0.9030
2.746040 0.9030 0.9030 0.9040 0.9040 0.9070
2.776250 0.9070 0.9070 0.9060 0.9040 0.9040
2.806460 0.9031 0.9039 0.9040 0.9067 0.9070
2.836670 0.9043 0.9031 0.9030 0.9003 0.9009
2.866880 0.9010 0.9010 0.9000 0.8981 0.8970
2.897090 0.8980 0.8980 0.8980 0.8980 0.8980
2.927300 0.8969 0.8951 0.8970 0.8969 0.8950
2.957510 0.8950 0.8939 0.8920 0.8920 0.8910
2.987720 0.8910 0.8910 0.8910 0.8891 0.8890
3.017930 0.8890 0.8890 0.8890 0.8890 0.8909
3.048140 0.8910 0.8910 0.8910 0.8910 0.8890
3.078350 0.8890 0.8880 0.8860 0.8860 0.8850
3.108560 0.8831 0.8811 0.8727 0.8656 0.8622
3.138770 0.8602 0.8563 0.8505 0.8445 0.8422
3.168980 0.8410 0.8380 0.8330 0.8320 0.8320
3.199190 0.8320 0.8300 0.8271 0.8241 0.8191
3.229400 0.8108 0.7938 0.7803 0.7396 0.6939
3.259610 0.6311 0.5076 0.4655 0.4355 0.4285
3.289820 0.4232 0.4220 0.4085 0.3733 0.3075
3.320030 0.2349 0.1745 0.1299 0.0794 0.0694
3.350240 0.0587 0.0508 0.0459 0.0419 0.0389
3.380450 0.0359 0.0340 0.0330 0.0330 0.0310
3.410660 0.0310 0.0310 0.0310 0.0310 0.0329
3.440870 0.0330 0.0339 0.0368 0.0453 0.0506
3.471080 0.0773 0.1016 0.1553 0.1931 0.2140
3.501290 0.2230 0.2260 0.2310 0.2988 0.3656
3.531500 0.4777 0.5959 0.7019 0.7383 0.7728
3.561710 0.7896 0.7964 0.8105 0.8201 0.8255
3.591920 0.8270 0.8290 0.8300 0.8329 0.8408
3.622130 0.8410 0.8352 0.8321 0.8271 0.8183
3.652340 0.8072 0.8060 0.8087 0.8302 0.8427
3.682550 0.8519 0.8635 0.8729 0.8775 0.8797
3.712760 0.8810 0.8829 0.8811 0.8753 0.8607
3.742970 0.8571 0.8589 0.8685 0.8747 0.8807
3.773180 0.8850 0.8850 0.8850 0.8860 0.8860
3.803390 0.8860 0.8880 0.8890 0.8921 0.8970
3.833600 0.8970 0.8979 0.8980 0.8980 0.8971
3.863810 0.8979 0.8980 0.8980 0.8998 0.9009
3.894020 0.9010 0.9010 0.9010 0.9010 0.9000
3.924230 0.9000 0.9000 0.9000 0.9000 0.9000
3.954440 0.9009 0.9010 0.9028 0.9030 0.9030
3.984650 0.9030 0.9030 0.9030 0.9030 0.9030
4.014860 0.9030 0.9030 0.9030 0.9030 0.9040
4.045070 0.9040 0.9040 0.9059 0.9060 0.9060
4.075280 0.9060 0.9069 0.9070 0.9070 0.9070
4.105490 0.9087 0.9090 0.9099 0.9117 0.9129
4.135700 0.9149 0.9150 0.9150 0.9131 0.9130
4.165910 0.9130 0.9130 0.9121 0.9120 0.9120
4.196120 0.9120 0.9120 0.9120 0.9120 0.9100
4.226330 0.9100 0.9100 0.9120 0.9120 0.9130
4.256540 0.9130 0.9148 0.9132 0.9130 0.9148
4.286750 0.9159 0.9178 0.9180 0.9189 0.9190
4.316960 0.9210 0.9210 0.9220 0.9240 0.9240
4.347170 0.9220 0.9210 0.9210 0.9190 0.9190
4.377380 0.9190 0.9190 0.9190 0.9190 0.9208
4.407590 0.9210 0.9219 0.9220 0.9220 0.9220
4.437800 0.9220 0.9239 0.9240 0.9221 0.9220
4.468010 0.9220 0.9210 0.9210 0.9162 0.9151
4.498220 0.9150 0.9150 0.9160 0.9160 0.9160
4.528430 0.9161 0.9190 0.9191 0.9220 0.9220
4.558640 0.9239 0.9221 0.9220 0.9220 0.9220
4.588850 0.9220 0.9220 0.9220 0.9220 0.9211
4.619060 0.9190 0.9190 0.9180 0.9180 0.9190
4.649270 0.9210 0.9210 0.9220 0.9220 0.9220
4.679480 0.9238 0.9240 0.9249 0.9250 0.9268
4.709690 0.9270 0.9270 0.9270 0.9252 0.9250
4.739900 0.9240 0.9240 0.9240 0.9240 0.9240
4.770110 0.9250 0.9250 0.9279 0.9280 0.9270
4.800320 0.9270 0.9226 0.9211 0.9210 0.9210
4.830530 0.9210 0.9219 0.9246 0.9250 0.9224
4.860740 0.9220 0.9220 0.9220 0.9220 0.9220
4.890950 0.9220 0.9239 0.9249 0.9250 0.9269
4.921160 0.9270 0.9270 0.9270 0.9280 0.9280
4.951370 0.9280 0.9280 0.9280 0.9270 0.9240
4.981580 0.9212 0.9210 0.9191 0.9209 0.9219
5.011790 0.9267 0.9279 0.9307 0.9310 0.9310
5.042000 0.9310 0.9301 0.9283 0.9297 0.9300
5.072210 0.9300 0.9300 0.9300 0.9284 0.9280
5.102420 0.9280 0.9280 0.9280 0.9280 0.9280
5.132630 0.9295 0.9300 0.9307 0.9310 0.9310
5.162840 0.9324 0.9330 0.9330 0.9330 0.9330
5.193050 0.9330 0.9330 0.9330 0.9330 0.9330
5.223260 0.9330 0.9330 0.9330 0.9330 0.9330
5.253470 0.9319 0.9310 0.9294 0.9280 0.9280
5.283680 0.9280 0.9280 0.9280 0.9280 0.9280
5.313890 0.9280 0.9280 0.9280 0.9280 0.9288
5.344100 0.9292 0.9280 0.9276 0.9259 0.9244
5.374310 0.9246 0.9233 0.9217 0.9210 0.9210
5.404520 0.9210 0.9210 0.9210 0.9210 0.9204
5.434730 0.9190 0.9195 0.9210 0.9210 0.9212
5.464940 0.9224 0.9242 0.9254 0.9272 0.9280
5.495150 0.9280 0.9280 0.9283 0.9300 0.9300
5.525360 0.9300 0.9298 0.9279 0.9270 0.9268
5.555570 0.9250 0.9250 0.9249 0.9240 0.9239
5.585780 0.9220 0.9220 0.9220 0.9220 0.9220
5.615990 0.9220 0.9220 0.9220 0.9220 0.9211
5.646200 0.9210 0.9210 0.9210 0.9237 0.9240
5.676410 0.9240 0.9214 0.9193 0.9181 0.9180
5.706620 0.9155 0.9133 0.9097 0.9066 0.9036
5.736830 0.9030 0.9061 0.9109 0.9128 0.9130
5.767040 0.9123 0.9105 0.9100 0.9100 0.9114
5.797250 0.9141 0.9177 0.9204 0.9197 0.9183
5.827460 0.9167 0.9160 0.9154 0.9150 0.9138
5.857670 0.9130 0.9130 0.9124 0.9109 0.9100
5.887880 0.9100 0.9095 0.9079 0.9065 0.9060
5.918090 0.9045 0.9015 0.8985 0.8956 0.8931
5.948300 0.8893 0.8856 0.8850 0.8794 0.8707
5.978510 0.8628 0.8468 0.8282 0.8087 0.7959
6.008720 0.7951 0.8055 0.8258 0.8393 0.8516
6.038930 0.8618 0.8698 0.8752 0.8786 0.8800
6.069140 0.8800 0.8803 0.8810 0.8815 0.8830
6.099350 0.8830 0.8826 0.8810 0.8810 0.8808
6.129560 0.8800 0.8800 0.8802 0.8810 0.8815
6.159770 0.8850 0.8850 0.8850 0.8850 0.8848
6.189980 0.8828 0.8800 0.8800 0.8800 0.8800
6.220190 0.8799 0.8780 0.8780 0.8780 0.8780
6.250400 0.8800 0.8800 0.8800 0.8829 0.8830
6.280610 0.8807 0.8777 0.8747 0.8708 0.8677
6.310820 0.8628 0.8588 0.8538 0.8480 0.8470
6.341030 0.8480 0.8540 0.8619 0.8630 0.8630
6.371240 0.8630 0.8649 0.8659 0.8734 0.8768
6.401450 0.8806 0.8846 0.8859 0.8886 0.8916
6.431660 0.8937 0.8940 0.8940 0.8948 0.8950
6.461870 0.8950 0.8966 0.8978 0.9004 0.9010
6.492080 0.9010 0.9010 0.9003 0.9000 0.8978
6.522290 0.8934 0.8913 0.8910 0.8917 0.8920
6.552500 0.8940 0.8950 0.8950 0.8944 0.8908
6.582710 0.8884 0.8862 0.8838 0.8818 0.8810
6.612920 0.8804 0.8789 0.8774 0.8743 0.8699
6.643130 0.8654 0.8614 0.8569 0.8520 0.8461
6.673340 0.8377 0.8273 0.8141 0.8019 0.7908
6.703550 0.7774 0.7619 0.7444 0.7269 0.7071
6.733760 0.6796 0.6479 0.6268 0.5989 0.5471
6.763970 0.4731 0.4182 0.3649 0.3364 0.3356
6.794180 0.3463 0.3794 0.4131 0.4375 0.4538
6.824390 0.4560 0.4558 0.4471 0.4163 0.3968
6.854600 0.3660 0.3331 0.3119 0.2890 0.2648
6.884810 0.2383 0.2169 0.2161 0.2180 0.2262
6.915020 0.2369 0.2453 0.2482 0.2512 0.2548
6.945230 0.2686 0.3001 0.3471 0.3786 0.4003
6.975440 0.4201 0.4399 0.4647 0.5041 0.5311
7.005650 0.5578 0.6321 0.6482 0.6611 0.6758
7.035860 0.6907 0.7064 0.7214 0.7362 0.7485
7.066070 0.7586 0.7668 0.7731 0.7790 0.7825
7.096280 0.7846 0.7874 0.7904 0.7918 0.7936
7.126490 0.7940 0.7940 0.7940 0.7925 0.7913
7.156700 0.7896 0.7869 0.7832 0.7682 0.7456
7.186910 0.7219 0.6855 0.6219 0.4999 0.3879
7.217120 0.3540 0.3873 0.4165 0.4256 0.4298
7.247330 0.4327 0.4363 0.4414 0.4649 0.4966
7.277540 0.5090 0.4814 0.3967 0.3044 0.2602
7.307750 0.2510 0.2808 0.3428 0.4051 0.4663
7.337960 0.5369 0.6235 0.6894 0.7212 0.7439
7.368170 0.7618 0.7752 0.7853 0.7935 0.7998
7.398380 0.8061 0.8130 0.8163 0.8196 0.8210
7.428590 0.8204 0.8182 0.8127 0.8006 0.7831
7.458800 0.7541 0.7318 0.7112 0.6876 0.6854
7.489010 0.6824 0.6798 0.6785 0.6752 0.6649
7.519220 0.6330 0.6347 0.6553 0.7284 0.7631
7.549430 0.7898 0.8072 0.8198 0.8295 0.8363
7.579640 0.8413 0.8473 0.8530 0.8540 0.8540
7.609850 0.8540 0.8540 0.8540 0.8530 0.8530
7.640060 0.8501 0.8471 0.8451 0.8450 0.8478
7.670270 0.8498 0.8536 0.8567 0.8597 0.8626
7.700480 0.8647 0.8659 0.8677 0.8688 0.8715
7.730690 0.8736 0.8740 0.8740 0.8740 0.8740
7.760900 0.8740 0.8725 0.8720 0.8720 0.8713
7.791110 0.8696 0.8683 0.8687 0.8669 0.8639
7.821320 0.8610 0.8580 0.8531 0.8452 0.8344
7.851530 0.8250 0.8121 0.7896 0.7562 0.7133
7.881740 0.6841 0.6696 0.6511 0.6327 0.6260
7.911950 0.6324 0.6505 0.6712 0.6886 0.7054
7.942160 0.7188 0.7425 0.7737 0.7924 0.8045
7.972370 0.8135 0.8206 0.8253 0.8278 0.8302
8.002580 0.8324 0.8338 0.8361 0.8394 0.8441
8.032790 0.8511 0.8590 0.8640 0.8660 0.8666
8.063000 0.8680 0.8680 0.8683 0.8695 0.8705
8.093210 0.8688 0.8675 0.8658 0.8643 0.8610
8.123420 0.8556 0.8479 0.8372 0.8268 0.8125
8.153630 0.7899 0.7621 0.7274 0.6923 0.6559
8.183840 0.6298 0.6104 0.6047 0.6018 0.6001
8.214050 0.6025 0.6116 0.6232 0.6294 0.6423
8.244260 0.6581 0.6700 0.6789 0.6908 0.7114
8.274470 0.7120 0.6892 0.6852 0.6411 0.5946
8.304680 0.5444 0.5536 0.5684 0.5966 0.6263
8.334890 0.6577 0.6877 0.7182 0.7490 0.7930
8.365100 0.8125 0.8199 0.8282 0.8363 0.8411
8.395310 0.8435 0.8448 0.8465 0.8470 0.8448
8.425520 0.8382 0.8310 0.8177 0.8088 0.8001
8.455730 0.7875 0.7730 0.7660 0.7669 0.7757
8.485940 0.7913 0.8073 0.8160 0.8216 0.8275
8.516150 0.8317 0.8341 0.8350 0.8350 0.8339
8.546360 0.8282 0.8098 0.7877 0.7573 0.7157
8.576570 0.6877 0.6800 0.6828 0.7075 0.7487
8.606780 0.7799 0.8040 0.8244 0.8405 0.8506
8.636990 0.8572 0.8605 0.8652 0.8712 0.8757
8.667200 0.8773 0.8780 0.8786 0.8809 0.8854
8.697410 0.8913 0.8920 0.8920 0.8920 0.8925
8.727620 0.8940 0.8942 0.8955 0.8970 0.8970
8.757830 0.8966 0.8950 0.8948 0.8936 0.8917
8.788040 0.8910 0.8904 0.8878 0.8827 0.8753
8.818250 0.8688 0.8604 0.8500 0.8364 0.8190
8.848460 0.8063 0.7876 0.7351 0.6627 0.6460
8.878670 0.6087 0.5790 0.5840 0.6158 0.6488
8.908880 0.6827 0.7134 0.7587 0.7986 0.8145
8.939090 0.8309 0.8417 0.8512 0.8541 0.8571
8.969300 0.8591 0.8620 0.8630 0.8630 0.8620
8.999510 0.8571 0.8531 0.8472 0.8422 0.8363
9.029720 0.8304 0.8189 0.8042 0.7957 0.7815
9.059930 0.7622 0.7486 0.7366 0.7255 0.7214
9.090140 0.7202 0.7208 0.7309 0.7419 0.7536
9.120350 0.7695 0.7848 0.7911 0.7943 0.7988
9.150560 0.8007 0.8025 0.8030 0.8016 0.7939
9.180770 0.7826 0.7714 0.7537 0.7309 0.7098
9.210980 0.6893 0.6711 0.6644 0.6646 0.6846
9.241190 0.7091 0.7336 0.7614 0.7851 0.8048
9.271400 0.8175 0.8259 0.8343 0.8428 0.8532
9.301610 0.8605 0.8625 0.8640 0.8650 0.8650
9.331820 0.8650 0.8641 0.8630 0.8626 0.8612
9.362030 0.8563 0.8474 0.8369 0.8194 0.7961
9.392240 0.7742 0.7519 0.7327 0.7207 0.7203
9.422450 0.7293 0.7560 0.7817 0.8008 0.8192
9.452660 0.8322 0.8390 0.8448 0.8540 0.8582
9.482870 0.8622 0.8636 0.8666 0.8690 0.8688
9.513080 0.8680 0.8675 0.8647 0.8626 0.8588
9.543290 0.8502 0.8445 0.8405 0.8354 0.8290
9.573500 0.8184 0.8114 0.8024 0.7939 0.7921
9.603710 0.7941 0.7972 0.8041 0.8120 0.8180
9.633920 0.8259 0.8299 0.8319 0.8330 0.8349
9.664130 0.8350 0.8350 0.8350 0.8350 0.8359
9.694340 0.8360 0.8386 0.8434 0.8492 0.8526
9.724550 0.8538 0.8557 0.8560 0.8544 0.8532
9.754760 0.8514 0.8502 0.8477 0.8424 0.8327
9.784970 0.8255 0.8174 0.8019 0.7891 0.7711
9.815180 0.7440 0.7004 0.6570 0.6305 0.6134
9.845390 0.5838 0.5575 0.5500 0.5662 0.5926
9.875600 0.6188 0.6606 0.7096 0.7463 0.7772
9.905810 0.7960 0.8115 0.8275 0.8388 0.8476
9.936020 0.8536 0.8580 0.8625 0.8669 0.8704
9.966230 0.8729 0.8745 0.8759 0.8774 0.8788
9.996440 0.8800 0.8780 0.8734 0.8691 0.8649
10.026650 0.8626 0.8624 0.8637 0.8664 0.8706
10.056860 0.8753 0.8796 0.8845 0.8892 0.8920
10.087070 0.8928 0.8950 0.8958 0.8987 0.9015
10.117280 0.9030 0.9032 0.9040 0.9044 0.9060
10.147490 0.9062 0.9070 0.9070 0.9070 0.9070
10.177700 0.9070 0.9070 0.9070 0.9070 0.9070
10.207910 0.9070 0.9070 0.9070 0.9070 0.9070
10.238120 0.9070 0.9059 0.9030 0.9030 0.9030
10.268330 0.9040 0.9030 0.9011 0.9010 0.9010
10.298540 0.9001 0.8981 0.8971 0.8943 0.8895
10.328750 0.8881 0.8862 0.8834 0.8813 0.8750
10.358960 0.8715 0.8585 0.8469 0.8368 0.8261
10.389170 0.8152 0.8130 0.7842 0.7745 0.7657
10.419380 0.7533 0.7433 0.7388 0.7344 0.7309
10.449590 0.7279 0.7263 0.7240 0.7116 0.6980
10.479800 0.6842 0.6777 0.6598 0.6469 0.6413
10.510010 0.6390 0.6611 0.6948 0.7253 0.7522
10.540220 0.7770 0.7902 0.8017 0.8164 0.8288
10.570430 0.8381 0.8425 0.8489 0.8579 0.8625
10.600640 0.8639 0.8655 0.8660 0.8669 0.8684
10.630850 0.8690 0.8690 0.8686 0.8680 0.8680
10.661060 0.8684 0.8697 0.8721 0.8750 0.8770
10.691270 0.8773 0.8780 0.8777 0.8770 0.8764
10.721480 0.8742 0.8709 0.8659 0.8575 0.8460
10.751690 0.8296 0.8128 0.7898 0.7738 0.7700
10.781900 0.7568 0.7565 0.7614 0.7745 0.7798
10.812110 0.8003 0.8240 0.8388 0.8461 0.8569
10.842320 0.8664 0.8713 0.8753 0.8802 0.8831
10.872530 0.8851 0.8891 0.8920 0.8940 0.8980
10.902740 0.9010 0.9030 0.9040 0.9040 0.9059
10.932950 0.9060 0.9069 0.9070 0.9070 0.9070
10.963160 0.9070 0.9070 0.9070 0.9044 0.9040
10.993370 0.9032 0.9013 0.8985 0.8972 0.8954
11.023580 0.8894 0.8817 0.8761 0.8704 0.8644
11.053790 0.8622 0.8620 0.8627 0.8644 0.8693
11.084000 0.8731 0.8761 0.8777 0.8800 0.8823
11.114210 0.8850 0.8873 0.8880 0.8880 0.8868
11.144420 0.8860 0.8854 0.8838 0.8818 0.8793
11.174630 0.8758 0.8723 0.8694 0.8632 0.8543
11.204840 0.8474 0.8354 0.8206 0.8063 0.7903
11.235050 0.7709 0.7447 0.7139 0.6721 0.6277
11.265260 0.5939 0.5672 0.5377 0.5210 0.5330
11.295470 0.5484 0.5577 0.5728 0.5916 0.6114
11.325680 0.6405 0.6728 0.6950 0.7094 0.7238
11.355890 0.7346 0.7419 0.7487 0.7518 0.7542
11.386100 0.7572 0.7613 0.7672 0.7750 0.7841
11.416310 0.7911 0.8010 0.8113 0.8192 0.8306
11.446520 0.8428 0.8490 0.8557 0.8622 0.8698
11.476730 0.8770 0.8842 0.8889 0.8927 0.8954
11.506940 0.8976 0.9002 0.9014 0.9035 0.9062
11.537150 0.9073 0.9091 0.9100 0.9103 0.9120
11.567360 0.9120 0.9121 0.9133 0.9160 0.9162
11.597570 0.9190 0.9190 0.9191 0.9210 0.9210
11.627780 0.9210 0.9210 0.9220 0.9210 0.9210
11.657990 0.9210 0.9210 0.9210 0.9210 0.9191
11.688200 0.9190 0.9181 0.9180 0.9180 0.9180
11.718410 0.9163 0.9160 0.9160 0.9152 0.9150
11.748620 0.9150 0.9150 0.9150 0.9150 0.9150
11.778830 0.9135 0.9130 0.9100 0.9053 0.9018
11.809040 0.9003 0.8943 0.8899 0.8862 0.8822
11.839250 0.8783 0.8690 0.8571 0.8491 0.8432
11.869460 0.8391 0.8343 0.8308 0.8300 0.8312
11.899670 0.8373 0.8450 0.8508 0.8569 0.8633
11.929880 0.8692 0.8778 0.8846 0.8875 0.8905
11.960090 0.8935 0.8960 0.8975 0.8994 0.9046
11.990300 0.9094 0.9109 0.9120 0.9120 0.9120
12.020510 0.9120 0.9120 0.9120 0.9120 0.9120
12.050720 0.9120 0.9123 0.9130 0.9130 0.9130
12.080930 0.9130 0.9130 0.9127 0.9120 0.9120
12.111140 0.9120 0.9120 0.9120 0.9120 0.9120
12.141350 0.9120 0.9120 0.9116 0.9098 0.9090
12.171560 0.9087 0.9070 0.9070 0.9066 0.9039
12.201770 0.9028 0.9009 0.9000 0.9000 0.9000
12.231980 0.8999 0.8979 0.8970 0.8980 0.8970
12.262190 0.8970 0.8970 0.8970 0.8970 0.8970
12.292400 0.8951 0.8950 0.8950 0.8941 0.8940
12.322610 0.8922 0.8911 0.8910 0.8910 0.8892
12.352820 0.8890 0.8864 0.8851 0.8850 0.8833
12.383030 0.8814 0.8786 0.8756 0.8718 0.8694
12.413240 0.8690 0.8682 0.8665 0.8638 0.8608
12.443450 0.8556 0.8511 0.8465 0.8429 0.8399
12.473660 0.8370 0.8313 0.8270 0.8214 0.8145
12.503870 0.8069 0.8021 0.7955 0.7866 0.7759
12.534080 0.7646 0.7531 0.7440 0.7360 0.7254
12.564290 0.7114 0.6961 0.6796 0.6628 0.6455
12.594500 0.6267 0.5978 0.5435 0.4866 0.4423
12.624710 0.3996 0.3681 0.3408 0.3018 0.2602
12.654920 0.2315 0.2032 0.1751 0.1563 0.1482
12.685130 0.1339 0.1280 0.1207 0.1140 0.1227
12.715340 0.1546 0.1933 0.2250 0.2564 0.2874
12.745550 0.3191 0.3496 0.3784 0.4150 0.4486
12.775760 0.4679 0.5095 0.5281 0.5483 0.5613
12.805970 0.5773 0.6030 0.6214 0.6312 0.6413
12.836180 0.6594 0.6718 0.6796 0.6865 0.6924
12.866390 0.6972 0.7002 0.7030 0.7029 0.7000
12.896600 0.6980 0.6970 0.6890 0.6801 0.6683
12.926810 0.6554 0.6387 0.6333 0.6245 0.6147
12.957020 0.6039 0.5975 0.5961 0.5969 0.6041
12.987230 0.6129 0.6192 0.6260 0.6346 0.6452
13.017440 0.6586 0.6716 0.6853 0.6999 0.7140
13.047650 0.7287 0.7420 0.7556 0.7695 0.7804
13.077860 0.7896 0.7978 0.8028 0.8124 0.8201
13.108070 0.8247 0.8287 0.8333 0.8357 0.8392
13.138280 0.8429 0.8465 0.8511 0.8536 0.8552
13.168490 0.8578 0.8607 0.8626 0.8641 0.8650
13.198700 0.8655 0.8660 0.8686 0.8715 0.8735
13.228910 0.8760 0.8775 0.8780 0.8789 0.8800
13.259120 0.8804 0.8810 0.8810 0.8806 0.8800
13.289330 0.8804 0.8818 0.8830 0.8830 0.8837
13.319540 0.8854 0.8860 0.8860 0.8866 0.8880
13.349750 0.8880 0.8883 0.8896 0.8910 0.8905
13.379960 0.8890 0.8890 0.8888 0.8880 0.8880
13.410170 0.8880 0.8880 0.8876 0.8860 0.8858
13.440380 0.8852 0.8860 0.8860 0.8860 0.8860
13.470590 0.8860 0.8860 0.8860 0.8860 0.8860
13.500800 0.8860 0.8860 0.8860 0.8860 0.8860
13.531010 0.8860 0.8860 0.8860 0.8860 0.8860
13.561220 0.8860 0.8879 0.8880 0.8861 0.8860
13.591430 0.8860 0.8860 0.8860 0.8860 0.8851
13.621640 0.8859 0.8860 0.8860 0.8852 0.8850
13.651850 0.8850 0.8850 0.8834 0.8830 0.8830
13.682060 0.8814 0.8810 0.8810 0.8810 0.8810
13.712270 0.8810 0.8810 0.8803 0.8800 0.8786
13.742480 0.8780 0.8780 0.8780 0.8780 0.8780
13.772690 0.8780 0.8772 0.8770 0.8747 0.8725
13.802900 0.8720 0.8713 0.8710 0.8696 0.8690
13.833110 0.8690 0.8690 0.8690 0.8690 0.8703
13.863320 0.8710 0.8697 0.8690 0.8690 0.8684
13.893530 0.8680 0.8680 0.8680 0.8680 0.8680
13.923740 0.8680 0.8680 0.8680 0.8680 0.8680
13.953950 0.8670 0.8660 0.8660 0.8655 0.8650
13.984160 0.8650 0.8641 0.8630 0.8630 0.8630
14.014370 0.8626 0.8620 0.8612 0.8600 0.8600
14.044580 0.8600 0.8600 0.8600 0.8600 0.8600
14.074790 0.8597 0.8584 0.8570 0.8570 0.8567
14.105000 0.8560 0.8555 0.8537 0.8530 0.8530
14.135210 0.8532 0.8540 0.8540 0.8540 0.8540
14.165420 0.8540 0.8538 0.8527 0.8510 0.8509
14.195630 0.8500 0.8498 0.8480 0.8479 0.8470
14.225840 0.8468 0.8450 0.8449 0.8440 0.8439
14.256050 0.8420 0.8420 0.8410 0.8410 0.8390
14.286260 0.8390 0.8380 0.8380 0.8361 0.8360
14.316470 0.8351 0.8331 0.8330 0.8321 0.8320
14.346680 0.8302 0.8300 0.8291 0.8290 0.8273
14.376890 0.8270 0.8262 0.8260 0.8244 0.8240
14.407100 0.8224 0.8220 0.8212 0.8210 0.8195
14.437310 0.8190 0.8183 0.8180 0.8165 0.8160
14.467520 0.8153 0.8150 0.8136 0.8130 0.8123
14.497730 0.8120 0.8107 0.8100 0.8094 0.8090
14.527940 0.8078 0.8070 0.8064 0.8060 0.8049
14.558150 0.8040 0.8034 0.8030 0.8019 0.8010
14.588360 0.8010 0.8010 0.8010 0.8005 0.8000
14.618570 0.8000 0.8000 0.8000 0.7991 0.7980
14.648780 0.7980 0.7980 0.7980 0.7976 0.7970
14.678990 0.7970 0.7970 0.7970 0.7963 0.7950
14.709200 0.7950 0.7950 0.7950 0.7947 0.7940
14.739410 0.7940 0.7940 0.7940 0.7940 0.7940
14.769620 0.7940 0.7940 0.7940 0.7940 0.7940
14.799830 0.7940 0.7940 0.7940 0.7940 0.7940
14.830040 0.7940 0.7940 0.7940 0.7940 0.7940
14.860250 0.7940 0.7940 0.7940 0.7940 0.7940
14.890460 0.7940 0.7940 0.7940 0.7940 0.7940
14.920670 0.7940 0.7940 0.7940 0.7940 0.7940
14.950880 0.7940 0.7940 0.7940 0.7940 0.7940
14.981090 0.7940 0.7940 0.7940
##END=
