##TITLE=5-DECANONE
##JCAMP-DX=4.24
##DATA TYPE=INFRARED SPECTRUM
##CLASS=COBLENTZ II
##ORIGIN=STANDARD OIL OF OHIO
##OWNER=COBLENTZ SOCIETY
Collection (C) 2018 copyright by the U.S. Secretary of Commerce
on behalf of the United States of America. All rights reserved.
##DATE=1969/11/16
##CAS REGISTRY NO=820-29-1
##MOLFORM=C10 H20 O
##SOURCE REFERENCE=COBLENTZ NO. 6060
##$NIST SOURCE=COBLENTZ
##$NIST IMAGE=cob6060
##SPECTROMETER/DATA SYSTEM=PERKIN-ELMER 521 (GRATING)
##INSTRUMENT PARAMETERS=FILTERS AT 3150, 2500, 2000, 1150, 700, 410. GRATING CHANGES: 2000, 630 CM^-^1
##STATE=LIQUID (NEAT, KBr PLATE VS. KBr PLATE)
$$ 99% PURE
##PATH LENGTH=CAPILLARY
##SAMPLING PROCEDURE=TRANSMISSION
##RESOLUTION=2
##DATA PROCESSING=DIGITIZED BY NIST FROM HARD COPY
##XUNITS=1/CM
##YUNITS=TRANSMITTANCE
##XFACTOR=1.000000
##YFACTOR=1
##DELTAX=001.320000
##FIRSTX=311.24
##LASTX=3899
##FIRSTY=0.503
##MAXX=3899
##MINX=311.24
##MAXY=0.965
##MINY=0.007
##NPOINTS=2719
##XYDATA=(X++(Y..Y))
311.240000 0.5030 0.5030 0.5060 0.5170 0.5210
317.842430 0.5390 0.5510 0.5600 0.5640 0.5670
324.440000 0.5680 0.5750 0.5770 0.5800 0.5840
331.042430 0.5880 0.5910 0.5930 0.5940 0.5970
337.640000 0.6000 0.6040 0.6080 0.6090 0.6100
344.242430 0.6120 0.6130 0.6140 0.6140 0.6510
350.840000 0.6720 0.6930 0.7160 0.7320 0.7410
357.442430 0.7460 0.7530 0.7590 0.7660 0.7730
364.040000 0.7780 0.7820 0.7870 0.7920 0.7960
370.642430 0.8000 0.8060 0.8110 0.8150 0.8200
377.240000 0.8250 0.8290 0.8330 0.8360 0.8400
383.842430 0.8430 0.8450 0.8460 0.8480 0.8490
390.440000 0.8500 0.8500 0.8520 0.8530 0.8540
397.042430 0.8540 0.8540 0.8540 0.8540 0.8530
403.640000 0.8530 0.8530 0.8540 0.8560 0.8570
410.242430 0.8580 0.8600 0.8610 0.8620 0.8620
416.840000 0.8640 0.8650 0.8660 0.8680 0.8680
423.442430 0.8690 0.8720 0.8730 0.8750 0.8780
430.040000 0.8820 0.8830 0.8850 0.8860 0.8860
436.642430 0.8860 0.8850 0.8850 0.8830 0.8830
443.240000 0.8810 0.8780 0.8750 0.8720 0.8720
449.842430 0.8690 0.8660 0.8640 0.8610 0.8570
456.440000 0.8530 0.8500 0.8500 0.8500 0.8500
463.042430 0.8500 0.8520 0.8520 0.8530 0.8560
469.640000 0.8600 0.8620 0.8640 0.8660 0.8690
476.242430 0.8720 0.8740 0.8780 0.8810 0.8890
482.840000 0.8910 0.8970 0.9030 0.9110 0.9160
489.442430 0.9200 0.9240 0.9260 0.9270 0.9280
496.040000 0.9300 0.9310 0.9310 0.9310 0.9310
502.642430 0.9320 0.9320 0.9320 0.9320 0.9320
509.240000 0.9320 0.9320 0.9310 0.9310 0.9300
515.842430 0.9280 0.9270 0.9260 0.9240 0.9220
522.440000 0.9200 0.9190 0.9160 0.9150 0.9140
529.042430 0.9120 0.9120 0.9110 0.9110 0.9100
535.640000 0.9100 0.9100 0.9100 0.9100 0.9100
542.242430 0.9100 0.9100 0.9100 0.9110 0.9140
548.840000 0.9150 0.9180 0.9190 0.9220 0.9230
555.442430 0.9260 0.9270 0.9350 0.9390 0.9440
562.040000 0.9470 0.9490 0.9520 0.9550 0.9570
568.642430 0.9570 0.9600 0.9630 0.9630 0.9640
575.240000 0.9640 0.9650 0.9650 0.9650 0.9650
581.842430 0.9650 0.9650 0.9650 0.9650 0.9650
588.440000 0.9650 0.9650 0.9650 0.9630 0.9630
595.042430 0.9630 0.9610 0.9600 0.9590 0.9570
601.640000 0.9550 0.9520 0.9480 0.9450 0.9410
608.242430 0.9370 0.9350 0.9320 0.9280 0.9240
614.840000 0.9180 0.9120 0.9060 0.9020 0.8970
621.442430 0.8930 0.8890 0.8860 0.8850 0.8850
628.040000 0.8830 0.8830 0.8830 0.8690 0.8680
634.642430 0.8680 0.8690 0.8700 0.8720 0.8750
641.240000 0.8810 0.8870 0.8930 0.8980 0.9050
647.842430 0.9100 0.9110 0.9140 0.9140 0.9150
654.440000 0.9150 0.9150 0.9150 0.9150 0.9120
661.042430 0.9120 0.9120 0.9120 0.9120 0.9120
667.640000 0.9150 0.9180 0.9230 0.9260 0.9280
674.242430 0.9280 0.9300 0.9310 0.9320 0.9320
680.840000 0.9320 0.9310 0.9310 0.9280 0.9260
687.442430 0.9240 0.9200 0.9180 0.9180 0.9160
694.040000 0.9160 0.9150 0.9140 0.9110 0.9060
700.642430 0.8950 0.8820 0.8680 0.8530 0.8330
707.240000 0.8100 0.7780 0.7660 0.7510 0.7370
713.842430 0.7220 0.7080 0.6840 0.6710 0.6600
720.440000 0.6300 0.6080 0.5880 0.5390 0.5060
727.042430 0.5010 0.4970 0.4960 0.4960 0.4970
733.640000 0.5100 0.5190 0.5400 0.5600 0.5720
740.242430 0.5910 0.6080 0.6250 0.6450 0.6620
746.840000 0.6760 0.6890 0.7010 0.7130 0.7220
753.442430 0.7320 0.7410 0.7490 0.7580 0.7670
760.040000 0.7770 0.7870 0.7980 0.8000 0.8100
766.642430 0.8130 0.8160 0.8190 0.8240 0.8270
773.240000 0.8280 0.8290 0.8310 0.8310 0.8310
779.842430 0.8320 0.8330 0.8360 0.8390 0.8440
786.440000 0.8500 0.8560 0.8640 0.8740 0.8850
793.042430 0.8940 0.8980 0.9060 0.9080 0.9100
799.640000 0.9110 0.9120 0.9140 0.9140 0.9140
806.242430 0.9140 0.9140 0.9140 0.9120 0.9110
812.840000 0.9070 0.9050 0.9020 0.9010 0.8990
819.442430 0.8990 0.8980 0.8950 0.8940 0.8930
826.040000 0.8910 0.8900 0.8890 0.8870 0.8860
832.642430 0.8830 0.8820 0.8810 0.8770 0.8740
839.240000 0.8730 0.8720 0.8720 0.8730 0.8730
845.842430 0.8740 0.8770 0.8810 0.8830 0.8870
852.440000 0.8870 0.8970 0.9030 0.9060 0.9070
859.042430 0.9080 0.9080 0.9080 0.9080 0.9070
865.640000 0.9030 0.9010 0.8980 0.8970 0.8940
872.242430 0.8890 0.8830 0.8780 0.8730 0.8690
878.840000 0.8620 0.8600 0.8540 0.8490 0.8440
885.442430 0.8390 0.8350 0.8320 0.8280 0.8120
892.040000 0.8080 0.8020 0.7860 0.7740 0.7630
898.642430 0.7530 0.7510 0.7510 0.7510 0.7530
905.240000 0.7570 0.7610 0.7610 0.7610 0.7590
911.842430 0.7590 0.7580 0.7570 0.7570 0.7570
918.440000 0.7570 0.7590 0.7610 0.7650 0.7710
925.042430 0.7770 0.7820 0.7870 0.7880 0.7900
931.640000 0.7910 0.7940 0.7950 0.7950 0.7950
938.242430 0.7950 0.7940 0.7940 0.7940 0.7940
944.840000 0.7920 0.7870 0.7840 0.7820 0.7810
951.442430 0.7780 0.7710 0.7580 0.7360 0.7240
958.040000 0.7160 0.7110 0.7080 0.7050 0.7040
964.642430 0.7030 0.7000 0.6950 0.6880 0.6870
971.240000 0.6840 0.6830 0.6820 0.6820 0.6820
977.842430 0.6830 0.6860 0.6880 0.6910 0.6930
984.440000 0.6950 0.6990 0.6990 0.6990 0.6990
991.042430 0.6960 0.6950 0.6930 0.6920 0.6910
997.640000 0.6910 0.6910 0.6920 0.6950 0.7000
1004.242430 0.7000 0.7010 0.7030 0.7030 0.7030
1010.840000 0.7010 0.6960 0.6930 0.6800 0.6670
1017.442430 0.6500 0.6290 0.6060 0.5790 0.5510
1024.040000 0.5190 0.4980 0.4770 0.4650 0.4480
1030.642430 0.4300 0.4200 0.4160 0.4150 0.4140
1037.240000 0.4110 0.4030 0.3850 0.3580 0.3370
1043.842430 0.3040 0.2830 0.2830 0.2830 0.2840
1050.440000 0.2880 0.3120 0.3280 0.3430 0.3530
1057.042430 0.3650 0.3780 0.3980 0.4150 0.4310
1063.640000 0.4440 0.4570 0.4720 0.4850 0.5000
1070.242430 0.5150 0.5320 0.5470 0.5600 0.5720
1076.840000 0.5840 0.5960 0.6090 0.6240 0.6390
1083.442430 0.6560 0.6740 0.6820 0.6860 0.6880
1090.040000 0.6930 0.6990 0.7070 0.7090 0.7110
1096.642430 0.7110 0.7110 0.7070 0.6970 0.6890
1103.240000 0.6820 0.6760 0.6630 0.6420 0.6220
1109.842430 0.5890 0.5590 0.5130 0.4720 0.4400
1116.440000 0.4070 0.3860 0.3580 0.3360 0.3130
1123.042430 0.2880 0.2650 0.2420 0.2200 0.2000
1129.640000 0.1920 0.1830 0.1820 0.1830 0.1920
1136.242430 0.2320 0.2660 0.3020 0.3360 0.3680
1142.840000 0.3950 0.4190 0.4370 0.4480 0.4480
1149.442430 0.4490 0.4510 0.4510 0.4510 0.4470
1156.040000 0.4370 0.4340 0.4310 0.4310 0.4320
1162.642430 0.4360 0.4430 0.4480 0.4560 0.4730
1169.240000 0.4930 0.5100 0.5340 0.5590 0.5910
1175.842430 0.6090 0.6100 0.6200 0.6270 0.6350
1182.440000 0.6460 0.6500 0.6500 0.6500 0.6490
1189.042430 0.6310 0.6300 0.6250 0.6210 0.6080
1195.640000 0.5970 0.5870 0.5770 0.5670 0.5560
1202.242430 0.5460 0.5430 0.5430 0.5440 0.5460
1208.840000 0.5470 0.5480 0.5510 0.5540 0.5550
1215.442430 0.5580 0.5590 0.5620 0.5630 0.5640
1222.040000 0.5650 0.5650 0.5650 0.5650 0.5640
1228.642430 0.5590 0.5550 0.5510 0.5470 0.5420
1235.240000 0.5310 0.5130 0.4920 0.4730 0.4690
1241.842430 0.4690 0.4760 0.4820 0.4850 0.4880
1248.440000 0.4860 0.4860 0.4850 0.4820 0.4780
1255.042430 0.4740 0.4720 0.4740 0.4930 0.5100
1261.640000 0.5110 0.5190 0.5270 0.5350 0.5430
1268.242430 0.5550 0.5560 0.5580 0.5600 0.5600
1274.840000 0.5590 0.5520 0.5440 0.5360 0.5340
1281.442430 0.5270 0.5020 0.4860 0.4780 0.4760
1288.040000 0.4760 0.4760 0.4760 0.4760 0.4740
1294.642430 0.4740 0.4730 0.4720 0.4700 0.4690
1301.240000 0.4680 0.4680 0.4670 0.4670 0.4670
1307.842430 0.4650 0.4650 0.4650 0.4650 0.4650
1314.440000 0.4650 0.4640 0.4640 0.4630 0.4610
1321.042430 0.4610 0.4610 0.4610 0.4600 0.4590
1327.640000 0.4520 0.4510 0.4480 0.4400 0.4280
1334.242430 0.4120 0.3930 0.3720 0.3480 0.3250
1340.840000 0.3020 0.2780 0.2770 0.2750 0.2750
1347.442430 0.2730 0.2660 0.2590 0.2380 0.2210
1354.040000 0.2070 0.1930 0.1830 0.1710 0.1600
1360.642430 0.1470 0.1330 0.1160 0.1140 0.1100
1367.240000 0.1050 0.1010 0.0970 0.0940 0.0930
1373.842430 0.0880 0.0770 0.0750 0.0730 0.0730
1380.440000 0.0750 0.1050 0.1220 0.1930 0.2630
1387.042430 0.2650 0.3230 0.3240 0.3370 0.3490
1393.640000 0.3610 0.3610 0.3610 0.3540 0.3320
1400.242430 0.3070 0.2210 0.1790 0.1560 0.1310
1406.840000 0.1220 0.1210 0.1210 0.1210 0.1220
1413.442430 0.1340 0.1460 0.1580 0.1700 0.1790
1420.040000 0.2410 0.2540 0.2820 0.2980 0.3070
1426.642430 0.3110 0.3130 0.3130 0.3120 0.3110
1433.240000 0.3040 0.2900 0.2770 0.2650 0.2550
1439.842430 0.2450 0.2360 0.2260 0.2170 0.2050
1446.440000 0.1870 0.1660 0.1460 0.1250 0.1080
1453.042430 0.0940 0.0790 0.0670 0.0540 0.0510
1459.640000 0.0500 0.0500 0.0500 0.0500 0.0510
1466.242430 0.0550 0.0580 0.0600 0.0770 0.1620
1472.840000 0.2370 0.3040 0.3640 0.4160 0.4640
1479.442430 0.5050 0.5400 0.5710 0.5980 0.6210
1486.040000 0.6410 0.6590 0.6750 0.6890 0.7030
1492.642430 0.7160 0.7280 0.7360 0.7450 0.7550
1499.240000 0.7660 0.7770 0.7870 0.7980 0.8070
1505.842430 0.8150 0.8230 0.8270 0.8290 0.8290
1512.440000 0.8320 0.8330 0.8360 0.8390 0.8430
1519.042430 0.8460 0.8490 0.8520 0.8560 0.8610
1525.640000 0.8620 0.8650 0.8680 0.8690 0.8690
1532.242430 0.8700 0.8720 0.8750 0.8780 0.8790
1538.840000 0.8810 0.8830 0.8850 0.8870 0.8870
1545.442430 0.8870 0.8890 0.8890 0.8900 0.8900
1552.040000 0.8910 0.8910 0.8930 0.8930 0.8930
1558.642430 0.8940 0.8940 0.8950 0.8950 0.8970
1565.240000 0.8970 0.8980 0.8980 0.8980 0.8980
1571.842430 0.8980 0.8980 0.8980 0.8980 0.8980
1578.440000 0.8980 0.8980 0.8980 0.8980 0.8980
1585.042430 0.8970 0.8970 0.8970 0.8970 0.8970
1591.640000 0.8970 0.8950 0.8950 0.8950 0.8940
1598.242430 0.8940 0.8940 0.8940 0.8930 0.8930
1604.840000 0.8930 0.8910 0.8900 0.8900 0.8890
1611.442430 0.8870 0.8860 0.8850 0.8820 0.8750
1618.040000 0.8740 0.8730 0.8720 0.8720 0.8700
1624.642430 0.8690 0.8680 0.8680 0.8650 0.8650
1631.240000 0.8640 0.8620 0.8610 0.8560 0.8530
1637.842430 0.8520 0.8500 0.8490 0.8480 0.8450
1644.440000 0.8410 0.8370 0.8360 0.8350 0.8330
1651.042430 0.8310 0.8250 0.8110 0.7960 0.7920
1657.640000 0.7820 0.7730 0.7650 0.7570 0.7450
1664.242430 0.7260 0.7110 0.6970 0.6750 0.6530
1670.840000 0.6300 0.6100 0.5910 0.5730 0.5600
1677.442430 0.5510 0.5460 0.5360 0.5270 0.5190
1684.040000 0.5000 0.4780 0.4600 0.4400 0.4110
1690.642430 0.3750 0.3350 0.2880 0.2410 0.1920
1697.240000 0.1430 0.0970 0.0550 0.0180 0.0150
1703.842430 0.0140 0.0140 0.0140 0.0140 0.0140
1710.440000 0.0140 0.0140 0.0140 0.0140 0.0150
1717.042430 0.0170 0.0180 0.0190 0.0210 0.0220
1723.640000 0.0230 0.0380 0.0510 0.0640 0.0790
1730.242430 0.1390 0.1970 0.2480 0.2940 0.3350
1736.840000 0.3720 0.4030 0.4340 0.4610 0.4860
1743.442430 0.5090 0.5320 0.5540 0.5760 0.5980
1750.040000 0.6220 0.6310 0.6460 0.6840 0.7030
1756.642430 0.7120 0.7170 0.7260 0.7440 0.7530
1763.240000 0.7630 0.7740 0.7880 0.7980 0.8030
1769.842430 0.8170 0.8270 0.8290 0.8320 0.8360
1776.440000 0.8400 0.8450 0.8480 0.8520 0.8570
1783.042430 0.8610 0.8650 0.8680 0.8700 0.8740
1789.640000 0.8780 0.8810 0.8830 0.8890 0.8900
1796.242430 0.8930 0.8950 0.8970 0.8980 0.9010
1802.840000 0.9030 0.9060 0.9080 0.9100 0.9110
1809.442430 0.9120 0.9150 0.9160 0.9180 0.9190
1816.040000 0.9200 0.9200 0.9220 0.9230 0.9240
1822.642430 0.9270 0.9280 0.9300 0.9300 0.9310
1829.240000 0.9310 0.9320 0.9320 0.9340 0.9340
1835.842430 0.9350 0.9350 0.9360 0.9360 0.9370
1842.440000 0.9370 0.9390 0.9390 0.9400 0.9400
1849.042430 0.9400 0.9400 0.9410 0.9410 0.9410
1855.640000 0.9410 0.9410 0.9410 0.9410 0.9410
1862.242430 0.9400 0.9410 0.9430 0.9410 0.9430
1868.840000 0.9430 0.9440 0.9440 0.9440 0.9450
1875.442430 0.9450 0.9450 0.9470 0.9470 0.9470
1882.040000 0.9470 0.9470 0.9470 0.9470 0.9470
1888.642430 0.9470 0.9470 0.9470 0.9470 0.9470
1895.240000 0.9480 0.9480 0.9480 0.9480 0.9480
1901.842430 0.9480 0.9480 0.9480 0.9480 0.9480
1908.440000 0.9480 0.9480 0.9480 0.9490 0.9490
1915.042430 0.9490 0.9480 0.9480 0.9480 0.9480
1921.640000 0.9480 0.9480 0.9480 0.9480 0.9480
1928.242430 0.9480 0.9480 0.9480 0.9480 0.9480
1934.840000 0.9480 0.9480 0.9480 0.9480 0.9480
1941.442430 0.9480 0.9490 0.9490 0.9490 0.9490
1948.040000 0.9490 0.9490 0.9490 0.9490 0.9490
1954.642430 0.9490 0.9490 0.9490 0.9490 0.9490
1961.240000 0.9490 0.9490 0.9490 0.9490 0.9490
1967.842430 0.9490 0.9490 0.9490 0.9490 0.9490
1974.440000 0.9490 0.9490 0.9490 0.9490 0.9490
1981.042430 0.9490 0.9490 0.9490 0.9480 0.9480
1987.640000 0.9480 0.9480 0.9480 0.9480 0.9480
1994.242430 0.9480 0.9480 0.9480 0.9480 0.9470
2000.840000 0.9470 0.9450 0.9430 0.9410 0.9410
2007.442430 0.9410 0.9410 0.9410 0.9410 0.9400
2014.040000 0.9410 0.9410 0.9410 0.9410 0.9410
2020.642430 0.9400 0.9400 0.9400 0.9400 0.9400
2027.240000 0.9400 0.9400 0.9400 0.9400 0.9390
2033.842430 0.9400 0.9400 0.9400 0.9400 0.9400
2040.440000 0.9400 0.9400 0.9400 0.9400 0.9400
2047.042430 0.9400 0.9410 0.9410 0.9410 0.9410
2053.640000 0.9410 0.9400 0.9400 0.9400 0.9400
2060.242430 0.9400 0.9400 0.9410 0.9410 0.9410
2066.840000 0.9410 0.9410 0.9410 0.9410 0.9410
2073.442430 0.9410 0.9410 0.9400 0.9400 0.9400
2080.040000 0.9400 0.9400 0.9400 0.9400 0.9390
2086.642430 0.9390 0.9390 0.9390 0.9390 0.9390
2093.240000 0.9370 0.9370 0.9370 0.9370 0.9370
2099.842430 0.9370 0.9370 0.9360 0.9360 0.9360
2106.440000 0.9360 0.9360 0.9360 0.9360 0.9350
2113.042430 0.9350 0.9350 0.9350 0.9350 0.9350
2119.640000 0.9350 0.9340 0.9340 0.9340 0.9340
2126.242430 0.9340 0.9320 0.9320 0.9320 0.9320
2132.840000 0.9320 0.9320 0.9320 0.9320 0.9320
2139.442430 0.9320 0.9320 0.9320 0.9310 0.9310
2146.040000 0.9310 0.9310 0.9310 0.9310 0.9310
2152.642430 0.9310 0.9310 0.9310 0.9310 0.9310
2159.240000 0.9310 0.9310 0.9310 0.9310 0.9310
2165.842430 0.9310 0.9310 0.9310 0.9310 0.9310
2172.440000 0.9310 0.9310 0.9310 0.9310 0.9310
2179.042430 0.9310 0.9310 0.9310 0.9310 0.9310
2185.640000 0.9310 0.9310 0.9310 0.9310 0.9310
2192.242430 0.9310 0.9310 0.9310 0.9310 0.9310
2198.840000 0.9310 0.9310 0.9310 0.9310 0.9310
2205.442430 0.9310 0.9320 0.9310 0.9310 0.9310
2212.040000 0.9310 0.9310 0.9310 0.9310 0.9310
2218.642430 0.9310 0.9310 0.9310 0.9310 0.9310
2225.240000 0.9310 0.9310 0.9310 0.9310 0.9310
2231.842430 0.9310 0.9310 0.9310 0.9310 0.9310
2238.440000 0.9310 0.9310 0.9310 0.9310 0.9310
2245.042430 0.9310 0.9310 0.9310 0.9310 0.9310
2251.640000 0.9310 0.9310 0.9310 0.9310 0.9310
2258.242430 0.9310 0.9310 0.9310 0.9310 0.9310
2264.840000 0.9310 0.9310 0.9310 0.9310 0.9310
2271.442430 0.9310 0.9310 0.9320 0.9320 0.9320
2278.040000 0.9320 0.9320 0.9310 0.9310 0.9310
2284.642430 0.9310 0.9310 0.9310 0.9310 0.9300
2291.240000 0.9300 0.9300 0.9300 0.9300 0.9300
2297.842430 0.9300 0.9300 0.9280 0.9310 0.9310
2304.440000 0.9300 0.9300 0.9300 0.9300 0.9300
2311.042430 0.9280 0.9280 0.9280 0.9280 0.9280
2317.640000 0.9280 0.9270 0.9270 0.9270 0.9270
2324.242430 0.9270 0.9270 0.9280 0.9280 0.9280
2330.840000 0.9280 0.9280 0.9270 0.9270 0.9280
2337.442430 0.9280 0.9280 0.9280 0.9280 0.9280
2344.040000 0.9280 0.9280 0.9270 0.9270 0.9270
2350.642430 0.9270 0.9270 0.9270 0.9270 0.9270
2357.240000 0.9270 0.9270 0.9270 0.9270 0.9280
2363.842430 0.9280 0.9280 0.9280 0.9280 0.9280
2370.440000 0.9280 0.9300 0.9280 0.9280 0.9280
2377.042430 0.9280 0.9280 0.9280 0.9280 0.9280
2383.640000 0.9280 0.9280 0.9280 0.9280 0.9280
2390.242430 0.9280 0.9280 0.9280 0.9270 0.9280
2396.840000 0.9280 0.9280 0.9280 0.9270 0.9260
2403.442430 0.9270 0.9270 0.9270 0.9270 0.9280
2410.040000 0.9280 0.9280 0.9280 0.9280 0.9300
2416.642430 0.9280 0.9280 0.9280 0.9280 0.9280
2423.240000 0.9300 0.9300 0.9300 0.9300 0.9310
2429.842430 0.9320 0.9320 0.9320 0.9340 0.9340
2436.440000 0.9350 0.9350 0.9360 0.9360 0.9370
2443.042430 0.9370 0.9370 0.9370 0.9370 0.9370
2449.640000 0.9370 0.9390 0.9400 0.9390 0.9390
2456.242430 0.9390 0.9390 0.9390 0.9390 0.9390
2462.840000 0.9390 0.9390 0.9390 0.9370 0.9370
2469.442430 0.9370 0.9370 0.9370 0.9370 0.9370
2476.040000 0.9370 0.9370 0.9370 0.9370 0.9370
2482.642430 0.9390 0.9390 0.9390 0.9390 0.9370
2489.240000 0.9370 0.9370 0.9370 0.9370 0.9370
2495.842430 0.9370 0.9370 0.9370 0.9370 0.9360
2502.440000 0.9360 0.9360 0.9360 0.9360 0.9350
2509.042430 0.9350 0.9350 0.9350 0.9340 0.9340
2515.640000 0.9340 0.9320 0.9320 0.9320 0.9310
2522.242430 0.9310 0.9310 0.9310 0.9310 0.9310
2528.840000 0.9310 0.9300 0.9300 0.9300 0.9300
2535.442430 0.9300 0.9300 0.9300 0.9300 0.9300
2542.040000 0.9300 0.9300 0.9300 0.9280 0.9280
2548.642430 0.9270 0.9260 0.9270 0.9260 0.9240
2555.240000 0.9230 0.9230 0.9230 0.9220 0.9200
2561.842430 0.9190 0.9190 0.9180 0.9160 0.9150
2568.440000 0.9140 0.9120 0.9110 0.9100 0.9080
2575.042430 0.9070 0.9060 0.9050 0.9050 0.9030
2581.640000 0.9030 0.9030 0.9030 0.9030 0.9030
2588.242430 0.9020 0.9020 0.9020 0.9020 0.9020
2594.840000 0.9020 0.9020 0.9020 0.9020 0.9030
2601.442430 0.9030 0.9030 0.9030 0.9030 0.9020
2608.040000 0.9010 0.9010 0.8990 0.8990 0.8980
2614.642430 0.8980 0.8980 0.8970 0.8970 0.8950
2621.240000 0.8950 0.8930 0.8910 0.8900 0.8890
2627.842430 0.8870 0.8860 0.8850 0.8820 0.8820
2634.440000 0.8810 0.8790 0.8780 0.8750 0.8740
2641.042430 0.8730 0.8720 0.8700 0.8690 0.8680
2647.640000 0.8660 0.8650 0.8620 0.8610 0.8580
2654.242430 0.8570 0.8560 0.8540 0.8530 0.8520
2660.840000 0.8490 0.8450 0.8430 0.8390 0.8370
2667.442430 0.8360 0.8350 0.8330 0.8330 0.8350
2674.040000 0.8350 0.8360 0.8390 0.8400 0.8430
2680.642430 0.8440 0.8460 0.8490 0.8500 0.8520
2687.240000 0.8530 0.8540 0.8540 0.8560 0.8560
2693.842430 0.8570 0.8570 0.8570 0.8570 0.8570
2700.440000 0.8560 0.8540 0.8530 0.8520 0.8500
2707.042430 0.8490 0.8480 0.8440 0.8410 0.8390
2713.640000 0.8360 0.8320 0.8290 0.8240 0.8190
2720.242430 0.8150 0.8150 0.8100 0.8060 0.7980
2726.840000 0.7880 0.7730 0.7700 0.7670 0.7590
2733.442430 0.7570 0.7570 0.7570 0.7580 0.7590
2740.040000 0.7670 0.7750 0.7810 0.7920 0.7940
2746.642430 0.7960 0.7980 0.7990 0.8020 0.8030
2753.240000 0.8040 0.8040 0.8040 0.8030 0.8000
2759.842430 0.7980 0.7950 0.7920 0.7900 0.7860
2766.440000 0.7830 0.7790 0.7770 0.7730 0.7670
2773.042430 0.7630 0.7590 0.7540 0.7480 0.7410
2779.640000 0.7360 0.7290 0.7210 0.7150 0.7070
2786.242430 0.6990 0.6910 0.6830 0.6750 0.6660
2792.840000 0.6560 0.6470 0.6380 0.6290 0.6200
2799.442430 0.6090 0.5980 0.5880 0.5800 0.5720
2806.040000 0.5630 0.5560 0.5480 0.5400 0.5340
2812.642430 0.5290 0.5220 0.5140 0.5050 0.4970
2819.240000 0.4880 0.4770 0.4670 0.4550 0.4430
2825.842430 0.4310 0.4180 0.4030 0.3890 0.3720
2832.440000 0.3540 0.3370 0.3170 0.2960 0.2770
2839.042430 0.2530 0.2370 0.2070 0.1860 0.1560
2845.640000 0.1290 0.1040 0.0830 0.0630 0.0470
2852.242430 0.0340 0.0230 0.0170 0.0110 0.0100
2858.840000 0.0100 0.0100 0.0100 0.0100 0.0100
2865.442430 0.0100 0.0100 0.0100 0.0100 0.0100
2872.040000 0.0100 0.0100 0.0110 0.0110 0.0130
2878.642430 0.0130 0.0140 0.0150 0.0170 0.0170
2885.240000 0.0170 0.0170 0.0150 0.0140 0.0130
2891.842430 0.0100 0.0100 0.0100 0.0100 0.0100
2898.440000 0.0100 0.0100 0.0100 0.0100 0.0100
2905.042430 0.0100 0.0100 0.0100 0.0100 0.0100
2911.640000 0.0100 0.0100 0.0100 0.0100 0.0100
2918.242430 0.0100 0.0100 0.0100 0.0100 0.0100
2924.840000 0.0100 0.0100 0.0100 0.0100 0.0100
2931.442430 0.0100 0.0090 0.0090 0.0090 0.0090
2938.040000 0.0090 0.0090 0.0090 0.0090 0.0090
2944.642430 0.0090 0.0090 0.0070 0.0090 0.0090
2951.240000 0.0090 0.0090 0.0090 0.0090 0.0090
2957.842430 0.0090 0.0090 0.0090 0.0100 0.0100
2964.440000 0.0110 0.0110 0.0130 0.0140 0.0170
2971.042430 0.0210 0.0230 0.0290 0.0360 0.0470
2977.640000 0.0600 0.0760 0.0960 0.1170 0.1410
2984.242430 0.1600 0.1870 0.2070 0.2360 0.2540
2990.840000 0.2860 0.3080 0.3320 0.3530 0.3740
2997.442430 0.3950 0.4140 0.4320 0.4490 0.4670
3004.040000 0.4820 0.4970 0.5110 0.5260 0.5390
3010.642430 0.5520 0.5640 0.5750 0.5870 0.5960
3017.240000 0.6060 0.6160 0.6250 0.6330 0.6420
3023.842430 0.6500 0.6580 0.6640 0.6720 0.6790
3030.440000 0.6860 0.6920 0.6990 0.7050 0.7110
3037.042430 0.7130 0.7210 0.7280 0.7330 0.7370
3043.640000 0.7410 0.7480 0.7530 0.7580 0.7610
3050.242430 0.7650 0.7750 0.7810 0.7860 0.7900
3056.840000 0.7940 0.7950 0.7980 0.8040 0.8100
3063.442430 0.8130 0.8160 0.8230 0.8250 0.8280
3070.040000 0.8290 0.8310 0.8320 0.8330 0.8350
3076.642430 0.8360 0.8390 0.8400 0.8430 0.8450
3083.240000 0.8480 0.8500 0.8520 0.8540 0.8570
3089.842430 0.8580 0.8600 0.8620 0.8640 0.8650
3096.440000 0.8660 0.8680 0.8700 0.8720 0.8740
3103.042430 0.8750 0.8770 0.8770 0.8780 0.8790
3109.640000 0.8810 0.8820 0.8830 0.8850 0.8870
3116.242430 0.8870 0.8890 0.8900 0.8900 0.8910
3122.840000 0.8930 0.8930 0.8930 0.8930 0.8940
3129.442430 0.8940 0.8940 0.8950 0.8950 0.8950
3136.040000 0.8950 0.8970 0.8970 0.8970 0.8970
3142.642430 0.8980 0.8980 0.8980 0.8980 0.8970
3149.240000 0.8970 0.8970 0.8970 0.8950 0.8950
3155.842430 0.8950 0.8950 0.8950 0.8950 0.8950
3162.440000 0.8950 0.8950 0.8950 0.8950 0.8950
3169.042430 0.8950 0.8950 0.8950 0.8950 0.8950
3175.640000 0.8950 0.8950 0.8950 0.8950 0.8950
3182.242430 0.8950 0.8950 0.8950 0.8950 0.8950
3188.840000 0.8950 0.8950 0.8970 0.8970 0.8980
3195.442430 0.8980 0.8990 0.8990 0.9010 0.9010
3202.040000 0.9020 0.9020 0.9030 0.9030 0.9060
3208.642430 0.9070 0.9080 0.9100 0.9110 0.9120
3215.240000 0.9140 0.9150 0.9160 0.9160 0.9180
3221.842430 0.9190 0.9200 0.9230 0.9230 0.9240
3228.440000 0.9240 0.9260 0.9270 0.9280 0.9280
3235.042430 0.9300 0.9310 0.9310 0.9310 0.9320
3241.640000 0.9320 0.9340 0.9340 0.9350 0.9350
3248.242430 0.9360 0.9360 0.9370 0.9370 0.9390
3254.840000 0.9390 0.9400 0.9400 0.9410 0.9410
3261.442430 0.9410 0.9410 0.9410 0.9410 0.9410
3268.040000 0.9410 0.9410 0.9410 0.9410 0.9410
3274.642430 0.9410 0.9410 0.9410 0.9410 0.9410
3281.240000 0.9410 0.9410 0.9410 0.9410 0.9410
3287.842430 0.9410 0.9410 0.9410 0.9400 0.9400
3294.440000 0.9400 0.9400 0.9400 0.9400 0.9400
3301.042430 0.9400 0.9400 0.9400 0.9400 0.9400
3307.640000 0.9400 0.9400 0.9390 0.9390 0.9390
3314.242430 0.9370 0.9370 0.9370 0.9360 0.9360
3320.840000 0.9360 0.9360 0.9350 0.9350 0.9350
3327.442430 0.9340 0.9340 0.9340 0.9340 0.9340
3334.040000 0.9340 0.9340 0.9320 0.9320 0.9320
3340.642430 0.9320 0.9320 0.9320 0.9320 0.9310
3347.240000 0.9310 0.9300 0.9300 0.9280 0.9280
3353.842430 0.9270 0.9270 0.9270 0.9260 0.9260
3360.440000 0.9240 0.9240 0.9230 0.9230 0.9220
3367.042430 0.9220 0.9200 0.9200 0.9190 0.9180
3373.640000 0.9160 0.9150 0.9140 0.9120 0.9110
3380.242430 0.9100 0.9070 0.9060 0.9030 0.9010
3386.840000 0.8980 0.8940 0.8910 0.8790 0.8780
3393.442430 0.8740 0.8700 0.8660 0.8640 0.8600
3400.040000 0.8560 0.8520 0.8480 0.8450 0.8430
3406.642430 0.8400 0.8370 0.8350 0.8330 0.8330
3413.240000 0.8330 0.8330 0.8330 0.8330 0.8350
3419.842430 0.8370 0.8430 0.8480 0.8530 0.8580
3426.440000 0.8610 0.8740 0.8860 0.8890 0.8950
3433.042430 0.9010 0.9060 0.9100 0.9140 0.9190
3439.640000 0.9230 0.9270 0.9280 0.9300 0.9310
3446.242430 0.9340 0.9350 0.9360 0.9370 0.9390
3452.840000 0.9400 0.9410 0.9430 0.9430 0.9430
3459.442430 0.9430 0.9430 0.9430 0.9430 0.9430
3466.040000 0.9410 0.9410 0.9410 0.9410 0.9410
3472.642430 0.9410 0.9410 0.9410 0.9410 0.9410
3479.240000 0.9410 0.9400 0.9390 0.9390 0.9390
3485.842430 0.9390 0.9370 0.9370 0.9370 0.9370
3492.440000 0.9370 0.9370 0.9360 0.9360 0.9360
3499.042430 0.9350 0.9350 0.9350 0.9350 0.9340
3505.640000 0.9340 0.9340 0.9340 0.9320 0.9310
3512.242430 0.9310 0.9300 0.9300 0.9300 0.9300
3518.840000 0.9300 0.9280 0.9280 0.9280 0.9280
3525.442430 0.9280 0.9280 0.9280 0.9280 0.9280
3532.040000 0.9280 0.9280 0.9280 0.9280 0.9280
3538.642430 0.9280 0.9280 0.9280 0.9280 0.9280
3545.240000 0.9280 0.9300 0.9300 0.9300 0.9300
3551.842430 0.9310 0.9310 0.9310 0.9320 0.9320
3558.440000 0.9340 0.9340 0.9340 0.9350 0.9350
3565.042430 0.9350 0.9360 0.9370 0.9390 0.9400
3571.640000 0.9410 0.9410 0.9430 0.9430 0.9440
3578.242430 0.9440 0.9440 0.9450 0.9470 0.9450
3584.840000 0.9450 0.9450 0.9450 0.9450 0.9450
3591.442430 0.9450 0.9450 0.9450 0.9450 0.9450
3598.040000 0.9450 0.9450 0.9450 0.9450 0.9440
3604.642430 0.9440 0.9430 0.9430 0.9410 0.9410
3611.240000 0.9410 0.9410 0.9400 0.9400 0.9400
3617.842430 0.9400 0.9400 0.9400 0.9400 0.9400
3624.440000 0.9400 0.9400 0.9410 0.9400 0.9410
3631.042430 0.9410 0.9430 0.9430 0.9430 0.9430
3637.640000 0.9430 0.9430 0.9430 0.9430 0.9440
3644.242430 0.9440 0.9440 0.9440 0.9450 0.9450
3650.840000 0.9450 0.9450 0.9450 0.9470 0.9470
3657.442430 0.9470 0.9450 0.9450 0.9450 0.9450
3664.040000 0.9450 0.9450 0.9450 0.9450 0.9450
3670.642430 0.9450 0.9450 0.9450 0.9450 0.9470
3677.240000 0.9470 0.9470 0.9470 0.9470 0.9470
3683.842430 0.9470 0.9470 0.9470 0.9470 0.9470
3690.440000 0.9470 0.9470 0.9470 0.9480 0.9510
3697.042430 0.9520 0.9530 0.9530 0.9530 0.9550
3703.640000 0.9550 0.9550 0.9550 0.9550 0.9550
3710.242430 0.9550 0.9550 0.9550 0.9550 0.9550
3716.840000 0.9550 0.9550 0.9550 0.9550 0.9550
3723.442430 0.9550 0.9550 0.9550 0.9550 0.9550
3730.040000 0.9550 0.9550 0.9550 0.9550 0.9550
3736.642430 0.9550 0.9550 0.9550 0.9550 0.9550
3743.240000 0.9550 0.9550 0.9550 0.9550 0.9550
3749.842430 0.9550 0.9550 0.9550 0.9550 0.9550
3756.440000 0.9550 0.9550 0.9550 0.9550 0.9550
3763.042430 0.9550 0.9550 0.9550 0.9550 0.9550
3769.640000 0.9550 0.9550 0.9550 0.9550 0.9550
3776.242430 0.9550 0.9550 0.9550 0.9550 0.9550
3782.840000 0.9550 0.9550 0.9550 0.9550 0.9550
3789.442430 0.9550 0.9550 0.9550 0.9550 0.9550
3796.040000 0.9550 0.9550 0.9550 0.9550 0.9550
3802.642430 0.9560 0.9560 0.9560 0.9560 0.9560
3809.240000 0.9550 0.9550 0.9530 0.9520 0.9520
3815.842430 0.9520 0.9520 0.9520 0.9520 0.9520
3822.440000 0.9520 0.9520 0.9520 0.9520 0.9520
3829.042430 0.9520 0.9520 0.9520 0.9520 0.9520
3835.640000 0.9520 0.9520 0.9520 0.9520 0.9520
3842.242430 0.9520 0.9520 0.9520 0.9520 0.9520
3848.840000 0.9520 0.9520 0.9520 0.9520 0.9520
3855.442430 0.9520 0.9520 0.9520 0.9520 0.9520
3862.040000 0.9520 0.9520 0.9520 0.9530 0.9530
3868.642430 0.9550 0.9550 0.9550 0.9550 0.9530
3875.240000 0.9550 0.9550 0.9550 0.9550 0.9550
3881.842430 0.9530 0.9530 0.9530 0.9530 0.9530
3888.440000 0.9530 0.9530 0.9530 0.9530 0.9530
3895.042430 0.9530 0.9530 0.9530 0.9530
##END=
