##TITLE=3-METHYL-PHENANTHRENE
##JCAMP-DX=4.24
##DATA TYPE=INFRARED SPECTRUM
##CLASS=COBLENTZ
##ORIGIN=CENTRE D'ETUDES NUCLEAIRES DE GRENOBLE
##OWNER=COBLENTZ SOCIETY
Collection (C) 2018 copyright by the U.S. Secretary of Commerce
on behalf of the United States of America. All rights reserved.
##DATE=Not specified, most likely prior to 1970
##NAMES=3-methylphenanthrene
##CAS REGISTRY NO=832-71-3
##MOLFORM=C15 H12
##SOURCE REFERENCE=COBLENTZ NO. 4247
##$NIST SOURCE=COBLENTZ
##$NIST IMAGE=cob4247
##SPECTROMETER/DATA SYSTEM=Not specified, most likely a prism, grating, or hybrid spectrometer.
##STATE=SOLUTION (SATURATED IN BENZENE)
##PATH LENGTH=0.05 CM
$$PURITY 99.5%
##SAMPLING PROCEDURE=TRANSMISSION
##RESOLUTION=4
##DATA PROCESSING=DIGITIZED BY NIST FROM HARD COPY
##XUNITS=MICROMETERS
##YUNITS=TRANSMITTANCE
##XFACTOR=1.000000
##YFACTOR=1
##DELTAX=000.011144
##FIRSTX=15.443
##LASTX=35.022
##FIRSTY=0.419
##MAXX=35.022
##MINX=15.443
##MAXY=0.927
##MINY=0.041
##NPOINTS=1758
##XYDATA=(X++(Y..Y))
15.443000 0.4190 0.4210 0.4220 0.4220 0.4240
15.498750 0.4370 0.4470 0.4660 0.4790 0.4890
15.554000 0.4980 0.5050 0.5130 0.5210 0.5310
15.609750 0.5430 0.5600 0.5820 0.6090 0.6400
15.666000 0.6510 0.6570 0.6640 0.6670 0.6710
15.721750 0.6760 0.6790 0.6820 0.6840 0.6840
15.777000 0.6840 0.6860 0.6860 0.6860 0.6870
15.832750 0.6870 0.6840 0.6620 0.6510 0.6250
15.889000 0.5900 0.5480 0.5060 0.4660 0.4320
15.944750 0.4260 0.4120 0.3990 0.3950 0.3940
16.000000 0.3950 0.3970 0.4010 0.4070 0.4140
16.055750 0.4320 0.4460 0.4560 0.5210 0.5410
16.111000 0.5580 0.5750 0.5930 0.6150 0.6390
16.166750 0.6670 0.6810 0.6890 0.6970 0.7060
16.223000 0.7180 0.7290 0.7310 0.7310 0.7310
16.278750 0.7310 0.7310 0.7310 0.7310 0.7290
16.334000 0.7290 0.7240 0.7240 0.7190 0.7140
16.389750 0.7080 0.6990 0.6890 0.6790 0.6660
16.446000 0.6520 0.6350 0.6190 0.6000 0.5820
16.501750 0.5620 0.5400 0.5180 0.4940 0.4690
16.557000 0.4540 0.4320 0.4040 0.3740 0.3430
16.612750 0.3120 0.2850 0.2630 0.2460 0.2260
16.669000 0.2060 0.1910 0.1760 0.1640 0.1540
16.724750 0.1450 0.1400 0.1340 0.1320 0.1320
16.780000 0.1340 0.1390 0.1450 0.1560 0.1690
16.835750 0.1840 0.2010 0.2230 0.2440 0.2710
16.891000 0.2980 0.3230 0.3470 0.3700 0.3920
16.946750 0.4140 0.4340 0.4540 0.4730 0.4910
17.003000 0.5100 0.5260 0.5430 0.5600 0.5750
17.058750 0.5880 0.6020 0.6150 0.6270 0.6390
17.114000 0.6510 0.6610 0.6710 0.6790 0.6870
17.169750 0.6960 0.7030 0.7080 0.7140 0.7190
17.226000 0.7260 0.7310 0.7380 0.7440 0.7500
17.281750 0.7550 0.7600 0.7650 0.7680 0.7710
17.337000 0.7710 0.7730 0.7760 0.7800 0.7800
17.392750 0.7830 0.7980 0.8030 0.8080 0.8080
17.449000 0.8100 0.8100 0.8120 0.8120 0.8120
17.504750 0.8120 0.8100 0.8100 0.8080 0.8080
17.560000 0.8070 0.8050 0.8050 0.8030 0.8020
17.615750 0.8020 0.8000 0.7980 0.7950 0.7880
17.672000 0.7810 0.7750 0.7730 0.7680 0.7610
17.727750 0.7550 0.7480 0.7140 0.7080 0.7010
17.783000 0.6960 0.6920 0.6770 0.6560 0.6370
17.838750 0.6190 0.6000 0.5820 0.5620 0.5400
17.894000 0.5160 0.4890 0.4580 0.4270 0.3970
17.949750 0.3700 0.3430 0.3180 0.2930 0.2700
18.006000 0.2440 0.2190 0.1920 0.1570 0.1450
18.061750 0.1390 0.1350 0.1320 0.1150 0.1020
18.117000 0.1000 0.0980 0.1090 0.1150 0.1190
18.172750 0.1250 0.1400 0.1560 0.1720 0.1890
18.229000 0.2080 0.2280 0.2500 0.2700 0.2910
18.284750 0.3130 0.3350 0.3570 0.3800 0.4010
18.340000 0.4220 0.4440 0.4640 0.4830 0.5010
18.395750 0.5180 0.5330 0.5620 0.5800 0.5930
18.452000 0.6020 0.6090 0.6140 0.6220 0.6350
18.507750 0.6520 0.6620 0.6690 0.6770 0.6860
18.563000 0.6870 0.6890 0.6920 0.6960 0.6970
18.618750 0.6970 0.6990 0.6990 0.7010 0.7010
18.674000 0.6990 0.6990 0.6990 0.6990 0.6970
18.729750 0.6970 0.6960 0.6920 0.6870 0.6860
18.786000 0.6690 0.6590 0.6560 0.6540 0.6510
18.841750 0.6470 0.6400 0.6340 0.6250 0.6170
18.897000 0.6140 0.6120 0.6100 0.6090 0.6070
18.952750 0.6050 0.6050 0.6040 0.6020 0.6000
19.009000 0.6000 0.5980 0.5970 0.5970 0.5950
19.064750 0.5950 0.5930 0.5920 0.5920 0.5900
19.120000 0.5880 0.5870 0.5850 0.5830 0.5800
19.175750 0.5780 0.5750 0.5720 0.5680 0.5630
19.232000 0.5580 0.5520 0.5460 0.5430 0.5380
19.287750 0.5350 0.5280 0.5210 0.5110 0.4980
19.343000 0.4940 0.4830 0.4710 0.4580 0.4440
19.398750 0.4290 0.4160 0.4020 0.3900 0.3420
19.455000 0.3280 0.3170 0.3050 0.2800 0.2680
19.510750 0.2530 0.2330 0.2240 0.2110 0.1920
19.566000 0.1740 0.1540 0.1350 0.1190 0.1070
19.621750 0.1020 0.1000 0.0980 0.0930 0.0880
19.677000 0.0820 0.0770 0.0680 0.0630 0.0600
19.732750 0.0570 0.0550 0.0550 0.0570 0.0600
19.789000 0.0620 0.0650 0.0700 0.0750 0.0780
19.844750 0.0850 0.0900 0.0930 0.1140 0.1220
19.900000 0.1250 0.1510 0.1710 0.1910 0.2080
19.955750 0.2260 0.2410 0.2580 0.2730 0.2900
20.012000 0.3080 0.3270 0.3470 0.3500 0.3570
20.067750 0.3750 0.3900 0.4020 0.4140 0.4220
20.123000 0.4310 0.4390 0.4460 0.4530 0.4590
20.178750 0.4710 0.4810 0.4890 0.4980 0.5060
20.235000 0.5130 0.5210 0.5280 0.5350 0.5410
20.290750 0.5500 0.5580 0.5670 0.5750 0.5850
20.346000 0.5930 0.5980 0.6050 0.6100 0.6190
20.401750 0.6270 0.6370 0.6510 0.6570 0.6620
20.457000 0.6670 0.6720 0.6760 0.6810 0.6860
20.512750 0.6890 0.6920 0.6960 0.7010 0.7040
20.569000 0.7060 0.7090 0.7110 0.7110 0.7180
20.624750 0.7190 0.7210 0.7230 0.7240 0.7280
20.680000 0.7310 0.7340 0.7360 0.7380 0.7410
20.735750 0.7440 0.7460 0.7480 0.7500 0.7510
20.792000 0.7530 0.7530 0.7530 0.7530 0.7510
20.847750 0.7510 0.7500 0.7460 0.7440 0.7430
20.903000 0.7410 0.7390 0.7380 0.7360 0.7330
20.958750 0.7290 0.7240 0.7190 0.7130 0.7040
21.015000 0.6960 0.6840 0.6720 0.6570 0.6400
21.070750 0.6200 0.6140 0.6020 0.5830 0.5650
21.126000 0.5430 0.5200 0.5000 0.4790 0.4630
21.181750 0.4440 0.4190 0.4060 0.3940 0.3820
21.238000 0.3700 0.3590 0.3470 0.3350 0.3320
21.293750 0.3350 0.3400 0.3540 0.3620 0.3650
21.349000 0.3670 0.3690 0.3740 0.3800 0.3940
21.404750 0.4160 0.4440 0.4540 0.4640 0.4730
21.460000 0.4840 0.4980 0.5160 0.5380 0.5520
21.515750 0.5620 0.5720 0.5870 0.5970 0.6040
21.572000 0.6150 0.6220 0.6420 0.6470 0.6540
21.627750 0.6590 0.6620 0.6640 0.6660 0.6710
21.683000 0.6720 0.6760 0.6770 0.6810 0.6820
21.738750 0.6860 0.6870 0.6870 0.6890 0.6890
21.795000 0.6890 0.6820 0.6810 0.6770 0.6740
21.850750 0.6690 0.6660 0.6610 0.6540 0.6440
21.906000 0.6350 0.6240 0.6140 0.6050 0.5980
21.961750 0.5920 0.5900 0.5870 0.5800 0.5730
22.018000 0.5650 0.5570 0.5480 0.5430 0.5410
22.073750 0.5400 0.5410 0.5430 0.5450 0.5480
22.129000 0.5530 0.5570 0.5620 0.5650 0.5680
22.184750 0.5730 0.5770 0.5820 0.5850 0.5900
22.240000 0.5930 0.5980 0.6020 0.6070 0.6100
22.295750 0.6150 0.6190 0.6240 0.6270 0.6300
22.352000 0.6340 0.6350 0.6350 0.6340 0.6320
22.407750 0.6320 0.6290 0.6270 0.6250 0.6240
22.463000 0.6220 0.6190 0.6170 0.6140 0.6120
22.518750 0.6090 0.6050 0.6000 0.5970 0.5900
22.575000 0.5850 0.5770 0.5700 0.5600 0.5430
22.630750 0.5400 0.5350 0.5280 0.5210 0.5130
22.686000 0.5060 0.5000 0.4940 0.4660 0.4590
22.741750 0.4490 0.4390 0.4340 0.4170 0.4020
22.798000 0.3890 0.3770 0.3650 0.3540 0.3420
22.853750 0.3300 0.3180 0.3050 0.2900 0.2710
22.909000 0.2530 0.2290 0.2260 0.2210 0.2140
22.964750 0.2060 0.1960 0.1840 0.1720 0.1590
23.021000 0.1420 0.1370 0.1300 0.1200 0.1040
23.076750 0.1000 0.0970 0.0900 0.0870 0.0820
23.132000 0.0780 0.0750 0.0720 0.0680 0.0650
23.187750 0.0650 0.0620 0.0600 0.0580 0.0570
23.243000 0.0550 0.0530 0.0500 0.0480 0.0460
23.298750 0.0460 0.0450 0.0450 0.0430 0.0430
23.355000 0.0410 0.0410 0.0410 0.0410 0.0430
23.410750 0.0430 0.0450 0.0460 0.0480 0.0520
23.466000 0.0530 0.0570 0.0600 0.0670 0.0720
23.521750 0.0780 0.0830 0.0870 0.0900 0.0950
23.578000 0.1050 0.1100 0.1190 0.1290 0.1400
23.633750 0.1540 0.1610 0.1690 0.1810 0.1920
23.689000 0.2060 0.2210 0.2360 0.2500 0.2630
23.744750 0.2730 0.2810 0.2980 0.3130 0.3300
23.801000 0.3450 0.3590 0.3650 0.3770 0.3870
23.856750 0.3970 0.4060 0.4160 0.4240 0.4340
23.912000 0.4420 0.4540 0.4660 0.4790 0.4940
23.967750 0.4980 0.5050 0.5110 0.5210 0.5310
24.023000 0.5410 0.5520 0.5600 0.5630 0.5630
24.078750 0.5670 0.5730 0.5780 0.5850 0.5880
24.135000 0.5920 0.6000 0.6050 0.6090 0.6100
24.190750 0.6120 0.6140 0.6150 0.6170 0.6220
24.246000 0.6250 0.6270 0.6290 0.6300 0.6320
24.301750 0.6340 0.6350 0.6370 0.6400 0.6420
24.358000 0.6440 0.6450 0.6470 0.6490 0.6510
24.413750 0.6520 0.6520 0.6540 0.6540 0.6590
24.469000 0.6620 0.6670 0.6710 0.6740 0.6770
24.524750 0.6810 0.6840 0.6870 0.6890 0.6910
24.581000 0.6920 0.6940 0.7010 0.7090 0.7110
24.636750 0.7110 0.7110 0.7110 0.7110 0.7110
24.692000 0.7110 0.7090 0.7060 0.7030 0.6990
24.747750 0.6970 0.6920 0.6910 0.6860 0.6810
24.804000 0.6810 0.6770 0.6710 0.6590 0.6440
24.859750 0.6200 0.6120 0.6050 0.6000 0.5970
24.915000 0.5950 0.5930 0.5770 0.5720 0.5670
24.970750 0.5600 0.5570 0.5480 0.5410 0.5380
25.026000 0.5350 0.5330 0.5310 0.5300 0.5310
25.081750 0.5350 0.5380 0.5460 0.5520 0.5550
25.138000 0.5630 0.5720 0.5820 0.5900 0.5970
25.193750 0.5980 0.6050 0.6150 0.6270 0.6400
25.249000 0.6540 0.6660 0.6760 0.6820 0.6920
25.304750 0.7030 0.7140 0.7280 0.7390 0.7480
25.361000 0.7550 0.7710 0.7780 0.7830 0.7950
25.416750 0.7980 0.8070 0.8080 0.8100 0.8130
25.472000 0.8180 0.8220 0.8250 0.8280 0.8300
25.527750 0.8330 0.8370 0.8400 0.8430 0.8470
25.584000 0.8480 0.8520 0.8540 0.8550 0.8570
25.639750 0.8570 0.8570 0.8590 0.8590 0.8600
25.695000 0.8620 0.8640 0.8650 0.8670 0.8700
25.750750 0.8720 0.8740 0.8770 0.8820 0.8820
25.806000 0.8840 0.8840 0.8850 0.8850 0.8850
25.861750 0.8870 0.8870 0.8870 0.8890 0.8890
25.918000 0.8890 0.8920 0.8920 0.8940 0.8940
25.973750 0.8950 0.8950 0.8970 0.8970 0.8990
26.029000 0.8990 0.8990 0.9010 0.9020 0.9020
26.084750 0.9020 0.9020 0.9040 0.9040 0.9060
26.141000 0.9060 0.9060 0.9060 0.9070 0.9070
26.196750 0.9070 0.9070 0.9070 0.9090 0.9090
26.252000 0.9090 0.9090 0.9090 0.9090 0.9110
26.307750 0.9110 0.9110 0.9120 0.9120 0.9140
26.364000 0.9140 0.9160 0.9160 0.9160 0.9170
26.419750 0.9170 0.9190 0.9190 0.9190 0.9190
26.475000 0.9210 0.9210 0.9210 0.9210 0.9220
26.530750 0.9220 0.9220 0.9220 0.9220 0.9220
26.587000 0.9220 0.9220 0.9220 0.9220 0.9220
26.642750 0.9220 0.9220 0.9220 0.9240 0.9240
26.698000 0.9240 0.9240 0.9240 0.9240 0.9240
26.753750 0.9240 0.9240 0.9260 0.9260 0.9260
26.809000 0.9260 0.9260 0.9260 0.9260 0.9260
26.864750 0.9240 0.9240 0.9240 0.9240 0.9240
26.921000 0.9240 0.9240 0.9240 0.9240 0.9240
26.976750 0.9240 0.9240 0.9240 0.9240 0.9240
27.032000 0.9240 0.9240 0.9240 0.9240 0.9240
27.087750 0.9240 0.9220 0.9220 0.9220 0.9220
27.144000 0.9220 0.9220 0.9220 0.9220 0.9220
27.199750 0.9220 0.9220 0.9220 0.9210 0.9210
27.255000 0.9210 0.9190 0.9190 0.9190 0.9190
27.310750 0.9190 0.9190 0.9190 0.9210 0.9210
27.367000 0.9210 0.9210 0.9220 0.9220 0.9220
27.422750 0.9240 0.9240 0.9240 0.9240 0.9240
27.478000 0.9240 0.9240 0.9220 0.9220 0.9220
27.533750 0.9210 0.9210 0.9210 0.9210 0.9210
27.589000 0.9210 0.9220 0.9220 0.9220 0.9240
27.644750 0.9240 0.9240 0.9260 0.9270 0.9270
27.701000 0.9270 0.9270 0.9270 0.9270 0.9270
27.756750 0.9270 0.9260 0.9260 0.9240 0.9240
27.812000 0.9240 0.9240 0.9240 0.9240 0.9240
27.867750 0.9240 0.9240 0.9240 0.9240 0.9240
27.924000 0.9240 0.9240 0.9220 0.9220 0.9220
27.979750 0.9210 0.9210 0.9190 0.9170 0.9160
28.035000 0.9160 0.9160 0.9160 0.9160 0.9140
28.090750 0.9140 0.9140 0.9140 0.9120 0.9120
28.147000 0.9120 0.9120 0.9120 0.9120 0.9120
28.202750 0.9120 0.9120 0.9120 0.9120 0.9120
28.258000 0.9110 0.9110 0.9090 0.9070 0.9060
28.313750 0.9060 0.9040 0.9040 0.9040 0.9040
28.370000 0.9020 0.9020 0.9010 0.9010 0.9010
28.425750 0.8990 0.8970 0.8950 0.8940 0.8920
28.481000 0.8900 0.8900 0.8890 0.8890 0.8870
28.536750 0.8870 0.8870 0.8850 0.8840 0.8800
28.592000 0.8790 0.8770 0.8720 0.8670 0.8650
28.647750 0.8650 0.8640 0.8620 0.8600 0.8570
28.704000 0.8550 0.8520 0.8520 0.8480 0.8470
28.759750 0.8450 0.8430 0.8430 0.8420 0.8400
28.815000 0.8320 0.8280 0.8250 0.8220 0.8150
28.870750 0.8100 0.8100 0.8080 0.8070 0.8050
28.927000 0.8020 0.7980 0.7950 0.7900 0.7850
28.982750 0.7810 0.7780 0.7730 0.7700 0.7600
29.038000 0.7510 0.7500 0.7440 0.7430 0.7380
29.093750 0.7280 0.7180 0.7080 0.7010 0.6940
29.150000 0.6890 0.6820 0.6770 0.6710 0.6660
29.205750 0.6610 0.6590 0.6510 0.6400 0.6300
29.261000 0.6200 0.6140 0.6070 0.6000 0.5980
29.316750 0.5930 0.5850 0.5800 0.5730 0.5670
29.372000 0.5600 0.5550 0.5500 0.5500 0.5480
29.427750 0.5480 0.5450 0.5430 0.5380 0.5360
29.484000 0.5330 0.5330 0.5310 0.5310 0.5310
29.539750 0.5310 0.5330 0.5360 0.5380 0.5380
29.595000 0.5400 0.5400 0.5400 0.5400 0.5410
29.650750 0.5410 0.5450 0.5520 0.5670 0.5730
29.707000 0.5750 0.5770 0.5780 0.5850 0.5980
29.762750 0.5980 0.6020 0.6070 0.6150 0.6240
29.818000 0.6340 0.6400 0.6450 0.6470 0.6510
29.873750 0.6520 0.6590 0.6710 0.6910 0.6940
29.930000 0.6970 0.7030 0.7060 0.7110 0.7180
29.985750 0.7230 0.7280 0.7330 0.7390 0.7430
30.041000 0.7480 0.7510 0.7550 0.7560 0.7560
30.096750 0.7600 0.7780 0.7860 0.7900 0.7910
30.152000 0.7950 0.7980 0.7980 0.8000 0.8070
30.207750 0.8080 0.8120 0.8120 0.8150 0.8170
30.264000 0.8200 0.8230 0.8250 0.8270 0.8280
30.319750 0.8300 0.8330 0.8380 0.8400 0.8400
30.375000 0.8420 0.8420 0.8430 0.8430 0.8450
30.430750 0.8450 0.8470 0.8470 0.8480 0.8480
30.487000 0.8500 0.8500 0.8540 0.8550 0.8570
30.542750 0.8570 0.8590 0.8600 0.8600 0.8620
30.598000 0.8640 0.8640 0.8640 0.8650 0.8650
30.653750 0.8690 0.8700 0.8720 0.8740 0.8750
30.710000 0.8770 0.8770 0.8790 0.8800 0.8800
30.765750 0.8800 0.8800 0.8820 0.8840 0.8840
30.821000 0.8850 0.8850 0.8870 0.8870 0.8890
30.876750 0.8890 0.8900 0.8900 0.8900 0.8900
30.933000 0.8900 0.8920 0.8920 0.8920 0.8940
30.988750 0.8940 0.8940 0.8940 0.8940 0.8950
31.044000 0.8950 0.8950 0.8950 0.8970 0.8970
31.099750 0.8970 0.8970 0.8990 0.8990 0.8990
31.155000 0.8990 0.8990 0.9010 0.9010 0.9010
31.210750 0.9010 0.9010 0.9020 0.9020 0.9020
31.267000 0.9020 0.9020 0.9040 0.9040 0.9040
31.322750 0.9040 0.9040 0.9040 0.9040 0.9040
31.378000 0.9040 0.9060 0.9060 0.9060 0.9060
31.433750 0.9060 0.9060 0.9060 0.9060 0.9060
31.490000 0.9060 0.9060 0.9040 0.9040 0.9040
31.545750 0.9040 0.9040 0.9040 0.9040 0.9040
31.601000 0.9020 0.9020 0.9020 0.9020 0.9040
31.656750 0.9040 0.9040 0.9060 0.9060 0.9060
31.713000 0.9060 0.9070 0.9070 0.9070 0.9090
31.768750 0.9090 0.9090 0.9110 0.9110 0.9110
31.824000 0.9090 0.9090 0.9070 0.9060 0.9020
31.879750 0.9010 0.9010 0.9010 0.9010 0.9020
31.935000 0.9020 0.9060 0.9070 0.9090 0.9120
31.990750 0.9120 0.9120 0.9110 0.9090 0.9090
32.047000 0.9090 0.9090 0.9090 0.9090 0.9090
32.102750 0.9090 0.9090 0.9090 0.9090 0.9090
32.158000 0.9090 0.9090 0.9110 0.9110 0.9090
32.213750 0.9090 0.9060 0.9040 0.9060 0.9060
32.270000 0.9070 0.9070 0.9070 0.9060 0.9020
32.325750 0.9020 0.9020 0.9040 0.9060 0.9060
32.381000 0.9070 0.9070 0.9070 0.9060 0.9060
32.436750 0.9040 0.9040 0.9040 0.9060 0.9090
32.493000 0.9110 0.9110 0.9110 0.9090 0.9090
32.548750 0.9090 0.9070 0.9070 0.9060 0.9020
32.604000 0.8940 0.8920 0.8900 0.8900 0.8900
32.659750 0.8920 0.8920 0.8940 0.8940 0.8920
32.716000 0.8920 0.8920 0.8940 0.8940 0.8950
32.771750 0.8970 0.8990 0.9010 0.9010 0.9010
32.827000 0.8990 0.8990 0.8970 0.8950 0.8940
32.882750 0.8920 0.8900 0.8890 0.8890 0.8890
32.938000 0.8870 0.8850 0.8850 0.8850 0.8850
32.993750 0.8850 0.8840 0.8840 0.8840 0.8840
33.050000 0.8820 0.8800 0.8790 0.8790 0.8770
33.105750 0.8750 0.8750 0.8740 0.8720 0.8700
33.161000 0.8690 0.8670 0.8640 0.8600 0.8570
33.216750 0.8550 0.8550 0.8540 0.8500 0.8470
33.273000 0.8470 0.8450 0.8430 0.8420 0.8420
33.328750 0.8400 0.8370 0.8300 0.8250 0.8180
33.384000 0.8150 0.8120 0.8120 0.8080 0.8080
33.439750 0.8080 0.8070 0.8070 0.8050 0.8030
33.496000 0.8030 0.8030 0.8020 0.8000 0.7930
33.551750 0.7850 0.7760 0.7750 0.7730 0.7710
33.607000 0.7710 0.7700 0.7660 0.7650 0.7630
33.662750 0.7630 0.7610 0.7610 0.7600 0.7510
33.718000 0.7480 0.7440 0.7430 0.7410 0.7410
33.773750 0.7410 0.7390 0.7380 0.7360 0.7330
33.830000 0.7290 0.7290 0.7280 0.7280 0.7280
33.885750 0.7280 0.7280 0.7280 0.7260 0.7260
33.941000 0.7260 0.7260 0.7260 0.7260 0.7260
33.996750 0.7260 0.7260 0.7260 0.7260 0.7260
34.053000 0.7260 0.7280 0.7280 0.7280 0.7280
34.108750 0.7280 0.7280 0.7280 0.7280 0.7290
34.164000 0.7290 0.7290 0.7310 0.7310 0.7330
34.219750 0.7340 0.7380 0.7410 0.7460 0.7530
34.276000 0.7600 0.7630 0.7650 0.7660 0.7660
34.331750 0.7660 0.7680 0.7700 0.7710 0.7730
34.387000 0.7750 0.7760 0.7780 0.7800 0.7800
34.442750 0.7810 0.7830 0.7850 0.7860 0.7900
34.499000 0.7980 0.7980 0.8000 0.8050 0.8050
34.554750 0.8070 0.8080 0.8080 0.8100 0.8120
34.610000 0.8120 0.8130 0.8130 0.8130 0.8130
34.665750 0.8130 0.8130 0.8150 0.8180 0.8200
34.721000 0.8200 0.8220 0.8220 0.8250 0.8250
34.776750 0.8250 0.8270 0.8270 0.8270 0.8270
34.833000 0.8270 0.8270 0.8280 0.8300 0.8320
34.888750 0.8320 0.8320 0.8320 0.8320 0.8330
34.944000 0.8330 0.8330 0.8330 0.8370 0.8370
34.999750 0.8370 0.8380 0.8370
##END=
