##TITLE=4-METHYL-PHENANTHRENE
##JCAMP-DX=4.24
##DATA TYPE=INFRARED SPECTRUM
##CLASS=COBLENTZ
##ORIGIN=CENTRE D'ETUDES NUCLEAIRES DE GRENOBLE
##OWNER=COBLENTZ SOCIETY
Collection (C) 2018 copyright by the U.S. Secretary of Commerce
on behalf of the United States of America. All rights reserved.
##DATE=Not specified, most likely prior to 1970
##NAMES=4-methylphenanthrene
##CAS REGISTRY NO=832-64-4
##MOLFORM=C15 H12
##SOURCE REFERENCE=COBLENTZ NO. 4216
##$NIST SOURCE=COBLENTZ
##$NIST IMAGE=cob4216
##SPECTROMETER/DATA SYSTEM=Not specified, most likely a prism, grating, or hybrid spectrometer.
##STATE=SOLID (1% IN KI)
##PATH LENGTH=
$$PURITY 99%
##SAMPLING PROCEDURE=TRANSMISSION
##RESOLUTION=4
##DATA PROCESSING=DIGITIZED BY NIST FROM HARD COPY
##XUNITS=MICROMETERS
##YUNITS=TRANSMITTANCE
##XFACTOR=1.000000
##YFACTOR=1
##DELTAX=000.006674
##FIRSTX=1.972
##LASTX=15.8663
##FIRSTY=0.252
##MAXX=15.8663
##MINX=1.972
##MAXY=1.003
##MINY=0.058
##NPOINTS=2083
##XYDATA=(X++(Y..Y))
1.972000 0.2520 0.2530 0.2530 0.2570 0.2570
2.005384 0.2580 0.2600 0.2600 0.2620 0.2630
2.039000 0.2630 0.2650 0.2650 0.2660 0.2680
2.072384 0.2710 0.2750 0.2760 0.2780 0.2800
2.106000 0.2800 0.2810 0.2830 0.2830 0.2850
2.139384 0.2860 0.2880 0.2880 0.2900 0.2910
2.172000 0.2930 0.2950 0.2960 0.2980 0.3000
2.205384 0.3010 0.3030 0.3050 0.3060 0.3080
2.239000 0.3100 0.3110 0.3130 0.3150 0.3160
2.272384 0.3180 0.3250 0.3280 0.3310 0.3330
2.306000 0.3330 0.3330 0.3340 0.3340 0.3340
2.339384 0.3360 0.3360 0.3360 0.3380 0.3380
2.373000 0.3390 0.3410 0.3430 0.3440 0.3480
2.406384 0.3510 0.3540 0.3580 0.3590 0.3610
2.439000 0.3610 0.3640 0.3640 0.3660 0.3680
2.472384 0.3680 0.3690 0.3690 0.3710 0.3730
2.506000 0.3730 0.3740 0.3740 0.3760 0.3780
2.539384 0.3790 0.3810 0.3830 0.3840 0.3860
2.573000 0.3880 0.3890 0.3910 0.3930 0.3940
2.606384 0.3960 0.3980 0.3990 0.4020 0.4040
2.640000 0.4060 0.4070 0.4090 0.4090 0.4110
2.673384 0.4120 0.4140 0.4160 0.4170 0.4190
2.706000 0.4210 0.4210 0.4220 0.4240 0.4260
2.739384 0.4260 0.4270 0.4270 0.4270 0.4290
2.773000 0.4290 0.4310 0.4310 0.4310 0.4310
2.806384 0.4310 0.4310 0.4310 0.4310 0.4290
2.840000 0.4290 0.4270 0.4270 0.4260 0.4260
2.873384 0.4260 0.4260 0.4260 0.4260 0.4270
2.907000 0.4270 0.4290 0.4310 0.4320 0.4340
2.940384 0.4360 0.4360 0.4390 0.4410 0.4420
2.973000 0.4440 0.4460 0.4470 0.4490 0.4490
3.006384 0.4520 0.4560 0.4590 0.4640 0.4670
3.040000 0.4690 0.4700 0.4720 0.4750 0.4770
3.073384 0.4790 0.4820 0.4840 0.4850 0.4890
3.107000 0.4900 0.4920 0.4950 0.4970 0.4990
3.140384 0.5000 0.5000 0.5020 0.5040 0.5050
3.174000 0.5070 0.5070 0.5090 0.5120 0.5140
3.207384 0.5140 0.5150 0.5170 0.5170 0.5190
3.240000 0.5190 0.5200 0.5220 0.5220 0.5190
3.273384 0.5120 0.5050 0.5040 0.5020 0.4890
3.307000 0.4090 0.4040 0.3880 0.3640 0.3640
3.340384 0.3830 0.3960 0.4060 0.4090 0.4210
3.374000 0.4370 0.4440 0.4490 0.4490 0.4460
3.407384 0.4120 0.4070 0.3990 0.3890 0.3890
3.440000 0.4070 0.4370 0.4470 0.4520 0.4560
3.473384 0.4590 0.4590 0.4620 0.4700 0.4790
3.507000 0.4840 0.4890 0.4890 0.4820 0.4800
3.540384 0.4840 0.4940 0.5040 0.5090 0.5300
3.574000 0.5330 0.5430 0.5580 0.5630 0.5670
3.607384 0.5700 0.5720 0.5770 0.5780 0.5780
3.641000 0.5820 0.5830 0.5850 0.5870 0.5870
3.674384 0.5880 0.5880 0.5900 0.5900 0.5920
3.707000 0.5920 0.5930 0.5950 0.5970 0.5980
3.740384 0.5980 0.6000 0.6010 0.6030 0.6030
3.774000 0.6050 0.6060 0.6080 0.6100 0.6110
3.807384 0.6130 0.6130 0.6150 0.6160 0.6160
3.841000 0.6180 0.6200 0.6210 0.6210 0.6230
3.874384 0.6250 0.6260 0.6280 0.6300 0.6300
3.908000 0.6310 0.6330 0.6330 0.6350 0.6360
3.941384 0.6360 0.6380 0.6400 0.6400 0.6410
3.974000 0.6430 0.6450 0.6460 0.6480 0.6480
4.007384 0.6500 0.6510 0.6510 0.6530 0.6550
4.041000 0.6550 0.6560 0.6580 0.6600 0.6610
4.074384 0.6610 0.6630 0.6650 0.6660 0.6660
4.108000 0.6660 0.6680 0.6680 0.6680 0.6690
4.141384 0.6690 0.6690 0.6690 0.6710 0.6710
4.175000 0.6730 0.6730 0.6740 0.6740 0.6740
4.208384 0.6760 0.6760 0.6760 0.6780 0.6790
4.241000 0.6830 0.6840 0.6880 0.6910 0.6930
4.274384 0.6960 0.6980 0.6980 0.6990 0.6990
4.308000 0.6990 0.6990 0.7010 0.7010 0.7010
4.341384 0.7010 0.7010 0.6990 0.6990 0.6980
4.375000 0.6980 0.6980 0.6990 0.7010 0.7030
4.408384 0.7030 0.7040 0.7040 0.7080 0.7110
4.441000 0.7130 0.7130 0.7140 0.7140 0.7160
4.474384 0.7180 0.7180 0.7190 0.7190 0.7230
4.508000 0.7230 0.7240 0.7260 0.7260 0.7280
4.541384 0.7280 0.7290 0.7310 0.7310 0.7330
4.575000 0.7330 0.7330 0.7340 0.7360 0.7360
4.608384 0.7370 0.7370 0.7390 0.7410 0.7410
4.642000 0.7410 0.7420 0.7420 0.7420 0.7440
4.675384 0.7440 0.7460 0.7460 0.7460 0.7470
4.708000 0.7470 0.7470 0.7490 0.7490 0.7510
4.741384 0.7510 0.7510 0.7520 0.7520 0.7520
4.775000 0.7540 0.7540 0.7560 0.7560 0.7560
4.808384 0.7570 0.7570 0.7570 0.7590 0.7590
4.842000 0.7590 0.7610 0.7620 0.7620 0.7640
4.875384 0.7640 0.7640 0.7660 0.7660 0.7670
4.909000 0.7670 0.7690 0.7690 0.7690 0.7710
4.942384 0.7710 0.7720 0.7720 0.7720 0.7740
4.975000 0.7760 0.7760 0.7770 0.7770 0.7790
5.008384 0.7790 0.7810 0.7810 0.7820 0.7820
5.042000 0.7840 0.7840 0.7860 0.7860 0.7870
5.075384 0.7870 0.7870 0.7890 0.7890 0.7890
5.109000 0.7890 0.7910 0.7910 0.7910 0.7910
5.142384 0.7890 0.7890 0.7840 0.7790 0.7760
5.176000 0.7690 0.7610 0.7590 0.7520 0.7460
5.209384 0.7370 0.7360 0.7330 0.7240 0.7210
5.242000 0.7180 0.7130 0.7090 0.7080 0.7090
5.275384 0.7230 0.7290 0.7340 0.7420 0.7510
5.309000 0.7570 0.7620 0.7690 0.7720 0.7770
5.342384 0.7810 0.7810 0.7860 0.7870 0.7910
5.376000 0.7920 0.7920 0.7940 0.7940 0.7910
5.409384 0.7890 0.7870 0.7820 0.7820 0.7820
5.443000 0.7840 0.7840 0.7870 0.7890 0.7890
5.476384 0.7910 0.7920 0.7960 0.7970 0.7990
5.509000 0.8000 0.8020 0.8040 0.8040 0.8040
5.542384 0.8040 0.8020 0.8000 0.8000 0.7990
5.576000 0.7960 0.7940 0.7920 0.7890 0.7890
5.609384 0.7860 0.7820 0.7810 0.7770 0.7740
5.643000 0.7720 0.7690 0.7660 0.7640 0.7610
5.676384 0.7610 0.7640 0.7670 0.7640 0.7570
5.709000 0.7540 0.7570 0.7670 0.7740 0.7770
5.742384 0.7820 0.7910 0.7940 0.7990 0.7990
5.776000 0.8000 0.8000 0.8000 0.8000 0.7990
5.809384 0.7990 0.7970 0.7960 0.7960 0.7940
5.843000 0.7920 0.7920 0.7910 0.7890 0.7890
5.876384 0.7890 0.7890 0.7910 0.7940 0.7960
5.910000 0.7970 0.7990 0.8020 0.8040 0.8040
5.943384 0.8040 0.8040 0.8020 0.8020 0.8020
5.976000 0.8040 0.8040 0.8070 0.8070 0.8100
6.009384 0.8090 0.8070 0.8020 0.7970 0.7960
6.043000 0.7920 0.7890 0.7870 0.7890 0.7940
6.076384 0.7970 0.8000 0.8040 0.8040 0.8050
6.110000 0.8070 0.8070 0.8100 0.8100 0.8100
6.143384 0.8090 0.8070 0.8070 0.8040 0.8000
6.177000 0.7970 0.7960 0.7910 0.7810 0.7790
6.210384 0.7810 0.7820 0.7840 0.7820 0.7720
6.243000 0.7690 0.7640 0.7610 0.7490 0.7470
6.276384 0.7470 0.7460 0.7460 0.7390 0.7330
6.310000 0.6830 0.6830 0.7130 0.7280 0.7420
6.343384 0.7690 0.7920 0.8000 0.8070 0.8200
6.377000 0.8220 0.8200 0.8170 0.8100 0.8070
6.410384 0.8050 0.7990 0.7940 0.7940 0.7960
6.444000 0.8050 0.8120 0.8190 0.8240 0.8270
6.477384 0.8320 0.8350 0.8400 0.8400 0.8420
6.510000 0.8440 0.8450 0.8520 0.8570 0.8590
6.543384 0.8590 0.8540 0.8490 0.8420 0.8370
6.577000 0.8340 0.8320 0.8290 0.8290 0.8290
6.610384 0.8270 0.8250 0.8250 0.8250 0.8250
6.644000 0.8270 0.8270 0.8290 0.8290 0.8290
6.677384 0.8290 0.8270 0.8250 0.8220 0.8120
6.710000 0.7990 0.7760 0.7490 0.7240 0.7260
6.743384 0.7330 0.7370 0.7590 0.7860 0.8000
6.777000 0.8150 0.8270 0.8320 0.8340 0.8350
6.810384 0.8350 0.8370 0.8370 0.8300 0.8200
6.844000 0.7960 0.7340 0.6840 0.6580 0.6560
6.877384 0.6600 0.6760 0.6810 0.6880 0.6890
6.911000 0.6890 0.5900 0.5520 0.5150 0.4690
6.944384 0.3860 0.4240 0.4470 0.4700 0.4870
6.977000 0.4940 0.4950 0.4950 0.4920 0.4440
7.010384 0.4570 0.4690 0.4940 0.6480 0.6860
7.044000 0.7240 0.7390 0.7540 0.7670 0.7740
7.077384 0.7740 0.7760 0.7760 0.7770 0.7890
7.111000 0.7990 0.8070 0.8170 0.8270 0.8420
7.144384 0.8470 0.8520 0.8550 0.8570 0.8570
7.178000 0.8570 0.8570 0.8550 0.8550 0.8550
7.211384 0.8550 0.8550 0.8540 0.8540 0.8540
7.244000 0.8520 0.8500 0.8490 0.8490 0.8450
7.277384 0.8340 0.8070 0.7330 0.6550 0.6110
7.311000 0.5680 0.5680 0.6230 0.6760 0.7290
7.344384 0.7540 0.7770 0.8000 0.8220 0.8350
7.378000 0.8440 0.8490 0.8520 0.8550 0.8620
7.411384 0.8730 0.8750 0.8800 0.8820 0.8820
7.445000 0.8830 0.8830 0.8870 0.8880 0.8900
7.478384 0.8900 0.8930 0.8930 0.8950 0.8950
7.511000 0.8950 0.8950 0.8950 0.8950 0.8950
7.544384 0.8950 0.8950 0.8930 0.8930 0.8930
7.578000 0.8930 0.8920 0.8900 0.8880 0.8870
7.611384 0.8830 0.8490 0.8450 0.8240 0.8040
7.645000 0.7820 0.7360 0.7360 0.7620 0.7940
7.678384 0.8120 0.8290 0.8440 0.8520 0.8550
7.711000 0.8720 0.8730 0.8720 0.8700 0.8500
7.744384 0.8300 0.8050 0.7940 0.7770 0.7440
7.778000 0.7440 0.7940 0.8220 0.8320 0.8440
7.811384 0.8570 0.8770 0.8820 0.8870 0.8900
7.845000 0.8930 0.8920 0.8900 0.8850 0.8830
7.878384 0.8780 0.8730 0.8670 0.8490 0.8370
7.912000 0.8370 0.8400 0.8450 0.8570 0.8640
7.945384 0.8700 0.8700 0.8750 0.8750 0.8770
7.978000 0.8770 0.8770 0.8770 0.8750 0.8730
8.011384 0.8720 0.8670 0.8650 0.8640 0.8600
8.045000 0.8570 0.8540 0.8500 0.8450 0.8420
8.078384 0.8390 0.8300 0.8200 0.8100 0.8040
8.112000 0.8000 0.7920 0.7910 0.7870 0.7790
8.145384 0.7640 0.7610 0.7610 0.7640 0.7860
8.179000 0.7870 0.7960 0.8070 0.8220 0.8350
8.212384 0.8450 0.8470 0.8450 0.8450 0.8120
8.245000 0.7810 0.7660 0.7420 0.7180 0.7210
8.278384 0.7280 0.7330 0.7460 0.7560 0.7770
8.312000 0.7940 0.8100 0.8220 0.8290 0.8350
8.345384 0.8400 0.8420 0.8470 0.8500 0.8520
8.379000 0.8540 0.8540 0.8540 0.8540 0.8540
8.412384 0.8540 0.8540 0.8550 0.8590 0.8620
8.446000 0.8650 0.8770 0.8850 0.8920 0.8950
8.479384 0.8980 0.9020 0.9030 0.9050 0.9070
8.512000 0.9070 0.9020 0.9000 0.8970 0.8930
8.545384 0.8820 0.8730 0.8640 0.8550 0.8440
8.579000 0.8270 0.8070 0.7790 0.7420 0.6930
8.612384 0.6890 0.6930 0.7140 0.7340 0.7810
8.646000 0.7970 0.8220 0.8440 0.8570 0.8830
8.679384 0.8930 0.8980 0.9050 0.9070 0.9100
8.713000 0.9100 0.9050 0.8880 0.8590 0.8500
8.746384 0.8420 0.8390 0.8390 0.8420 0.8720
8.779000 0.8880 0.8980 0.9020 0.9030 0.9050
8.812384 0.9050 0.9020 0.8720 0.8440 0.8220
8.846000 0.7910 0.7890 0.7920 0.8140 0.8370
8.879384 0.8520 0.8650 0.8770 0.8900 0.9030
8.913000 0.9100 0.9150 0.9200 0.9200 0.9200
8.946384 0.9200 0.9220 0.9220 0.9230 0.9250
8.979000 0.9250 0.9250 0.9270 0.9270 0.9250
9.012384 0.9200 0.9130 0.9080 0.9020 0.8930
9.046000 0.8780 0.8550 0.8200 0.8050 0.8000
9.079384 0.8050 0.8170 0.8350 0.8550 0.8700
9.113000 0.8850 0.8970 0.9070 0.9150 0.9220
9.146384 0.9250 0.9270 0.9270 0.9280 0.9280
9.180000 0.9300 0.9300 0.9320 0.9330 0.9330
9.213384 0.9330 0.9330 0.9330 0.9330 0.9350
9.246000 0.9350 0.9350 0.9350 0.9350 0.9360
9.279384 0.9360 0.9380 0.9400 0.9430 0.9460
9.313000 0.9460 0.9480 0.9500 0.9500 0.9500
9.346384 0.9510 0.9530 0.9530 0.9530 0.9530
9.380000 0.9530 0.9530 0.9530 0.9530 0.9530
9.413384 0.9550 0.9550 0.9560 0.9560 0.9560
9.447000 0.9560 0.9560 0.9560 0.9560 0.9560
9.480384 0.9560 0.9550 0.9530 0.9480 0.9410
9.513000 0.9280 0.9080 0.8800 0.8680 0.8590
9.546384 0.8550 0.8470 0.8470 0.8540 0.8720
9.580000 0.8880 0.9050 0.9170 0.9270 0.9280
9.613384 0.9300 0.9300 0.9300 0.9300 0.9300
9.647000 0.9280 0.9270 0.9270 0.9250 0.9220
9.680384 0.9200 0.9180 0.9150 0.9080 0.8900
9.714000 0.8770 0.8670 0.8570 0.8490 0.8420
9.747384 0.8340 0.8220 0.8170 0.8170 0.8240
9.780000 0.8390 0.8590 0.8700 0.8780 0.8920
9.813384 0.9020 0.9080 0.9120 0.9150 0.9170
9.847000 0.9180 0.9180 0.9180 0.9180 0.9200
9.880384 0.9220 0.9250 0.9270 0.9300 0.9350
9.914000 0.9380 0.9410 0.9450 0.9500 0.9530
9.947384 0.9550 0.9560 0.9580 0.9580 0.9600
9.980000 0.9600 0.9600 0.9600 0.9600 0.9580
10.013384 0.9560 0.9560 0.9550 0.9530 0.9510
10.047000 0.9500 0.9480 0.9460 0.9330 0.9220
10.080384 0.8980 0.8680 0.8540 0.8520 0.8540
10.114000 0.8730 0.8970 0.9150 0.9270 0.9360
10.147384 0.9430 0.9460 0.9500 0.9510 0.9550
10.181000 0.9580 0.9610 0.9650 0.9660 0.9660
10.214384 0.9680 0.9700 0.9700 0.9700 0.9700
10.247000 0.9700 0.9700 0.9700 0.9700 0.9680
10.280384 0.9680 0.9650 0.9650 0.9630 0.9610
10.314000 0.9610 0.9580 0.9550 0.9510 0.9500
10.347384 0.9480 0.9450 0.9410 0.9350 0.9300
10.381000 0.9280 0.9280 0.9270 0.9270 0.9250
10.414384 0.9220 0.9130 0.9080 0.9030 0.8980
10.448000 0.8930 0.8900 0.8800 0.8720 0.8700
10.481384 0.8700 0.8720 0.8780 0.8880 0.9000
10.514000 0.9070 0.9200 0.9230 0.9320 0.9330
10.547384 0.9330 0.9300 0.9250 0.9170 0.9080
10.581000 0.8980 0.8850 0.8700 0.8540 0.8420
10.614384 0.8240 0.8100 0.8090 0.8100 0.8220
10.648000 0.8420 0.8620 0.8830 0.8980 0.9130
10.681384 0.9250 0.9360 0.9450 0.9510 0.9580
10.715000 0.9650 0.9700 0.9730 0.9780 0.9810
10.748384 0.9860 0.9900 0.9910 0.9930 0.9950
10.781000 0.9960 0.9980 0.9980 0.9980 1.0000
10.814384 1.0000 1.0000 1.0000 1.0000 1.0000
10.848000 1.0000 1.0000 1.0000 1.0000 1.0000
10.881384 1.0000 0.9960 0.9950 0.9950 0.9950
10.915000 0.9960 0.9960 0.9980 0.9980 1.0000
10.948384 1.0000 1.0000 1.0000 1.0000 1.0010
10.982000 1.0010 1.0010 1.0030 1.0030 1.0030
11.015384 1.0030 1.0030 1.0030 1.0030 1.0010
11.048000 1.0000 1.0000 0.9980 0.9960 0.9950
11.081384 0.9910 0.9860 0.9780 0.9710 0.9650
11.115000 0.9600 0.9530 0.9450 0.9330 0.9280
11.148384 0.9250 0.9230 0.9220 0.9200 0.9200
11.182000 0.9180 0.9150 0.9100 0.9070 0.9030
11.215384 0.9000 0.9000 0.9020 0.9070 0.9100
11.248000 0.9170 0.9220 0.9330 0.9410 0.9500
11.281384 0.9560 0.9610 0.9680 0.9730 0.9780
11.315000 0.9810 0.9850 0.9850 0.9880 0.9910
11.348384 0.9930 0.9930 0.9950 0.9950 0.9950
11.382000 0.9950 0.9950 0.9950 0.9950 0.9950
11.415384 0.9950 0.9930 0.9930 0.9910 0.9910
11.449000 0.9900 0.9880 0.9860 0.9860 0.9830
11.482384 0.9800 0.9780 0.9700 0.9630 0.9580
11.515000 0.9580 0.9460 0.9030 0.8880 0.8820
11.548384 0.8520 0.8220 0.7920 0.7670 0.7460
11.582000 0.6930 0.6510 0.6280 0.6080 0.5750
11.615384 0.5680 0.5680 0.5750 0.6050 0.6380
11.649000 0.6710 0.7080 0.7260 0.7420 0.7770
11.682384 0.8090 0.8400 0.8670 0.8880 0.8950
11.716000 0.9020 0.9180 0.9280 0.9350 0.9380
11.749384 0.9410 0.9450 0.9500 0.9560 0.9580
11.782000 0.9600 0.9600 0.9610 0.9610 0.9630
11.815384 0.9610 0.9610 0.9610 0.9600 0.9600
11.849000 0.9580 0.9560 0.9530 0.9530 0.9500
11.882384 0.9480 0.9430 0.9360 0.9230 0.9180
11.916000 0.9150 0.9080 0.9020 0.8980 0.8930
11.949384 0.8920 0.8880 0.8870 0.8850 0.8820
11.983000 0.8780 0.8770 0.8730 0.8680 0.8600
12.016384 0.8500 0.8390 0.8240 0.8050 0.7820
12.049000 0.7560 0.6890 0.6500 0.6030 0.5500
12.082384 0.5120 0.4060 0.3460 0.2860 0.2300
12.116000 0.1420 0.1170 0.0860 0.0810 0.0710
12.149384 0.0630 0.0590 0.0580 0.0580 0.0580
12.183000 0.0590 0.0820 0.1160 0.1520 0.1800
12.216384 0.2030 0.2250 0.2800 0.3340 0.3840
12.249000 0.4190 0.4540 0.4690 0.4840 0.5150
12.282384 0.5570 0.5720 0.5870 0.6010 0.6180
12.316000 0.6380 0.6560 0.6780 0.6980 0.7210
12.349384 0.7330 0.7440 0.7690 0.7940 0.8040
12.383000 0.8190 0.8350 0.8490 0.8600 0.8680
12.416384 0.8770 0.8830 0.8870 0.8920 0.8950
12.450000 0.8970 0.8980 0.9000 0.9030 0.9050
12.483384 0.9080 0.9120 0.9150 0.9200 0.9230
12.516000 0.9280 0.9300 0.9300 0.9280 0.9270
12.549384 0.9220 0.9050 0.9000 0.8770 0.8450
12.583000 0.8090 0.7770 0.7590 0.7230 0.7040
12.616384 0.6960 0.6940 0.6940 0.6960 0.6990
12.650000 0.7080 0.7090 0.7260 0.7360 0.7460
12.683384 0.7690 0.7870 0.8070 0.8300 0.8540
12.717000 0.8780 0.9030 0.9150 0.9220 0.9280
12.750384 0.9330 0.9360 0.9410 0.9460 0.9560
12.783000 0.9600 0.9630 0.9650 0.9650 0.9660
12.816384 0.9660 0.9660 0.9650 0.9630 0.9610
12.850000 0.9580 0.9560 0.9510 0.9380 0.9220
12.883384 0.9130 0.9020 0.8850 0.8620 0.8340
12.917000 0.8150 0.8090 0.8020 0.7960 0.7960
12.950384 0.8040 0.8140 0.8170 0.8270 0.8370
12.984000 0.8450 0.8520 0.8590 0.8650 0.8730
13.017384 0.8820 0.8880 0.8950 0.9020 0.9050
13.050000 0.9070 0.9120 0.9150 0.9170 0.9200
13.083384 0.9230 0.9270 0.9300 0.9300 0.9320
13.117000 0.9320 0.9330 0.9350 0.9350 0.9360
13.150384 0.9380 0.9380 0.9380 0.9360 0.9350
13.184000 0.9350 0.9330 0.9320 0.9280 0.9270
13.217384 0.9250 0.9220 0.9200 0.9180 0.9170
13.251000 0.9150 0.9050 0.9000 0.8980 0.8950
13.284384 0.8900 0.8780 0.8700 0.8570 0.8490
13.317000 0.8350 0.8220 0.8190 0.8090 0.7970
13.350384 0.7860 0.7670 0.7460 0.6980 0.6610
13.384000 0.6250 0.5880 0.5520 0.5170 0.4750
13.417384 0.3890 0.3460 0.3030 0.2650 0.2320
13.451000 0.2030 0.1640 0.1440 0.1310 0.1210
13.484384 0.1140 0.0970 0.0920 0.0870 0.0810
13.517000 0.0790 0.0760 0.0740 0.0720 0.0720
13.550384 0.0710 0.0710 0.0690 0.0710 0.0720
13.584000 0.0790 0.0890 0.1010 0.1160 0.1340
13.617384 0.1550 0.1840 0.1990 0.2130 0.2450
13.651000 0.2810 0.3200 0.3580 0.3960 0.4270
13.684384 0.4560 0.4720 0.4890 0.5190 0.5430
13.718000 0.5650 0.5850 0.6030 0.6230 0.6430
13.751384 0.6630 0.6760 0.6860 0.6980 0.7030
13.784000 0.7140 0.7260 0.7340 0.7420 0.7510
13.817384 0.7570 0.7640 0.7710 0.7760 0.7840
13.851000 0.7920 0.7940 0.7970 0.8000 0.8000
13.884384 0.7990 0.7990 0.7970 0.7960 0.7910
13.918000 0.7870 0.7860 0.7740 0.7560 0.7330
13.951384 0.7190 0.6930 0.6860 0.6860 0.6980
13.985000 0.6990 0.6980 0.6960 0.6910 0.6740
14.018384 0.6510 0.6250 0.5950 0.5480 0.5150
14.051000 0.4670 0.3640 0.3180 0.2850 0.2680
14.084384 0.2480 0.2380 0.2370 0.2370 0.2380
14.118000 0.2710 0.3050 0.3410 0.3790 0.4170
14.151384 0.4590 0.4790 0.4990 0.5370 0.5730
14.185000 0.6080 0.6380 0.6630 0.6830 0.7010
14.218384 0.7230 0.7340 0.7440 0.7620 0.7810
14.252000 0.7960 0.8070 0.8140 0.8200 0.8320
14.285384 0.8440 0.8500 0.8570 0.8620 0.8680
14.318000 0.8730 0.8770 0.8800 0.8830 0.8900
14.351384 0.8920 0.8950 0.8970 0.9020 0.9030
14.385000 0.9050 0.9070 0.9080 0.9120 0.9130
14.418384 0.9150 0.9180 0.9200 0.9220 0.9230
14.452000 0.9250 0.9270 0.9280 0.9280 0.9300
14.485384 0.9300 0.9320 0.9330 0.9330 0.9380
14.518000 0.9380 0.9380 0.9400 0.9400 0.9400
14.551384 0.9410 0.9430 0.9430 0.9450 0.9450
14.585000 0.9460 0.9480 0.9480 0.9500 0.9510
14.618384 0.9510 0.9530 0.9530 0.9530 0.9550
14.652000 0.9550 0.9550 0.9550 0.9560 0.9560
14.685384 0.9560 0.9560 0.9580 0.9580 0.9580
14.719000 0.9600 0.9600 0.9600 0.9600 0.9610
14.752384 0.9610 0.9610 0.9610 0.9630 0.9630
14.785000 0.9630 0.9630 0.9630 0.9630 0.9630
14.818384 0.9630 0.9610 0.9610 0.9610 0.9610
14.852000 0.9610 0.9600 0.9600 0.9600 0.9600
14.885384 0.9600 0.9580 0.9580 0.9560 0.9560
14.919000 0.9550 0.9550 0.9530 0.9510 0.9460
14.952384 0.9410 0.9360 0.9330 0.9320 0.9280
14.986000 0.9250 0.9220 0.9170 0.9080 0.8980
15.019384 0.8900 0.8680 0.8390 0.8270 0.8150
15.052000 0.8050 0.8000 0.7990 0.7990 0.8000
15.085384 0.8040 0.8090 0.8150 0.8200 0.8290
15.119000 0.8370 0.8500 0.8640 0.8680 0.8730
15.152384 0.8820 0.8930 0.9000 0.9050 0.9080
15.186000 0.9130 0.9170 0.9200 0.9250 0.9280
15.219384 0.9300 0.9300 0.9320 0.9320 0.9350
15.253000 0.9360 0.9360 0.9400 0.9410 0.9430
15.286384 0.9430 0.9450 0.9450 0.9450 0.9450
15.319000 0.9450 0.9450 0.9460 0.9460 0.9480
15.352384 0.9500 0.9500 0.9500 0.9500 0.9500
15.386000 0.9510 0.9510 0.9510 0.9510 0.9530
15.419384 0.9530 0.9530 0.9530 0.9530 0.9530
15.453000 0.9530 0.9530 0.9530 0.9530 0.9550
15.486384 0.9550 0.9550 0.9550 0.9560 0.9560
15.520000 0.9560 0.9560 0.9580 0.9600 0.9600
15.553384 0.9610 0.9610 0.9610 0.9630 0.9630
15.586000 0.9630 0.9630 0.9630 0.9610 0.9610
15.619384 0.9610 0.9610 0.9600 0.9600 0.9600
15.653000 0.9600 0.9600 0.9600 0.9610 0.9610
15.686384 0.9630 0.9630 0.9630 0.9630 0.9630
15.720000 0.9610 0.9610 0.9600 0.9600 0.9600
15.753384 0.9600 0.9600 0.9580 0.9560 0.9530
15.786000 0.9530 0.9510 0.9510 0.9510 0.9510
15.819384 0.9510 0.9510 0.9530 0.9550 0.9560
15.853000 0.9560 0.9560 0.9560
##END=
