##TITLE=1-METHYL-PHENANTHRENE
##JCAMP-DX=4.24
##DATA TYPE=INFRARED SPECTRUM
##CLASS=COBLENTZ
##ORIGIN=CENTRE D'ETUDES NUCLEAIRES DE GRENOBLE
##OWNER=COBLENTZ SOCIETY
Collection (C) 2018 copyright by the U.S. Secretary of Commerce
on behalf of the United States of America. All rights reserved.
##DATE=Not specified, most likely prior to 1970
##NAMES=1-methylphenanthrene
##CAS REGISTRY NO=832-69-9
##MOLFORM=C15 H12
##SOURCE REFERENCE=COBLENTZ NO. 4226
##$NIST SOURCE=COBLENTZ
##$NIST IMAGE=cob4226
##SPECTROMETER/DATA SYSTEM=Not specified, most likely a prism, grating, or hybrid spectrometer.
##STATE=SOLID (1% IN KI)
##PATH LENGTH=
$$PURITY 99%
##SAMPLING PROCEDURE=TRANSMISSION
##RESOLUTION=4
##DATA PROCESSING=DIGITIZED BY NIST FROM HARD COPY
##XUNITS=MICROMETERS
##YUNITS=TRANSMITTANCE
##XFACTOR=1.000000
##YFACTOR=1
##DELTAX=000.006687
##FIRSTX=1.99
##LASTX=15.8798
##FIRSTY=0.421
##MAXX=15.8798
##MINX=1.99
##MAXY=1.006
##MINY=0.02
##NPOINTS=2078
##XYDATA=(X++(Y..Y))
1.990000 0.4210 0.4250 0.4260 0.4260 0.4280
2.023452 0.4300 0.4310 0.4310 0.4330 0.4350
2.057000 0.4360 0.4360 0.4400 0.4400 0.4410
2.090452 0.4430 0.4450 0.4460 0.4480 0.4500
2.124000 0.4510 0.4530 0.4530 0.4550 0.4550
2.157452 0.4560 0.4560 0.4580 0.4600 0.4610
2.191000 0.4630 0.4650 0.4680 0.4680 0.4700
2.224452 0.4700 0.4710 0.4710 0.4730 0.4750
2.258000 0.4760 0.4780 0.4810 0.4830 0.4850
2.291452 0.4850 0.4860 0.4880 0.4900 0.4900
2.325000 0.4910 0.4930 0.4930 0.4950 0.4950
2.358452 0.4960 0.5000 0.5030 0.5050 0.5050
2.391000 0.5050 0.5060 0.5060 0.5080 0.5080
2.424452 0.5100 0.5110 0.5150 0.5160 0.5180
2.458000 0.5180 0.5200 0.5210 0.5230 0.5250
2.491452 0.5260 0.5280 0.5300 0.5300 0.5300
2.525000 0.5300 0.5310 0.5310 0.5330 0.5330
2.558452 0.5350 0.5360 0.5380 0.5400 0.5400
2.592000 0.5410 0.5410 0.5430 0.5430 0.5460
2.625452 0.5460 0.5460 0.5450 0.5410 0.5400
2.659000 0.5380 0.5360 0.5380 0.5410 0.5500
2.692452 0.5530 0.5560 0.5600 0.5610 0.5650
2.726000 0.5660 0.5680 0.5700 0.5710 0.5710
2.759452 0.5710 0.5730 0.5730 0.5730 0.5750
2.793000 0.5750 0.5750 0.5750 0.5750 0.5750
2.826452 0.5730 0.5730 0.5710 0.5710 0.5710
2.860000 0.5700 0.5700 0.5700 0.5680 0.5680
2.893452 0.5680 0.5680 0.5680 0.5680 0.5700
2.926000 0.5700 0.5700 0.5710 0.5730 0.5750
2.959452 0.5780 0.5800 0.5830 0.5860 0.5880
2.993000 0.5930 0.5950 0.6000 0.6010 0.6030
3.026452 0.6050 0.6060 0.6080 0.6100 0.6110
3.060000 0.6150 0.6180 0.6200 0.6210 0.6230
3.093452 0.6250 0.6260 0.6300 0.6310 0.6330
3.127000 0.6350 0.6360 0.6380 0.6400 0.6410
3.160452 0.6450 0.6460 0.6480 0.6480 0.6500
3.194000 0.6510 0.6510 0.6530 0.6550 0.6550
3.227452 0.6530 0.6530 0.6510 0.6500 0.6480
3.261000 0.6400 0.6280 0.6110 0.5960 0.5800
3.294452 0.5350 0.5160 0.4960 0.4700 0.4660
3.328000 0.4680 0.4810 0.4900 0.4960 0.5050
3.361452 0.5150 0.5260 0.5430 0.5610 0.5630
3.395000 0.5630 0.5600 0.5460 0.5430 0.5410
3.428452 0.5360 0.5330 0.5310 0.5300 0.5310
3.461000 0.5360 0.5410 0.5460 0.5550 0.5650
3.494452 0.5730 0.5830 0.5910 0.5960 0.5980
3.528000 0.6050 0.6080 0.6110 0.6130 0.6210
3.561452 0.6310 0.6450 0.6560 0.6680 0.6750
3.595000 0.6800 0.6850 0.6880 0.6910 0.6930
3.628452 0.6960 0.7000 0.7010 0.7060 0.7080
3.662000 0.7100 0.7110 0.7110 0.7110 0.7130
3.695452 0.7130 0.7130 0.7150 0.7150 0.7160
3.729000 0.7160 0.7180 0.7180 0.7210 0.7250
3.762452 0.7260 0.7300 0.7310 0.7330 0.7350
3.796000 0.7350 0.7360 0.7360 0.7380 0.7380
3.829452 0.7400 0.7400 0.7410 0.7410 0.7430
3.863000 0.7430 0.7460 0.7480 0.7480 0.7500
3.896452 0.7500 0.7500 0.7510 0.7510 0.7510
3.930000 0.7530 0.7530 0.7530 0.7550 0.7550
3.963452 0.7560 0.7560 0.7560 0.7580 0.7580
3.996000 0.7600 0.7600 0.7600 0.7600 0.7600
4.029452 0.7600 0.7600 0.7600 0.7610 0.7610
4.063000 0.7630 0.7630 0.7630 0.7650 0.7650
4.096452 0.7650 0.7660 0.7660 0.7660 0.7680
4.130000 0.7680 0.7680 0.7700 0.7710 0.7730
4.163452 0.7730 0.7750 0.7760 0.7780 0.7780
4.197000 0.7800 0.7800 0.7800 0.7810 0.7830
4.230452 0.7860 0.7860 0.7880 0.7880 0.7860
4.264000 0.7860 0.7850 0.7810 0.7760 0.7700
4.297452 0.7650 0.7630 0.7630 0.7650 0.7650
4.331000 0.7660 0.7660 0.7660 0.7660 0.7680
4.364452 0.7710 0.7730 0.7780 0.7810 0.7860
4.398000 0.7900 0.7930 0.7960 0.8000 0.8030
4.431452 0.8030 0.8030 0.8050 0.8050 0.8060
4.465000 0.8060 0.8060 0.8080 0.8080 0.8100
4.498452 0.8110 0.8110 0.8130 0.8130 0.8150
4.531000 0.8150 0.8160 0.8180 0.8180 0.8180
4.564452 0.8180 0.8200 0.8200 0.8200 0.8200
4.598000 0.8200 0.8210 0.8210 0.8210 0.8210
4.631452 0.8210 0.8230 0.8230 0.8230 0.8250
4.665000 0.8250 0.8250 0.8260 0.8260 0.8260
4.698452 0.8280 0.8280 0.8300 0.8300 0.8310
4.732000 0.8310 0.8350 0.8350 0.8350 0.8360
4.765452 0.8360 0.8360 0.8360 0.8380 0.8380
4.799000 0.8380 0.8380 0.8380 0.8400 0.8410
4.832452 0.8410 0.8410 0.8430 0.8430 0.8430
4.866000 0.8430 0.8450 0.8450 0.8450 0.8460
4.899452 0.8460 0.8480 0.8480 0.8480 0.8500
4.933000 0.8500 0.8500 0.8510 0.8510 0.8510
4.966452 0.8530 0.8530 0.8530 0.8530 0.8550
4.999000 0.8550 0.8550 0.8550 0.8560 0.8560
5.032452 0.8560 0.8580 0.8580 0.8580 0.8580
5.066000 0.8600 0.8600 0.8600 0.8600 0.8600
5.099452 0.8600 0.8600 0.8580 0.8580 0.8550
5.133000 0.8530 0.8460 0.8410 0.8330 0.8260
5.166452 0.8210 0.8030 0.8010 0.8010 0.8030
5.200000 0.8050 0.8060 0.8050 0.8010 0.7960
5.233452 0.7810 0.7700 0.7680 0.7710 0.7810
5.267000 0.7960 0.8010 0.8080 0.8130 0.8210
5.300452 0.8300 0.8350 0.8350 0.8310 0.8300
5.334000 0.8280 0.8280 0.8330 0.8410 0.8550
5.367452 0.8600 0.8630 0.8700 0.8710 0.8700
5.401000 0.8680 0.8650 0.8610 0.8600 0.8580
5.434452 0.8580 0.8550 0.8530 0.8510 0.8510
5.468000 0.8500 0.8480 0.8460 0.8400 0.8360
5.501452 0.8350 0.8280 0.8260 0.8280 0.8330
5.534000 0.8430 0.8480 0.8500 0.8500 0.8500
5.567452 0.8500 0.8480 0.8480 0.8480 0.8450
5.601000 0.8430 0.8410 0.8400 0.8380 0.8350
5.634452 0.8330 0.8310 0.8310 0.8330 0.8460
5.668000 0.8510 0.8510 0.8430 0.8180 0.8150
5.701452 0.8150 0.8210 0.8300 0.8380 0.8480
5.735000 0.8560 0.8580 0.8600 0.8600 0.8580
5.768452 0.8580 0.8550 0.8530 0.8510 0.8500
5.802000 0.8400 0.8300 0.8280 0.8300 0.8380
5.835452 0.8410 0.8450 0.8480 0.8510 0.8510
5.869000 0.8530 0.8510 0.8480 0.8410 0.8380
5.902452 0.8360 0.8350 0.8330 0.8300 0.8250
5.936000 0.8160 0.8150 0.8130 0.8150 0.8180
5.969452 0.8210 0.8260 0.8310 0.8350 0.8400
6.003000 0.8410 0.8450 0.8460 0.8480 0.8500
6.036452 0.8500 0.8500 0.8510 0.8530 0.8530
6.069000 0.8530 0.8510 0.8510 0.8500 0.8330
6.102452 0.8300 0.8280 0.8260 0.8260 0.8280
6.136000 0.8300 0.8300 0.8280 0.8260 0.8210
6.169452 0.8160 0.8080 0.7930 0.7800 0.7680
6.203000 0.7600 0.7560 0.7550 0.7530 0.7530
6.236452 0.7480 0.7410 0.7350 0.7260 0.6960
6.270000 0.6760 0.6380 0.5810 0.5600 0.5600
6.303452 0.5960 0.6000 0.6400 0.6650 0.7000
6.337000 0.7510 0.7680 0.7810 0.7930 0.8050
6.370452 0.8130 0.8200 0.8260 0.8300 0.8330
6.404000 0.8330 0.8400 0.8460 0.8510 0.8550
6.437452 0.8560 0.8560 0.8550 0.8530 0.8510
6.471000 0.8460 0.8410 0.8380 0.8410 0.8510
6.504452 0.8660 0.8700 0.8680 0.8630 0.8580
6.538000 0.8530 0.8480 0.8450 0.8460 0.8500
6.571452 0.8530 0.8530 0.8530 0.8510 0.8480
6.604000 0.8460 0.8450 0.8400 0.8300 0.8230
6.637452 0.8230 0.8250 0.8350 0.8450 0.8460
6.671000 0.8500 0.8510 0.8510 0.8430 0.8130
6.704452 0.7900 0.7750 0.7510 0.7300 0.7060
6.738000 0.6730 0.6250 0.6250 0.6550 0.6830
6.771452 0.7110 0.7280 0.7930 0.8080 0.8180
6.805000 0.8310 0.8510 0.8530 0.8530 0.8510
6.838452 0.8060 0.7400 0.7110 0.6830 0.6510
6.872000 0.6200 0.6130 0.6110 0.6110 0.6100
6.905452 0.6080 0.6050 0.6010 0.5930 0.5810
6.939000 0.5630 0.5430 0.5210 0.5030 0.4900
6.972452 0.4780 0.4650 0.4610 0.4610 0.4900
7.006000 0.5000 0.5050 0.5060 0.5060 0.5080
7.039452 0.5150 0.5300 0.5510 0.5880 0.6360
7.073000 0.6460 0.6560 0.6660 0.6800 0.6960
7.106452 0.7150 0.7610 0.7900 0.8030 0.8150
7.139000 0.8250 0.8330 0.8400 0.8430 0.8430
7.172452 0.8460 0.8550 0.8560 0.8560 0.8560
7.206000 0.8550 0.8500 0.8360 0.8210 0.8030
7.239452 0.7860 0.7680 0.7500 0.7310 0.7000
7.273000 0.6960 0.6980 0.7010 0.7210 0.7300
7.306452 0.7500 0.7610 0.7750 0.7900 0.8030
7.340000 0.8160 0.8310 0.8450 0.8560 0.8660
7.373452 0.8700 0.8730 0.8750 0.8760 0.8780
7.407000 0.8810 0.8830 0.8850 0.8850 0.8860
7.440452 0.8860 0.8860 0.8860 0.8860 0.8860
7.474000 0.8860 0.8880 0.8910 0.8930 0.8950
7.507452 0.8950 0.8950 0.8950 0.8950 0.8950
7.541000 0.8950 0.8950 0.8960 0.8980 0.9010
7.574452 0.9050 0.9080 0.9100 0.9110 0.9110
7.608000 0.9130 0.9130 0.9130 0.9130 0.9130
7.641452 0.9130 0.9110 0.9000 0.8880 0.8730
7.674000 0.8580 0.8480 0.8400 0.8360 0.8310
7.707452 0.7980 0.7960 0.7650 0.7530 0.7380
7.741000 0.7210 0.7210 0.7800 0.7930 0.8080
7.774452 0.8230 0.8350 0.8480 0.8600 0.8650
7.808000 0.8730 0.8750 0.8750 0.8760 0.8810
7.841452 0.8860 0.8880 0.8900 0.8900 0.8910
7.875000 0.8930 0.8960 0.8980 0.8980 0.9000
7.908452 0.9000 0.9000 0.8980 0.8960 0.8900
7.942000 0.8850 0.8780 0.8730 0.8730 0.8850
7.975452 0.9030 0.9080 0.9110 0.9130 0.9130
8.009000 0.9130 0.9110 0.8860 0.8600 0.8300
8.042452 0.7580 0.7360 0.7130 0.6110 0.6030
8.076000 0.6030 0.6280 0.6660 0.6880 0.7130
8.109452 0.7730 0.8010 0.8300 0.8510 0.8660
8.142000 0.8730 0.8850 0.8900 0.8900 0.8880
8.175452 0.8880 0.8860 0.8800 0.8730 0.8650
8.209000 0.8510 0.8360 0.8160 0.7910 0.7600
8.242452 0.7580 0.7610 0.7910 0.8210 0.8460
8.276000 0.8500 0.8410 0.8280 0.8160 0.8030
8.309452 0.8010 0.8030 0.8210 0.8380 0.8560
8.343000 0.8650 0.8760 0.8800 0.8750 0.8700
8.376452 0.8650 0.8580 0.8560 0.8600 0.8750
8.410000 0.8880 0.8950 0.9010 0.9050 0.9100
8.443452 0.9150 0.9160 0.9160 0.9160 0.9150
8.477000 0.9130 0.9110 0.9080 0.9030 0.8980
8.510452 0.8750 0.8580 0.8580 0.8680 0.8950
8.544000 0.8960 0.9080 0.9100 0.9080 0.8950
8.577452 0.8800 0.8630 0.8530 0.8430 0.8350
8.611000 0.8350 0.8410 0.8480 0.8600 0.8600
8.644452 0.8560 0.8330 0.8030 0.8010 0.8030
8.677000 0.8230 0.8260 0.8360 0.8580 0.8600
8.710452 0.8580 0.8210 0.8000 0.7710 0.7650
8.744000 0.7650 0.7880 0.8110 0.8350 0.8480
8.777452 0.8730 0.8900 0.9050 0.9060 0.9050
8.811000 0.8930 0.8880 0.8700 0.8530 0.8150
8.844452 0.8030 0.8030 0.8110 0.8280 0.8350
8.878000 0.8430 0.8530 0.8650 0.8760 0.8860
8.911452 0.8960 0.9060 0.9130 0.9160 0.9200
8.945000 0.9210 0.9230 0.9230 0.9230 0.9230
8.978452 0.9230 0.9250 0.9260 0.9280 0.9280
9.012000 0.9280 0.9280 0.9280 0.9280 0.9280
9.045452 0.9280 0.9280 0.9280 0.9280 0.9280
9.079000 0.9260 0.9260 0.9250 0.9250 0.9280
9.112452 0.9280 0.9300 0.9330 0.9350 0.9360
9.146000 0.9400 0.9410 0.9410 0.9410 0.9400
9.179452 0.9400 0.9400 0.9380 0.9380 0.9350
9.212000 0.9330 0.9310 0.9300 0.9280 0.9280
9.245452 0.9250 0.9230 0.9200 0.9100 0.9000
9.279000 0.8900 0.8880 0.8900 0.9010 0.9130
9.312452 0.9210 0.9280 0.9310 0.9350 0.9360
9.346000 0.9410 0.9430 0.9460 0.9460 0.9450
9.379452 0.9450 0.9430 0.9430 0.9380 0.9360
9.413000 0.9360 0.9380 0.9380 0.9400 0.9400
9.446452 0.9410 0.9430 0.9450 0.9450 0.9460
9.480000 0.9460 0.9510 0.9550 0.9550 0.9550
9.513452 0.9560 0.9560 0.9560 0.9560 0.9560
9.547000 0.9560 0.9550 0.9530 0.9400 0.9230
9.580452 0.9080 0.8930 0.8810 0.8700 0.8580
9.614000 0.8350 0.8210 0.8130 0.8050 0.8010
9.647452 0.7950 0.7930 0.7910 0.7910 0.7860
9.681000 0.7850 0.7760 0.7680 0.7550 0.7450
9.714452 0.7350 0.7330 0.7300 0.7280 0.7310
9.747000 0.8050 0.8350 0.8560 0.8730 0.8850
9.780452 0.8950 0.9010 0.9080 0.9130 0.9210
9.814000 0.9300 0.9330 0.9350 0.9360 0.9360
9.847452 0.9380 0.9400 0.9400 0.9410 0.9430
9.881000 0.9450 0.9460 0.9500 0.9510 0.9530
9.914452 0.9550 0.9550 0.9550 0.9530 0.9510
9.948000 0.9500 0.9380 0.9280 0.9210 0.9130
9.981452 0.8930 0.8780 0.8730 0.8580 0.8260
10.015000 0.8260 0.8380 0.8410 0.8480 0.8480
10.048452 0.8500 0.8500 0.8500 0.8480 0.8500
10.082000 0.8630 0.8760 0.8930 0.9060 0.9160
10.115452 0.9230 0.9280 0.9330 0.9350 0.9360
10.149000 0.9360 0.9380 0.9400 0.9410 0.9450
10.182452 0.9500 0.9510 0.9510 0.9510 0.9530
10.216000 0.9530 0.9530 0.9530 0.9530 0.9530
10.249452 0.9530 0.9530 0.9530 0.9510 0.9500
10.282000 0.9460 0.9430 0.9400 0.9380 0.9380
10.315452 0.9410 0.9450 0.9460 0.9460 0.9450
10.349000 0.9430 0.9410 0.9360 0.9330 0.9300
10.382452 0.9260 0.9230 0.9210 0.9230 0.9250
10.416000 0.9260 0.9300 0.9330 0.9360 0.9380
10.449452 0.9450 0.9460 0.9500 0.9530 0.9530
10.483000 0.9510 0.9450 0.9210 0.8930 0.8400
10.516452 0.7860 0.7700 0.7530 0.7380 0.7400
10.550000 0.7600 0.7830 0.8030 0.8200 0.8350
10.583452 0.8480 0.8600 0.8730 0.8830 0.8930
10.617000 0.9030 0.9130 0.9250 0.9350 0.9450
10.650452 0.9560 0.9680 0.9730 0.9750 0.9760
10.684000 0.9780 0.9800 0.9850 0.9880 0.9910
10.717452 0.9960 1.0010 1.0010 1.0010 1.0010
10.751000 1.0000 1.0000 1.0000 0.9980 0.9980
10.784452 1.0000 1.0010 1.0010 1.0030 1.0030
10.817000 1.0030 1.0050 1.0050 1.0050 1.0050
10.850452 1.0050 1.0030 1.0030 1.0030 1.0030
10.884000 1.0010 1.0000 0.9980 0.9960 0.9950
10.917452 0.9900 0.9860 0.9800 0.9760 0.9710
10.951000 0.9660 0.9650 0.9630 0.9650 0.9680
10.984452 0.9730 0.9760 0.9780 0.9810 0.9830
11.018000 0.9850 0.9860 0.9880 0.9900 0.9910
11.051452 0.9930 0.9960 0.9980 1.0010 1.0010
11.085000 1.0010 1.0000 1.0000 0.9980 0.9960
11.118452 0.9900 0.9860 0.9850 0.9830 0.9830
11.152000 0.9810 0.9800 0.9760 0.9750 0.9700
11.185452 0.9660 0.9600 0.9400 0.9260 0.9150
11.219000 0.9000 0.8810 0.8510 0.8110 0.7530
11.252452 0.7130 0.6730 0.6110 0.5700 0.5460
11.285000 0.5280 0.5250 0.5180 0.5060 0.4760
11.318452 0.4680 0.4580 0.4480 0.4480 0.5560
11.352000 0.6260 0.6830 0.7300 0.7960 0.8180
11.385452 0.8310 0.8410 0.8480 0.8510 0.8530
11.419000 0.8600 0.8660 0.8810 0.8950 0.9010
11.452452 0.9100 0.9230 0.9260 0.9300 0.9300
11.486000 0.9230 0.9080 0.8950 0.8700 0.8600
11.519452 0.8400 0.8180 0.7950 0.7750 0.7600
11.553000 0.7430 0.7410 0.7430 0.7600 0.7730
11.586452 0.8010 0.8230 0.8430 0.8610 0.8780
11.620000 0.8930 0.9060 0.9210 0.9360 0.9400
11.653452 0.9460 0.9480 0.9460 0.9400 0.9350
11.687000 0.9150 0.8900 0.8650 0.8480 0.8450
11.720452 0.8280 0.8250 0.8260 0.8350 0.8580
11.754000 0.8680 0.8730 0.8760 0.8780 0.8800
11.787452 0.8810 0.8850 0.8910 0.9010 0.9160
11.820000 0.9360 0.9450 0.9530 0.9600 0.9660
11.853452 0.9730 0.9780 0.9810 0.9850 0.9860
11.887000 0.9880 0.9910 0.9930 0.9960 1.0050
11.920452 1.0060 1.0060 1.0050 1.0050 1.0030
11.954000 1.0030 1.0030 1.0010 1.0010 1.0000
11.987452 1.0000 1.0000 0.9980 0.9960 0.9930
12.021000 0.9910 0.9900 0.9900 0.9880 0.9850
12.054452 0.9730 0.9630 0.9560 0.9500 0.9430
12.088000 0.9360 0.9260 0.9110 0.8910 0.8660
12.121452 0.8310 0.7900 0.7360 0.7050 0.6730
12.155000 0.5950 0.5200 0.4750 0.4480 0.4200
12.188452 0.3710 0.3330 0.2950 0.2810 0.2700
12.222000 0.2680 0.2680 0.2710 0.3160 0.3430
12.255452 0.3810 0.4180 0.4580 0.5360 0.5760
12.289000 0.6160 0.6560 0.6960 0.7730 0.7950
12.322452 0.8160 0.8310 0.8460 0.8630 0.8660
12.355000 0.8700 0.8680 0.8350 0.7960 0.7910
12.388452 0.7510 0.7110 0.5930 0.4730 0.4280
12.422000 0.3830 0.3300 0.3230 0.2950 0.2860
12.455452 0.2760 0.2750 0.2750 0.2780 0.2810
12.489000 0.2930 0.2980 0.3160 0.4330 0.5230
12.522452 0.5660 0.6100 0.6550 0.6960 0.7700
12.556000 0.8000 0.8210 0.8430 0.8610 0.8780
12.589452 0.8910 0.9050 0.9130 0.9200 0.9230
12.623000 0.9260 0.9260 0.9260 0.9260 0.9250
12.656452 0.9250 0.9210 0.9180 0.9180 0.9200
12.690000 0.9210 0.9250 0.9280 0.9300 0.9310
12.723452 0.9330 0.9330 0.9350 0.9360 0.9400
12.757000 0.9430 0.9450 0.9460 0.9480 0.9510
12.790452 0.9530 0.9610 0.9630 0.9630 0.9630
12.824000 0.9550 0.9410 0.9330 0.9280 0.9250
12.857452 0.9230 0.9250 0.9280 0.9300 0.9330
12.890000 0.9380 0.9430 0.9500 0.9560 0.9600
12.923452 0.9610 0.9630 0.9630 0.9580 0.9460
12.957000 0.9400 0.9360 0.9330 0.9230 0.9160
12.990452 0.9150 0.9030 0.8810 0.8500 0.8130
13.024000 0.7710 0.7480 0.7250 0.6750 0.6250
13.057452 0.5750 0.5250 0.4760 0.4530 0.4300
13.091000 0.4250 0.4200 0.4130 0.4080 0.4060
13.124452 0.4060 0.4050 0.3980 0.3910 0.3830
13.158000 0.3750 0.3730 0.3730 0.3760 0.3860
13.191452 0.4000 0.4130 0.4300 0.4480 0.4880
13.225000 0.4960 0.5030 0.5030 0.5010 0.5000
13.258452 0.4950 0.4810 0.4710 0.4610 0.4330
13.292000 0.4030 0.3680 0.3330 0.2980 0.2610
13.325452 0.2280 0.2150 0.2000 0.1730 0.1530
13.359000 0.1400 0.1180 0.0960 0.0850 0.0750
13.392452 0.0660 0.0580 0.0500 0.0430 0.0380
13.425000 0.0330 0.0300 0.0280 0.0250 0.0210
13.458452 0.0200 0.0200 0.0210 0.0300 0.0400
13.492000 0.0530 0.0730 0.1000 0.1350 0.1800
13.525452 0.2530 0.2900 0.3230 0.3580 0.3900
13.559000 0.4200 0.4480 0.5010 0.5250 0.5450
13.592452 0.5610 0.5760 0.5910 0.6060 0.6230
13.626000 0.6360 0.6510 0.6650 0.6780 0.6900
13.659452 0.7010 0.7110 0.7180 0.7230 0.7550
13.693000 0.7710 0.7850 0.7880 0.7950 0.7980
13.726452 0.8010 0.8100 0.8130 0.8160 0.8180
13.760000 0.8150 0.8030 0.7780 0.7380 0.7110
13.793452 0.6850 0.6230 0.5580 0.4880 0.4550
13.827000 0.4200 0.3530 0.2950 0.2460 0.2080
13.860452 0.1980 0.1860 0.1610 0.1600 0.1610
13.894000 0.1950 0.2880 0.3330 0.3800 0.4260
13.927452 0.5130 0.5550 0.5930 0.6280 0.6610
13.960000 0.6910 0.7160 0.7530 0.7660 0.7850
13.993452 0.7950 0.8000 0.8010 0.8010 0.8010
14.027000 0.7980 0.7910 0.7810 0.7710 0.7580
14.060452 0.7450 0.7350 0.7300 0.7230 0.7150
14.094000 0.7080 0.7010 0.7000 0.6980 0.6980
14.127452 0.7010 0.7180 0.7460 0.7600 0.7750
14.161000 0.7860 0.8000 0.8110 0.8210 0.8330
14.194452 0.8410 0.8510 0.8600 0.8660 0.8730
14.228000 0.8830 0.8900 0.8960 0.9000 0.9030
14.261452 0.9080 0.9110 0.9150 0.9180 0.9230
14.295000 0.9260 0.9280 0.9300 0.9300 0.9300
14.328452 0.9300 0.9300 0.9280 0.9280 0.9280
14.362000 0.9280 0.9280 0.9300 0.9310 0.9330
14.395452 0.9350 0.9380 0.9400 0.9430 0.9460
14.428000 0.9480 0.9500 0.9500 0.9510 0.9510
14.461452 0.9510 0.9510 0.9510 0.9500 0.9460
14.495000 0.9460 0.9450 0.9410 0.9400 0.9400
14.528452 0.9410 0.9410 0.9430 0.9430 0.9450
14.562000 0.9480 0.9510 0.9530 0.9530 0.9550
14.595452 0.9550 0.9560 0.9580 0.9580 0.9560
14.629000 0.9560 0.9550 0.9550 0.9530 0.9530
14.662452 0.9530 0.9530 0.9530 0.9530 0.9530
14.696000 0.9530 0.9550 0.9550 0.9580 0.9610
14.729452 0.9630 0.9650 0.9650 0.9610 0.9600
14.763000 0.9580 0.9550 0.9550 0.9530 0.9530
14.796452 0.9530 0.9530 0.9510 0.9510 0.9510
14.830000 0.9510 0.9530 0.9530 0.9550 0.9550
14.863452 0.9550 0.9580 0.9580 0.9650 0.9680
14.897000 0.9680 0.9700 0.9710 0.9710 0.9710
14.930452 0.9700 0.9700 0.9680 0.9680 0.9630
14.963000 0.9600 0.9580 0.9580 0.9550 0.9510
14.996452 0.9410 0.9350 0.9310 0.9280 0.9300
15.030000 0.9330 0.9400 0.9450 0.9500 0.9510
15.063452 0.9530 0.9550 0.9560 0.9580 0.9580
15.097000 0.9600 0.9600 0.9600 0.9600 0.9580
15.130452 0.9580 0.9560 0.9560 0.9550 0.9550
15.164000 0.9550 0.9550 0.9550 0.9560 0.9560
15.197452 0.9580 0.9600 0.9610 0.9630 0.9650
15.231000 0.9660 0.9660 0.9650 0.9650 0.9650
15.264452 0.9650 0.9630 0.9610 0.9610 0.9600
15.298000 0.9560 0.9530 0.9510 0.9500 0.9460
15.331452 0.9450 0.9450 0.9460 0.9480 0.9510
15.365000 0.9560 0.9600 0.9630 0.9630 0.9650
15.398452 0.9660 0.9660 0.9650 0.9600 0.9580
15.432000 0.9560 0.9510 0.9500 0.9460 0.9400
15.465452 0.9360 0.9300 0.9300 0.9250 0.9210
15.498000 0.9180 0.9180 0.9160 0.9160 0.9180
15.531452 0.9180 0.9200 0.9210 0.9230 0.9250
15.565000 0.9260 0.9260 0.9260 0.9280 0.9280
15.598452 0.9300 0.9300 0.9310 0.9330 0.9360
15.632000 0.9380 0.9400 0.9400 0.9410 0.9410
15.665452 0.9430 0.9430 0.9450 0.9460 0.9480
15.699000 0.9500 0.9530 0.9530 0.9550 0.9560
15.732452 0.9560 0.9580 0.9600 0.9610 0.9610
15.766000 0.9630 0.9630 0.9650 0.9650 0.9630
15.799452 0.9630 0.9630 0.9610 0.9600 0.9580
15.833000 0.9550 0.9510 0.9500 0.9500 0.9480
15.866452 0.9480 0.9500 0.9480
##END=
