##TITLE=3-METHYL-PHENANTHRENE
##JCAMP-DX=4.24
##DATA TYPE=INFRARED SPECTRUM
##CLASS=COBLENTZ
##ORIGIN=CENTRE D'ETUDES NUCLEAIRES DE GRENOBLE
##OWNER=COBLENTZ SOCIETY
Collection (C) 2018 copyright by the U.S. Secretary of Commerce
on behalf of the United States of America. All rights reserved.
##DATE=Not specified, most likely prior to 1970
##NAMES=3-methylphenanthrene
##CAS REGISTRY NO=832-71-3
##MOLFORM=C15 H12
##SOURCE REFERENCE=COBLENTZ NO. 4211
##$NIST SOURCE=COBLENTZ
##$NIST IMAGE=cob4211
##SPECTROMETER/DATA SYSTEM=Not specified, most likely a prism, grating, or hybrid spectrometer.
##STATE=SOLID (1% IN KI)
##PATH LENGTH=
$$PURITY 99.5%
##SAMPLING PROCEDURE=TRANSMISSION
##RESOLUTION=4
##DATA PROCESSING=DIGITIZED BY NIST FROM HARD COPY
##XUNITS=MICROMETERS
##YUNITS=TRANSMITTANCE
##XFACTOR=1.000000
##YFACTOR=1
##DELTAX=000.006687
##FIRSTX=1.99
##LASTX=15.9
##FIRSTY=0.149
##MAXX=15.9
##MINX=1.99
##MAXY=0.998
##MINY=0.013
##NPOINTS=2081
##XYDATA=(X++(Y..Y))
1.990000 0.1490 0.1510 0.1510 0.1520 0.1540
2.023452 0.1540 0.1560 0.1560 0.1560 0.1570
2.057000 0.1570 0.1570 0.1610 0.1610 0.1620
2.090452 0.1620 0.1640 0.1660 0.1660 0.1670
2.124000 0.1670 0.1690 0.1720 0.1720 0.1740
2.157452 0.1740 0.1760 0.1760 0.1770 0.1770
2.191000 0.1790 0.1810 0.1820 0.1840 0.1840
2.224452 0.1860 0.1870 0.1870 0.1910 0.1920
2.258000 0.1920 0.1940 0.1940 0.1960 0.1960
2.291452 0.1970 0.1970 0.1990 0.2000 0.2020
2.325000 0.2040 0.2040 0.2050 0.2070 0.2090
2.358452 0.2090 0.2100 0.2120 0.2140 0.2150
2.391000 0.2170 0.2190 0.2190 0.2200 0.2220
2.424452 0.2240 0.2240 0.2250 0.2270 0.2290
2.458000 0.2300 0.2320 0.2340 0.2350 0.2370
2.491452 0.2390 0.2390 0.2400 0.2420 0.2440
2.525000 0.2450 0.2470 0.2490 0.2500 0.2520
2.558452 0.2540 0.2550 0.2570 0.2590 0.2600
2.592000 0.2620 0.2640 0.2650 0.2690 0.2700
2.625452 0.2700 0.2720 0.2720 0.2740 0.2750
2.659000 0.2770 0.2790 0.2790 0.2800 0.2820
2.692452 0.2820 0.2840 0.2850 0.2870 0.2890
2.726000 0.2900 0.2900 0.2920 0.2940 0.2950
2.759452 0.2970 0.2990 0.2990 0.3000 0.3000
2.793000 0.3020 0.3020 0.3020 0.3020 0.3020
2.826452 0.3020 0.3020 0.3020 0.3020 0.3020
2.860000 0.3020 0.3030 0.3030 0.3030 0.3050
2.893452 0.3050 0.3050 0.3070 0.3080 0.3080
2.926000 0.3100 0.3100 0.3120 0.3130 0.3170
2.959452 0.3180 0.3200 0.3230 0.3270 0.3300
2.993000 0.3300 0.3330 0.3350 0.3380 0.3400
3.026452 0.3450 0.3470 0.3470 0.3480 0.3500
3.060000 0.3500 0.3520 0.3530 0.3550 0.3570
3.093452 0.3580 0.3600 0.3600 0.3620 0.3630
3.127000 0.3650 0.3670 0.3670 0.3700 0.3720
3.160452 0.3730 0.3750 0.3770 0.3780 0.3800
3.194000 0.3820 0.3830 0.3870 0.3880 0.3900
3.227452 0.3920 0.3930 0.3950 0.3950 0.3920
3.261000 0.3880 0.3830 0.3780 0.3680 0.3530
3.294452 0.3250 0.2990 0.2870 0.2650 0.2640
3.328000 0.2650 0.2740 0.2800 0.2870 0.2950
3.361452 0.3030 0.3150 0.3300 0.3400 0.3470
3.395000 0.3470 0.3450 0.3430 0.3420 0.3400
3.428452 0.3380 0.3370 0.3350 0.3330 0.3320
3.461000 0.3320 0.3330 0.3370 0.3500 0.3580
3.494452 0.3670 0.3720 0.3750 0.3780 0.3820
3.528000 0.3830 0.3850 0.3870 0.3900 0.3930
3.561452 0.3980 0.4050 0.4130 0.4210 0.4280
3.595000 0.4350 0.4400 0.4450 0.4480 0.4510
3.628452 0.4530 0.4560 0.4580 0.4600 0.4610
3.662000 0.4610 0.4630 0.4650 0.4650 0.4660
3.695452 0.4680 0.4700 0.4700 0.4710 0.4710
3.729000 0.4730 0.4750 0.4800 0.4810 0.4830
3.762452 0.4830 0.4850 0.4860 0.4880 0.4880
3.796000 0.4900 0.4910 0.4930 0.4950 0.4950
3.829452 0.4960 0.4960 0.4980 0.4980 0.4980
3.863000 0.5000 0.5000 0.5010 0.5030 0.5030
3.896452 0.5040 0.5060 0.5080 0.5080 0.5090
3.930000 0.5110 0.5110 0.5130 0.5140 0.5140
3.963452 0.5160 0.5180 0.5180 0.5190 0.5230
3.996000 0.5240 0.5260 0.5280 0.5290 0.5290
4.029452 0.5310 0.5330 0.5340 0.5360 0.5360
4.063000 0.5380 0.5380 0.5380 0.5390 0.5390
4.096452 0.5390 0.5410 0.5410 0.5410 0.5430
4.130000 0.5430 0.5440 0.5460 0.5460 0.5480
4.163452 0.5490 0.5490 0.5510 0.5510 0.5530
4.197000 0.5540 0.5540 0.5560 0.5560 0.5580
4.230452 0.5590 0.5630 0.5660 0.5690 0.5730
4.264000 0.5740 0.5760 0.5760 0.5780 0.5780
4.297452 0.5760 0.5760 0.5740 0.5740 0.5730
4.331000 0.5710 0.5680 0.5640 0.5630 0.5610
4.364452 0.5590 0.5590 0.5610 0.5640 0.5660
4.398000 0.5690 0.5760 0.5810 0.5860 0.5860
4.431452 0.5880 0.5910 0.5910 0.5940 0.5960
4.465000 0.5960 0.5980 0.5980 0.5980 0.5990
4.498452 0.5990 0.5990 0.6010 0.6010 0.6010
4.531000 0.6020 0.6020 0.6020 0.6060 0.6070
4.564452 0.6070 0.6090 0.6090 0.6110 0.6120
4.598000 0.6120 0.6140 0.6140 0.6160 0.6170
4.631452 0.6190 0.6210 0.6210 0.6220 0.6240
4.665000 0.6260 0.6260 0.6270 0.6290 0.6310
4.698452 0.6310 0.6320 0.6320 0.6340 0.6360
4.732000 0.6370 0.6390 0.6390 0.6390 0.6410
4.765452 0.6410 0.6420 0.6420 0.6440 0.6460
4.799000 0.6460 0.6460 0.6470 0.6470 0.6470
4.832452 0.6490 0.6490 0.6490 0.6510 0.6510
4.866000 0.6510 0.6510 0.6510 0.6520 0.6540
4.899452 0.6540 0.6560 0.6570 0.6570 0.6590
4.933000 0.6620 0.6660 0.6670 0.6670 0.6670
4.966452 0.6690 0.6690 0.6690 0.6690 0.6710
4.999000 0.6710 0.6710 0.6720 0.6720 0.6720
5.032452 0.6740 0.6740 0.6760 0.6760 0.6760
5.066000 0.6770 0.6770 0.6790 0.6810 0.6820
5.099452 0.6840 0.6840 0.6840 0.6860 0.6860
5.133000 0.6820 0.6820 0.6790 0.6720 0.6660
5.166452 0.6610 0.6590 0.6570 0.6590 0.6610
5.200000 0.6620 0.6640 0.6640 0.6620 0.6560
5.233452 0.6560 0.6510 0.6490 0.6470 0.6490
5.267000 0.6510 0.6520 0.6560 0.6590 0.6620
5.300452 0.6660 0.6690 0.6720 0.6760 0.6810
5.334000 0.6840 0.6860 0.6940 0.6970 0.6990
5.367452 0.7020 0.7040 0.7070 0.7140 0.7150
5.401000 0.7150 0.7170 0.7170 0.7170 0.7170
5.434452 0.7150 0.7150 0.7140 0.7120 0.7100
5.468000 0.6970 0.6910 0.6870 0.6870 0.6940
5.501452 0.6970 0.6990 0.7000 0.7040 0.7050
5.534000 0.7050 0.7070 0.7070 0.7090 0.7090
5.567452 0.7100 0.7100 0.7100 0.7120 0.7140
5.601000 0.7140 0.7140 0.7150 0.7150 0.7150
5.634452 0.7170 0.7170 0.7170 0.7190 0.7190
5.668000 0.7200 0.7200 0.7200 0.7190 0.7150
5.701452 0.7150 0.7140 0.7140 0.7120 0.7100
5.735000 0.7100 0.7100 0.7100 0.7100 0.7120
5.768452 0.7120 0.7140 0.7150 0.7170 0.7170
5.802000 0.7190 0.7220 0.7240 0.7270 0.7290
5.835452 0.7290 0.7300 0.7300 0.7320 0.7340
5.869000 0.7340 0.7350 0.7350 0.7370 0.7390
5.902452 0.7390 0.7390 0.7390 0.7390 0.7400
5.936000 0.7400 0.7400 0.7390 0.7390 0.7370
5.969452 0.7370 0.7350 0.7340 0.7340 0.7320
6.003000 0.7320 0.7300 0.7300 0.7290 0.7290
6.036452 0.7300 0.7300 0.7320 0.7340 0.7350
6.069000 0.7370 0.7390 0.7400 0.7420 0.7420
6.102452 0.7420 0.7440 0.7440 0.7420 0.7400
6.136000 0.7400 0.7390 0.7350 0.7290 0.7220
6.169452 0.7150 0.7090 0.7020 0.6970 0.6670
6.203000 0.6090 0.6040 0.5810 0.5760 0.5760
6.236452 0.5940 0.6090 0.6170 0.6320 0.6340
6.270000 0.6340 0.5830 0.5290 0.5290 0.5940
6.303452 0.6360 0.6590 0.6760 0.6890 0.6990
6.337000 0.7100 0.7220 0.7350 0.7440 0.7490
6.370452 0.7540 0.7570 0.7590 0.7600 0.7600
6.404000 0.7600 0.7600 0.7600 0.7620 0.7640
6.437452 0.7650 0.7670 0.7670 0.7650 0.7650
6.471000 0.7620 0.7600 0.7590 0.7570 0.7540
6.504452 0.7500 0.7500 0.7490 0.7490 0.7490
6.538000 0.7500 0.7520 0.7520 0.7570 0.7590
6.571452 0.7600 0.7600 0.7600 0.7600 0.7550
6.604000 0.7470 0.7390 0.7150 0.6920 0.6860
6.637452 0.6840 0.6820 0.6810 0.6760 0.6460
6.671000 0.6240 0.6240 0.6370 0.6490 0.6890
6.704452 0.7050 0.7190 0.7300 0.7390 0.7470
6.738000 0.7540 0.7600 0.7640 0.7690 0.7720
6.771452 0.7740 0.7750 0.7820 0.7840 0.7870
6.805000 0.7870 0.7850 0.7850 0.7800 0.7700
6.838452 0.7650 0.7590 0.7520 0.7450 0.7440
6.872000 0.7340 0.7150 0.7100 0.6490 0.5160
6.905452 0.4950 0.4710 0.3600 0.3600 0.3870
6.939000 0.4130 0.4400 0.4660 0.4930 0.5330
6.972452 0.5430 0.5530 0.5660 0.5780 0.5890
7.006000 0.6010 0.6090 0.6140 0.6160 0.6210
7.039452 0.6220 0.6260 0.6320 0.6340 0.6370
7.073000 0.6440 0.6510 0.6790 0.7150 0.7470
7.106452 0.7640 0.7740 0.7840 0.7850 0.7850
7.139000 0.7850 0.7840 0.7820 0.7800 0.7800
7.172452 0.7800 0.7820 0.7840 0.7850 0.7870
7.206000 0.7870 0.7890 0.7890 0.7890 0.7900
7.239452 0.7900 0.7940 0.7950 0.7950 0.7970
7.273000 0.7970 0.7990 0.7990 0.7990 0.8000
7.306452 0.8000 0.8030 0.8020 0.8030 0.8030
7.340000 0.8080 0.8100 0.8100 0.8120 0.8120
7.373452 0.8100 0.8100 0.8070 0.8030 0.7990
7.407000 0.7950 0.7890 0.7840 0.7820 0.7800
7.440452 0.7820 0.7850 0.7890 0.7920 0.7950
7.474000 0.7990 0.8000 0.8000 0.7990 0.7970
7.507452 0.7950 0.7940 0.7950 0.7990 0.8030
7.541000 0.8080 0.8130 0.8200 0.8270 0.8300
7.574452 0.8350 0.8400 0.8430 0.8480 0.8530
7.608000 0.8550 0.8550 0.8550 0.8550 0.8550
7.641452 0.8550 0.8550 0.8530 0.8520 0.8500
7.674000 0.8500 0.8470 0.8430 0.8350 0.8250
7.707452 0.8120 0.7950 0.7720 0.7440 0.7150
7.741000 0.7140 0.7150 0.7190 0.7270 0.7370
7.774452 0.7500 0.7640 0.7790 0.7920 0.8050
7.808000 0.8170 0.8270 0.8330 0.8350 0.8380
7.841452 0.8420 0.8450 0.8480 0.8520 0.8550
7.875000 0.8580 0.8620 0.8650 0.8680 0.8680
7.908452 0.8700 0.8700 0.8680 0.8680 0.8670
7.942000 0.8650 0.8620 0.8600 0.8580 0.8580
7.975452 0.8550 0.8530 0.8520 0.8480 0.8380
8.009000 0.8370 0.8200 0.7940 0.7890 0.7540
8.042452 0.7450 0.7000 0.6760 0.6690 0.6760
8.076000 0.6960 0.7200 0.7450 0.7670 0.7900
8.109452 0.8130 0.8280 0.8370 0.8400 0.8450
8.142000 0.8470 0.8500 0.8520 0.8520 0.8520
8.175452 0.8520 0.8500 0.8500 0.8480 0.8470
8.209000 0.8400 0.8350 0.8330 0.8350 0.8430
8.242452 0.8500 0.8600 0.8680 0.8730 0.8770
8.276000 0.8780 0.8800 0.8820 0.8820 0.8830
8.309452 0.8830 0.8830 0.8830 0.8820 0.8800
8.343000 0.8770 0.8680 0.8650 0.8620 0.8420
8.376452 0.8150 0.7750 0.7320 0.7000 0.6860
8.410000 0.6640 0.6660 0.7220 0.7570 0.7840
8.443452 0.8070 0.8230 0.8380 0.8480 0.8570
8.477000 0.8630 0.8700 0.8770 0.8830 0.8900
8.510452 0.8920 0.8930 0.8920 0.8920 0.8900
8.544000 0.8880 0.8850 0.8820 0.8780 0.8730
8.577452 0.8700 0.8630 0.8570 0.8500 0.8430
8.611000 0.8430 0.8150 0.8120 0.8150 0.8300
8.644452 0.8450 0.8570 0.8620 0.8730 0.8770
8.677000 0.8780 0.8750 0.8680 0.8620 0.8330
8.710452 0.7900 0.7490 0.6920 0.6190 0.5130
8.744000 0.5030 0.5030 0.5140 0.5760 0.6290
8.777452 0.6760 0.7140 0.7490 0.7750 0.7990
8.811000 0.8180 0.8330 0.8450 0.8530 0.8620
8.844452 0.8670 0.8700 0.8750 0.8780 0.8830
8.878000 0.8880 0.8920 0.8930 0.8950 0.8950
8.911452 0.8970 0.8970 0.8970 0.8980 0.8980
8.945000 0.9000 0.9000 0.9000 0.9010 0.9010
8.978452 0.9010 0.9010 0.9010 0.9010 0.9010
9.012000 0.9010 0.9010 0.9010 0.9000 0.8980
9.045452 0.8980 0.8970 0.8950 0.8950 0.8930
9.079000 0.8920 0.8900 0.8870 0.8830 0.8770
9.112452 0.8670 0.8530 0.8470 0.8320 0.8300
9.146000 0.8320 0.8420 0.8570 0.8680 0.8780
9.179452 0.8850 0.8900 0.8950 0.8980 0.9010
9.212000 0.9050 0.9080 0.9100 0.9110 0.9110
9.245452 0.9130 0.9150 0.9160 0.9180 0.9180
9.279000 0.9200 0.9200 0.9210 0.9210 0.9210
9.312452 0.9210 0.9210 0.9210 0.9210 0.9210
9.346000 0.9210 0.9210 0.9210 0.9210 0.9210
9.379452 0.9230 0.9230 0.9230 0.9250 0.9250
9.413000 0.9250 0.9250 0.9250 0.9250 0.9250
9.446452 0.9250 0.9250 0.9250 0.9250 0.9230
9.480000 0.9230 0.9230 0.9210 0.9200 0.9200
9.513452 0.9180 0.9160 0.9150 0.9110 0.9080
9.547000 0.9030 0.8970 0.8880 0.8780 0.8670
9.580452 0.8430 0.8030 0.7690 0.7270 0.7050
9.614000 0.6890 0.6720 0.6720 0.6860 0.6970
9.647452 0.7100 0.7220 0.7340 0.7470 0.7590
9.681000 0.7700 0.7840 0.7950 0.8020 0.8300
9.714452 0.8450 0.8550 0.8630 0.8700 0.8770
9.747000 0.8800 0.8850 0.8920 0.8970 0.9000
9.780452 0.9030 0.9050 0.9060 0.9080 0.9080
9.814000 0.9100 0.9110 0.9110 0.9130 0.9150
9.847452 0.9150 0.9150 0.9150 0.9150 0.9130
9.881000 0.9130 0.9130 0.9130 0.9100 0.9100
9.914452 0.9100 0.9080 0.9080 0.9100 0.9100
9.948000 0.9110 0.9110 0.9130 0.9150 0.9160
9.981452 0.9200 0.9230 0.9250 0.9260 0.9260
10.015000 0.9280 0.9280 0.9280 0.9280 0.9260
10.048452 0.9250 0.9230 0.9210 0.9200 0.9180
10.082000 0.9160 0.9160 0.9160 0.9160 0.9180
10.115452 0.9200 0.9210 0.9250 0.9280 0.9300
10.149000 0.9310 0.9350 0.9360 0.9380 0.9380
10.182452 0.9380 0.9400 0.9410 0.9430 0.9450
10.216000 0.9460 0.9460 0.9460 0.9450 0.9400
10.249452 0.9380 0.9360 0.9380 0.9400 0.9410
10.282000 0.9460 0.9480 0.9480 0.9500 0.9500
10.315452 0.9500 0.9480 0.9480 0.9460 0.9450
10.349000 0.9430 0.9410 0.9400 0.9400 0.9400
10.382452 0.9410 0.9430 0.9460 0.9480 0.9480
10.416000 0.9500 0.9510 0.9510 0.9510 0.9510
10.449452 0.9510 0.9500 0.9310 0.9210 0.9130
10.483000 0.8980 0.8830 0.8680 0.8370 0.8220
10.516452 0.8150 0.8120 0.8080 0.7950 0.7870
10.550000 0.7820 0.7650 0.7650 0.7740 0.8180
10.583452 0.8450 0.8680 0.8880 0.9060 0.9210
10.617000 0.9310 0.9410 0.9460 0.9500 0.9530
10.650452 0.9530 0.9550 0.9560 0.9580 0.9600
10.684000 0.9600 0.9630 0.9660 0.9680 0.9700
10.717452 0.9700 0.9710 0.9710 0.9710 0.9700
10.751000 0.9680 0.9680 0.9700 0.9710 0.9730
10.784452 0.9750 0.9750 0.9750 0.9730 0.9730
10.817000 0.9730 0.9710 0.9680 0.9660 0.9650
10.850452 0.9650 0.9660 0.9660 0.9700 0.9710
10.884000 0.9710 0.9680 0.9680 0.9680 0.9700
10.917452 0.9700 0.9710 0.9710 0.9750 0.9760
10.951000 0.9760 0.9760 0.9780 0.9780 0.9780
10.984452 0.9780 0.9780 0.9780 0.9760 0.9750
11.018000 0.9730 0.9730 0.9730 0.9730 0.9730
11.051452 0.9730 0.9730 0.9710 0.9710 0.9700
11.085000 0.9700 0.9700 0.9680 0.9660 0.9650
11.118452 0.9650 0.9650 0.9630 0.9630 0.9610
11.152000 0.9610 0.9610 0.9600 0.9560 0.9550
11.185452 0.9510 0.9480 0.9460 0.9450 0.9410
11.219000 0.9400 0.9380 0.9360 0.9330 0.9300
11.252452 0.9230 0.9110 0.8970 0.8750 0.8470
11.285000 0.8320 0.8200 0.8120 0.8050 0.8000
11.318452 0.7940 0.7750 0.7620 0.7550 0.7450
11.352000 0.7350 0.7340 0.7350 0.7550 0.7790
11.385452 0.7820 0.7850 0.7870 0.7900 0.7920
11.419000 0.7920 0.7920 0.7900 0.7850 0.7790
11.452452 0.7550 0.6790 0.5980 0.5380 0.4780
11.486000 0.4630 0.4400 0.4400 0.4550 0.5480
11.519452 0.5860 0.6090 0.6460 0.6810 0.7140
11.553000 0.7450 0.7770 0.8030 0.8300 0.8520
11.586452 0.8730 0.8900 0.9030 0.9130 0.9260
11.620000 0.9310 0.9360 0.9430 0.9460 0.9460
11.653452 0.9410 0.9400 0.9360 0.9350 0.9330
11.687000 0.9330 0.9310 0.9310 0.9300 0.9260
11.720452 0.9250 0.9200 0.9150 0.9050 0.9030
11.754000 0.8970 0.8880 0.8780 0.8700 0.8600
11.787452 0.8570 0.8480 0.8400 0.8270 0.8100
11.820000 0.7900 0.7670 0.7400 0.7070 0.6720
11.853452 0.6310 0.5840 0.5340 0.5060 0.4760
11.887000 0.4500 0.3980 0.3300 0.2550 0.1840
11.920452 0.1220 0.0840 0.0760 0.0460 0.0340
11.954000 0.0260 0.0180 0.0140 0.0130 0.0130
11.987452 0.0140 0.0480 0.0760 0.1090 0.1460
12.021000 0.1870 0.2300 0.2770 0.3250 0.3750
12.054452 0.4230 0.4710 0.5610 0.6020 0.6390
12.088000 0.6710 0.6970 0.7140 0.7290 0.7440
12.121452 0.7590 0.7750 0.7890 0.8030 0.8150
12.155000 0.8280 0.8380 0.8470 0.8530 0.8630
12.188452 0.8700 0.8750 0.8780 0.8820 0.8830
12.222000 0.8850 0.8870 0.8880 0.8900 0.8930
12.255452 0.8970 0.9000 0.9050 0.9060 0.9100
12.289000 0.9160 0.9230 0.9250 0.9250 0.9230
12.322452 0.9230 0.9160 0.9080 0.9000 0.8950
12.355000 0.8930 0.8900 0.8880 0.8880 0.8900
12.388452 0.8920 0.8930 0.8970 0.9000 0.9030
12.422000 0.9060 0.9100 0.9130 0.9150 0.9160
12.455452 0.9160 0.9150 0.9110 0.9080 0.8950
12.489000 0.8680 0.8450 0.8280 0.8100 0.7920
12.522452 0.7820 0.7600 0.7120 0.6620 0.6390
12.556000 0.6360 0.6370 0.6640 0.6870 0.7250
12.589452 0.7600 0.7900 0.8180 0.8420 0.8630
12.623000 0.8820 0.8970 0.9100 0.9200 0.9300
12.656452 0.9360 0.9430 0.9460 0.9500 0.9530
12.690000 0.9550 0.9560 0.9560 0.9560 0.9580
12.723452 0.9580 0.9600 0.9600 0.9610 0.9610
12.757000 0.9630 0.9650 0.9660 0.9680 0.9680
12.790452 0.9700 0.9700 0.9710 0.9710 0.9730
12.824000 0.9760 0.9780 0.9800 0.9810 0.9810
12.857452 0.9830 0.9830 0.9850 0.9860 0.9860
12.890000 0.9850 0.9830 0.9780 0.9750 0.9710
12.923452 0.9660 0.9630 0.9610 0.9580 0.9560
12.957000 0.9560 0.9560 0.9560 0.9560 0.9550
12.990452 0.9550 0.9530 0.9500 0.9460 0.9410
13.024000 0.9380 0.9330 0.9280 0.9250 0.9210
13.057452 0.9200 0.9200 0.9200 0.9200 0.9210
13.091000 0.9210 0.9210 0.9210 0.9210 0.9200
13.124452 0.9160 0.9130 0.9060 0.9010 0.8950
13.158000 0.8880 0.8800 0.8780 0.8730 0.8650
13.191452 0.8550 0.8430 0.8270 0.8100 0.7900
13.225000 0.7690 0.7250 0.6840 0.6410 0.5960
13.258452 0.5480 0.5230 0.4960 0.4410 0.3850
13.292000 0.3250 0.2620 0.1960 0.1260 0.1010
13.325452 0.0830 0.0660 0.0510 0.0490 0.0510
13.359000 0.0530 0.0660 0.0880 0.1170 0.1510
13.392452 0.1910 0.2300 0.2740 0.3130 0.3530
13.425000 0.3880 0.4160 0.4380 0.4510 0.4660
13.458452 0.4830 0.4980 0.5290 0.5480 0.5690
13.492000 0.5960 0.6260 0.6620 0.7050 0.7190
13.525452 0.7370 0.7570 0.7790 0.7990 0.8180
13.559000 0.8330 0.8430 0.8480 0.8530 0.8550
13.592452 0.8650 0.8730 0.8830 0.8900 0.8970
13.626000 0.9000 0.9080 0.9150 0.9200 0.9250
13.659452 0.9280 0.9300 0.9330 0.9350 0.9360
13.693000 0.9380 0.9410 0.9450 0.9480 0.9500
13.726452 0.9510 0.9530 0.9530 0.9550 0.9550
13.760000 0.9560 0.9560 0.9580 0.9600 0.9630
13.793452 0.9650 0.9660 0.9660 0.9680 0.9680
13.827000 0.9700 0.9710 0.9710 0.9710 0.9710
13.860452 0.9710 0.9710 0.9730 0.9730 0.9730
13.894000 0.9750 0.9750 0.9730 0.9730 0.9730
13.927452 0.9710 0.9710 0.9680 0.9660 0.9600
13.960000 0.9530 0.9430 0.9400 0.9360 0.9130
13.993452 0.8880 0.8720 0.8550 0.8350 0.8050
14.027000 0.7600 0.6940 0.6640 0.6260 0.5880
14.060452 0.5860 0.5890 0.6070 0.6260 0.6690
14.094000 0.7070 0.7520 0.7870 0.8170 0.8420
14.127452 0.8630 0.8820 0.8970 0.9080 0.9180
14.161000 0.9250 0.9310 0.9360 0.9410 0.9460
14.194452 0.9500 0.9510 0.9530 0.9580 0.9650
14.228000 0.9700 0.9760 0.9800 0.9830 0.9830
14.261452 0.9850 0.9850 0.9860 0.9860 0.9880
14.295000 0.9880 0.9880 0.9880 0.9880 0.9880
14.328452 0.9880 0.9880 0.9880 0.9880 0.9880
14.362000 0.9880 0.9880 0.9900 0.9900 0.9910
14.395452 0.9910 0.9930 0.9930 0.9950 0.9950
14.428000 0.9960 0.9960 0.9980 0.9980 0.9980
14.461452 0.9950 0.9910 0.9860 0.9850 0.9780
14.495000 0.9750 0.9730 0.9710 0.9660 0.9580
14.528452 0.9480 0.9360 0.9230 0.9080 0.8970
14.562000 0.8900 0.8750 0.8650 0.8580 0.8520
14.595452 0.8500 0.8520 0.8580 0.8620 0.8670
14.629000 0.8700 0.8880 0.8950 0.9100 0.9180
14.662452 0.9260 0.9310 0.9380 0.9410 0.9460
14.696000 0.9500 0.9550 0.9560 0.9580 0.9600
14.729452 0.9610 0.9650 0.9660 0.9680 0.9680
14.763000 0.9700 0.9700 0.9710 0.9710 0.9710
14.796452 0.9730 0.9730 0.9750 0.9750 0.9760
14.830000 0.9760 0.9780 0.9780 0.9800 0.9800
14.863452 0.9810 0.9810 0.9830 0.9830 0.9850
14.897000 0.9860 0.9860 0.9860 0.9880 0.9880
14.930452 0.9880 0.9880 0.9850 0.9830 0.9810
14.963000 0.9760 0.9650 0.9630 0.9600 0.9510
14.996452 0.9500 0.9500 0.9500 0.9510 0.9530
15.030000 0.9550 0.9600 0.9630 0.9650 0.9700
15.063452 0.9710 0.9730 0.9730 0.9760 0.9780
15.097000 0.9780 0.9800 0.9800 0.9780 0.9780
15.130452 0.9780 0.9760 0.9760 0.9760 0.9760
15.164000 0.9760 0.9760 0.9760 0.9780 0.9800
15.197452 0.9800 0.9800 0.9780 0.9780 0.9760
15.231000 0.9760 0.9750 0.9750 0.9730 0.9730
15.264452 0.9710 0.9710 0.9710 0.9710 0.9730
15.298000 0.9730 0.9730 0.9730 0.9730 0.9730
15.331452 0.9750 0.9750 0.9750 0.9750 0.9760
15.365000 0.9760 0.9760 0.9780 0.9780 0.9780
15.398452 0.9800 0.9800 0.9800 0.9800 0.9800
15.432000 0.9800 0.9800 0.9800 0.9800 0.9800
15.465452 0.9780 0.9780 0.9750 0.9750 0.9730
15.498000 0.9700 0.9700 0.9680 0.9680 0.9680
15.531452 0.9680 0.9680 0.9700 0.9700 0.9730
15.565000 0.9730 0.9750 0.9750 0.9760 0.9760
15.598452 0.9760 0.9760 0.9760 0.9750 0.9750
15.632000 0.9730 0.9710 0.9700 0.9700 0.9680
15.665452 0.9660 0.9630 0.9600 0.9560 0.9550
15.699000 0.9550 0.9550 0.9560 0.9560 0.9580
15.732452 0.9580 0.9600 0.9600 0.9610 0.9610
15.766000 0.9610 0.9610 0.9610 0.9600 0.9600
15.799452 0.9580 0.9580 0.9560 0.9560 0.9550
15.833000 0.9550 0.9530 0.9530 0.9530 0.9530
15.866452 0.9530 0.9530 0.9550 0.9560 0.9580
15.900000 0.9560
##END=
