##TITLE=1-METHYL-PHENANTHRENE
##JCAMP-DX=4.24
##DATA TYPE=INFRARED SPECTRUM
##CLASS=COBLENTZ
##ORIGIN=CENTRE D'ETUDES NUCLEAIRES DE GRENOBLE
##OWNER=COBLENTZ SOCIETY
Collection (C) 2018 copyright by the U.S. Secretary of Commerce
on behalf of the United States of America. All rights reserved.
##DATE=Not specified, most likely prior to 1970
##NAMES=1-methylphenanthrene
##CAS REGISTRY NO=832-69-9
##MOLFORM=C15 H12
##SOURCE REFERENCE=COBLENTZ NO. 4255
##$NIST SOURCE=COBLENTZ
##$NIST IMAGE=cob4255
##SPECTROMETER/DATA SYSTEM=Not specified, most likely a prism, grating, or hybrid spectrometer.
##STATE=SOLUTION (50 g/L IN HEPTANE)
##PATH LENGTH=0.1 CM
$$PURITY 99%
##SAMPLING PROCEDURE=TRANSMISSION
##RESOLUTION=4
##DATA PROCESSING=DIGITIZED BY NIST FROM HARD COPY
##XUNITS=MICROMETERS
##YUNITS=TRANSMITTANCE
##XFACTOR=1.000000
##YFACTOR=1
##DELTAX=000.011118
##FIRSTX=14.399
##LASTX=35.0115
##FIRSTY=0.919
##MAXX=35.0115
##MINX=14.399
##MAXY=0.989
##MINY=0.408
##NPOINTS=1855
##XYDATA=(X++(Y..Y))
14.399000 0.9190 0.9210 0.9310 0.9410 0.9460
14.454618 0.9490 0.9510 0.9590 0.9630 0.9660
14.510000 0.9660 0.9680 0.9680 0.9680 0.9680
14.565618 0.9690 0.9690 0.9710 0.9730 0.9740
14.621000 0.9760 0.9780 0.9790 0.9790 0.9790
14.676618 0.9810 0.9810 0.9810 0.9810 0.9810
14.733000 0.9810 0.9830 0.9830 0.9830 0.9830
14.788618 0.9840 0.9840 0.9860 0.9880 0.9860
14.844000 0.9860 0.9860 0.9860 0.9860 0.9840
14.899618 0.9830 0.9830 0.9830 0.9810 0.9810
14.955000 0.9810 0.9810 0.9790 0.9790 0.9790
15.010618 0.9780 0.9780 0.9760 0.9760 0.9760
15.066000 0.9740 0.9730 0.9690 0.9660 0.9640
15.121618 0.9530 0.9490 0.9480 0.9440 0.9410
15.177000 0.9390 0.9360 0.9340 0.9320 0.9320
15.232618 0.9310 0.9310 0.9310 0.9310 0.9310
15.288000 0.9320 0.9340 0.9360 0.9390 0.9390
15.343618 0.9390 0.9380 0.9380 0.9360 0.9320
15.400000 0.9310 0.9260 0.9220 0.9140 0.9020
15.455618 0.8970 0.8910 0.8820 0.8760 0.8650
15.511000 0.8600 0.8550 0.8520 0.8490 0.8470
15.566618 0.8470 0.8500 0.8590 0.8620 0.8710
15.622000 0.8790 0.8840 0.8890 0.8920 0.9020
15.677618 0.9040 0.9160 0.9270 0.9360 0.9530
15.733000 0.9640 0.9660 0.9680 0.9710 0.9730
15.788618 0.9740 0.9790 0.9810 0.9830 0.9840
15.844000 0.9840 0.9860 0.9860 0.9880 0.9880
15.899618 0.9890 0.9890 0.9890 0.9890 0.9880
15.956000 0.9880 0.9840 0.9830 0.9830 0.9810
16.011618 0.9790 0.9760 0.9710 0.9710 0.9660
16.067000 0.9580 0.9530 0.9490 0.9410 0.9210
16.122618 0.8990 0.8870 0.8640 0.8520 0.8240
16.178000 0.8100 0.7820 0.7550 0.7370 0.7280
16.233618 0.7230 0.7160 0.7110 0.7050 0.7030
16.289000 0.7050 0.7160 0.7260 0.7370 0.7470
16.344618 0.7570 0.7630 0.7830 0.8070 0.8220
16.400000 0.8340 0.8810 0.8860 0.8890 0.8920
16.455618 0.9270 0.9290 0.9310 0.9320 0.9340
16.511000 0.9410 0.9530 0.9630 0.9640 0.9640
16.566618 0.9640 0.9660 0.9660 0.9660 0.9680
16.623000 0.9680 0.9680 0.9690 0.9730 0.9760
16.678618 0.9790 0.9790 0.9790 0.9810 0.9810
16.734000 0.9810 0.9810 0.9810 0.9790 0.9790
16.789618 0.9760 0.9760 0.9740 0.9730 0.9710
16.845000 0.9690 0.9680 0.9660 0.9640 0.9610
16.900618 0.9480 0.9440 0.9430 0.9410 0.9240
16.956000 0.9070 0.9010 0.8940 0.8820 0.8650
17.011618 0.8500 0.8440 0.8200 0.8090 0.8040
17.067000 0.7980 0.7950 0.7880 0.7830 0.7780
17.122618 0.7750 0.7700 0.7650 0.7630 0.7650
17.178000 0.7780 0.7800 0.7900 0.8040 0.8240
17.233618 0.8500 0.8600 0.8670 0.8810 0.8890
17.290000 0.9140 0.9240 0.9290 0.9320 0.9340
17.345618 0.9340 0.9390 0.9440 0.9610 0.9630
17.401000 0.9630 0.9630 0.9630 0.9640 0.9640
17.456618 0.9660 0.9680 0.9690 0.9710 0.9710
17.512000 0.9710 0.9710 0.9710 0.9690 0.9690
17.567618 0.9680 0.9660 0.9640 0.9510 0.9440
17.623000 0.9410 0.9320 0.9240 0.9190 0.9020
17.678618 0.9010 0.8990 0.8890 0.8860 0.8820
17.734000 0.8810 0.8770 0.8760 0.8720 0.8710
17.789618 0.8670 0.8670 0.8690 0.8720 0.8760
17.846000 0.8810 0.8820 0.8920 0.8940 0.8990
17.901618 0.9070 0.9160 0.9210 0.9270 0.9360
17.957000 0.9410 0.9440 0.9490 0.9490 0.9530
18.012618 0.9560 0.9610 0.9630 0.9630 0.9640
18.068000 0.9640 0.9640 0.9640 0.9630 0.9630
18.123618 0.9610 0.9590 0.9580 0.9560 0.9560
18.179000 0.9540 0.9530 0.9510 0.9490 0.9480
18.234618 0.9480 0.9460 0.9440 0.9440 0.9430
18.290000 0.9430 0.9410 0.9410 0.9390 0.9390
18.345618 0.9380 0.9380 0.9380 0.9390 0.9390
18.401000 0.9430 0.9440 0.9440 0.9460 0.9480
18.456618 0.9490 0.9510 0.9530 0.9540 0.9540
18.513000 0.9560 0.9580 0.9590 0.9610 0.9640
18.568618 0.9660 0.9680 0.9680 0.9690 0.9690
18.624000 0.9710 0.9710 0.9710 0.9730 0.9740
18.679618 0.9740 0.9740 0.9740 0.9730 0.9730
18.735000 0.9730 0.9730 0.9730 0.9730 0.9740
18.790618 0.9740 0.9740 0.9760 0.9760 0.9760
18.846000 0.9760 0.9780 0.9780 0.9760 0.9760
18.901618 0.9740 0.9740 0.9740 0.9740 0.9730
18.957000 0.9730 0.9730 0.9730 0.9730 0.9730
19.012618 0.9730 0.9730 0.9730 0.9710 0.9710
19.068000 0.9690 0.9680 0.9660 0.9660 0.9640
19.123618 0.9630 0.9590 0.9580 0.9560 0.9540
19.180000 0.9510 0.9510 0.9490 0.9460 0.9460
19.235618 0.9440 0.9430 0.9430 0.9360 0.9310
19.291000 0.9240 0.9220 0.9170 0.9140 0.9120
19.346618 0.9090 0.9060 0.9040 0.9010 0.8960
19.402000 0.8910 0.8820 0.8650 0.8620 0.8540
19.457618 0.8470 0.8340 0.8250 0.8050 0.7900
19.513000 0.7730 0.7600 0.7210 0.7060 0.7030
19.568618 0.6710 0.6590 0.6330 0.6110 0.5710
19.624000 0.5620 0.5410 0.5090 0.5000 0.4900
19.679618 0.4800 0.4600 0.4530 0.4400 0.4350
19.736000 0.4320 0.4200 0.4150 0.4120 0.4100
19.791618 0.4080 0.4080 0.4100 0.4120 0.4130
19.847000 0.4170 0.4280 0.4400 0.4470 0.4570
19.902618 0.4690 0.4750 0.4840 0.5120 0.5290
19.958000 0.5320 0.5340 0.5520 0.5590 0.5620
20.013618 0.5740 0.5840 0.5940 0.6040 0.6060
20.069000 0.6080 0.6080 0.6060 0.6060 0.6030
20.124618 0.6030 0.6010 0.5920 0.5870 0.5810
20.180000 0.5660 0.5540 0.5390 0.5340 0.5250
20.235618 0.5200 0.5150 0.5100 0.5090 0.5090
20.291000 0.5120 0.5140 0.5190 0.5220 0.5250
20.346618 0.5320 0.5520 0.5570 0.5620 0.5790
20.403000 0.6130 0.6240 0.6290 0.6530 0.6710
20.458618 0.6880 0.7060 0.7260 0.7330 0.7480
20.514000 0.7670 0.7800 0.7920 0.8040 0.8100
20.569618 0.8150 0.8370 0.8500 0.8540 0.8620
20.625000 0.8690 0.8770 0.8860 0.8890 0.8960
20.680618 0.8990 0.9060 0.9070 0.9090 0.9120
20.736000 0.9160 0.9170 0.9210 0.9220 0.9260
20.791618 0.9310 0.9310 0.9320 0.9340 0.9340
20.847000 0.9340 0.9360 0.9380 0.9390 0.9430
20.902618 0.9440 0.9440 0.9460 0.9480 0.9490
20.958000 0.9490 0.9490 0.9490 0.9490 0.9490
21.013618 0.9490 0.9490 0.9490 0.9490 0.9480
21.070000 0.9480 0.9480 0.9480 0.9460 0.9460
21.125618 0.9460 0.9460 0.9460 0.9460 0.9460
21.181000 0.9460 0.9460 0.9460 0.9440 0.9440
21.236618 0.9430 0.9430 0.9430 0.9430 0.9410
21.292000 0.9390 0.9360 0.9340 0.9320 0.9290
21.347618 0.9290 0.9270 0.9270 0.9240 0.9240
21.403000 0.9220 0.9220 0.9210 0.9190 0.9190
21.458618 0.9170 0.9170 0.9160 0.9160 0.9160
21.514000 0.9170 0.9170 0.9170 0.9190 0.9190
21.569618 0.9190 0.9210 0.9210 0.9210 0.9220
21.626000 0.9220 0.9240 0.9240 0.9240 0.9260
21.681618 0.9270 0.9290 0.9310 0.9320 0.9340
21.737000 0.9340 0.9360 0.9360 0.9380 0.9380
21.792618 0.9390 0.9410 0.9430 0.9430 0.9440
21.848000 0.9440 0.9440 0.9440 0.9460 0.9460
21.903618 0.9480 0.9480 0.9480 0.9490 0.9510
21.959000 0.9510 0.9490 0.9490 0.9490 0.9490
22.014618 0.9490 0.9490 0.9480 0.9480 0.9480
22.070000 0.9480 0.9480 0.9490 0.9490 0.9510
22.125618 0.9510 0.9530 0.9530 0.9510 0.9510
22.181000 0.9530 0.9530 0.9530 0.9540 0.9540
22.236618 0.9540 0.9530 0.9530 0.9530 0.9530
22.293000 0.9530 0.9510 0.9510 0.9490 0.9490
22.348618 0.9510 0.9490 0.9490 0.9480 0.9480
22.404000 0.9480 0.9460 0.9460 0.9460 0.9440
22.459618 0.9430 0.9390 0.9360 0.9340 0.9320
22.515000 0.9310 0.9270 0.9260 0.9240 0.9220
22.570618 0.9220 0.9210 0.9190 0.9190 0.9160
22.626000 0.9140 0.9140 0.9120 0.9070 0.9040
22.681618 0.9020 0.8990 0.8960 0.8940 0.8890
22.737000 0.8860 0.8760 0.8620 0.8600 0.8540
22.792618 0.8470 0.8450 0.8420 0.8350 0.8290
22.848000 0.8200 0.8150 0.8050 0.8000 0.7880
22.903618 0.7780 0.7530 0.7330 0.7250 0.7200
22.960000 0.7060 0.7010 0.6900 0.6780 0.6630
23.015618 0.6480 0.6310 0.6130 0.6060 0.6030
23.071000 0.5970 0.5910 0.5840 0.5790 0.5670
23.126618 0.5640 0.5620 0.5610 0.5610 0.5610
23.182000 0.5620 0.5640 0.5660 0.5670 0.5670
23.237618 0.5710 0.5740 0.5770 0.5820 0.5960
23.293000 0.6040 0.6140 0.6390 0.6430 0.6460
23.348618 0.6510 0.6590 0.6710 0.6830 0.6910
23.404000 0.7030 0.7130 0.7250 0.7300 0.7500
23.459618 0.7520 0.7550 0.7620 0.7730 0.7780
23.516000 0.7880 0.7970 0.8020 0.8070 0.8090
23.571618 0.8120 0.8140 0.8140 0.8170 0.8190
23.627000 0.8220 0.8250 0.8270 0.8300 0.8320
23.682618 0.8340 0.8350 0.8370 0.8370 0.8350
23.738000 0.8350 0.8340 0.8340 0.8340 0.8320
23.793618 0.8320 0.8320 0.8340 0.8340 0.8340
23.849000 0.8350 0.8350 0.8350 0.8350 0.8340
23.904618 0.8340 0.8320 0.8320 0.8300 0.8300
23.960000 0.8300 0.8300 0.8300 0.8320 0.8320
24.015618 0.8300 0.8300 0.8250 0.8200 0.8150
24.071000 0.8100 0.8040 0.7950 0.7880 0.7770
24.126618 0.7700 0.7520 0.7480 0.7450 0.7400
24.183000 0.7300 0.7110 0.7030 0.6900 0.6860
24.238618 0.6760 0.6560 0.6410 0.6330 0.6310
24.294000 0.6210 0.6060 0.6010 0.6010 0.5920
24.349618 0.5810 0.5770 0.5740 0.5720 0.5670
24.405000 0.5660 0.5620 0.5610 0.5610 0.5590
24.460618 0.5570 0.5560 0.5560 0.5560 0.5570
24.516000 0.5570 0.5590 0.5590 0.5590 0.5590
24.571618 0.5590 0.5590 0.5590 0.5570 0.5570
24.627000 0.5560 0.5560 0.5540 0.5520 0.5510
24.682618 0.5490 0.5470 0.5460 0.5440 0.5420
24.738000 0.5410 0.5390 0.5390 0.5370 0.5370
24.793618 0.5370 0.5390 0.5410 0.5410 0.5440
24.850000 0.5460 0.5520 0.5560 0.5570 0.5610
24.905618 0.5660 0.5740 0.5810 0.5860 0.5970
24.961000 0.6060 0.6130 0.6360 0.6540 0.6700
25.016618 0.6830 0.6860 0.6980 0.7060 0.7160
25.072000 0.7230 0.7370 0.7500 0.7530 0.7700
25.127618 0.7820 0.7870 0.7980 0.8040 0.8050
25.183000 0.8120 0.8200 0.8340 0.8420 0.8500
25.238618 0.8500 0.8550 0.8550 0.8570 0.8600
25.294000 0.8710 0.8860 0.8890 0.8940 0.8960
25.349618 0.8990 0.9040 0.9040 0.9060 0.9060
25.406000 0.9090 0.9110 0.9140 0.9190 0.9210
25.461618 0.9220 0.9220 0.9240 0.9270 0.9290
25.517000 0.9310 0.9310 0.9310 0.9320 0.9320
25.572618 0.9320 0.9340 0.9360 0.9360 0.9380
25.628000 0.9380 0.9380 0.9380 0.9380 0.9380
25.683618 0.9380 0.9390 0.9410 0.9430 0.9440
25.739000 0.9440 0.9480 0.9490 0.9490 0.9510
25.794618 0.9510 0.9510 0.9530 0.9530 0.9530
25.850000 0.9540 0.9580 0.9610 0.9610 0.9630
25.905618 0.9640 0.9640 0.9640 0.9640 0.9640
25.961000 0.9640 0.9640 0.9630 0.9630 0.9610
26.016618 0.9630 0.9630 0.9630 0.9630 0.9640
26.073000 0.9640 0.9640 0.9640 0.9640 0.9640
26.128618 0.9640 0.9640 0.9640 0.9640 0.9640
26.184000 0.9640 0.9640 0.9640 0.9640 0.9640
26.239618 0.9640 0.9640 0.9640 0.9640 0.9660
26.295000 0.9660 0.9660 0.9660 0.9660 0.9660
26.350618 0.9660 0.9660 0.9660 0.9660 0.9660
26.406000 0.9660 0.9660 0.9660 0.9660 0.9660
26.461618 0.9640 0.9640 0.9660 0.9660 0.9660
26.517000 0.9660 0.9660 0.9660 0.9660 0.9660
26.572618 0.9660 0.9660 0.9660 0.9660 0.9660
26.628000 0.9680 0.9710 0.9710 0.9710 0.9710
26.683618 0.9710 0.9710 0.9710 0.9710 0.9710
26.740000 0.9690 0.9690 0.9690 0.9690 0.9690
26.795618 0.9690 0.9690 0.9690 0.9690 0.9690
26.851000 0.9690 0.9690 0.9690 0.9690 0.9710
26.906618 0.9710 0.9730 0.9730 0.9740 0.9740
26.962000 0.9740 0.9740 0.9740 0.9740 0.9740
27.017618 0.9740 0.9740 0.9740 0.9760 0.9760
27.073000 0.9730 0.9710 0.9690 0.9690 0.9690
27.128618 0.9690 0.9690 0.9690 0.9690 0.9710
27.184000 0.9710 0.9710 0.9710 0.9730 0.9730
27.239618 0.9730 0.9680 0.9660 0.9660 0.9690
27.295000 0.9690 0.9690 0.9690 0.9710 0.9710
27.350618 0.9710 0.9710 0.9730 0.9730 0.9730
27.407000 0.9730 0.9710 0.9710 0.9710 0.9710
27.462618 0.9710 0.9710 0.9730 0.9690 0.9690
27.518000 0.9690 0.9710 0.9710 0.9710 0.9710
27.573618 0.9730 0.9730 0.9730 0.9730 0.9730
27.629000 0.9710 0.9710 0.9710 0.9710 0.9690
27.684618 0.9690 0.9730 0.9730 0.9730 0.9740
27.740000 0.9740 0.9710 0.9690 0.9690 0.9690
27.795618 0.9690 0.9690 0.9690 0.9710 0.9710
27.851000 0.9710 0.9710 0.9710 0.9710 0.9690
27.906618 0.9690 0.9710 0.9710 0.9730 0.9730
27.963000 0.9740 0.9740 0.9710 0.9710 0.9710
28.018618 0.9710 0.9710 0.9730 0.9730 0.9730
28.074000 0.9740 0.9740 0.9710 0.9710 0.9690
28.129618 0.9690 0.9690 0.9690 0.9690 0.9690
28.185000 0.9690 0.9690 0.9690 0.9690 0.9690
28.240618 0.9690 0.9680 0.9660 0.9640 0.9640
28.296000 0.9640 0.9640 0.9640 0.9640 0.9660
28.351618 0.9680 0.9680 0.9680 0.9690 0.9690
28.407000 0.9710 0.9710 0.9690 0.9690 0.9680
28.462618 0.9680 0.9660 0.9640 0.9630 0.9640
28.518000 0.9640 0.9640 0.9640 0.9640 0.9640
28.573618 0.9640 0.9640 0.9630 0.9630 0.9640
28.630000 0.9640 0.9660 0.9630 0.9630 0.9610
28.685618 0.9610 0.9630 0.9630 0.9630 0.9630
28.741000 0.9630 0.9630 0.9640 0.9640 0.9640
28.796618 0.9630 0.9630 0.9610 0.9610 0.9610
28.852000 0.9610 0.9590 0.9590 0.9630 0.9630
28.907618 0.9630 0.9630 0.9630 0.9630 0.9630
28.963000 0.9610 0.9610 0.9630 0.9630 0.9630
29.018618 0.9630 0.9630 0.9630 0.9630 0.9630
29.074000 0.9610 0.9610 0.9590 0.9590 0.9590
29.129618 0.9590 0.9610 0.9630 0.9630 0.9630
29.185000 0.9630 0.9630 0.9630 0.9630 0.9630
29.240618 0.9630 0.9630 0.9630 0.9630 0.9630
29.297000 0.9630 0.9630 0.9630 0.9610 0.9590
29.352618 0.9590 0.9590 0.9590 0.9580 0.9580
29.408000 0.9580 0.9580 0.9590 0.9580 0.9580
29.463618 0.9580 0.9580 0.9560 0.9560 0.9580
29.519000 0.9580 0.9580 0.9590 0.9590 0.9610
29.574618 0.9610 0.9610 0.9610 0.9610 0.9610
29.630000 0.9590 0.9590 0.9590 0.9580 0.9560
29.685618 0.9540 0.9560 0.9560 0.9560 0.9560
29.741000 0.9560 0.9560 0.9560 0.9560 0.9540
29.796618 0.9540 0.9540 0.9530 0.9530 0.9530
29.853000 0.9540 0.9540 0.9540 0.9540 0.9540
29.908618 0.9530 0.9530 0.9530 0.9530 0.9530
29.964000 0.9530 0.9530 0.9540 0.9540 0.9540
30.019618 0.9540 0.9560 0.9560 0.9560 0.9560
30.075000 0.9530 0.9530 0.9530 0.9530 0.9530
30.130618 0.9530 0.9530 0.9530 0.9530 0.9540
30.186000 0.9540 0.9560 0.9560 0.9560 0.9560
30.241618 0.9560 0.9540 0.9540 0.9530 0.9510
30.297000 0.9490 0.9490 0.9490 0.9510 0.9510
30.352618 0.9510 0.9510 0.9510 0.9510 0.9510
30.408000 0.9510 0.9510 0.9510 0.9490 0.9490
30.463618 0.9510 0.9510 0.9510 0.9510 0.9510
30.520000 0.9510 0.9510 0.9510 0.9490 0.9480
30.575618 0.9430 0.9430 0.9430 0.9440 0.9440
30.631000 0.9480 0.9480 0.9490 0.9490 0.9480
30.686618 0.9480 0.9480 0.9490 0.9490 0.9490
30.742000 0.9490 0.9480 0.9460 0.9440 0.9430
30.797618 0.9430 0.9430 0.9440 0.9460 0.9460
30.853000 0.9480 0.9480 0.9490 0.9490 0.9510
30.908618 0.9530 0.9540 0.9560 0.9580 0.9590
30.964000 0.9560 0.9540 0.9490 0.9490 0.9510
31.019618 0.9510 0.9510 0.9510 0.9510 0.9490
31.075000 0.9480 0.9480 0.9480 0.9480 0.9480
31.130618 0.9480 0.9490 0.9490 0.9490 0.9510
31.187000 0.9490 0.9480 0.9440 0.9460 0.9460
31.242618 0.9490 0.9490 0.9440 0.9430 0.9430
31.298000 0.9430 0.9430 0.9440 0.9460 0.9460
31.353618 0.9480 0.9480 0.9480 0.9460 0.9440
31.409000 0.9440 0.9440 0.9460 0.9480 0.9480
31.464618 0.9490 0.9490 0.9480 0.9440 0.9460
31.520000 0.9480 0.9480 0.9490 0.9490 0.9510
31.575618 0.9510 0.9510 0.9510 0.9510 0.9510
31.631000 0.9490 0.9460 0.9430 0.9440 0.9490
31.686618 0.9510 0.9510 0.9510 0.9510 0.9510
31.743000 0.9510 0.9510 0.9490 0.9490 0.9480
31.798618 0.9460 0.9440 0.9440 0.9430 0.9430
31.854000 0.9430 0.9430 0.9430 0.9430 0.9430
31.909618 0.9410 0.9410 0.9390 0.9390 0.9390
31.965000 0.9390 0.9380 0.9380 0.9380 0.9380
32.020618 0.9380 0.9390 0.9390 0.9410 0.9430
32.076000 0.9440 0.9440 0.9430 0.9390 0.9380
32.131618 0.9360 0.9340 0.9310 0.9290 0.9290
32.187000 0.9310 0.9320 0.9320 0.9320 0.9320
32.242618 0.9320 0.9320 0.9320 0.9340 0.9360
32.298000 0.9380 0.9380 0.9380 0.9390 0.9390
32.353618 0.9390 0.9410 0.9410 0.9410 0.9430
32.410000 0.9430 0.9410 0.9410 0.9410 0.9410
32.465618 0.9390 0.9390 0.9390 0.9390 0.9380
32.521000 0.9380 0.9380 0.9360 0.9340 0.9340
32.576618 0.9320 0.9320 0.9320 0.9320 0.9320
32.632000 0.9320 0.9320 0.9320 0.9310 0.9310
32.687618 0.9310 0.9290 0.9290 0.9290 0.9290
32.743000 0.9290 0.9290 0.9290 0.9290 0.9310
32.798618 0.9320 0.9320 0.9320 0.9320 0.9310
32.854000 0.9310 0.9310 0.9310 0.9290 0.9310
32.909618 0.9320 0.9320 0.9310 0.9290 0.9290
32.965000 0.9290 0.9270 0.9270 0.9270 0.9270
33.020618 0.9270 0.9270 0.9290 0.9290 0.9310
33.077000 0.9310 0.9310 0.9320 0.9340 0.9340
33.132618 0.9340 0.9340 0.9340 0.9340 0.9360
33.188000 0.9360 0.9360 0.9360 0.9340 0.9340
33.243618 0.9360 0.9360 0.9380 0.9380 0.9360
33.299000 0.9340 0.9320 0.9290 0.9270 0.9240
33.354618 0.9220 0.9220 0.9210 0.9210 0.9190
33.410000 0.9190 0.9190 0.9190 0.9190 0.9190
33.465618 0.9190 0.9190 0.9190 0.9190 0.9210
33.521000 0.9210 0.9210 0.9220 0.9220 0.9220
33.576618 0.9240 0.9240 0.9220 0.9210 0.9210
33.633000 0.9210 0.9210 0.9210 0.9190 0.9190
33.688618 0.9170 0.9170 0.9190 0.9210 0.9220
33.744000 0.9220 0.9220 0.9210 0.9210 0.9170
33.799618 0.9140 0.9140 0.9170 0.9170 0.9170
33.855000 0.9160 0.9140 0.9120 0.9120 0.9120
33.910618 0.9120 0.9120 0.9120 0.9120 0.9110
33.966000 0.9110 0.9110 0.9120 0.9140 0.9140
34.021618 0.9140 0.9140 0.9140 0.9120 0.9120
34.077000 0.9110 0.9110 0.9110 0.9110 0.9110
34.132618 0.9120 0.9120 0.9120 0.9120 0.9140
34.188000 0.9140 0.9110 0.9110 0.9070 0.9060
34.243618 0.9040 0.9040 0.9060 0.9040 0.9040
34.300000 0.9020 0.9040 0.9020 0.9020 0.9020
34.355618 0.9020 0.9010 0.8990 0.8970 0.8970
34.411000 0.8970 0.8970 0.8990 0.9010 0.9020
34.466618 0.9010 0.9010 0.9010 0.8990 0.8990
34.522000 0.8990 0.8990 0.8990 0.8990 0.8990
34.577618 0.8990 0.9010 0.9020 0.9010 0.9010
34.633000 0.9010 0.9010 0.9020 0.9020 0.9020
34.688618 0.9020 0.9040 0.9040 0.9070 0.9120
34.744000 0.9140 0.9140 0.9120 0.9090 0.9040
34.799618 0.9020 0.8990 0.8960 0.8940 0.8910
34.855000 0.8870 0.8870 0.8870 0.8890 0.8960
34.910618 0.8970 0.8970 0.8970 0.8990 0.9010
34.967000 0.9010 0.8990 0.9010 0.8990 0.9010
##END=
