##TITLE=Cyclopropyl 4-ethylphenyl carbinol
##JCAMP-DX=4.24
##DATA TYPE=INFRARED SPECTRUM
##ORIGIN=EPA-IR VAPOR PHASE LIBRARY
##OWNER=SRD/NIST
Collection (C) 2018 copyright by the U.S. Secretary of Commerce
on behalf of the United States of America. All rights reserved.
##CAS REGISTRY NO=84100-47-0
##MOLFORM=C 12 H 16 O
##$NIST SOURCE=MSDC-IR
##STATE=gas
##XUNITS=1/CM
##YUNITS=ABSORBANCE
##XFACTOR=1.
##YFACTOR=0.001
##DELTAX=1.92898
##FIRSTX=549.8
##LASTX=4000.7
##FIRSTY=8.02
##MAXX=4000.7
##MINX=549.759
##MAXY=0.06047
##MINY=0.0003779
##NPOINTS=1790
##XYDATA=(X++(Y..Y))
549.759 8.02 7.51 7.04 7.4 7.85 8.15 8.51 8.42 7.59 7.41
569.049 7.99 7.75 6.75 6.55 6.79 6.63 6.81 7.02 6.41 6.03
588.339 5.82 5.49 6.04 6.5 5.87 4.92 4.47 4.97 5.23 4.65
607.628 4.23 4.18 4.39 4.43 3.87 3.54 3.72 3.49 3.28 2.86
626.918 2.41 2.72 2.78 2.57 2.19 1.88 2.16 2.38 2.37 1.9
646.208 1.94 2.03 1.76 1.83 1.78 2.06 2.15 1.64 1.37 1.34
665.498 1.46 1.6 1.55 1.88 2.1 1.97 1.64 1.59 1.89 2.05
684.787 2.17 2.15 2.19 2.16 2.04 1.83 2 2.33 2.51 2.63
704.077 2.35 2.5 2.68 2.62 2.71 2.79 2.91 2.93 3.29 3.71
723.367 3.69 3.52 3.85 4.26 4.48 4.27 4.02 4.43 4.57 4.71
742.657 5.29 5.29 4.8 4.59 4.53 4.48 4.45 4.74 5.13 5.23
761.947 5.25 5.27 5.15 5.26 5.39 5.01 4.94 4.96 5.24 5.97
781.236 5.75 5.29 5.7 6.13 6.62 7.44 7.43 7.78 8.53 9.17
800.526 10.17 11.5 12.73 13.9 15.36 17.05 19 20.94 22.55 23.8
819.816 25.29 26.96 28.53 29.69 30.52 30.79 30.6 29.75 28.85 27.97
839.106 26.88 25.7 24.05 21.72 19.62 18.18 16.62 15.37 14.65 13.7
858.395 12.75 12.07 10.87 9.71 9.05 8.43 7.43 6.62 6.32 5.99
877.685 5.72 4.95 4.56 4.81 4.62 4.15 3.9 4.16 4.11 3.99
896.975 4.55 5.01 5.33 6.04 6.68 7.22 8.04 8.78 9.77 10.57
916.265 11.28 11.7 11.53 11.72 11.5 10.81 10.55 10.7 10.64 11.15
935.555 12.33 13.17 14.18 15.7 16.69 17.26 17.69 17.61 17.32 16.46
954.844 15.79 15.38 14.78 15.05 15.67 16.03 15.67 15.58 16.48 16.76
974.134 16.42 16.04 15.81 16 16.22 16.67 17.12 17.22 18.05 18.89
993.424 19.6 20.87 22.2 23.65 25.59 28.14 30.81 33.2 35.98 39.7
1012.714 43.26 45.83 47 48.14 49.34 49.75 50 49.67 49.31 49.31
1032.003 48.62 47.34 45.69 43.31 40.56 38.53 36.88 34.06 31.42 28.95
1051.293 26.87 25.27 23.9 21.89 19.75 18.58 16.98 16.2 14.8 12.65
1070.583 12.25 11.71 10.23 9.54 9.06 7.75 7.3 7.68 8.29 8.47
1089.873 6.91 6.94 7.69 7.44 7.29 7.56 8.06 8.63 9.36 9.39
1109.163 9.18 9.53 10.37 10.89 11.75 12.23 11.6 11.34 12.11 12.76
1128.452 13.16 13.46 12.9 11.61 11.06 11.36 11.37 10.5 8.42 8.3
1147.742 9.35 9.46 9.21 8.78 9.29 10.03 10.35 10.56 10.76 10.98
1167.032 11.69 12.41 13.32 13.81 14.28 15.52 15.62 16.19 16.31 16.1
1186.322 17.02 16.74 15.75 15.28 15.19 15.61 14.52 13.02 13.65 13.16
1205.611 12.04 13.12 13.44 10.93 10.12 11.4 10.92 10.46 11.09 11.97
1224.901 11.88 12.81 13.5 12.93 13.41 13.25 13.15 12.68 12.55 13.04
1244.191 12.73 12.18 11.7 11.17 10.99 11.35 11.81 11.84 12.3 12.57
1263.481 12.21 12.33 13.27 14.14 14.77 15.7 16.28 16.51 16.54 16.9
1282.771 17.15 17.25 17.14 17.15 17.15 16.89 16.77 16.77 16.71 16.77
1302.060 17.07 17.26 17.48 17.41 17.39 17.56 17.34 17.24 17.31 17.08
1321.350 16.81 16.61 16.33 16.01 15.65 15.32 14.94 14.43 13.87 13.53
1340.640 13.32 12.9 12.47 12.28 12.04 11.77 11.64 11.57 11.57 11.36
1359.930 11.29 11.4 11.34 11.65 11.97 12.23 12.73 13.07 13.53 13.89
1379.219 14.14 14.51 14.88 15.09 15.03 14.81 14.55 14.28 14.03 13.76
1398.509 13.48 13.23 13.21 13.37 13.42 13.46 13.52 13.51 13.58 13.85
1417.799 14.01 13.76 13.56 13.6 13.55 13.38 13.2 12.98 12.63 12.21
1437.089 11.82 11.47 11 10.59 10.36 10.02 9.82 9.93 10.08 10.21
1456.378 10.23 10.45 10.76 10.84 10.92 10.92 10.47 9.99 9.57 8.88
1475.668 8.2 7.61 7.11 6.66 6.54 6.45 6.47 6.76 6.99 7.27
1494.958 7.79 8.52 9.18 10.21 11.52 12.79 14.52 15.95 16.75 17.04
1514.248 16.48 15.23 13.59 11.7 9.68 7.87 6.25 4.95 4.13 3.63
1533.538 3.19 2.97 2.67 2.45 2.62 2.72 2.61 2.36 2.13 2.13
1552.827 2.19 1.97 1.84 1.69 1.7 1.87 1.94 1.95 1.7 1.55
1572.117 1.82 2 1.92 1.91 1.78 1.71 1.7 1.77 1.88 1.7
1591.407 1.59 1.68 1.79 1.96 2.09 2.25 2.49 2.63 2.74 3.03
1610.697 3.2 3.12 3.18 3.25 3.11 2.87 2.51 2.28 2.19 2.05
1629.986 1.87 1.73 1.76 1.68 1.64 1.83 1.98 1.98 2.03 2.18
1649.276 2.2 2.15 2.15 2.19 2.29 2.36 2.3 2.36 2.21 2.08
1668.566 2.01 1.88 1.83 1.79 1.68 1.55 1.67 1.6 1.45 1.47
1687.856 1.47 1.28 1.19 1.27 1.21 1.13 1.17 1.02 0.8409 0.8693
1707.146 0.9511 1.04 1.03 1 0.8117 0.7737 0.8141 0.6696 0.7493 0.8501
1726.435 0.8733 0.8432 0.8067 0.7434 0.8 0.962 1.03 1.09 1.13 1.12
1745.725 1.12 1.24 1.32 1.42 1.57 1.52 1.48 1.6 1.68 1.6
1765.015 1.58 1.7 1.82 1.78 1.89 2.17 2.2 2.27 2.45 2.56
1784.305 2.84 2.94 2.86 2.8 2.61 2.42 2.11 1.81 1.69 1.57
1803.594 1.51 1.45 1.41 1.36 1.32 1.33 1.22 1.12 1.09 1.09
1822.884 1.02 0.9742 1.09 1.1 1.09 1.19 1 0.9351 1.1 1.09
1842.174 1.02 1.07 1.16 1.16 1.12 1.23 1.38 1.38 1.44 1.44
1861.464 1.43 1.38 1.46 1.54 1.62 1.66 1.72 1.89 2.01 2.14
1880.754 2.25 2.38 2.42 2.56 2.72 2.77 2.92 3.1 3.13 3.19
1900.043 3.17 3.04 2.96 2.83 2.85 2.78 2.56 2.4 2.29 2.24
1919.333 2.08 1.86 1.76 1.65 1.68 1.66 1.46 1.39 1.41 1.39
1938.623 1.37 1.21 1.06 1.17 1.23 1.11 0.9444 0.936 1.06 1.07
1957.913 1.06 1.08 1.06 1.03 1.05 1.06 1.02 1.01 0.9209 0.7933
1977.202 0.6923 0.6126 0.6657 0.7946 0.9178 0.9262 0.8254 0.7715 0.7363 0.7448
1996.492 0.7748 0.8796 0.9483 0.857 0.7904 0.7947 0.8296 0.9027 0.9228 0.8415
2015.782 0.8765 0.8724 0.7518 0.8491 1.02 1.13 1.25 1.29 1.26 1.26
2035.072 1.29 1.2 1.21 1.25 1.19 1.28 1.34 1.4 1.48 1.52
2054.362 1.57 1.58 1.57 1.59 1.58 1.58 1.6 1.51 1.5 1.45
2073.651 1.26 1.24 1.43 1.44 1.34 1.18 1.16 1.33 1.33 1.19
2092.941 1.2 1.26 1.28 1.24 1.03 0.989 1.17 1.05 0.935 0.9695
2112.231 0.9621 0.9517 0.8276 0.823 0.9156 0.8399 0.6172 0.5701 0.5666 0.5836
2131.521 0.7308 0.6555 0.611 0.6499 0.7866 0.8965 0.8012 0.753 0.6254 0.5565
2150.810 0.5993 0.8014 0.9396 0.8184 0.8104 0.6916 0.5143 0.4841 0.4572 0.5276
2170.100 0.5645 0.5754 0.4862 0.4799 0.5941 0.6386 0.6975 0.7071 0.6979 0.603
2189.390 0.4557 0.4665 0.7302 0.8629 0.7247 0.7012 0.7751 0.7474 0.7316 0.8511
2208.680 0.7514 0.7195 0.9277 0.8351 0.8081 0.8808 0.8158 0.7724 0.7175 0.6959
2227.970 0.7251 0.8157 0.8944 0.8768 0.6983 0.5736 0.7546 0.8911 0.8778 0.8259
2247.259 0.8135 0.7449 0.6678 0.6361 0.5479 0.6505 0.7141 0.7709 0.8609 0.7724
2266.549 0.8115 0.8625 0.7002 0.5477 0.6421 0.7433 0.818 0.7862 0.6686 0.7139
2285.839 0.8008 0.8474 0.78 0.7561 0.7652 0.8042 0.8109 0.8371 0.9514 0.9497
2305.129 0.7981 0.7743 0.8552 0.8576 0.9956 0.9794 0.9168 0.8747 0.8714 0.8775
2324.418 0.8287 0.7254 0.6431 0.7172 0.733 0.6493 0.7513 1.04 1.03 0.9221
2343.708 0.8979 0.8981 0.959 0.9512 0.927 0.7867 0.688 0.6983 0.6039 0.6018
2362.998 0.6216 0.7151 0.8798 0.811 0.7244 0.781 0.8885 0.8545 0.5958 0.6307
2382.288 0.8209 0.8156 0.7713 0.6519 0.6267 0.6838 0.608 0.5599 0.5348 0.5395
2401.578 0.639 0.7469 0.733 0.689 0.6055 0.6262 0.7744 0.7456 0.7732 1.01
2420.867 0.916 0.8398 0.95 0.8245 0.812 0.9975 0.9961 0.8605 0.9363 0.92
2440.157 0.8208 0.8242 0.83 0.808 0.8038 0.7469 0.7126 0.8632 1 0.9055
2459.447 0.6198 0.6135 0.8033 0.8504 0.8426 0.8738 0.9604 1 1.31 1.39
2478.737 1.01 1.04 1.24 1.07 1.03 1.06 0.7384 0.7351 1.01 0.9946
2498.026 0.8662 0.8531 0.8855 0.9195 0.9109 0.6843 0.6318 0.8963 0.9482 0.968
2517.316 0.9432 0.932 1.11 1.1 0.9581 0.8208 0.9079 0.9282 0.8283 0.8423
2536.606 0.8885 0.9255 0.9464 0.9449 0.9501 0.9057 0.917 0.9855 0.9007 0.8565
2555.896 1.06 1.2 0.9764 0.9495 1.03 0.9387 0.9723 0.9959 1.12 1.09
2575.186 0.9628 1.12 1.15 1.15 1.27 1.2 1.08 0.9956 0.9758 1.03
2594.475 1.01 0.9233 0.8446 0.9916 1.02 1.03 1.18 1.27 1.34 1.28
2613.765 1.28 1.21 0.9954 1.05 1.3 1.3 1.22 1.19 1.15 1.12
2633.055 1.18 1.28 1.25 1.37 1.51 1.39 1.26 1.13 0.953 0.8899
2652.345 1.11 1.14 1 1.07 1.12 1.11 1.08 1.2 1.26 1.16
2671.634 1.16 1.25 1.2 1.13 1.11 0.9961 1.02 1.01 0.8935 0.9549
2690.924 1.25 1.22 1.24 1.2 1.13 1.31 1.29 1.32 1.36 1.14
2710.214 1.03 1.41 1.43 1.16 1.22 1.47 1.51 1.4 1.35 1.31
2729.504 1.33 1.46 1.48 1.62 1.73 1.57 1.75 1.86 1.58 1.59
2748.794 1.71 1.68 1.92 1.94 1.69 1.81 2.02 1.93 2.05 2.13
2768.083 2.25 2.32 2.17 2.13 2.34 2.35 2.13 2.49 2.53 2.19
2787.373 2.25 2.39 2.63 2.81 2.96 2.94 2.73 2.65 2.63 2.78
2806.663 3.06 3.33 3.45 3.48 3.73 3.9 3.9 4.02 4.29 4.67
2825.953 4.87 5.18 5.38 5.69 6.16 6.44 6.87 7.42 8.07 8.69
2845.242 9.19 9.81 10.61 11.7 12.86 13.8 15.14 16.76 18.49 20.45
2864.532 22.26 23.91 25.53 26.78 28.12 29.43 30.41 31.23 31.89 32.43
2883.822 32.58 32.54 32.09 31.19 30.11 28.94 27.48 25.78 24.58 23.72
2903.112 23.14 22.97 22.58 22.05 21.44 20.92 20.52 20.26 20.14 20.15
2922.401 20.61 21.29 22.29 23.71 25.01 26.19 27.84 29.8 31.92 33.65
2941.691 34.57 35.1 34.75 33.82 32.44 30.68 29.08 28.08 28.04 29.01
2960.981 31.32 35.1 40.37 47.06 53.84 58.54 60.47 60.06 57.85 53.14
2980.271 46.1 38.8 32.91 28.89 26.62 25.36 24.7 24.48 24.49 25.26
2999.561 26.69 28.58 31.23 34.21 37.35 40.42 43.34 46.27 48.29 49.56
3018.850 50.19 49.66 48.24 45.85 42.82 39.65 36.39 32.62 28.72 25.58
3038.140 23.11 20.9 19.02 17.83 16.99 16.69 16.16 15.6 15.5 15.25
3057.430 14.9 14.59 14.4 14.24 14.23 14.55 14.97 15.52 16.52 17.59
3076.720 18.84 20.07 21.46 23.02 24.36 25.38 25.47 24.46 23.29 21.74
3096.009 19.37 17.08 14.85 12.49 10.28 8.57 7.3 6.49 5.73 4.89
3115.299 4.23 3.79 3.66 3.77 3.85 3.57 3.33 3.54 3.45 2.98
3134.589 2.79 2.61 2.7 2.62 2.39 2.33 2.17 2.07 1.86 1.7
3153.879 1.6 1.66 1.72 1.54 1.47 1.33 1.31 1.5 1.46 1.58
3173.169 1.61 1.37 1.37 1.47 1.55 1.36 1.18 1.28 1.38 1.18
3192.458 1.06 1.04 1.01 0.9264 0.8356 0.8906 1.02 1.06 0.8576 0.8791
3211.748 0.7947 0.6271 1.02 1.14 0.8134 0.7191 0.5472 0.4957 0.7499 0.9386
3231.038 0.9027 0.7589 0.7057 1.04 1.14 0.7921 0.7807 0.9385 0.7052 0.5973
3250.328 0.7131 0.4466 0.4037 0.5588 0.8525 0.752 0.6629 0.8776 0.7869 0.995
3269.617 0.8185 0.4351 0.5943 0.6341 0.5019 0.6123 0.6766 0.4349 0.452 0.703
3288.907 0.5543 0.4529 0.6042 0.8293 0.9841 0.9026 0.6856 0.4706 0.4163 0.5747
3308.197 0.6392 0.8523 0.9393 0.822 0.7939 0.7925 0.9159 0.6333 0.4044 0.4405
3327.487 0.521 0.5344 0.5764 0.9028 1.02 0.8862 0.8354 0.8176 0.74 0.9337
3346.777 1.16 1.01 1.03 0.984 0.897 0.8169 0.8133 1.15 1.18 1.09
3366.066 1.09 1.14 1.1 0.882 0.8681 1.05 1.03 1.06 1.12 1.05
3385.356 1.14 1.09 0.9501 0.9969 0.8014 0.8714 1.21 1.1 0.7594 0.7809
3404.646 1.03 1.04 1.11 1.11 0.8889 0.8885 0.7715 0.652 0.7767 0.7947
3423.936 0.9753 0.9008 1.1 1.32 1.02 0.8098 0.8382 1.09 0.9448 0.8437
3443.225 1.08 1.02 0.7518 0.6634 0.6983 1.02 1.4 1.11 0.9805 1.35
3462.515 1.31 1.15 0.9866 0.8825 0.9917 0.9389 0.6072 0.5469 0.6501 0.6678
3481.805 0.8794 0.8813 0.7031 0.6422 0.8152 0.8597 0.7838 0.8224 0.7595 0.605
3501.095 0.6153 0.9441 0.8927 0.6063 0.6733 0.7109 0.479 0.7431 1.05 1.01
3520.385 1.08 1.09 1.17 0.9851 0.6953 0.6386 0.6673 0.4565 0.3779 0.8206
3539.674 0.9106 0.6475 0.671 0.8382 0.8528 0.6921 0.5614 0.7155 1.03 1.06
3558.964 1.09 0.9049 0.7195 0.857 0.9677 1.05 1.29 1.22 0.654 0.5939
3578.254 0.8263 1.14 1.35 0.8709 0.5598 0.9788 1.02 1.08 1 0.7843
3597.544 1.16 1.21 1.08 0.8555 0.921 1.18 1.34 1.53 1.61 1.64
3616.833 1.83 2.24 2.61 3.06 3.68 4.54 5.44 6.27 7.24 8.52
3636.123 9.74 10.49 11.34 12.18 12.11 11.81 11.59 10.8 9.94 9.09
3655.413 7.93 6.97 6.15 5.61 5.09 4.37 4.06 3.72 3.4 2.99
3674.703 2.62 2.38 1.88 1.55 1.31 1.16 1.08 1.23 1.36 1.34
3693.993 1.31 1.23 1.42 1.53 1.4 1.24 1.17 1.3 1.24 0.9384
3713.282 1.06 1.22 1.14 1.14 0.9044 0.9061 1.25 1.2 1.1 1.19
3732.572 1.11 1.21 1.26 0.8902 0.6482 0.8362 0.9492 0.7986 0.7966 0.9268
3751.862 0.7483 0.5919 0.8715 0.9677 0.896 0.9805 1.18 1.2 1.21 1.04
3771.152 0.928 1.15 1.1 0.8331 0.8386 0.8589 0.6068 0.7276 0.7844 0.7544
3790.441 0.9916 0.9965 1.08 1.06 1.11 1.16 0.991 0.9268 0.8114 0.7871
3809.731 0.6666 0.607 0.9378 1.02 1.13 1.33 1.27 1.21 1.16 0.7253
3829.021 0.6764 1.27 1.17 0.8813 0.9333 1.2 1.43 1.36 1.21 1.25
3848.311 1.11 1.32 1.41 1.2 1.51 1.21 0.9898 1.33 1.23 1.25
3867.601 1.28 1.18 0.9347 0.9576 1.33 1.51 1.61 1.58 1.25 0.9092
3886.890 0.9085 1.16 1.4 1.09 1.06 1.24 1.23 1.17 1.14 1.17
3906.180 0.9184 0.7279 0.9346 1.06 1.11 1.11 1.16 1.18 1.05 1.22
3925.470 1.43 1.38 1.43 1.44 1.28 1.1 1.14 1.13 0.9705 1.21
3944.760 1.5 1.56 1.33 1.11 1.2 1.33 1.07 0.7953 0.9709 1.16
3964.049 1.16 1.19 1.02 0.8124 1.09 1.48 1.48 1.02 1.03 1.15
3983.339 0.9347 1.07 0.9828 0.9373 1.19 0.8793 0.5235 0.6721 0.9678 1.26
##END=
