##TITLE=9,10-PHENANTHRENEDIONE
##JCAMP-DX=4.24
##DATA TYPE=INFRARED SPECTRUM
##CLASS=COBLENTZ
##ORIGIN=ANDERSON PHYSICAL LABORATORY
##OWNER=COBLENTZ SOCIETY
Collection (C) 2018 copyright by the U.S. Secretary of Commerce
on behalf of the United States of America. All rights reserved.
##DATE=Not specified, most likely prior to 1970
##CAS REGISTRY NO=84-11-7
##MOLFORM=C14 H8 O2
##SOURCE REFERENCE=COBLENTZ NO. 2654
##$NIST SOURCE=COBLENTZ
##$NIST IMAGE=cob2654
##SPECTROMETER/DATA SYSTEM=Not specified, most likely a prism, grating, or hybrid spectrometer.
##STATE=SOLID (1.0% IN KBr PELLET)
##PATH LENGTH=0.0355 CM THICK
##SAMPLING PROCEDURE=TRANSMISSION
##RESOLUTION=4
##DATA PROCESSING=DIGITIZED BY NIST FROM HARD COPY (FROM TWO SEGMENTS)
##XUNITS=1/CM
##YUNITS=TRANSMITTANCE
##XFACTOR=1.000000
##YFACTOR=1
##DELTAX=0.936332
##FIRSTX=665.73
##LASTX=3992.52
##FIRSTY=0.497
##MAXX=3992.52
##MINX=665.73
##MAXY=0.97
##MINY=0.117
##NPOINTS=3554
##XYDATA=(X++(Y..Y))
665.730000 0.4970 0.4970 0.5320 0.5669 0.6428
670.411659 0.6859 0.7009 0.7438 0.7549 0.7580
675.093319 0.7580 0.7440 0.7350 0.6712 0.6291
679.774978 0.6041 0.5911 0.5890 0.5890 0.5920
684.456638 0.6880 0.7409 0.7829 0.8109 0.8379
689.138297 0.8400 0.8430 0.8440 0.8440 0.8430
693.819957 0.8430 0.8410 0.8400 0.8370 0.8310
698.501616 0.8250 0.8170 0.8130 0.8070 0.8010
703.183275 0.7940 0.7860 0.7740 0.7620 0.7441
707.864935 0.7251 0.7001 0.6702 0.6283 0.6052
712.546594 0.5950 0.5940 0.5950 0.6858 0.6860
717.228254 0.6830 0.6740 0.6461 0.6072 0.4064
721.909913 0.2560 0.2440 0.2430 0.2440 0.3078
726.591573 0.3728 0.3800 0.4198 0.4667 0.5127
731.273232 0.6500 0.7590 0.8319 0.8350 0.8320
735.954891 0.8230 0.8081 0.7672 0.7372 0.7002
740.636551 0.6620 0.6310 0.6100 0.4644 0.3384
745.318210 0.2354 0.2131 0.2110 0.2130 0.2339
749.999870 0.2550 0.2760 0.2970 0.3160 0.3160
754.681529 0.3847 0.4527 0.4799 0.5068 0.5587
759.363188 0.6460 0.7410 0.8369 0.8530 0.8640
764.044848 0.8700 0.8730 0.8730 0.8700 0.8670
768.726507 0.8590 0.8520 0.8440 0.8380 0.8221
773.408167 0.8051 0.7383 0.6883 0.6502 0.6351
778.089826 0.6110 0.5890 0.5650 0.5430 0.4762
782.771486 0.4730 0.4740 0.5038 0.5318 0.6373
787.453145 0.7170 0.7400 0.7400 0.7400 0.7141
792.134804 0.6851 0.6820 0.6830 0.7009 0.7815
796.816464 0.8350 0.8860 0.9410 0.9430 0.9430
801.498123 0.9410 0.9370 0.9310 0.9230 0.9190
806.179783 0.9130 0.9040 0.9010 0.8970 0.8920
810.861442 0.8850 0.8770 0.8730 0.8680 0.8610
815.543102 0.8560 0.8500 0.8430 0.8340 0.8250
820.224761 0.8140 0.8040 0.7940 0.7821 0.7711
824.906420 0.7610 0.7500 0.7410 0.7340 0.7260
829.588080 0.7220 0.7170 0.7110 0.7080 0.7070
834.269739 0.7050 0.7050 0.7050 0.7070 0.7110
838.951399 0.7160 0.7220 0.7260 0.7320 0.7409
843.633058 0.7500 0.7610 0.7700 0.7850 0.7970
848.314718 0.8050 0.8140 0.8220 0.8290 0.8379
852.996377 0.8470 0.8490 0.8490 0.8470 0.8470
857.678036 0.8460 0.8340 0.8221 0.7623 0.6984
862.359696 0.6950 0.6940 0.6950 0.7100 0.7309
867.041355 0.7469 0.7709 0.7790 0.7820 0.7850
871.723015 0.7910 0.7920 0.7920 0.7940 0.7940
876.404674 0.7940 0.7950 0.8010 0.8100 0.8229
881.086333 0.8370 0.8530 0.8680 0.8800 0.8910
885.767993 0.8970 0.9080 0.9170 0.9230 0.9319
890.449652 0.9380 0.9400 0.9430 0.9440 0.9440
895.131312 0.9440 0.9440 0.9430 0.9350 0.9290
899.812971 0.9200 0.9100 0.8940 0.8920 0.8920
904.494631 0.8920 0.8950 0.8970 0.9069 0.9169
909.176290 0.9320 0.9370 0.9400 0.9430 0.9430
913.857949 0.9440 0.9440 0.9460 0.9460 0.9470
918.539609 0.9470 0.9470 0.9470 0.9470 0.9470
923.221268 0.9470 0.9470 0.9470 0.9470 0.9470
927.902928 0.9470 0.9470 0.9470 0.9460 0.9440
932.584587 0.9430 0.9410 0.9370 0.9310 0.9290
937.266247 0.9260 0.9220 0.9160 0.8950 0.8770
941.947906 0.8431 0.8191 0.8140 0.8130 0.8140
946.629565 0.8380 0.8610 0.8880 0.9130 0.9379
951.311225 0.9490 0.9500 0.9500 0.9490 0.9490
955.992884 0.9460 0.9430 0.9430 0.9410 0.9410
960.674544 0.9380 0.9380 0.9370 0.9370 0.9340
965.356203 0.9310 0.9280 0.9250 0.9250 0.9220
970.037863 0.9200 0.9190 0.9190 0.9190 0.9190
974.719522 0.9190 0.9190 0.9190 0.9190 0.9190
979.401181 0.9190 0.9190 0.9170 0.9170 0.9130
984.082841 0.9080 0.9050 0.9040 0.9010 0.9000
988.764500 0.9000 0.9010 0.9040 0.9100 0.9219
993.446160 0.9230 0.9230 0.9230 0.9220 0.9220
998.127819 0.9170 0.9140 0.9130 0.9110 0.9100
1002.809478 0.9080 0.9080 0.9080 0.9080 0.9080
1007.491138 0.9080 0.9100 0.9100 0.9130 0.9140
1012.172797 0.9160 0.9170 0.9170 0.9170 0.9170
1016.854457 0.9170 0.9160 0.9160 0.9130 0.9110
1021.536116 0.9080 0.9050 0.9050 0.9040 0.9040
1026.217776 0.9020 0.8980 0.8940 0.8890 0.8830
1030.899435 0.8790 0.8760 0.8740 0.8740 0.8680
1035.581094 0.8520 0.8201 0.8021 0.8010 0.8020
1040.262754 0.8050 0.8200 0.8280 0.8370 0.8380
1044.944413 0.8430 0.8440 0.8619 0.8819 0.9158
1049.626073 0.9220 0.9230 0.9250 0.9250 0.9250
1054.307732 0.9250 0.9220 0.9200 0.9200 0.9190
1058.989392 0.9190 0.9190 0.9190 0.9190 0.9190
1063.671051 0.9190 0.9190 0.9190 0.9170 0.9170
1068.352710 0.9160 0.9160 0.9140 0.9140 0.9130
1073.034370 0.9130 0.9110 0.9100 0.9080 0.9070
1077.716029 0.9050 0.9040 0.9020 0.9010 0.9000
1082.397689 0.8980 0.8970 0.8950 0.8950 0.8940
1087.079348 0.8940 0.8920 0.8920 0.8910 0.8890
1091.761008 0.8880 0.8880 0.8860 0.8860 0.8850
1096.442667 0.8850 0.8830 0.8830 0.8820 0.8800
1101.124326 0.8790 0.8770 0.8770 0.8760 0.8740
1105.805986 0.8740 0.8730 0.8730 0.8710 0.8700
1110.487645 0.8680 0.8680 0.8670 0.8650 0.8640
1115.169305 0.8610 0.8580 0.8530 0.8500 0.8490
1119.850964 0.8460 0.8430 0.8380 0.8340 0.8290
1124.532623 0.8200 0.8130 0.8080 0.8070 0.8050
1129.214283 0.8070 0.8080 0.8130 0.8279 0.8499
1133.895942 0.8520 0.8520 0.8500 0.8490 0.8470
1138.577602 0.8460 0.8460 0.8430 0.8400 0.8370
1143.259261 0.8320 0.8280 0.8190 0.8110 0.8020
1147.940921 0.7950 0.7850 0.7711 0.7521 0.7281
1152.622580 0.6970 0.6620 0.6400 0.5741 0.5730
1157.304239 0.5740 0.6188 0.6937 0.6950 0.7109
1161.985899 0.7280 0.7440 0.7470 0.7620 0.8159
1166.667558 0.8679 0.8800 0.8820 0.8820 0.8820
1171.349218 0.8820 0.8820 0.8800 0.8800 0.8800
1176.030877 0.8790 0.8770 0.8770 0.8760 0.8760
1180.712537 0.8740 0.8730 0.8730 0.8710 0.8670
1185.394196 0.8640 0.8590 0.8590 0.8580 0.8550
1190.075855 0.8550 0.8520 0.8520 0.8520 0.8520
1194.757515 0.8520 0.8500 0.8500 0.8500 0.8500
1199.439174 0.8490 0.8490 0.8490 0.8490 0.8470
1204.120834 0.8470 0.8470 0.8470 0.8470 0.8460
1208.802493 0.8460 0.8440 0.8440 0.8380 0.8370
1213.484153 0.8350 0.8320 0.8290 0.8260 0.8260
1218.165812 0.8250 0.8230 0.8230 0.8230 0.8230
1222.847471 0.8220 0.8220 0.8190 0.8190 0.8140
1227.529131 0.8080 0.8020 0.7970 0.7910 0.7850
1232.210790 0.7790 0.7740 0.7680 0.7650 0.7650
1236.892450 0.7670 0.7730 0.7740 0.7760 0.7770
1241.574109 0.7770 0.7760 0.7710 0.7680 0.7670
1246.255768 0.7650 0.7640 0.7590 0.7520 0.7440
1250.937428 0.7340 0.7290 0.7260 0.7260 0.7280
1255.619087 0.7290 0.7400 0.7610 0.7770 0.7920
1260.300747 0.8050 0.8050 0.8050 0.8040 0.8040
1264.982406 0.8000 0.7950 0.7890 0.7790 0.7700
1269.664066 0.7640 0.7550 0.7430 0.7191 0.6981
1274.345725 0.6710 0.6620 0.6220 0.5801 0.5800
1279.027384 0.5820 0.6069 0.6319 0.6559 0.7316
1283.709044 0.7910 0.8050 0.8040 0.8010 0.8000
1288.390703 0.7950 0.7890 0.7820 0.7760 0.7700
1293.072363 0.7620 0.7560 0.7490 0.7400 0.7320
1297.754022 0.7230 0.7190 0.7160 0.7140 0.7160
1302.435682 0.7230 0.7320 0.7410 0.7490 0.7560
1307.117341 0.7580 0.7580 0.7560 0.7550 0.7530
1311.799000 0.7520 0.7520 0.7490 0.7470 0.7460
1316.480660 0.7460 0.7440 0.7440 0.7430 0.7370
1321.162319 0.7320 0.7310 0.7310 0.7290 0.7260
1325.843979 0.7230 0.7200 0.7160 0.7100 0.7020
1330.525638 0.6980 0.6920 0.6880 0.6820 0.6760
1335.207298 0.6680 0.6560 0.6460 0.6350 0.6280
1339.888957 0.6260 0.6230 0.6230 0.6220 0.6200
1344.570616 0.6200 0.6190 0.6190 0.6170 0.6130
1349.252276 0.6020 0.5890 0.5760 0.5620 0.5470
1353.933935 0.5201 0.4981 0.4821 0.4501 0.3893
1358.615595 0.3489 0.3140 0.3020 0.2880 0.2740
1363.297254 0.2730 0.2740 0.2770 0.2790 0.2790
1367.978913 0.2790 0.2790 0.2730 0.2610 0.2530
1372.660573 0.2500 0.2520 0.2789 0.3288 0.3857
1377.342232 0.4580 0.4820 0.5050 0.5919 0.6489
1382.023892 0.6859 0.7069 0.7229 0.7379 0.7470
1386.705551 0.7590 0.7730 0.7880 0.7940 0.8020
1391.387211 0.8080 0.8100 0.8100 0.8080 0.8010
1396.068870 0.7910 0.7880 0.7830 0.7800 0.7760
1400.750529 0.7700 0.7610 0.7520 0.7430 0.7370
1405.432189 0.7310 0.7220 0.7130 0.7050 0.6950
1410.113848 0.6860 0.6730 0.6591 0.6471 0.6351
1414.795508 0.6250 0.6160 0.6070 0.5980 0.5910
1419.477167 0.5800 0.5700 0.5560 0.5490 0.5201
1424.158827 0.4559 0.4130 0.3830 0.3740 0.3710
1428.840486 0.3730 0.3950 0.4399 0.4759 0.5099
1433.522145 0.5710 0.6020 0.6970 0.7370 0.7979
1438.203805 0.8190 0.8190 0.8170 0.8110 0.8050
1442.885464 0.7950 0.7830 0.7740 0.7680 0.7670
1447.567124 0.7670 0.7680 0.7710 0.7710 0.7730
1452.248783 0.7760 0.7790 0.7800 0.7790 0.7760
1456.930443 0.7670 0.7590 0.7470 0.7380 0.7251
1461.612102 0.7080 0.7000 0.6940 0.6850 0.6650
1466.293761 0.6520 0.5971 0.5671 0.5222 0.4941
1470.975421 0.4709 0.4340 0.4310 0.4320 0.4460
1475.657080 0.4590 0.4789 0.5637 0.6467 0.6968
1480.338740 0.7340 0.7430 0.7470 0.7490 0.7490
1485.020399 0.7470 0.7460 0.7440 0.7430 0.7400
1489.702058 0.7340 0.7250 0.7100 0.6970 0.6880
1494.383718 0.6800 0.6740 0.6700 0.6650 0.6590
1499.065377 0.6530 0.6440 0.6320 0.6250 0.6190
1503.747037 0.6130 0.6100 0.6040 0.5980 0.5880
1508.428696 0.5560 0.5339 0.4820 0.4710 0.4700
1513.110356 0.4730 0.4790 0.4880 0.4970 0.5050
1517.792015 0.5490 0.5621 0.6130 0.6620 0.7080
1522.473674 0.7110 0.7110 0.7110 0.7100 0.7050
1527.155334 0.6970 0.6950 0.6880 0.6860 0.6830
1531.836993 0.6740 0.6730 0.6620 0.6580 0.6471
1536.518653 0.6340 0.6250 0.6170 0.6100 0.6020
1541.200312 0.5940 0.5860 0.5790 0.5710 0.5650
1545.881972 0.5610 0.5560 0.5500 0.5490 0.5430
1550.563631 0.5320 0.5230 0.5140 0.4881 0.4651
1555.245290 0.4640 0.4640 0.4650 0.4710 0.4950
1559.926950 0.5100 0.5230 0.5499 0.5699 0.5820
1564.608609 0.5860 0.5910 0.5910 0.5910 0.5890
1569.290269 0.5860 0.5850 0.5770 0.5640 0.5530
1573.971928 0.5440 0.5370 0.5290 0.5190 0.4920
1578.653588 0.4860 0.4700 0.4580 0.4460 0.4440
1583.335247 0.4380 0.4340 0.4280 0.4230 0.4170
1588.016906 0.4130 0.4100 0.4080 0.3970 0.3910
1592.698566 0.3710 0.3610 0.3490 0.3350 0.3230
1597.380225 0.3020 0.2830 0.2671 0.2491 0.2321
1602.061885 0.2160 0.2010 0.1830 0.1650 0.1460
1606.743544 0.1440 0.1430 0.1430 0.1440 0.1460
1611.425203 0.1590 0.1790 0.2010 0.2190 0.2470
1616.106863 0.2700 0.2890 0.3000 0.3010 0.3010
1620.788522 0.3010 0.3000 0.2940 0.2850 0.2730
1625.470182 0.2580 0.2440 0.2280 0.2160 0.2130
1630.151841 0.2130 0.2130 0.2140 0.2160 0.2220
1634.833501 0.2310 0.2400 0.2530 0.2590 0.2620
1639.515160 0.2640 0.2650 0.2650 0.2640 0.2610
1644.196819 0.2580 0.2520 0.2430 0.2320 0.2220
1648.878479 0.2110 0.2000 0.1880 0.1740 0.1550
1653.560138 0.1430 0.1290 0.1190 0.1170 0.1170
1658.241798 0.1170 0.1170 0.1190 0.1190 0.1200
1662.923457 0.1220 0.1250 0.1310 0.1350 0.1430
1667.605117 0.1500 0.1650 0.1880 0.2040 0.2220
1672.286776 0.2460 0.2670 0.2850 0.3069 0.3319
1676.968435 0.3621 0.3941 0.4280 0.4620 0.4970
1681.650095 0.5130 0.5290 0.5609 0.5879 0.6109
1686.331754 0.6310 0.6460 0.6520 0.6610 0.6650
1691.013414 0.6760 0.6940 0.7080 0.7249 0.7439
1695.695073 0.7640 0.7850 0.8020 0.8250 0.8430
1700.376733 0.8550 0.8620 0.8680 0.8730 0.8790
1705.058392 0.8850 0.8920 0.8970 0.8980 0.9020
1709.740051 0.9050 0.9080 0.9130 0.9200 0.9280
1714.421711 0.9350 0.9440 0.9470 0.9490 0.9520
1719.103370 0.9520 0.9500 0.9500 0.9500 0.9490
1723.785030 0.9490 0.9490 0.9500 0.9520 0.9530
1728.466689 0.9530 0.9530 0.9550 0.9550 0.9550
1733.148348 0.9550 0.9550 0.9550 0.9550 0.9550
1737.830008 0.9530 0.9530 0.9520 0.9520 0.9520
1742.511667 0.9520 0.9520 0.9520 0.9520 0.9530
1747.193327 0.9530 0.9530 0.9530 0.9550 0.9560
1751.874986 0.9560 0.9580 0.9580 0.9590 0.9590
1756.556646 0.9610 0.9610 0.9610 0.9610 0.9590
1761.238305 0.9590 0.9580 0.9580 0.9560 0.9560
1765.919964 0.9550 0.9550 0.9550 0.9550 0.9550
1770.601624 0.9530 0.9530 0.9530 0.9520 0.9500
1775.283283 0.9490 0.9470 0.9460 0.9460 0.9470
1779.964943 0.9490 0.9500 0.9520 0.9520 0.9520
1784.646602 0.9530 0.9550 0.9550 0.9550 0.9550
1789.328262 0.9550 0.9550 0.9520 0.9470 0.9460
1794.009921 0.9410 0.9380 0.9370 0.9370 0.9370
1798.691580 0.9370 0.9370 0.9370 0.9370 0.9380
1803.373240 0.9380 0.9400 0.9460 0.9470 0.9470
1808.054899 0.9530 0.9580 0.9590 0.9590 0.9610
1812.736559 0.9610 0.9610 0.9610 0.9610 0.9610
1817.418218 0.9610 0.9590 0.9580 0.9580 0.9550
1822.099878 0.9530 0.9520 0.9520 0.9490 0.9470
1826.781537 0.9460 0.9440 0.9430 0.9430 0.9410
1831.463196 0.9400 0.9400 0.9400 0.9410 0.9430
1836.144856 0.9430 0.9470 0.9520 0.9530 0.9580
1840.826515 0.9580 0.9590 0.9590 0.9590 0.9590
1845.508175 0.9590 0.9590 0.9590 0.9590 0.9590
1850.189834 0.9590 0.9590 0.9560 0.9520 0.9490
1854.871493 0.9470 0.9470 0.9470 0.9470 0.9490
1859.553153 0.9490 0.9490 0.9500 0.9520 0.9530
1864.234812 0.9580 0.9620 0.9640 0.9650 0.9650
1868.916472 0.9650 0.9670 0.9670 0.9670 0.9670
1873.598131 0.9650 0.9650 0.9640 0.9640 0.9620
1878.279791 0.9610 0.9610 0.9610 0.9610 0.9610
1882.961450 0.9620 0.9640 0.9650 0.9670 0.9680
1887.643109 0.9680 0.9700 0.9700 0.9700 0.9700
1892.324769 0.9700 0.9700 0.9700 0.9680 0.9680
1897.006428 0.9680 0.9670 0.9650 0.9650 0.9640
1901.688088 0.9640 0.9610 0.9610 0.9610 0.9590
1906.369747 0.9560 0.9550 0.9500 0.9490 0.9490
1911.051407 0.9470 0.9470 0.9460 0.9460 0.9460
1915.733066 0.9460 0.9470 0.9470 0.9490 0.9500
1920.414725 0.9520 0.9530 0.9530 0.9560 0.9560
1925.096385 0.9580 0.9610 0.9620 0.9640 0.9650
1929.778044 0.9650 0.9650 0.9640 0.9610 0.9590
1934.459704 0.9590 0.9580 0.9560 0.9550 0.9550
1939.141363 0.9530 0.9500 0.9470 0.9410 0.9380
1943.823023 0.9320 0.9290 0.9280 0.9260 0.9260
1948.504682 0.9280 0.9280 0.9290 0.9320 0.9370
1953.186341 0.9410 0.9460 0.9470 0.9490 0.9520
1957.868001 0.9520 0.9530 0.9530 0.9550 0.9560
1962.549660 0.9560 0.9560 0.9560 0.9560 0.9560
1967.231320 0.9560 0.9560 0.9550 0.9550 0.9530
1971.912979 0.9530 0.9500 0.9470 0.9440 0.9410
1976.594638 0.9410 0.9410 0.9410 0.9430 0.9440
1981.276298 0.9460 0.9490 0.9500 0.9520 0.9520
1985.957957 0.9520 0.9530 0.9530 0.9530 0.9530
1990.639617 0.9530 0.9530 0.9530 0.9530 0.9530
1995.321276 0.9530 0.9530 0.9530 0.9530 0.9530
2000.002936 0.9530 0.9530 0.9530 0.9530 0.9530
2004.684595 0.9530 0.9530 0.9530 0.9530 0.9527
2009.366254 0.9525 0.9522 0.9520 0.9520 0.9520
2014.047914 0.9520 0.9520 0.9507 0.9495 0.9482
2018.729573 0.9470 0.9467 0.9465 0.9462 0.9460
2023.411233 0.9455 0.9450 0.9445 0.9440 0.9432
2028.092892 0.9425 0.9417 0.9410 0.9410 0.9410
2032.774552 0.9410 0.9410 0.9410 0.9410 0.9410
2037.456211 0.9410 0.9410 0.9410 0.9410 0.9410
2042.137870 0.9410 0.9410 0.9410 0.9410 0.9407
2046.819530 0.9405 0.9402 0.9400 0.9400 0.9400
2051.501189 0.9400 0.9400 0.9400 0.9400 0.9400
2056.182849 0.9399 0.9394 0.9389 0.9384 0.9380
2060.864508 0.9380 0.9380 0.9380 0.9380 0.9380
2065.546168 0.9380 0.9380 0.9379 0.9377 0.9374
2070.227827 0.9372 0.9370 0.9370 0.9370 0.9370
2074.909486 0.9370 0.9370 0.9370 0.9370 0.9370
2079.591146 0.9370 0.9370 0.9370 0.9368 0.9363
2084.272805 0.9358 0.9353 0.9349 0.9347 0.9344
2088.954465 0.9342 0.9340 0.9340 0.9340 0.9340
2093.636124 0.9338 0.9333 0.9328 0.9323 0.9320
2098.317783 0.9320 0.9320 0.9320 0.9319 0.9317
2102.999443 0.9314 0.9312 0.9310 0.9310 0.9310
2107.681102 0.9310 0.9310 0.9310 0.9310 0.9310
2112.362762 0.9310 0.9310 0.9310 0.9310 0.9310
2117.044421 0.9310 0.9310 0.9310 0.9310 0.9310
2121.726081 0.9310 0.9310 0.9310 0.9310 0.9310
2126.407740 0.9310 0.9308 0.9303 0.9298 0.9293
2131.089399 0.9290 0.9290 0.9290 0.9290 0.9289
2135.771059 0.9286 0.9284 0.9281 0.9276 0.9269
2140.452718 0.9261 0.9254 0.9246 0.9239 0.9231
2145.134378 0.9224 0.9220 0.9220 0.9220 0.9220
2149.816037 0.9220 0.9220 0.9220 0.9220 0.9220
2154.497697 0.9220 0.9220 0.9220 0.9220 0.9220
2159.179356 0.9220 0.9220 0.9217 0.9212 0.9207
2163.861015 0.9202 0.9200 0.9200 0.9200 0.9200
2168.542675 0.9198 0.9196 0.9193 0.9191 0.9187
2173.224334 0.9182 0.9177 0.9172 0.9170 0.9170
2177.905994 0.9170 0.9170 0.9170 0.9170 0.9170
2182.587653 0.9170 0.9170 0.9170 0.9170 0.9170
2187.269313 0.9170 0.9170 0.9170 0.9170 0.9168
2191.950972 0.9166 0.9163 0.9161 0.9156 0.9151
2196.632631 0.9146 0.9141 0.9134 0.9127 0.9119
2201.314291 0.9112 0.9108 0.9106 0.9103 0.9101
2205.995950 0.9100 0.9100 0.9100 0.9100 0.9096
2210.677610 0.9091 0.9086 0.9081 0.9080 0.9080
2215.359269 0.9080 0.9080 0.9080 0.9080 0.9080
2220.040928 0.9080 0.9078 0.9075 0.9073 0.9070
2224.722588 0.9059 0.9046 0.9034 0.9021 0.9018
2229.404247 0.9015 0.9013 0.9010 0.9008 0.9005
2234.085907 0.9003 0.9000 0.8995 0.8990 0.8985
2238.767566 0.8980 0.8978 0.8975 0.8973 0.8970
2243.449226 0.8970 0.8970 0.8970 0.8970 0.8970
2248.130885 0.8970 0.8970 0.8970 0.8965 0.8960
2252.812544 0.8955 0.8950 0.8950 0.8950 0.8950
2257.494204 0.8950 0.8950 0.8950 0.8950 0.8950
2262.175863 0.8947 0.8945 0.8942 0.8940 0.8940
2266.857523 0.8940 0.8940 0.8940 0.8940 0.8940
2271.539182 0.8940 0.8940 0.8935 0.8930 0.8925
2276.220842 0.8920 0.8920 0.8920 0.8920 0.8919
2280.902501 0.8912 0.8904 0.8897 0.8890 0.8887
2285.584160 0.8885 0.8882 0.8879 0.8874 0.8869
2290.265820 0.8864 0.8860 0.8857 0.8855 0.8852
2294.947479 0.8849 0.8844 0.8839 0.8834 0.8830
2299.629139 0.8827 0.8825 0.8822 0.8817 0.8802
2304.310798 0.8787 0.8772 0.8757 0.8742 0.8727
2308.992458 0.8712 0.8698 0.8691 0.8683 0.8676
2313.674117 0.8665 0.8645 0.8625 0.8605 0.8588
2318.355776 0.8578 0.8568 0.8558 0.8548 0.8541
2323.037436 0.8533 0.8526 0.8520 0.8520 0.8520
2327.719095 0.8520 0.8520 0.8520 0.8520 0.8520
2332.400755 0.8520 0.8520 0.8520 0.8520 0.8521
2337.082414 0.8523 0.8526 0.8528 0.8533 0.8540
2341.764073 0.8548 0.8555 0.8563 0.8570 0.8578
2346.445733 0.8585 0.8590 0.8590 0.8590 0.8590
2351.127392 0.8590 0.8590 0.8590 0.8590 0.8590
2355.809052 0.8590 0.8590 0.8590 0.8590 0.8590
2360.490711 0.8590 0.8590 0.8590 0.8590 0.8590
2365.172371 0.8590 0.8589 0.8586 0.8584 0.8581
2369.854030 0.8580 0.8580 0.8580 0.8580 0.8578
2374.535689 0.8573 0.8567 0.8562 0.8560 0.8560
2379.217349 0.8560 0.8560 0.8560 0.8560 0.8560
2383.899008 0.8560 0.8559 0.8556 0.8554 0.8551
2388.580668 0.8547 0.8542 0.8537 0.8532 0.8530
2393.262327 0.8530 0.8530 0.8530 0.8529 0.8526
2397.943987 0.8524 0.8521 0.8520 0.8520 0.8520
2402.625646 0.8520 0.8517 0.8512 0.8507 0.8502
2407.307305 0.8496 0.8488 0.8480 0.8473 0.8468
2411.988965 0.8466 0.8463 0.8461 0.8457 0.8452
2416.670624 0.8447 0.8442 0.8438 0.8436 0.8433
2421.352284 0.8431 0.8427 0.8422 0.8417 0.8412
2426.033943 0.8408 0.8406 0.8403 0.8401 0.8397
2430.715603 0.8392 0.8387 0.8382 0.8378 0.8376
2435.397262 0.8373 0.8371 0.8370 0.8370 0.8370
2440.078921 0.8370 0.8365 0.8357 0.8350 0.8342
2444.760581 0.8335 0.8327 0.8319 0.8312 0.8306
2449.442240 0.8301 0.8296 0.8291 0.8284 0.8276
2454.123900 0.8269 0.8261 0.8258 0.8255 0.8253
2458.805559 0.8250 0.8246 0.8241 0.8236 0.8231
2463.487218 0.8230 0.8230 0.8230 0.8230 0.8228
2468.168878 0.8225 0.8223 0.8220 0.8220 0.8220
2472.850537 0.8220 0.8220 0.8220 0.8220 0.8220
2477.532197 0.8220 0.8216 0.8211 0.8206 0.8201
2482.213856 0.8191 0.8181 0.8171 0.8161 0.8153
2486.895516 0.8145 0.8138 0.8130 0.8130 0.8130
2491.577175 0.8130 0.8130 0.8125 0.8120 0.8115
2496.258834 0.8110 0.8108 0.8105 0.8103 0.8100
2500.940494 0.8095 0.8090 0.8085 0.8080 0.8073
2505.622153 0.8065 0.8058 0.8050 0.8048 0.8045
2510.303813 0.8043 0.8040 0.8035 0.8030 0.8025
2514.985472 0.8020 0.8017 0.8015 0.8012 0.8010
2519.667132 0.8002 0.7995 0.7987 0.7980 0.7977
2524.348791 0.7975 0.7972 0.7970 0.7970 0.7970
2529.030450 0.7970 0.7969 0.7964 0.7959 0.7954
2533.712110 0.7950 0.7947 0.7945 0.7942 0.7940
2538.393769 0.7940 0.7940 0.7940 0.7939 0.7934
2543.075429 0.7929 0.7924 0.7920 0.7920 0.7920
2547.757088 0.7920 0.7920 0.7917 0.7915 0.7912
2552.438748 0.7909 0.7904 0.7899 0.7894 0.7890
2557.120407 0.7887 0.7884 0.7882 0.7879 0.7874
2561.802066 0.7869 0.7864 0.7857 0.7847 0.7837
2566.483726 0.7827 0.7819 0.7814 0.7809 0.7804
2571.165385 0.7799 0.7797 0.7794 0.7792 0.7790
2575.847045 0.7790 0.7790 0.7790 0.7789 0.7784
2580.528704 0.7779 0.7774 0.7769 0.7767 0.7764
2585.210363 0.7762 0.7758 0.7750 0.7743 0.7735
2589.892023 0.7728 0.7720 0.7713 0.7705 0.7696
2594.573682 0.7683 0.7671 0.7658 0.7647 0.7640
2599.255342 0.7632 0.7625 0.7617 0.7609 0.7602
2603.937001 0.7594 0.7589 0.7586 0.7584 0.7581
2608.618661 0.7577 0.7569 0.7562 0.7554 0.7547
2613.300320 0.7539 0.7532 0.7524 0.7518 0.7513
2617.981979 0.7508 0.7503 0.7499 0.7496 0.7494
2622.663639 0.7491 0.7488 0.7483 0.7478 0.7473
2627.345298 0.7469 0.7466 0.7464 0.7461 0.7456
2632.026958 0.7449 0.7441 0.7434 0.7422 0.7407
2636.708617 0.7392 0.7377 0.7367 0.7362 0.7357
2641.390277 0.7352 0.7344 0.7334 0.7324 0.7314
2646.071936 0.7306 0.7298 0.7291 0.7283 0.7280
2650.753595 0.7280 0.7280 0.7280 0.7277 0.7272
2655.435255 0.7267 0.7262 0.7259 0.7256 0.7254
2660.116914 0.7251 0.7250 0.7250 0.7250 0.7250
2664.798574 0.7247 0.7242 0.7237 0.7232 0.7228
2669.480233 0.7226 0.7223 0.7221 0.7217 0.7212
2674.161893 0.7207 0.7202 0.7198 0.7196 0.7193
2678.843552 0.7191 0.7186 0.7181 0.7176 0.7171
2683.525211 0.7165 0.7157 0.7150 0.7142 0.7135
2688.206871 0.7127 0.7120 0.7112 0.7099 0.7084
2692.888530 0.7069 0.7054 0.7048 0.7046 0.7043
2697.570190 0.7041 0.7036 0.7031 0.7026 0.7021
2702.251849 0.7020 0.7020 0.7020 0.7020 0.7018
2706.933508 0.7016 0.7013 0.7010 0.7010 0.7010
2711.615168 0.7010 0.7010 0.7008 0.7005 0.7003
2716.296827 0.7000 0.7000 0.7000 0.7000 0.7000
2720.978487 0.6996 0.6991 0.6986 0.6981 0.6980
2725.660146 0.6980 0.6980 0.6980 0.6978 0.6975
2730.341806 0.6973 0.6970 0.6970 0.6970 0.6970
2735.023465 0.6970 0.6966 0.6961 0.6956 0.6950
2739.705124 0.6948 0.6945 0.6943 0.6940 0.6935
2744.386784 0.6930 0.6925 0.6920 0.6920 0.6920
2749.068443 0.6920 0.6920 0.6913 0.6905 0.6897
2753.750103 0.6890 0.6887 0.6885 0.6882 0.6880
2758.431762 0.6875 0.6870 0.6865 0.6860 0.6852
2763.113422 0.6845 0.6837 0.6830 0.6827 0.6825
2767.795081 0.6822 0.6820 0.6815 0.6810 0.6805
2772.476740 0.6799 0.6784 0.6769 0.6754 0.6739
2777.158400 0.6724 0.6709 0.6694 0.6679 0.6661
2781.840059 0.6643 0.6625 0.6607 0.6584 0.6562
2786.521719 0.6539 0.6517 0.6494 0.6472 0.6449
2791.203378 0.6427 0.6404 0.6381 0.6359 0.6336
2795.885038 0.6308 0.6280 0.6253 0.6226 0.6204
2800.566697 0.6181 0.6159 0.6136 0.6111 0.6085
2805.248356 0.6060 0.6035 0.6010 0.5985 0.5960
2809.930016 0.5935 0.5907 0.5880 0.5852 0.5827
2814.611675 0.5812 0.5797 0.5782 0.5768 0.5761
2819.293335 0.5753 0.5745 0.5739 0.5737 0.5734
2823.974994 0.5732 0.5730 0.5730 0.5730 0.5730
2828.656653 0.5730 0.5730 0.5730 0.5730 0.5728
2833.338313 0.5723 0.5718 0.5713 0.5707 0.5697
2838.019972 0.5687 0.5677 0.5660 0.5630 0.5600
2842.701632 0.5570 0.5546 0.5533 0.5521 0.5508
2847.383291 0.5497 0.5490 0.5482 0.5475 0.5465
2852.064951 0.5450 0.5435 0.5420 0.5406 0.5396
2856.746610 0.5386 0.5376 0.5368 0.5363 0.5358
2861.428269 0.5353 0.5350 0.5350 0.5350 0.5350
2866.109929 0.5350 0.5350 0.5350 0.5350 0.5350
2870.791588 0.5350 0.5350 0.5350 0.5352 0.5357
2875.473248 0.5362 0.5367 0.5370 0.5370 0.5370
2880.154907 0.5370 0.5371 0.5374 0.5376 0.5379
2884.836567 0.5380 0.5380 0.5380 0.5380 0.5380
2889.518226 0.5380 0.5380 0.5380 0.5380 0.5380
2894.199885 0.5380 0.5380 0.5379 0.5376 0.5374
2898.881545 0.5371 0.5367 0.5362 0.5357 0.5352
2903.563204 0.5348 0.5346 0.5343 0.5341 0.5340
2908.244864 0.5340 0.5340 0.5340 0.5337 0.5332
2912.926523 0.5327 0.5322 0.5318 0.5316 0.5313
2917.608183 0.5311 0.5307 0.5302 0.5297 0.5292
2922.289842 0.5288 0.5286 0.5283 0.5281 0.5267
2926.971501 0.5247 0.5227 0.5207 0.5188 0.5170
2931.653161 0.5153 0.5135 0.5119 0.5104 0.5089
2936.334820 0.5074 0.5066 0.5061 0.5056 0.5051
2941.016480 0.5031 0.5006 0.4981 0.4956 0.4939
2945.698139 0.4924 0.4909 0.4894 0.4882 0.4872
2950.379798 0.4862 0.4852 0.4844 0.4837 0.4829
2955.061458 0.4822 0.4814 0.4807 0.4799 0.4792
2959.743117 0.4780 0.4768 0.4755 0.4743 0.4726
2964.424777 0.4709 0.4691 0.4673 0.4654 0.4633
2969.106436 0.4613 0.4592 0.4581 0.4571 0.4561
2973.788096 0.4551 0.4537 0.4522 0.4507 0.4491
2978.469755 0.4483 0.4476 0.4468 0.4461 0.4449
2983.151414 0.4436 0.4424 0.4411 0.4396 0.4381
2987.833074 0.4366 0.4351 0.4336 0.4321 0.4306
2992.514733 0.4291 0.4283 0.4275 0.4268 0.4260
2997.196393 0.4251 0.4241 0.4231 0.4221 0.4215
3001.878052 0.4210 0.4205 0.4200 0.4198 0.4195
3006.559712 0.4192 0.4190 0.4185 0.4180 0.4175
3011.241371 0.4170 0.4170 0.4170 0.4170 0.4170
3015.923030 0.4170 0.4170 0.4170 0.4170 0.4175
3020.604690 0.4180 0.4185 0.4190 0.4198 0.4206
3025.286349 0.4213 0.4221 0.4239 0.4256 0.4274
3029.968009 0.4292 0.4312 0.4332 0.4352 0.4371
3034.649668 0.4386 0.4401 0.4416 0.4431 0.4446
3039.331328 0.4461 0.4477 0.4492 0.4515 0.4538
3044.012987 0.4561 0.4583 0.4598 0.4613 0.4628
3048.694646 0.4643 0.4658 0.4673 0.4688 0.4701
3053.376306 0.4703 0.4706 0.4708 0.4711 0.4716
3058.057965 0.4721 0.4726 0.4730 0.4730 0.4730
3062.739625 0.4730 0.4729 0.4724 0.4719 0.4714
3067.421284 0.4708 0.4701 0.4693 0.4686 0.4678
3072.102943 0.4671 0.4663 0.4656 0.4648 0.4641
3076.784603 0.4633 0.4626 0.4620 0.4620 0.4620
3081.466262 0.4620 0.4619 0.4617 0.4614 0.4612
3086.147922 0.4607 0.4600 0.4592 0.4585 0.4580
3090.829581 0.4580 0.4580 0.4580 0.4578 0.4573
3095.511241 0.4568 0.4563 0.4560 0.4560 0.4560
3100.192900 0.4560 0.4560 0.4560 0.4560 0.4560
3104.874559 0.4560 0.4560 0.4560 0.4560 0.4560
3109.556219 0.4560 0.4560 0.4560 0.4560 0.4560
3114.237878 0.4560 0.4560 0.4560 0.4560 0.4560
3118.919538 0.4560 0.4560 0.4560 0.4560 0.4560
3123.601197 0.4560 0.4560 0.4560 0.4560 0.4562
3128.282857 0.4568 0.4573 0.4578 0.4580 0.4580
3132.964516 0.4580 0.4580 0.4584 0.4591 0.4599
3137.646175 0.4606 0.4618 0.4633 0.4648 0.4663
3142.327835 0.4682 0.4704 0.4727 0.4750 0.4777
3147.009494 0.4810 0.4843 0.4875 0.4905 0.4933
3151.691154 0.4960 0.4988 0.5011 0.5032 0.5052
3156.372813 0.5073 0.5112 0.5162 0.5212 0.5262
3161.054473 0.5310 0.5358 0.5406 0.5453 0.5499
3165.736132 0.5544 0.5589 0.5634 0.5683 0.5733
3170.417791 0.5783 0.5833 0.5878 0.5921 0.5963
3175.099451 0.6006 0.6049 0.6091 0.6134 0.6176
3179.781110 0.6215 0.6253 0.6291 0.6328 0.6362
3184.462770 0.6395 0.6427 0.6460 0.6484 0.6504
3189.144429 0.6524 0.6544 0.6573 0.6606 0.6640
3193.826088 0.6673 0.6702 0.6729 0.6757 0.6784
3198.507748 0.6814 0.6844 0.6874 0.6904 0.6918
3203.189407 0.6928 0.6938 0.6948 0.6954 0.6959
3207.871067 0.6964 0.6969 0.6972 0.6975 0.6977
3212.552726 0.6980 0.6980 0.6980 0.6980 0.6980
3217.234386 0.6980 0.6980 0.6980 0.6980 0.6980
3221.916045 0.6980 0.6980 0.6980 0.6980 0.6980
3226.597704 0.6980 0.6980 0.6980 0.6980 0.6980
3231.279364 0.6980 0.6980 0.6980 0.6980 0.6980
3235.961023 0.6980 0.6980 0.6980 0.6980 0.6980
3240.642683 0.6980 0.6980 0.6980 0.6985 0.6990
3245.324342 0.6995 0.7000 0.7000 0.7000 0.7000
3250.006002 0.7000 0.7000 0.7000 0.7000 0.7000
3254.687661 0.7002 0.7005 0.7007 0.7010 0.7010
3259.369320 0.7010 0.7010 0.7010 0.7027 0.7045
3264.050980 0.7062 0.7080 0.7085 0.7090 0.7095
3268.732639 0.7101 0.7111 0.7121 0.7131 0.7141
3273.414299 0.7154 0.7166 0.7179 0.7191 0.7198
3278.095958 0.7206 0.7213 0.7221 0.7228 0.7236
3282.777618 0.7243 0.7250 0.7250 0.7250 0.7250
3287.459277 0.7250 0.7253 0.7255 0.7258 0.7260
3292.140936 0.7260 0.7260 0.7260 0.7260 0.7257
3296.822596 0.7255 0.7252 0.7250 0.7250 0.7250
3301.504255 0.7250 0.7249 0.7244 0.7239 0.7234
3306.185915 0.7229 0.7227 0.7224 0.7222 0.7218
3310.867574 0.7211 0.7203 0.7196 0.7188 0.7181
3315.549233 0.7173 0.7166 0.7159 0.7154 0.7149
3320.230893 0.7144 0.7137 0.7127 0.7117 0.7107
3324.912552 0.7095 0.7075 0.7055 0.7035 0.7017
3329.594212 0.7004 0.6992 0.6979 0.6966 0.6954
3334.275871 0.6941 0.6929 0.6918 0.6910 0.6903
3338.957531 0.6895 0.6888 0.6880 0.6872 0.6865
3343.639190 0.6857 0.6850 0.6842 0.6835 0.6826
3348.320849 0.6816 0.6806 0.6796 0.6785 0.6773
3353.002509 0.6760 0.6747 0.6739 0.6736 0.6734
3357.684168 0.6731 0.6721 0.6698 0.6676 0.6653
3362.365828 0.6638 0.6633 0.6628 0.6623 0.6616
3367.047487 0.6606 0.6596 0.6586 0.6575 0.6562
3371.729147 0.6550 0.6537 0.6527 0.6519 0.6512
3376.410806 0.6504 0.6495 0.6485 0.6475 0.6465
3381.092465 0.6452 0.6437 0.6422 0.6407 0.6384
3385.774125 0.6354 0.6324 0.6294 0.6276 0.6268
3390.455784 0.6261 0.6253 0.6247 0.6242 0.6237
3395.137444 0.6232 0.6229 0.6226 0.6224 0.6221
3399.819103 0.6220 0.6220 0.6220 0.6220 0.6220
3404.500763 0.6220 0.6220 0.6220 0.6220 0.6220
3409.182422 0.6220 0.6220 0.6221 0.6224 0.6226
3413.864081 0.6229 0.6230 0.6230 0.6230 0.6230
3418.545741 0.6228 0.6226 0.6223 0.6221 0.6220
3423.227400 0.6220 0.6220 0.6220 0.6215 0.6207
3427.909060 0.6200 0.6192 0.6190 0.6190 0.6190
3432.590719 0.6190 0.6186 0.6181 0.6176 0.6171
3437.272378 0.6170 0.6170 0.6170 0.6170 0.6170
3441.954038 0.6170 0.6170 0.6170 0.6174 0.6179
3446.635697 0.6184 0.6189 0.6192 0.6194 0.6197
3451.317357 0.6199 0.6204 0.6209 0.6214 0.6219
3455.999016 0.6222 0.6225 0.6227 0.6230 0.6236
3460.680676 0.6244 0.6251 0.6259 0.6264 0.6269
3465.362335 0.6274 0.6279 0.6282 0.6285 0.6287
3470.043994 0.6290 0.6296 0.6304 0.6311 0.6319
3474.725654 0.6324 0.6329 0.6334 0.6339 0.6347
3479.407313 0.6354 0.6362 0.6369 0.6372 0.6375
3484.088973 0.6377 0.6380 0.6380 0.6380 0.6380
3488.770632 0.6380 0.6385 0.6390 0.6395 0.6400
3493.452292 0.6400 0.6400 0.6400 0.6400 0.6402
3498.133951 0.6405 0.6407 0.6410 0.6417 0.6425
3502.815610 0.6432 0.6440 0.6440 0.6440 0.6440
3507.497270 0.6440 0.6445 0.6450 0.6455 0.6460
3512.178929 0.6463 0.6465 0.6468 0.6470 0.6475
3516.860589 0.6480 0.6485 0.6490 0.6493 0.6495
3521.542248 0.6498 0.6500 0.6505 0.6510 0.6515
3526.223908 0.6520 0.6528 0.6536 0.6543 0.6550
3530.905567 0.6553 0.6555 0.6558 0.6561 0.6566
3535.587226 0.6571 0.6576 0.6581 0.6589 0.6596
3540.268886 0.6604 0.6610 0.6613 0.6615 0.6618
3544.950545 0.6621 0.6626 0.6631 0.6636 0.6640
3549.632205 0.6643 0.6645 0.6648 0.6651 0.6656
3554.313864 0.6661 0.6666 0.6670 0.6673 0.6675
3558.995523 0.6678 0.6680 0.6680 0.6680 0.6680
3563.677183 0.6681 0.6689 0.6697 0.6704 0.6712
3568.358842 0.6720 0.6727 0.6735 0.6741 0.6746
3573.040502 0.6751 0.6756 0.6761 0.6763 0.6766
3577.722161 0.6768 0.6772 0.6776 0.6782 0.6787
3582.403821 0.6791 0.6793 0.6796 0.6798 0.6802
3587.085480 0.6807 0.6812 0.6817 0.6820 0.6820
3591.767139 0.6820 0.6820 0.6820 0.6820 0.6820
3596.448799 0.6820 0.6821 0.6823 0.6826 0.6828
3601.130458 0.6830 0.6830 0.6830 0.6830 0.6830
3605.812118 0.6830 0.6830 0.6830 0.6830 0.6830
3610.493777 0.6830 0.6830 0.6830 0.6830 0.6830
3615.175437 0.6830 0.6830 0.6830 0.6830 0.6830
3619.857096 0.6830 0.6830 0.6830 0.6830 0.6830
3624.538755 0.6830 0.6830 0.6830 0.6830 0.6830
3629.220415 0.6830 0.6830 0.6829 0.6826 0.6824
3633.902074 0.6821 0.6820 0.6820 0.6820 0.6820
3638.583734 0.6820 0.6820 0.6820 0.6820 0.6820
3643.265393 0.6820 0.6820 0.6820 0.6820 0.6820
3647.947053 0.6820 0.6820 0.6820 0.6820 0.6820
3652.628712 0.6820 0.6817 0.6812 0.6807 0.6802
3657.310371 0.6800 0.6800 0.6800 0.6800 0.6800
3661.992031 0.6800 0.6800 0.6800 0.6800 0.6800
3666.673690 0.6800 0.6800 0.6798 0.6796 0.6793
3671.355350 0.6791 0.6790 0.6790 0.6790 0.6790
3676.037009 0.6790 0.6790 0.6790 0.6790 0.6790
3680.718668 0.6790 0.6790 0.6790 0.6786 0.6781
3685.400328 0.6776 0.6771 0.6770 0.6770 0.6770
3690.081987 0.6770 0.6768 0.6766 0.6763 0.6761
3694.763647 0.6760 0.6760 0.6760 0.6760 0.6760
3699.445306 0.6760 0.6760 0.6760 0.6760 0.6760
3704.126966 0.6760 0.6760 0.6760 0.6760 0.6760
3708.808625 0.6760 0.6760 0.6760 0.6760 0.6760
3713.490284 0.6760 0.6760 0.6760 0.6760 0.6760
3718.171944 0.6760 0.6760 0.6760 0.6760 0.6760
3722.853603 0.6760 0.6760 0.6760 0.6760 0.6760
3727.535263 0.6760 0.6760 0.6760 0.6760 0.6760
3732.216922 0.6755 0.6750 0.6745 0.6740 0.6740
3736.898582 0.6740 0.6740 0.6740 0.6740 0.6740
3741.580241 0.6740 0.6740 0.6738 0.6735 0.6733
3746.261900 0.6730 0.6725 0.6720 0.6715 0.6710
3750.943560 0.6710 0.6710 0.6710 0.6710 0.6710
3755.625219 0.6710 0.6710 0.6710 0.6707 0.6705
3760.306879 0.6702 0.6700 0.6695 0.6690 0.6685
3764.988538 0.6680 0.6677 0.6675 0.6672 0.6670
3769.670198 0.6662 0.6655 0.6647 0.6640 0.6632
3774.351857 0.6625 0.6617 0.6610 0.6610 0.6610
3779.033516 0.6610 0.6610 0.6605 0.6600 0.6595
3783.715176 0.6590 0.6587 0.6585 0.6582 0.6580
3788.396835 0.6580 0.6580 0.6580 0.6579 0.6574
3793.078495 0.6569 0.6564 0.6560 0.6560 0.6560
3797.760154 0.6560 0.6560 0.6560 0.6560 0.6560
3802.441813 0.6560 0.6560 0.6560 0.6560 0.6560
3807.123473 0.6560 0.6560 0.6560 0.6560 0.6560
3811.805132 0.6560 0.6560 0.6561 0.6566 0.6571
3816.486792 0.6576 0.6580 0.6580 0.6580 0.6580
3821.168451 0.6580 0.6580 0.6580 0.6580 0.6580
3825.850111 0.6580 0.6580 0.6580 0.6580 0.6580
3830.531770 0.6580 0.6580 0.6580 0.6580 0.6580
3835.213429 0.6580 0.6580 0.6580 0.6580 0.6580
3839.895089 0.6578 0.6573 0.6568 0.6563 0.6560
3844.576748 0.6560 0.6560 0.6560 0.6559 0.6557
3849.258408 0.6554 0.6552 0.6550 0.6550 0.6550
3853.940067 0.6550 0.6548 0.6543 0.6538 0.6533
3858.621727 0.6530 0.6530 0.6530 0.6530 0.6530
3863.303386 0.6530 0.6530 0.6530 0.6529 0.6526
3867.985045 0.6524 0.6521 0.6518 0.6513 0.6508
3872.666705 0.6503 0.6500 0.6500 0.6500 0.6500
3877.348364 0.6499 0.6496 0.6494 0.6491 0.6486
3882.030024 0.6479 0.6471 0.6464 0.6460 0.6460
3886.711683 0.6460 0.6460 0.6457 0.6452 0.6447
3891.393343 0.6442 0.6439 0.6436 0.6434 0.6431
3896.075002 0.6430 0.6430 0.6430 0.6430 0.6427
3900.756661 0.6422 0.6417 0.6412 0.6408 0.6406
3905.438321 0.6403 0.6401 0.6395 0.6388 0.6380
3910.119980 0.6373 0.6370 0.6370 0.6370 0.6370
3914.801640 0.6367 0.6362 0.6357 0.6352 0.6348
3919.483299 0.6346 0.6343 0.6341 0.6340 0.6340
3924.164958 0.6340 0.6340 0.6340 0.6340 0.6340
3928.846618 0.6340 0.6337 0.6332 0.6327 0.6322
3933.528277 0.6320 0.6320 0.6320 0.6320 0.6320
3938.209937 0.6320 0.6320 0.6320 0.6318 0.6316
3942.891596 0.6313 0.6311 0.6310 0.6310 0.6310
3947.573256 0.6310 0.6306 0.6301 0.6296 0.6291
3952.254915 0.6290 0.6290 0.6290 0.6290 0.6294
3956.936574 0.6299 0.6304 0.6309 0.6306 0.6301
3961.618234 0.6296 0.6291 0.6290 0.6290 0.6290
3966.299893 0.6290 0.6290 0.6290 0.6290 0.6290
3970.981553 0.6288 0.6285 0.6283 0.6280 0.6280
3975.663212 0.6280 0.6280 0.6280 0.6280 0.6280
3980.344872 0.6280 0.6280 0.6280 0.6280 0.6280
3985.026531 0.6280 0.6280 0.6280 0.6280 0.6280
3989.708190 0.6280 0.6280 0.6280 0.6280
##END=
