##TITLE=DICYCLOHEXYL PHTHALATE
$$ E. K. CO. (WHITE LABEL)
##JCAMP-DX=4.24
##DATA TYPE=INFRARED SPECTRUM
##CLASS=COBLENTZ
##ORIGIN=WYANDOTTE CHEMICALS CORP., WYANDOTTE, MICHIGAN, USA
##OWNER=COBLENTZ SOCIETY
Collection (C) 2018 copyright by the U.S. Secretary of Commerce
on behalf of the United States of America. All rights reserved.
##DATE=Not specified, most likely prior to 1970
##CAS REGISTRY NO=84-61-7
##MOLFORM=C20 H26 O4
##MP=63-65 C
##SOURCE REFERENCE=COBLENTZ NO. 2832
##$NIST SOURCE=COBLENTZ
##$NIST IMAGE=cob2832
##SPECTROMETER/DATA SYSTEM=Not specified, most likely a prism, grating, or hybrid spectrometer.
##STATE=SOLID (MINERAL OIL MULL)
##PATH LENGTH=
$$SPECTRAL CONTAMINATION DUE TO OIL AROUND 2900 CM^-^1
##SAMPLING PROCEDURE=TRANSMISSION
##RESOLUTION=4
##DATA PROCESSING=DIGITIZED BY NIST FROM HARD COPY
##XUNITS=MICROMETERS
##YUNITS=TRANSMITTANCE
##XFACTOR=1.000000
##YFACTOR=1
##DELTAX=000.006626
##FIRSTX=2.04
##LASTX=15.954
##FIRSTY=0.712
##MAXX=15.954
##MINX=2.04
##MAXY=0.971
##MINY=0.031
##NPOINTS=2101
##XYDATA=(X++(Y..Y))
2.040000 0.7120 0.7140 0.7150 0.7170 0.7170
2.073144 0.7190 0.7190 0.7200 0.7220 0.7220
2.106000 0.7240 0.7240 0.7250 0.7250 0.7250
2.139144 0.7240 0.7240 0.7200 0.7170 0.7120
2.172000 0.7100 0.7100 0.7090 0.7090 0.7070
2.205144 0.7070 0.7070 0.7070 0.7090 0.7090
2.239000 0.7100 0.7120 0.7120 0.7150 0.7190
2.272144 0.7220 0.7220 0.7240 0.7250 0.7270
2.305000 0.7270 0.7290 0.7290 0.7300 0.7300
2.338144 0.7320 0.7340 0.7390 0.7400 0.7440
2.371000 0.7440 0.7450 0.7470 0.7490 0.7490
2.404144 0.7490 0.7500 0.7500 0.7520 0.7540
2.437000 0.7540 0.7570 0.7570 0.7600 0.7620
2.470144 0.7640 0.7650 0.7670 0.7690 0.7700
2.504000 0.7700 0.7720 0.7740 0.7750 0.7750
2.537144 0.7770 0.7770 0.7790 0.7790 0.7800
2.570000 0.7800 0.7820 0.7840 0.7840 0.7840
2.603144 0.7840 0.7840 0.7850 0.7850 0.7850
2.636000 0.7870 0.7890 0.7900 0.7900 0.7920
2.669144 0.7920 0.7940 0.7940 0.7950 0.7950
2.702000 0.7970 0.7970 0.7990 0.7990 0.7990
2.735144 0.8000 0.8000 0.8000 0.8000 0.8020
2.769000 0.8020 0.8020 0.8030 0.8030 0.8030
2.802144 0.8030 0.8030 0.8030 0.8030 0.8030
2.835000 0.8030 0.8030 0.8030 0.8030 0.8030
2.868144 0.8020 0.8000 0.8000 0.7970 0.7940
2.901000 0.7920 0.7890 0.7720 0.7700 0.7700
2.934144 0.7700 0.7720 0.7870 0.7950 0.8000
2.967000 0.8020 0.8030 0.8030 0.8030 0.8030
3.000144 0.8030 0.8020 0.8000 0.7990 0.7990
3.034000 0.7990 0.8000 0.8020 0.8030 0.8030
3.067144 0.8030 0.8030 0.8020 0.8020 0.8020
3.100000 0.8000 0.7970 0.7950 0.7940 0.7890
3.133144 0.7870 0.7870 0.7870 0.7870 0.7890
3.166000 0.7890 0.7890 0.7890 0.7890 0.7870
3.199144 0.7850 0.7790 0.7690 0.7490 0.7370
3.232000 0.7350 0.7350 0.7350 0.7340 0.7340
3.265144 0.7320 0.7200 0.6820 0.6570 0.6310
3.299000 0.5660 0.4810 0.3970 0.3100 0.2790
3.332144 0.0860 0.0380 0.0310 0.0310 0.0310
3.365000 0.0330 0.0340 0.0390 0.0430 0.0460
3.398144 0.0540 0.0680 0.0910 0.1240 0.1310
3.431000 0.1320 0.1310 0.1110 0.0990 0.0880
3.464144 0.0860 0.0880 0.1210 0.1660 0.2100
3.497000 0.2620 0.3300 0.4710 0.5340 0.5910
3.530144 0.6390 0.7150 0.7420 0.7590 0.7650
3.564000 0.7790 0.7890 0.7970 0.8050 0.8130
3.597144 0.8230 0.8330 0.8380 0.8420 0.8420
3.630000 0.8400 0.8350 0.8320 0.8280 0.8270
3.663144 0.8250 0.8230 0.8230 0.8250 0.8250
3.696000 0.8280 0.8300 0.8280 0.8270 0.8230
3.729144 0.8220 0.8230 0.8250 0.8280 0.8320
3.762000 0.8370 0.8420 0.8480 0.8500 0.8520
3.795144 0.8530 0.8530 0.8550 0.8550 0.8580
3.829000 0.8580 0.8600 0.8630 0.8670 0.8680
3.862144 0.8700 0.8700 0.8720 0.8730 0.8750
3.895000 0.8770 0.8820 0.8830 0.8870 0.8920
3.928144 0.8920 0.8930 0.8950 0.8980 0.8980
3.961000 0.9000 0.9000 0.9010 0.9010 0.9030
3.994144 0.9030 0.9050 0.9050 0.9050 0.9060
4.027000 0.9060 0.9080 0.9080 0.9100 0.9100
4.060144 0.9100 0.9100 0.9100 0.9100 0.9100
4.094000 0.9100 0.9100 0.9080 0.9080 0.9080
4.127144 0.9080 0.9080 0.9060 0.9060 0.9030
4.160000 0.9030 0.9010 0.9010 0.9010 0.9010
4.193144 0.9010 0.9010 0.9010 0.9010 0.9010
4.226000 0.9010 0.9010 0.9010 0.9010 0.9010
4.259144 0.9010 0.9030 0.9030 0.9030 0.9030
4.292000 0.9050 0.9050 0.9050 0.9050 0.9080
4.325144 0.9080 0.9080 0.9110 0.9110 0.9200
4.359000 0.9210 0.9230 0.9230 0.9230 0.9230
4.392144 0.9250 0.9250 0.9250 0.9250 0.9250
4.425000 0.9250 0.9250 0.9250 0.9260 0.9280
4.458144 0.9280 0.9310 0.9310 0.9310 0.9300
4.491000 0.9280 0.9280 0.9280 0.9310 0.9310
4.524144 0.9330 0.9350 0.9360 0.9380 0.9380
4.558000 0.9400 0.9400 0.9400 0.9400 0.9380
4.591144 0.9380 0.9360 0.9360 0.9350 0.9350
4.624000 0.9350 0.9350 0.9330 0.9330 0.9330
4.657144 0.9330 0.9330 0.9350 0.9360 0.9360
4.690000 0.9380 0.9400 0.9400 0.9400 0.9400
4.723144 0.9410 0.9410 0.9430 0.9430 0.9430
4.756000 0.9450 0.9450 0.9480 0.9500 0.9500
4.789144 0.9510 0.9510 0.9530 0.9550 0.9600
4.823000 0.9610 0.9630 0.9650 0.9650 0.9650
4.856144 0.9650 0.9650 0.9650 0.9650 0.9650
4.889000 0.9630 0.9630 0.9630 0.9630 0.9630
4.922144 0.9630 0.9650 0.9650 0.9660 0.9660
4.955000 0.9660 0.9660 0.9680 0.9680 0.9700
4.988144 0.9700 0.9700 0.9700 0.9700 0.9700
5.021000 0.9700 0.9700 0.9680 0.9680 0.9630
5.054144 0.9580 0.9580 0.9600 0.9600 0.9580
5.088000 0.9550 0.9450 0.9360 0.9350 0.9350
5.121144 0.9350 0.9380 0.9450 0.9500 0.9530
5.154000 0.9530 0.9510 0.9480 0.9410 0.9380
5.187144 0.9360 0.9360 0.9450 0.9510 0.9550
5.220000 0.9600 0.9610 0.9610 0.9630 0.9630
5.253144 0.9650 0.9650 0.9660 0.9680 0.9680
5.286000 0.9700 0.9700 0.9710 0.9710 0.9710
5.319144 0.9700 0.9680 0.9630 0.9610 0.9610
5.353000 0.9600 0.9600 0.9600 0.9600 0.9600
5.386144 0.9600 0.9580 0.9560 0.9550 0.9510
5.419000 0.9460 0.9410 0.9360 0.9330 0.9310
5.452144 0.9310 0.9310 0.9330 0.9330 0.9360
5.485000 0.9380 0.9410 0.9430 0.9450 0.9460
5.518144 0.9460 0.9450 0.9450 0.9430 0.9410
5.551000 0.9400 0.9360 0.9330 0.9300 0.9230
5.584144 0.9160 0.9080 0.8980 0.8900 0.8850
5.618000 0.8780 0.8730 0.8700 0.8650 0.8630
5.651144 0.8630 0.8620 0.8620 0.8600 0.8580
5.684000 0.8570 0.8520 0.8150 0.7850 0.7300
5.717144 0.6920 0.6520 0.5510 0.4300 0.3580
5.750000 0.2870 0.1260 0.0860 0.0660 0.0540
5.783144 0.0490 0.0480 0.0480 0.0490 0.0680
5.816000 0.0890 0.1160 0.1460 0.1620 0.1940
5.849144 0.2350 0.2850 0.3920 0.4400 0.4800
5.883000 0.5080 0.5310 0.5510 0.5660 0.5940
5.916144 0.6140 0.6260 0.6360 0.6420 0.6470
5.949000 0.6560 0.6820 0.7070 0.7270 0.7440
5.982144 0.7590 0.7720 0.7840 0.7920 0.7990
6.015000 0.8050 0.8100 0.8130 0.8170 0.8220
6.048144 0.8250 0.8270 0.8270 0.8270 0.8280
6.081000 0.8280 0.8270 0.8280 0.8330 0.8400
6.114144 0.8450 0.8530 0.8600 0.8600 0.8620
6.148000 0.8620 0.8600 0.8470 0.8120 0.7240
6.181144 0.6740 0.6240 0.6090 0.6090 0.6120
6.214000 0.7300 0.7640 0.7690 0.7690 0.7490
6.247144 0.6810 0.6710 0.6590 0.6590 0.6610
6.280000 0.7040 0.7220 0.7820 0.8370 0.8470
6.313144 0.8550 0.8620 0.8680 0.8730 0.8800
6.346000 0.8850 0.8870 0.8880 0.8880 0.8880
6.379144 0.8880 0.8870 0.8850 0.8830 0.8800
6.413000 0.8770 0.8730 0.8720 0.8720 0.8680
6.446144 0.8630 0.8620 0.8600 0.8550 0.8530
6.479000 0.8480 0.8470 0.8470 0.8470 0.8480
6.512144 0.8480 0.8500 0.8500 0.8520 0.8520
6.545000 0.8520 0.8520 0.8520 0.8500 0.8480
6.578144 0.8470 0.8450 0.8380 0.8230 0.8130
6.611000 0.8070 0.8030 0.7950 0.7820 0.7620
6.644144 0.7290 0.6790 0.6520 0.6260 0.5410
6.678000 0.5390 0.5410 0.5610 0.5680 0.5940
6.711144 0.6220 0.6290 0.6290 0.6290 0.6220
6.744000 0.5490 0.4750 0.3730 0.3380 0.3020
6.777144 0.2950 0.2940 0.2890 0.2870 0.2800
6.810000 0.2670 0.2320 0.2050 0.2020 0.1990
6.843144 0.1960 0.1960 0.1940 0.1960 0.2070
6.876000 0.2270 0.2550 0.2920 0.3320 0.4210
6.909144 0.4680 0.5160 0.5590 0.6010 0.6370
6.943000 0.6910 0.7100 0.7250 0.7370 0.7490
6.976144 0.7570 0.7650 0.7740 0.7840 0.7940
7.009000 0.8050 0.8130 0.8180 0.8200 0.8220
7.042144 0.8220 0.8220 0.8220 0.8200 0.8200
7.075000 0.8180 0.8180 0.8200 0.8200 0.8220
7.108144 0.8220 0.8200 0.8180 0.8130 0.8050
7.142000 0.7990 0.7990 0.7870 0.7650 0.7350
7.175144 0.7000 0.6810 0.6610 0.6190 0.5740
7.208000 0.5330 0.4910 0.4560 0.4250 0.4000
7.241144 0.3820 0.3620 0.3600 0.3620 0.3970
7.274000 0.4260 0.4580 0.4860 0.5090 0.5110
7.307144 0.5090 0.4710 0.4610 0.4610 0.4630
7.340000 0.5130 0.5560 0.5930 0.6210 0.6240
7.373144 0.6220 0.5910 0.5760 0.5590 0.5510
7.407000 0.5490 0.5480 0.5440 0.5340 0.5210
7.440144 0.5060 0.4910 0.4660 0.4410 0.4380
7.473000 0.4380 0.4410 0.4700 0.4900 0.4910
7.506144 0.4910 0.4900 0.4430 0.3920 0.3450
7.539000 0.3270 0.3070 0.2890 0.2870 0.2890
7.572144 0.3080 0.3100 0.3100 0.3050 0.2800
7.605000 0.2490 0.2170 0.1860 0.1570 0.1310
7.638144 0.1010 0.0810 0.0660 0.0560 0.0490
7.672000 0.0480 0.0410 0.0410 0.0390 0.0390
7.705144 0.0390 0.0390 0.0390 0.0390 0.0410
7.738000 0.0440 0.0510 0.0560 0.0710 0.0860
7.771144 0.1010 0.1160 0.1310 0.1510 0.1710
7.804000 0.1960 0.2220 0.2370 0.2540 0.2590
7.837144 0.2590 0.2590 0.1970 0.1410 0.1390
7.870000 0.1390 0.1410 0.1540 0.1710 0.1790
7.903144 0.1810 0.1590 0.1390 0.1170 0.1160
7.937000 0.1190 0.1320 0.1560 0.1860 0.2220
7.970144 0.2600 0.2720 0.2740 0.2740 0.2500
8.003000 0.2420 0.2400 0.2400 0.2400 0.2440
8.036144 0.2490 0.2550 0.2690 0.2870 0.3080
8.069000 0.3620 0.3900 0.4210 0.4530 0.4830
8.102144 0.5130 0.5410 0.5680 0.5890 0.6070
8.135000 0.6210 0.6320 0.6440 0.6540 0.6640
8.168144 0.6820 0.6820 0.6860 0.6890 0.6920
8.202000 0.6940 0.6990 0.7040 0.7050 0.7070
8.235144 0.7090 0.7090 0.7090 0.7090 0.7090
8.268000 0.7100 0.7150 0.7190 0.7190 0.7190
8.301144 0.7190 0.7190 0.7170 0.7120 0.7100
8.334000 0.7090 0.7070 0.7070 0.7090 0.7140
8.367144 0.7200 0.7290 0.7400 0.7520 0.7640
8.400000 0.7770 0.7870 0.7920 0.7950 0.8000
8.433144 0.8030 0.8050 0.8080 0.8080 0.8080
8.467000 0.8080 0.8080 0.8050 0.8030 0.8030
8.500144 0.8020 0.7970 0.7870 0.7750 0.7500
8.533000 0.7200 0.6860 0.6660 0.6460 0.6070
8.566144 0.5740 0.5540 0.5480 0.5430 0.5410
8.599000 0.5330 0.5260 0.5240 0.5280 0.5460
8.632144 0.5630 0.5780 0.5930 0.6120 0.6420
8.665000 0.6490 0.6490 0.6490 0.6290 0.5890
8.698144 0.5390 0.4810 0.4150 0.3700 0.3430
8.732000 0.3150 0.2900 0.2890 0.2900 0.3180
8.765144 0.3880 0.3930 0.3950 0.3950 0.3420
8.798000 0.3100 0.2790 0.2000 0.1490 0.1140
8.831144 0.0930 0.0780 0.0690 0.0680 0.0660
8.864000 0.0680 0.0830 0.0960 0.1090 0.1220
8.897144 0.1390 0.1570 0.1760 0.1970 0.2190
8.930000 0.2440 0.2690 0.2970 0.3280 0.3950
8.963144 0.4300 0.4610 0.4900 0.5160 0.5410
8.997000 0.5640 0.5860 0.6040 0.6210 0.6370
9.030144 0.6490 0.6610 0.6740 0.6790 0.6810
9.063000 0.6820 0.6820 0.6810 0.6760 0.6710
9.096144 0.6660 0.6540 0.6420 0.6410 0.6410
9.129000 0.6420 0.6490 0.6640 0.6770 0.6840
9.162144 0.6890 0.6890 0.6890 0.6710 0.6590
9.195000 0.6460 0.6070 0.5640 0.5180 0.4660
9.228144 0.4010 0.3450 0.2890 0.1770 0.1720
9.262000 0.1710 0.1710 0.1740 0.2070 0.2270
9.295144 0.2620 0.3130 0.4000 0.4380 0.4710
9.328000 0.5030 0.5310 0.5590 0.5880 0.6120
9.361144 0.6340 0.6510 0.6620 0.6820 0.6920
9.394000 0.6970 0.7050 0.7100 0.7100 0.7040
9.427144 0.6870 0.6720 0.6720 0.6710 0.6720
9.460000 0.6890 0.7000 0.7150 0.7190 0.7190
9.493144 0.7190 0.7120 0.6910 0.6710 0.6590
9.527000 0.6460 0.6160 0.5890 0.5430 0.5130
9.560144 0.4900 0.4400 0.4100 0.3850 0.3830
9.593000 0.3850 0.4030 0.4130 0.4250 0.4400
9.626144 0.4560 0.4630 0.4700 0.4780 0.4850
9.659000 0.4900 0.4910 0.4950 0.4950 0.4950
9.692144 0.4950 0.4960 0.4980 0.5190 0.5440
9.726000 0.5680 0.5910 0.6090 0.6270 0.6410
9.759144 0.6570 0.6770 0.6820 0.6840 0.6810
9.792000 0.6740 0.6640 0.6520 0.6240 0.5890
9.825144 0.5410 0.4800 0.3970 0.3500 0.3030
9.858000 0.2270 0.1960 0.1960 0.1970 0.2220
9.891144 0.2450 0.2750 0.3180 0.4080 0.4510
9.924000 0.4930 0.5290 0.5630 0.5910 0.6090
9.957144 0.6260 0.6420 0.6610 0.6910 0.7040
9.991000 0.7170 0.7290 0.7400 0.7450 0.7520
10.024144 0.7590 0.7650 0.7700 0.7770 0.7800
10.057000 0.7840 0.7850 0.7850 0.7840 0.7820
10.090144 0.7750 0.7600 0.7400 0.7200 0.7190
10.123000 0.7190 0.7220 0.7490 0.7620 0.7770
10.156144 0.7950 0.8000 0.8070 0.8100 0.8130
10.189000 0.8150 0.8170 0.8180 0.8200 0.8200
10.222144 0.8220 0.8230 0.8250 0.8250 0.8250
10.256000 0.8250 0.8250 0.8250 0.8250 0.8250
10.289144 0.8270 0.8280 0.8300 0.8300 0.8300
10.322000 0.8330 0.8350 0.8350 0.8350 0.8370
10.355144 0.8370 0.8350 0.8350 0.8320 0.8280
10.388000 0.8200 0.8050 0.7890 0.7640 0.7400
10.421144 0.7150 0.6920 0.6910 0.6910 0.6990
10.454000 0.7250 0.7450 0.7600 0.7740 0.7820
10.487144 0.7890 0.7900 0.7920 0.7950 0.7970
10.521000 0.7950 0.7900 0.7840 0.7670 0.7500
10.554144 0.7300 0.7090 0.6840 0.6640 0.6440
10.587000 0.5980 0.5460 0.5000 0.4610 0.4200
10.620144 0.3980 0.3970 0.3970 0.3980 0.4300
10.653000 0.4600 0.4910 0.5340 0.5660 0.5940
10.686144 0.6190 0.6390 0.6560 0.6790 0.6870
10.719000 0.6890 0.6920 0.6940 0.6920 0.6860
10.752144 0.6840 0.6810 0.6810 0.6820 0.6870
10.786000 0.6910 0.6960 0.6990 0.7040 0.7050
10.819144 0.7050 0.7040 0.6920 0.6760 0.6690
10.852000 0.6610 0.6390 0.6060 0.5610 0.5190
10.885144 0.4760 0.4250 0.3800 0.3570 0.3320
10.918000 0.3030 0.2800 0.2790 0.2790 0.2820
10.951144 0.3070 0.3720 0.3870 0.4050 0.4230
10.984000 0.4460 0.4780 0.4810 0.4780 0.4650
11.017144 0.4600 0.4580 0.4600 0.4780 0.5010
11.051000 0.5310 0.5560 0.5880 0.6160 0.6410
11.084144 0.6660 0.7020 0.7170 0.7270 0.7340
11.117000 0.7400 0.7420 0.7440 0.7420 0.7340
11.150144 0.7250 0.7120 0.6970 0.6840 0.6720
11.183000 0.6690 0.6660 0.6620 0.6590 0.6560
11.216144 0.6470 0.6410 0.6320 0.6310 0.6310
11.249000 0.6370 0.6520 0.6810 0.6910 0.6990
11.282144 0.7090 0.7200 0.7300 0.7440 0.7590
11.316000 0.7750 0.7890 0.8050 0.8170 0.8230
11.349144 0.8280 0.8320 0.8350 0.8380 0.8400
11.382000 0.8430 0.8470 0.8480 0.8520 0.8530
11.415144 0.8550 0.8570 0.8570 0.8600 0.8600
11.448000 0.8620 0.8630 0.8630 0.8630 0.8630
11.481144 0.8630 0.8630 0.8620 0.8620 0.8600
11.514000 0.8600 0.8580 0.8530 0.8500 0.8470
11.547144 0.8430 0.8350 0.8250 0.8080 0.7870
11.581000 0.7570 0.7300 0.7120 0.6920 0.6890
11.614144 0.6910 0.7020 0.7170 0.7290 0.7350
11.647000 0.7390 0.7390 0.7300 0.7150 0.7090
11.680144 0.7050 0.7050 0.7070 0.7370 0.7520
11.713000 0.7650 0.7820 0.7920 0.8030 0.8250
11.746144 0.8320 0.8400 0.8430 0.8450 0.8450
11.779000 0.8450 0.8450 0.8420 0.8380 0.8350
11.812144 0.8300 0.8250 0.8170 0.8050 0.7920
11.846000 0.7690 0.7540 0.7370 0.7250 0.7240
11.879144 0.7250 0.7300 0.7350 0.7400 0.7400
11.912000 0.7390 0.7200 0.6990 0.6810 0.6610
11.945144 0.6260 0.6190 0.6170 0.6170 0.6190
11.978000 0.6310 0.6410 0.6460 0.7240 0.7420
12.011144 0.7600 0.7740 0.7850 0.7940 0.8000
12.044000 0.8000 0.8000 0.8000 0.7920 0.7840
12.077144 0.7720 0.7590 0.7490 0.7390 0.7340
12.111000 0.7320 0.7350 0.7470 0.7570 0.7650
12.144144 0.7770 0.7870 0.7970 0.8070 0.8180
12.177000 0.8280 0.8370 0.8370 0.8450 0.8520
12.210144 0.8550 0.8580 0.8630 0.8680 0.8680
12.243000 0.8680 0.8700 0.8720 0.8720 0.8720
12.276144 0.8730 0.8750 0.8780 0.8830 0.8880
12.310000 0.8880 0.8880 0.8880 0.8880 0.8850
12.343144 0.8820 0.8820 0.8800 0.8750 0.8700
12.376000 0.8650 0.8570 0.8500 0.8350 0.8100
12.409144 0.7820 0.7450 0.7150 0.6820 0.6610
12.442000 0.6390 0.6340 0.6320 0.6340 0.6370
12.475144 0.6540 0.7040 0.7300 0.7500 0.7650
12.508000 0.7790 0.7800 0.7820 0.7800 0.7690
12.541144 0.7500 0.7250 0.6990 0.6760 0.6610
12.575000 0.6460 0.6120 0.5810 0.5490 0.5480
12.608144 0.5290 0.5110 0.5090 0.5130 0.5330
12.641000 0.5530 0.5680 0.5910 0.6110 0.6290
12.674144 0.6320 0.6320 0.6260 0.5740 0.5410
12.707000 0.5230 0.5180 0.5230 0.5510 0.5780
12.740144 0.6070 0.6310 0.6620 0.7200 0.7440
12.773000 0.7620 0.7750 0.7870 0.7950 0.8030
12.806144 0.8100 0.8180 0.8270 0.8300 0.8320
12.840000 0.8330 0.8350 0.8350 0.8370 0.8380
12.873144 0.8400 0.8430 0.8450 0.8480 0.8500
12.906000 0.8500 0.8500 0.8520 0.8520 0.8520
12.939144 0.8520 0.8530 0.8530 0.8530 0.8530
12.972000 0.8530 0.8530 0.8550 0.8550 0.8550
13.005144 0.8550 0.8550 0.8550 0.8550 0.8550
13.038000 0.8550 0.8530 0.8520 0.8500 0.8480
13.071144 0.8480 0.8480 0.8480 0.8480 0.8470
13.105000 0.8450 0.8450 0.8430 0.8400 0.8380
13.138144 0.8370 0.8350 0.8330 0.8300 0.8280
13.171000 0.8230 0.8200 0.8130 0.8120 0.8080
13.204144 0.8030 0.8020 0.7970 0.7900 0.7850
13.237000 0.7820 0.7750 0.7690 0.7620 0.7570
13.270144 0.7520 0.7470 0.7390 0.7300 0.7200
13.303000 0.7170 0.7070 0.6940 0.6790 0.6710
13.336144 0.6610 0.6390 0.6190 0.5990 0.5790
13.370000 0.5560 0.5290 0.5000 0.4680 0.4330
13.403144 0.3970 0.3550 0.3330 0.3120 0.2640
13.436000 0.2090 0.1840 0.1610 0.1460 0.1320
13.469144 0.1210 0.1170 0.1160 0.1160 0.1160
13.502000 0.1190 0.1260 0.1370 0.1510 0.1640
13.535144 0.1790 0.1940 0.2050 0.2240 0.2440
13.568000 0.2600 0.2900 0.3150 0.3650 0.4000
13.601144 0.4300 0.4560 0.4830 0.5080 0.5310
13.635000 0.5530 0.5730 0.5910 0.6090 0.6240
13.668144 0.6390 0.6540 0.6660 0.6860 0.6960
13.701000 0.7050 0.7150 0.7200 0.7290 0.7390
13.734144 0.7450 0.7520 0.7570 0.7600 0.7640
13.767000 0.7690 0.7690 0.7700 0.7720 0.7790
13.800144 0.7820 0.7850 0.7890 0.7900 0.7920
13.833000 0.7940 0.7970 0.8000 0.8020 0.8030
13.866144 0.8030 0.8050 0.8050 0.8070 0.8070
13.900000 0.8080 0.8100 0.8130 0.8180 0.8200
13.933144 0.8230 0.8280 0.8280 0.8320 0.8350
13.966000 0.8400 0.8430 0.8450 0.8470 0.8470
13.999144 0.8470 0.8470 0.8470 0.8470 0.8450
14.032000 0.8430 0.8430 0.8420 0.8400 0.8330
14.065144 0.8300 0.8280 0.8270 0.8230 0.8230
14.098000 0.8220 0.8220 0.8220 0.8230 0.8250
14.131144 0.8280 0.8320 0.8370 0.8400 0.8430
14.165000 0.8500 0.8530 0.8580 0.8600 0.8620
14.198144 0.8630 0.8650 0.8680 0.8700 0.8700
14.231000 0.8730 0.8730 0.8750 0.8750 0.8780
14.264144 0.8780 0.8800 0.8800 0.8820 0.8820
14.297000 0.8830 0.8830 0.8850 0.8870 0.8880
14.330144 0.8880 0.8880 0.8900 0.8900 0.8900
14.363000 0.8900 0.8900 0.8870 0.8830 0.8770
14.396144 0.8770 0.8720 0.8650 0.8620 0.8570
14.430000 0.8530 0.8470 0.8330 0.8180 0.8120
14.463144 0.8050 0.7950 0.7820 0.7740 0.7720
14.496000 0.7690 0.7670 0.7670 0.7670 0.7690
14.529144 0.7700 0.7750 0.7820 0.7900 0.7970
14.562000 0.8030 0.8120 0.8130 0.8220 0.8280
14.595144 0.8370 0.8430 0.8500 0.8530 0.8570
14.628000 0.8580 0.8670 0.8720 0.8720 0.8730
14.661144 0.8730 0.8770 0.8770 0.8780 0.8800
14.695000 0.8800 0.8820 0.8830 0.8870 0.8880
14.728144 0.8880 0.8880 0.8900 0.8900 0.8900
14.761000 0.8900 0.8900 0.8900 0.8900 0.8900
14.794144 0.8900 0.8880 0.8880 0.8880 0.8900
14.827000 0.8900 0.8900 0.8900 0.8900 0.8900
14.860144 0.8900 0.8900 0.8900 0.8900 0.8900
14.894000 0.8900 0.8900 0.8900 0.8900 0.8880
14.927144 0.8880 0.8880 0.8870 0.8870 0.8870
14.960000 0.8850 0.8850 0.8830 0.8820 0.8800
14.993144 0.8800 0.8730 0.8670 0.8620 0.8600
15.026000 0.8550 0.8520 0.8500 0.8470 0.8430
15.059144 0.8420 0.8400 0.8380 0.8380 0.8380
15.092000 0.8400 0.8420 0.8450 0.8500 0.8530
15.125144 0.8600 0.8620 0.8630 0.8670 0.8680
15.159000 0.8700 0.8730 0.8750 0.8770 0.8770
15.192144 0.8750 0.8750 0.8720 0.8700 0.8680
15.225000 0.8670 0.8670 0.8650 0.8630 0.8620
15.258144 0.8620 0.8600 0.8580 0.8570 0.8570
15.291000 0.8550 0.8530 0.8520 0.8500 0.8450
15.324144 0.8430 0.8400 0.8350 0.8300 0.8280
15.357000 0.8230 0.8200 0.8180 0.8120 0.8050
15.390144 0.8020 0.7970 0.7920 0.7840 0.7790
15.424000 0.7720 0.7690 0.7640 0.7600 0.7570
15.457144 0.7520 0.7500 0.7470 0.7400 0.7350
15.490000 0.7300 0.7290 0.7250 0.7240 0.7220
15.523144 0.7200 0.7200 0.7200 0.7200 0.7200
15.556000 0.7200 0.7220 0.7300 0.7340 0.7370
15.589144 0.7400 0.7450 0.7490 0.7540 0.7590
15.622000 0.7620 0.7670 0.7690 0.7720 0.7790
15.655144 0.7800 0.7820 0.7840 0.7840 0.7850
15.689000 0.7850 0.7850 0.7840 0.7840 0.7840
15.722144 0.7840 0.7840 0.7840 0.7820 0.7800
15.755000 0.7800 0.7800 0.7800 0.7800 0.7800
15.788144 0.7790 0.7770 0.7750 0.7740 0.7720
15.821000 0.7720 0.7720 0.7720 0.7720 0.7720
15.854144 0.7720 0.7720 0.7720 0.7700 0.7700
15.887000 0.7700 0.7690 0.7690 0.7670 0.7650
15.920144 0.7640 0.7620 0.7570 0.7500 0.7620
15.954000 0.7570
##END=
