##TITLE=PHENANTHRENE
##JCAMP-DX=4.24
##DATA TYPE=INFRARED SPECTRUM
##CLASS=COBLENTZ III
##ORIGIN=BECKMAN INSTRUMENTS, KENNETH STINE
##OWNER=COBLENTZ SOCIETY
Collection (C) 2018 copyright by the U.S. Secretary of Commerce
on behalf of the United States of America. All rights reserved.
##DATE=1969/05/09
##CAS REGISTRY NO=85-01-8
##MOLFORM=C14 H10
##SOURCE REFERENCE=COBLENTZ NO. 6030
##$NIST SOURCE=COBLENTZ
##$NIST IMAGE=cob6030
##SPECTROMETER/DATA SYSTEM=BECKMAN IR-12 (GRATING)
##INSTRUMENT PARAMETERS=FILTERS AT 303, 473, 790, 1036, 1880, 2930 CM^-^1. GRATING CHANGE: 300.5, 650.0, 2000.4 CM^-^1
##STATE=SOLUTION (10% IN CCl4 FOR 4000-1340, 10% IN CS2 FOR 1340-430, AND 10% IN CCl4 FOR 440-200 CM^-^1)
##PATH LENGTH=0.01 CM (CsBr CELL), 0.01 CM (KBr CELL), AND 0.01 CM (CsBr CELL)
$$ SEE SPECTRA NO. 4215 AND 5070 FOR PRISM RUN
$$SPECTRAL CONTAMINATION DUE TO CS2 AROUND 650, 850 (OVERLAP), AND CCl4 AROUND 1550 CM^-^1
##SAMPLING PROCEDURE=TRANSMISSION
##RESOLUTION=2
##DATA PROCESSING=DIGITIZED BY NIST FROM HARD COPY (FROM TWO SEGMENTS)
##XUNITS=1/CM
##YUNITS=TRANSMITTANCE
##XFACTOR=1.000000
##YFACTOR=1
##DELTAX=0.995026
##FIRSTX=204.975
##LASTX=3998.01
##FIRSTY=0
##MAXX=3998.01
##MINX=204.975
##MAXY=0.939
##MINY=0
##NPOINTS=3813
##XYDATA=(X++(Y..Y))
204.975000 0.0000 0.0000 0.0290 0.0360 0.0370
209.950131 0.0460 0.0600 0.0640 0.0690 0.0770
214.925262 0.0830 0.1000 0.1090 0.1160 0.1220
219.900393 0.1320 0.1410 0.1470 0.1540 0.1610
224.875524 0.1690 0.1760 0.1810 0.1860 0.1890
229.850656 0.1890 0.1920 0.1970 0.2030 0.2179
234.825787 0.2350 0.2500 0.2680 0.2850 0.3010
239.800918 0.3170 0.3310 0.3430 0.3579 0.3769
244.776049 0.4050 0.4180 0.4300 0.4440 0.4510
249.751180 0.4739 0.4850 0.4920 0.4980 0.5089
254.726311 0.5310 0.5460 0.5540 0.5620 0.5740
259.701442 0.5840 0.5980 0.6000 0.6090 0.6170
264.676573 0.6270 0.6350 0.6470 0.6570 0.6650
269.651705 0.6780 0.6870 0.6999 0.7050 0.7090
274.626836 0.7140 0.7210 0.7280 0.7320 0.7370
279.601967 0.7480 0.7560 0.7590 0.7620 0.7650
284.577098 0.7710 0.7750 0.7770 0.7790 0.7850
289.552229 0.7920 0.7950 0.7960 0.7960 0.7960
294.527360 0.7960 0.7960 0.7970 0.7970 0.7990
299.502491 0.8010 0.8030 0.8030 0.8040 0.8040
304.477622 0.8040 0.8040 0.8040 0.8050 0.8050
309.452753 0.8060 0.8060 0.8060 0.8080 0.8110
314.427885 0.8170 0.8260 0.8370 0.8440 0.8480
319.403016 0.8490 0.8500 0.8510 0.8540 0.8570
324.378147 0.8580 0.8590 0.8600 0.8620 0.8630
329.353278 0.8640 0.8670 0.8680 0.8690 0.8710
334.328409 0.8750 0.8780 0.8820 0.8850 0.8880
339.303540 0.8890 0.8930 0.8940 0.8980 0.9000
344.278671 0.9020 0.9050 0.9070 0.9080 0.9100
349.253802 0.9120 0.9140 0.9140 0.9150 0.9150
354.228934 0.9170 0.9180 0.9210 0.9220 0.9230
359.204065 0.9240 0.9240 0.9240 0.9250 0.9250
364.179196 0.9260 0.9260 0.9260 0.9260 0.9260
369.154327 0.9260 0.9260 0.9260 0.9260 0.9260
374.129458 0.9260 0.9260 0.9260 0.9260 0.9260
379.104589 0.9260 0.9270 0.9270 0.9270 0.9270
384.079720 0.9280 0.9280 0.9280 0.9280 0.9280
389.054851 0.9280 0.9260 0.9250 0.9240 0.9220
394.029982 0.9210 0.9210 0.9220 0.9220 0.9230
399.005114 0.9230 0.9230 0.9170 0.9060 0.8990
403.980245 0.8850 0.8830 0.8850 0.8900 0.8980
408.955376 0.9060 0.9070 0.9050 0.9030 0.8980
413.930507 0.8930 0.8880 0.8760 0.8620 0.8430
418.905638 0.8210 0.7871 0.7262 0.6891 0.6522
423.880769 0.5110 0.4710 0.4720 0.4790 0.6057
428.855900 0.7266 0.7280 0.7599 0.8028 0.8030
433.831031 0.7880 0.7850 0.7750 0.7640 0.7450
438.806162 0.7300 0.7300 0.7310 0.7738 0.7889
443.781294 0.7960 0.8030 0.8060 0.8080 0.8080
448.756425 0.8090 0.8299 0.8310 0.8420 0.8430
453.731556 0.8450 0.8480 0.8510 0.8540 0.8570
458.706687 0.8580 0.8590 0.8600 0.8610 0.8620
463.681818 0.8620 0.8610 0.8600 0.8590 0.8560
468.656949 0.8500 0.8450 0.8430 0.8440 0.8579
473.632080 0.8640 0.8720 0.8740 0.8750 0.8770
478.607211 0.8770 0.8770 0.8780 0.8780 0.8780
483.582343 0.8790 0.8790 0.8780 0.8740 0.8690
488.557474 0.8580 0.8440 0.7663 0.7292 0.6912
493.532605 0.5750 0.5290 0.5280 0.5280 0.6997
498.507736 0.7579 0.8029 0.8538 0.8859 0.8900
503.482867 0.8940 0.8980 0.9050 0.9100 0.9130
508.457998 0.9150 0.9170 0.9190 0.9200 0.9210
513.433129 0.9230 0.9240 0.9250 0.9260 0.9280
518.408260 0.9290 0.9300 0.9310 0.9310 0.9320
523.383391 0.9320 0.9320 0.9310 0.9310 0.9310
528.358523 0.9300 0.9300 0.9290 0.9290 0.9290
533.333654 0.9290 0.9290 0.9290 0.9290 0.9290
538.308785 0.9300 0.9300 0.9300 0.9300 0.9290
543.283916 0.9260 0.9230 0.9170 0.9060 0.9060
548.259047 0.9070 0.9200 0.9260 0.9300 0.9330
553.234178 0.9340 0.9350 0.9360 0.9380 0.9390
558.209309 0.9390 0.9390 0.9390 0.9390 0.9390
563.184440 0.9390 0.9390 0.9390 0.9390 0.9390
568.159572 0.9380 0.9380 0.9380 0.9380 0.9370
573.134703 0.9370 0.9370 0.9370 0.9360 0.9360
578.109834 0.9360 0.9360 0.9350 0.9350 0.9340
583.084965 0.9340 0.9340 0.9340 0.9340 0.9340
588.060096 0.9340 0.9340 0.9340 0.9340 0.9340
593.035227 0.9330 0.9330 0.9330 0.9330 0.9330
598.010358 0.9330 0.9320 0.9310 0.9290 0.9260
602.985489 0.9250 0.9250 0.9250 0.9250 0.9250
607.960620 0.9250 0.9250 0.9220 0.9180 0.9100
612.935752 0.8980 0.8740 0.7181 0.6780 0.6371
617.910883 0.5572 0.5560 0.7913 0.8687 0.8809
622.886014 0.8950 0.9040 0.9080 0.9100 0.9110
627.861145 0.9110 0.9130 0.9130 0.9130 0.9130
632.836276 0.9130 0.9130 0.9120 0.9120 0.9090
637.811407 0.9070 0.9050 0.9030 0.9020 0.9000
642.786538 0.8980 0.8940 0.8860 0.8820 0.8790
647.761669 0.8780 0.8760 0.8730 0.8660 0.8630
652.736801 0.8610 0.8530 0.8510 0.8520 0.8620
657.711932 0.8640 0.8670 0.8700 0.8780 0.8820
662.687063 0.8900 0.8920 0.8940 0.8980 0.9020
667.662194 0.9030 0.9030 0.9050 0.9080 0.9110
672.637325 0.9110 0.9120 0.9120 0.9130 0.9130
677.612456 0.9130 0.9130 0.9130 0.9130 0.9130
682.587587 0.9130 0.9130 0.9130 0.9130 0.9130
687.562718 0.9130 0.9120 0.9120 0.9110 0.9110
692.537849 0.9100 0.9100 0.9090 0.9080 0.9070
697.512981 0.9030 0.9000 0.8970 0.8940 0.8900
702.488112 0.8870 0.8840 0.8810 0.8750 0.8560
707.463243 0.7513 0.6473 0.6121 0.5762 0.6148
712.438374 0.7030 0.7090 0.7200 0.7659 0.7880
717.413505 0.8050 0.8220 0.8389 0.8410 0.8410
722.388636 0.8280 0.8010 0.7890 0.7510 0.7250
727.363767 0.6971 0.4018 0.2943 0.1884 0.0805
732.338898 0.0560 0.0320 0.0080 0.0110 0.0120
737.314030 0.0160 0.0250 0.0410 0.2214 0.4043
742.289161 0.4320 0.4630 0.5140 0.5879 0.6399
747.264292 0.7068 0.7289 0.7489 0.7689 0.7799
752.239423 0.7910 0.8030 0.8130 0.8220 0.8260
757.214554 0.8330 0.8430 0.8470 0.8510 0.8580
762.189685 0.8670 0.8720 0.8750 0.8780 0.8800
767.164816 0.8830 0.8860 0.8880 0.8890 0.8900
772.139947 0.8910 0.8920 0.8920 0.8910 0.8900
777.115078 0.8890 0.8880 0.8860 0.8850 0.8820
782.090210 0.8790 0.8760 0.8740 0.8720 0.8710
787.065341 0.8710 0.8700 0.8700 0.8690 0.8680
792.040472 0.8660 0.8650 0.8630 0.8610 0.8600
797.015603 0.8560 0.8480 0.8380 0.8211 0.8031
801.990734 0.7650 0.7180 0.6900 0.6610 0.6021
806.965865 0.3795 0.1566 0.1062 0.0602 0.0132
811.940996 0.0110 0.0120 0.0350 0.1539 0.2669
816.916127 0.4267 0.5218 0.5739 0.6378 0.7316
821.891258 0.7570 0.7790 0.7990 0.8120 0.8150
826.866390 0.8160 0.8180 0.8310 0.8380 0.8440
831.841521 0.8540 0.8570 0.8650 0.8660 0.8660
836.816652 0.8660 0.8660 0.8650 0.8640 0.8620
841.791783 0.8590 0.8530 0.8470 0.8400 0.8310
846.766914 0.8220 0.8120 0.8010 0.7950 0.7751
851.742045 0.7580 0.7490 0.7310 0.7170 0.7150
856.717176 0.7030 0.6910 0.6282 0.4815 0.3336
861.692307 0.2420 0.2410 0.2420 0.3029 0.4357
866.667439 0.5397 0.6038 0.6050 0.6399 0.7425
871.642570 0.7440 0.7440 0.7330 0.7080 0.6830
876.617701 0.6491 0.6490 0.6998 0.7747 0.7889
881.592832 0.8040 0.8210 0.8270 0.8340 0.8430
886.567963 0.8520 0.8610 0.8640 0.8670 0.8770
891.543094 0.8820 0.8850 0.8930 0.8970 0.8990
896.518225 0.9010 0.9020 0.9040 0.9040 0.9060
901.493356 0.9080 0.9090 0.9090 0.9100 0.9110
906.468487 0.9110 0.9120 0.9120 0.9130 0.9130
911.443619 0.9130 0.9130 0.9130 0.9130 0.9130
916.418750 0.9130 0.9130 0.9130 0.9130 0.9130
921.393881 0.9130 0.9130 0.9130 0.9130 0.9130
926.369012 0.9130 0.9130 0.9120 0.9120 0.9120
931.344143 0.9110 0.9090 0.9070 0.9030 0.9010
936.319274 0.8960 0.8910 0.8840 0.8740 0.8620
941.294405 0.8460 0.8260 0.8000 0.7680 0.7001
946.269536 0.6302 0.5502 0.5500 0.6367 0.7375
951.244668 0.7900 0.8230 0.8350 0.8410 0.8430
956.219799 0.8510 0.8580 0.8620 0.8640 0.8700
961.194930 0.8720 0.8740 0.8750 0.8750 0.8760
966.170061 0.8770 0.8770 0.8770 0.8770 0.8770
971.145192 0.8760 0.8760 0.8750 0.8740 0.8730
976.120323 0.8720 0.8710 0.8700 0.8680 0.8690
981.095454 0.8730 0.8760 0.8800 0.8830 0.8870
986.070585 0.8880 0.8920 0.8940 0.8960 0.8990
991.045716 0.9020 0.9030 0.9020 0.9000 0.8950
996.020848 0.8930 0.8920 0.8910 0.8521 0.7713
1000.995979 0.7360 0.6990 0.6950 0.7839 0.8689
1005.971110 0.8880 0.8970 0.9060 0.9100 0.9110
1010.946241 0.9110 0.9120 0.9120 0.9120 0.9120
1015.921372 0.9120 0.9120 0.9110 0.9100 0.9100
1020.896503 0.9090 0.9090 0.9080 0.9040 0.9020
1025.871634 0.8950 0.8870 0.8820 0.8820 0.8939
1030.846765 0.8940 0.8940 0.8930 0.8890 0.8800
1035.821897 0.8660 0.7094 0.5505 0.5151 0.5150
1040.797028 0.5161 0.5701 0.8020 0.8380 0.8650
1045.772159 0.8880 0.8940 0.9040 0.9100 0.9110
1050.747290 0.9170 0.9180 0.9190 0.9210 0.9220
1055.722421 0.9230 0.9230 0.9230 0.9230 0.9230
1060.697552 0.9230 0.9230 0.9230 0.9230 0.9230
1065.672683 0.9230 0.9220 0.9210 0.9200 0.9190
1070.647814 0.9190 0.9180 0.9170 0.9160 0.9140
1075.622945 0.9090 0.9060 0.9070 0.9150 0.9200
1080.598077 0.9230 0.9230 0.9220 0.9200 0.9180
1085.573208 0.9160 0.9130 0.9120 0.9080 0.9050
1090.548339 0.8820 0.8650 0.8070 0.8010 0.7990
1095.523470 0.7990 0.8808 0.8980 0.9040 0.9090
1100.498601 0.9140 0.9190 0.9210 0.9220 0.9220
1105.473732 0.9220 0.9220 0.9220 0.9220 0.9220
1110.448863 0.9220 0.9210 0.9210 0.9200 0.9200
1115.423994 0.9190 0.9190 0.9180 0.9180 0.9170
1120.399126 0.9160 0.9160 0.9150 0.9130 0.9120
1125.374257 0.9110 0.9100 0.9090 0.9070 0.9060
1130.349388 0.9050 0.9040 0.9020 0.9010 0.8930
1135.324519 0.8900 0.8810 0.8740 0.8630 0.8500
1140.299650 0.7649 0.6800 0.6780 0.7410 0.8190
1145.274781 0.8370 0.8500 0.8520 0.8530 0.8540
1150.249912 0.8580 0.8600 0.8610 0.8610 0.8620
1155.225043 0.8620 0.8630 0.8630 0.8620 0.8600
1160.200174 0.8530 0.8460 0.8410 0.8330 0.8320
1165.175306 0.8280 0.8280 0.8499 0.8590 0.8640
1170.150437 0.8690 0.8740 0.8770 0.8820 0.8850
1175.125568 0.8860 0.8870 0.8880 0.8880 0.8880
1180.100699 0.8880 0.8900 0.8910 0.8930 0.8950
1185.075830 0.8990 0.9020 0.9040 0.9040 0.9050
1190.050961 0.9060 0.9060 0.9060 0.9060 0.9050
1195.026092 0.9040 0.9030 0.8950 0.8830 0.8631
1200.001223 0.8379 0.7450 0.7430 0.7450 0.7979
1204.976354 0.8339 0.8589 0.8670 0.8760 0.8800
1209.951486 0.8830 0.8870 0.8950 0.8970 0.8980
1214.926617 0.8980 0.8970 0.8960 0.8860 0.8810
1219.901748 0.8610 0.8580 0.8580 0.8610 0.8860
1224.876879 0.8880 0.8880 0.8790 0.8720 0.8640
1229.852010 0.8540 0.8520 0.8520 0.8450 0.8300
1234.827141 0.8080 0.7920 0.7860 0.7840 0.7830
1239.802272 0.7790 0.7590 0.7060 0.6650 0.6240
1244.777403 0.4782 0.4780 0.5309 0.7523 0.8237
1249.752535 0.8610 0.8890 0.8900 0.8910 0.8920
1254.727666 0.8980 0.9050 0.9050 0.9070 0.9080
1259.702797 0.9090 0.9100 0.9100 0.9110 0.9130
1264.677928 0.9170 0.9170 0.9180 0.9170 0.9170
1269.653059 0.9150 0.9130 0.9110 0.9070 0.9070
1274.628190 0.9100 0.9170 0.9180 0.9180 0.9180
1279.603321 0.9180 0.9180 0.9170 0.9160 0.9140
1284.578452 0.9130 0.9110 0.9070 0.9050 0.9020
1289.553583 0.9000 0.8970 0.8960 0.8970 0.8980
1294.528715 0.9000 0.9010 0.8980 0.8940 0.8412
1299.503846 0.7659 0.6910 0.6890 0.7260 0.7570
1304.478977 0.7920 0.8230 0.8619 0.8869 0.8940
1309.454108 0.8990 0.9110 0.9120 0.9120 0.9120
1314.429239 0.9110 0.9090 0.9050 0.9040 0.9010
1319.404370 0.9000 0.9010 0.9030 0.9040 0.9050
1324.379501 0.9060 0.9070 0.9080 0.9100 0.9140
1329.354632 0.9140 0.9150 0.9150 0.9140 0.9130
1334.329764 0.9130 0.9120 0.9120 0.9120 0.9120
1339.304895 0.9110 0.9110 0.9100 0.9070 0.9050
1344.280026 0.9040 0.9030 0.9000 0.8980 0.8970
1349.255157 0.8950 0.8950 0.8930 0.8930 0.8930
1354.230288 0.8930 0.8930 0.8930 0.8890 0.8870
1359.205419 0.8860 0.8850 0.8830 0.8820 0.8830
1364.180550 0.8830 0.8840 0.8850 0.8860 0.8870
1369.155681 0.8870 0.8880 0.8900 0.8920 0.8950
1374.130812 0.8980 0.9010 0.9020 0.9020 0.9040
1379.105944 0.9060 0.9070 0.9070 0.9070 0.9060
1384.081075 0.9060 0.9030 0.9020 0.9010 0.9000
1389.056206 0.9000 0.8990 0.8970 0.8950 0.8940
1394.031337 0.8920 0.8910 0.8900 0.8880 0.8860
1399.006468 0.8820 0.8760 0.8720 0.8700 0.8720
1403.981599 0.8740 0.8790 0.8840 0.8870 0.8920
1408.956730 0.8940 0.8970 0.8980 0.8980 0.8980
1413.931861 0.8970 0.8900 0.8780 0.8421 0.8380
1418.906993 0.8450 0.8500 0.8460 0.8380 0.8360
1423.882124 0.8380 0.8609 0.8620 0.8610 0.8471
1428.857255 0.7799 0.7330 0.7310 0.7320 0.7480
1433.832386 0.7889 0.8309 0.8759 0.8780 0.8790
1438.807517 0.8800 0.8790 0.8450 0.8200 0.7451
1443.782648 0.7330 0.7140 0.7050 0.7040 0.7050
1448.757779 0.7190 0.7260 0.7590 0.7690 0.7550
1453.732910 0.7490 0.7410 0.6272 0.5133 0.4034
1458.708041 0.2920 0.2903 0.5031 0.5861 0.7500
1463.683173 0.7920 0.8170 0.8330 0.8440 0.8570
1468.658304 0.8630 0.8700 0.8750 0.8810 0.8860
1473.633435 0.8920 0.8920 0.8920 0.8920 0.8910
1478.608566 0.8910 0.8850 0.8780 0.8770 0.8740
1483.583697 0.8710 0.8690 0.8670 0.8660 0.8650
1488.558828 0.8640 0.8620 0.8590 0.8550 0.8510
1493.533959 0.8480 0.8440 0.8390 0.8240 0.8071
1498.509090 0.7767 0.6428 0.5079 0.3740 0.3720
1503.484222 0.4360 0.5598 0.7666 0.7670 0.7670
1508.459353 0.7670 0.7650 0.7620 0.7590 0.7560
1513.434484 0.7520 0.7500 0.7470 0.7410 0.7340
1518.409615 0.7320 0.7280 0.7130 0.7060 0.7010
1523.384746 0.6960 0.6880 0.6770 0.6511 0.6121
1528.359877 0.5800 0.5780 0.5800 0.6180 0.6280
1533.335008 0.6320 0.6380 0.6380 0.6390 0.6250
1538.310139 0.6170 0.6110 0.6030 0.5940 0.5850
1543.285270 0.5750 0.5660 0.5570 0.5480 0.5410
1548.260402 0.5340 0.5300 0.5180 0.5160 0.5180
1553.235533 0.5200 0.5240 0.5280 0.5360 0.5390
1558.210664 0.5500 0.5540 0.5620 0.5680 0.5770
1563.185795 0.5860 0.5990 0.6040 0.6140 0.6270
1568.160926 0.6320 0.6360 0.6420 0.6520 0.6550
1573.136057 0.6580 0.6630 0.6680 0.6710 0.6770
1578.111188 0.6800 0.6830 0.6840 0.6860 0.6860
1583.086319 0.6870 0.6870 0.6860 0.6870 0.6880
1588.061451 0.6890 0.6910 0.6930 0.6950 0.7000
1593.036582 0.7030 0.7070 0.7100 0.7150 0.7190
1598.011713 0.7210 0.7200 0.7150 0.7140 0.7110
1602.986844 0.7050 0.7020 0.6990 0.7090 0.7180
1607.961975 0.7310 0.7440 0.7440 0.7710 0.7980
1612.937106 0.8240 0.8350 0.8400 0.8420 0.8430
1617.912237 0.8420 0.8360 0.8280 0.8220 0.8210
1622.887368 0.8210 0.8220 0.8290 0.8330 0.8410
1627.862499 0.8490 0.8570 0.8650 0.8730 0.8800
1632.837631 0.8850 0.8900 0.8930 0.8990 0.9010
1637.812762 0.9020 0.9040 0.9050 0.9060 0.9070
1642.787893 0.9060 0.9040 0.9020 0.9010 0.9000
1647.763024 0.8980 0.8960 0.8850 0.8830 0.8820
1652.738155 0.8830 0.8860 0.8880 0.8880 0.8890
1657.713286 0.8890 0.8930 0.8970 0.9010 0.9040
1662.688417 0.9070 0.9090 0.9090 0.9080 0.9040
1667.663548 0.9020 0.8960 0.8810 0.8630 0.8610
1672.638679 0.8610 0.8620 0.8650 0.8670 0.8650
1677.613811 0.8630 0.8620 0.8620 0.8620 0.8640
1682.588942 0.8680 0.8720 0.8790 0.8840 0.8870
1687.564073 0.8910 0.8940 0.9020 0.9070 0.9070
1692.539204 0.9060 0.9040 0.9030 0.9010 0.8980
1697.514335 0.8940 0.8910 0.8890 0.8860 0.8830
1702.489466 0.8780 0.8750 0.8750 0.8750 0.8770
1707.464597 0.8780 0.8810 0.8870 0.8930 0.9000
1712.439728 0.9040 0.9070 0.9120 0.9160 0.9170
1717.414860 0.9180 0.9180 0.9180 0.9190 0.9180
1722.389991 0.9180 0.9180 0.9170 0.9160 0.9140
1727.365122 0.9110 0.9090 0.9050 0.9000 0.8900
1732.340253 0.8780 0.8790 0.8800 0.8850 0.8880
1737.315384 0.8930 0.9010 0.9040 0.9110 0.9130
1742.290515 0.9140 0.9140 0.9150 0.9160 0.9170
1747.265646 0.9180 0.9180 0.9180 0.9170 0.9110
1752.240777 0.9070 0.9020 0.8940 0.8790 0.8690
1757.215908 0.8610 0.8560 0.8530 0.8560 0.8570
1762.191040 0.8650 0.8690 0.8730 0.8760 0.8780
1767.166171 0.8800 0.8830 0.8860 0.8870 0.8880
1772.141302 0.8890 0.8890 0.8880 0.8850 0.8830
1777.116433 0.8840 0.8910 0.8960 0.9050 0.9110
1782.091564 0.9130 0.9130 0.9130 0.9140 0.9150
1787.066695 0.9160 0.9150 0.9120 0.9100 0.9050
1792.041826 0.9010 0.9010 0.9030 0.9050 0.9070
1797.016957 0.9080 0.9110 0.9110 0.9120 0.9110
1801.992089 0.9090 0.9070 0.9060 0.9030 0.8880
1806.967220 0.8830 0.8770 0.8700 0.8630 0.8560
1811.942351 0.8540 0.8550 0.8560 0.8570 0.8590
1816.917482 0.8610 0.8630 0.8670 0.8720 0.8860
1821.892613 0.8920 0.8940 0.8930 0.8920 0.8910
1826.867744 0.8840 0.8760 0.8690 0.8670 0.8680
1831.842875 0.8760 0.8800 0.8910 0.8920 0.8920
1836.818006 0.8920 0.8910 0.8790 0.8750 0.8710
1841.793137 0.8640 0.8620 0.8620 0.8650 0.8700
1846.768269 0.8780 0.8880 0.8930 0.9030 0.9110
1851.743400 0.9130 0.9170 0.9220 0.9230 0.9240
1856.718531 0.9240 0.9250 0.9250 0.9240 0.9250
1861.693662 0.9250 0.9250 0.9250 0.9250 0.9250
1866.668793 0.9250 0.9250 0.9250 0.9250 0.9240
1871.643924 0.9240 0.9230 0.9220 0.9220 0.9210
1876.619055 0.9210 0.9200 0.9200 0.9190 0.9190
1881.594186 0.9180 0.9180 0.9160 0.9140 0.9130
1886.569318 0.9120 0.9090 0.9060 0.9030 0.8930
1891.544449 0.8860 0.8810 0.8760 0.8740 0.8760
1896.519580 0.8870 0.8940 0.8980 0.8990 0.8980
1901.494711 0.8960 0.8930 0.8910 0.8900 0.8840
1906.469842 0.8810 0.8790 0.8750 0.8720 0.8720
1911.444973 0.8790 0.8840 0.8850 0.8800 0.8740
1916.420104 0.8690 0.8630 0.8570 0.8470 0.8390
1921.395235 0.8370 0.8360 0.8350 0.8350 0.8350
1926.370366 0.8350 0.8350 0.8390 0.8530 0.8650
1931.345498 0.8670 0.8890 0.8890 0.8890 0.8890
1936.320629 0.8860 0.8820 0.8810 0.8800 0.8780
1941.295760 0.8760 0.8750 0.8740 0.8740 0.8740
1946.270891 0.8720 0.8700 0.8610 0.8560 0.8390
1951.246022 0.8210 0.8110 0.8100 0.8120 0.8180
1956.221153 0.8340 0.8490 0.8600 0.8700 0.8810
1961.196284 0.8910 0.8960 0.9080 0.9120 0.9160
1966.171415 0.9170 0.9180 0.9190 0.9220 0.9230
1971.146547 0.9240 0.9240 0.9240 0.9250 0.9260
1976.121678 0.9270 0.9280 0.9270 0.9270 0.9260
1981.096809 0.9260 0.9260 0.9250 0.9260 0.9260
1986.071940 0.9270 0.9270 0.9270 0.9270 0.9270
1991.047071 0.9260 0.9240 0.9240 0.9240 0.9240
1996.022202 0.9230 0.9230 0.9230 0.9250 0.9280
2000.997333 0.9285 0.9290 0.9290 0.9290 0.9285
2005.972464 0.9280 0.9280 0.9280 0.9280 0.9280
2010.947595 0.9280 0.9280 0.9280 0.9280 0.9280
2015.922727 0.9280 0.9280 0.9280 0.9280 0.9280
2020.897858 0.9275 0.9270 0.9265 0.9260 0.9260
2025.872989 0.9260 0.9260 0.9260 0.9260 0.9260
2030.848120 0.9260 0.9260 0.9269 0.9279 0.9285
2035.823251 0.9290 0.9281 0.9271 0.9265 0.9260
2040.798382 0.9260 0.9260 0.9265 0.9270 0.9279
2045.773513 0.9289 0.9295 0.9300 0.9305 0.9310
2050.748644 0.9305 0.9300 0.9300 0.9300 0.9291
2055.723775 0.9281 0.9280 0.9280 0.9275 0.9270
2060.698907 0.9270 0.9270 0.9265 0.9260 0.9255
2065.674038 0.9250 0.9245 0.9240 0.9240 0.9240
2070.649169 0.9245 0.9250 0.9259 0.9269 0.9274
2075.624300 0.9279 0.9280 0.9280 0.9280 0.9280
2080.599431 0.9280 0.9280 0.9289 0.9299 0.9309
2085.574562 0.9319 0.9320 0.9320 0.9311 0.9301
2090.549693 0.9296 0.9291 0.9281 0.9271 0.9270
2095.524824 0.9270 0.9266 0.9261 0.9256 0.9251
2100.499956 0.9250 0.9250 0.9250 0.9250 0.9250
2105.475087 0.9250 0.9254 0.9259 0.9260 0.9260
2110.450218 0.9273 0.9288 0.9290 0.9290 0.9290
2115.425349 0.9290 0.9290 0.9290 0.9290 0.9290
2120.400480 0.9294 0.9299 0.9300 0.9300 0.9296
2125.375611 0.9291 0.9282 0.9272 0.9270 0.9270
2130.350742 0.9270 0.9270 0.9266 0.9261 0.9260
2135.325873 0.9260 0.9260 0.9260 0.9256 0.9251
2140.301004 0.9254 0.9259 0.9260 0.9260 0.9260
2145.276136 0.9260 0.9260 0.9260 0.9268 0.9278
2150.251267 0.9280 0.9280 0.9284 0.9289 0.9290
2155.226398 0.9290 0.9290 0.9290 0.9286 0.9281
2160.201529 0.9292 0.9307 0.9314 0.9319 0.9320
2165.176660 0.9320 0.9316 0.9311 0.9306 0.9301
2170.151791 0.9296 0.9291 0.9290 0.9290 0.9286
2175.126922 0.9281 0.9280 0.9280 0.9280 0.9280
2180.102053 0.9276 0.9271 0.9274 0.9279 0.9288
2185.077185 0.9298 0.9304 0.9309 0.9314 0.9319
2190.052316 0.9320 0.9320 0.9313 0.9303 0.9300
2195.027447 0.9300 0.9300 0.9300 0.9311 0.9326
2200.002578 0.9330 0.9330 0.9323 0.9313 0.9288
2204.977709 0.9258 0.9246 0.9241 0.9244 0.9249
2209.952840 0.9250 0.9250 0.9250 0.9250 0.9254
2214.927971 0.9259 0.9260 0.9260 0.9260 0.9260
2219.903102 0.9260 0.9260 0.9260 0.9260 0.9260
2224.878233 0.9260 0.9264 0.9269 0.9274 0.9279
2229.853365 0.9280 0.9280 0.9273 0.9263 0.9250
2234.828496 0.9235 0.9227 0.9222 0.9220 0.9220
2239.803627 0.9220 0.9220 0.9220 0.9220 0.9217
2244.778758 0.9212 0.9213 0.9218 0.9220 0.9220
2249.753889 0.9217 0.9212 0.9203 0.9193 0.9187
2254.729020 0.9182 0.9177 0.9172 0.9173 0.9178
2259.704151 0.9183 0.9188 0.9190 0.9190 0.9190
2264.679282 0.9190 0.9187 0.9182 0.9177 0.9172
2269.654414 0.9167 0.9162 0.9160 0.9160 0.9157
2274.629545 0.9152 0.9137 0.9117 0.9104 0.9093
2279.604676 0.9090 0.9090 0.9087 0.9082 0.9074
2284.579807 0.9064 0.9054 0.9044 0.9034 0.9024
2289.554938 0.9020 0.9020 0.9017 0.9012 0.9007
2294.530069 0.9002 0.8997 0.8992 0.8990 0.8990
2299.505200 0.8990 0.8990 0.8984 0.8974 0.8970
2304.480331 0.8970 0.8967 0.8962 0.8963 0.8968
2309.455462 0.8970 0.8970 0.8973 0.8978 0.8983
2314.430594 0.8988 0.8990 0.8990 0.8993 0.8998
2319.405725 0.9006 0.9016 0.9026 0.9036 0.9040
2324.380856 0.9040 0.9043 0.9048 0.9053 0.9058
2329.355987 0.9060 0.9060 0.9069 0.9084 0.9090
2334.331118 0.9090 0.9093 0.9098 0.9100 0.9100
2339.306249 0.9103 0.9108 0.9110 0.9110 0.9110
2344.281380 0.9110 0.9113 0.9118 0.9120 0.9120
2349.256511 0.9126 0.9136 0.9143 0.9148 0.9150
2354.231643 0.9150 0.9150 0.9150 0.9150 0.9150
2359.206774 0.9153 0.9158 0.9163 0.9168 0.9170
2364.181905 0.9170 0.9170 0.9170 0.9167 0.9162
2369.157036 0.9157 0.9152 0.9150 0.9150 0.9153
2374.132167 0.9158 0.9165 0.9175 0.9185 0.9195
2379.107298 0.9205 0.9215 0.9223 0.9228 0.9227
2384.082429 0.9222 0.9215 0.9205 0.9197 0.9192
2389.057560 0.9187 0.9182 0.9177 0.9173 0.9168
2394.032691 0.9163 0.9160 0.9160 0.9158 0.9153
2399.007823 0.9150 0.9150 0.9150 0.9150 0.9150
2403.982954 0.9150 0.9152 0.9157 0.9160 0.9160
2408.958085 0.9162 0.9167 0.9177 0.9192 0.9202
2413.933216 0.9207 0.9212 0.9217 0.9218 0.9213
2418.908347 0.9208 0.9203 0.9198 0.9193 0.9188
2423.883478 0.9183 0.9180 0.9180 0.9178 0.9173
2428.858609 0.9168 0.9163 0.9160 0.9160 0.9158
2433.833740 0.9153 0.9150 0.9150 0.9150 0.9150
2438.808871 0.9148 0.9143 0.9142 0.9147 0.9152
2443.784003 0.9157 0.9162 0.9167 0.9170 0.9170
2448.759134 0.9172 0.9177 0.9182 0.9187 0.9194
2453.734265 0.9204 0.9210 0.9210 0.9206 0.9196
2458.709396 0.9188 0.9183 0.9180 0.9180 0.9180
2463.684527 0.9180 0.9178 0.9173 0.9168 0.9163
2468.659658 0.9158 0.9153 0.9152 0.9157 0.9160
2473.634789 0.9160 0.9160 0.9160 0.9162 0.9167
2478.609920 0.9172 0.9177 0.9180 0.9180 0.9180
2483.585052 0.9180 0.9182 0.9187 0.9192 0.9197
2488.560183 0.9200 0.9200 0.9200 0.9200 0.9200
2493.535314 0.9200 0.9200 0.9200 0.9200 0.9200
2498.510445 0.9198 0.9193 0.9186 0.9176 0.9168
2503.485576 0.9163 0.9155 0.9140 0.9128 0.9123
2508.460707 0.9122 0.9127 0.9132 0.9137 0.9140
2513.435838 0.9140 0.9142 0.9147 0.9152 0.9157
2518.410969 0.9160 0.9160 0.9160 0.9160 0.9160
2523.386100 0.9160 0.9160 0.9160 0.9160 0.9160
2528.361232 0.9162 0.9167 0.9170 0.9170 0.9170
2533.336363 0.9170 0.9168 0.9163 0.9158 0.9153
2538.311494 0.9150 0.9150 0.9148 0.9143 0.9142
2543.286625 0.9147 0.9150 0.9150 0.9152 0.9157
2548.261756 0.9158 0.9153 0.9150 0.9150 0.9150
2553.236887 0.9150 0.9150 0.9150 0.9151 0.9156
2558.212018 0.9160 0.9160 0.9162 0.9166 0.9170
2563.187149 0.9170 0.9171 0.9176 0.9180 0.9180
2568.162281 0.9179 0.9174 0.9169 0.9164 0.9157
2573.137412 0.9147 0.9139 0.9134 0.9129 0.9124
2578.112543 0.9120 0.9120 0.9120 0.9120 0.9120
2583.087674 0.9120 0.9120 0.9120 0.9120 0.9120
2588.062805 0.9120 0.9120 0.9121 0.9126 0.9130
2593.037936 0.9130 0.9130 0.9130 0.9129 0.9124
2598.013067 0.9120 0.9120 0.9120 0.9120 0.9120
2602.988198 0.9120 0.9120 0.9120 0.9120 0.9120
2607.963329 0.9119 0.9114 0.9110 0.9110 0.9110
2612.938461 0.9110 0.9109 0.9104 0.9100 0.9100
2617.913592 0.9100 0.9100 0.9100 0.9100 0.9100
2622.888723 0.9100 0.9100 0.9100 0.9100 0.9100
2627.863854 0.9101 0.9106 0.9110 0.9110 0.9110
2632.838985 0.9110 0.9110 0.9110 0.9110 0.9110
2637.814116 0.9110 0.9110 0.9110 0.9110 0.9110
2642.789247 0.9110 0.9109 0.9104 0.9101 0.9106
2647.764378 0.9110 0.9110 0.9111 0.9116 0.9120
2652.739510 0.9120 0.9119 0.9114 0.9110 0.9110
2657.714641 0.9109 0.9104 0.9099 0.9094 0.9089
2662.689772 0.9084 0.9081 0.9086 0.9091 0.9096
2667.664903 0.9100 0.9100 0.9101 0.9106 0.9111
2672.640034 0.9116 0.9120 0.9120 0.9120 0.9120
2677.615165 0.9120 0.9120 0.9120 0.9120 0.9120
2682.590296 0.9120 0.9120 0.9120 0.9120 0.9120
2687.565427 0.9120 0.9120 0.9119 0.9114 0.9110
2692.540558 0.9110 0.9110 0.9110 0.9110 0.9110
2697.515690 0.9110 0.9110 0.9111 0.9116 0.9120
2702.490821 0.9120 0.9119 0.9114 0.9110 0.9110
2707.465952 0.9110 0.9110 0.9110 0.9110 0.9110
2712.441083 0.9110 0.9110 0.9110 0.9110 0.9110
2717.416214 0.9110 0.9110 0.9110 0.9110 0.9110
2722.391345 0.9110 0.9110 0.9110 0.9110 0.9105
2727.366476 0.9100 0.9105 0.9110 0.9105 0.9100
2732.341607 0.9095 0.9090 0.9090 0.9090 0.9085
2737.316739 0.9080 0.9085 0.9090 0.9090 0.9090
2742.291870 0.9095 0.9100 0.9105 0.9110 0.9110
2747.267001 0.9110 0.9115 0.9120 0.9120 0.9120
2752.242132 0.9120 0.9120 0.9120 0.9120 0.9120
2757.217263 0.9120 0.9120 0.9119 0.9110 0.9100
2762.192394 0.9100 0.9100 0.9100 0.9100 0.9100
2767.167525 0.9100 0.9100 0.9100 0.9100 0.9100
2772.142656 0.9100 0.9100 0.9100 0.9100 0.9105
2777.117787 0.9110 0.9100 0.9090 0.9090 0.9090
2782.092919 0.9090 0.9090 0.9090 0.9090 0.9090
2787.068050 0.9090 0.9095 0.9100 0.9100 0.9100
2792.043181 0.9100 0.9100 0.9095 0.9090 0.9090
2797.018312 0.9090 0.9085 0.9080 0.9080 0.9080
2801.993443 0.9070 0.9060 0.9060 0.9060 0.9060
2806.968574 0.9060 0.9060 0.9060 0.9060 0.9060
2811.943705 0.9065 0.9070 0.9070 0.9070 0.9070
2816.918836 0.9070 0.9070 0.9070 0.9075 0.9080
2821.893967 0.9080 0.9080 0.9085 0.9090 0.9090
2826.869099 0.9090 0.9085 0.9080 0.9070 0.9061
2831.844230 0.9060 0.9060 0.9060 0.9060 0.9055
2836.819361 0.9050 0.9050 0.9050 0.9050 0.9050
2841.794492 0.9045 0.9040 0.9035 0.9030 0.9030
2846.769623 0.9030 0.9030 0.9030 0.9025 0.9020
2851.744754 0.9015 0.9010 0.9010 0.9010 0.9015
2856.719885 0.9020 0.9020 0.9020 0.9020 0.9020
2861.695016 0.9015 0.9010 0.9005 0.9000 0.9000
2866.670148 0.9000 0.8991 0.8981 0.8975 0.8970
2871.645279 0.8961 0.8951 0.8932 0.8912 0.8905
2876.620410 0.8900 0.8900 0.8900 0.8900 0.8900
2881.595541 0.8931 0.8966 0.8983 0.8998 0.9000
2886.570672 0.9000 0.9000 0.9000 0.9000 0.9000
2891.545803 0.9004 0.9009 0.9010 0.9010 0.9010
2896.520934 0.9010 0.9010 0.9010 0.9006 0.9001
2901.496065 0.8991 0.8981 0.8971 0.8961 0.8951
2906.471196 0.8941 0.8936 0.8931 0.8921 0.8911
2911.446328 0.8910 0.8910 0.8910 0.8910 0.8906
2916.421459 0.8901 0.8896 0.8891 0.8881 0.8872
2921.396590 0.8866 0.8861 0.8847 0.8832 0.8817
2926.371721 0.8802 0.8792 0.8782 0.8772 0.8762
2931.346852 0.8756 0.8751 0.8742 0.8732 0.8722
2936.321983 0.8712 0.8698 0.8683 0.8672 0.8662
2941.297114 0.8652 0.8642 0.8636 0.8631 0.8626
2946.272245 0.8621 0.8612 0.8602 0.8600 0.8600
2951.247377 0.8616 0.8636 0.8656 0.8676 0.8680
2956.222508 0.8680 0.8680 0.8680 0.8668 0.8653
2961.197639 0.8638 0.8623 0.8620 0.8620 0.8632
2966.172770 0.8647 0.8662 0.8677 0.8680 0.8680
2971.147901 0.8684 0.8689 0.8694 0.8699 0.8700
2976.123032 0.8700 0.8680 0.8656 0.8646 0.8641
2981.098163 0.8648 0.8658 0.8660 0.8660 0.8660
2986.073294 0.8660 0.8656 0.8651 0.8646 0.8641
2991.048425 0.8636 0.8631 0.8623 0.8613 0.8591
2996.023557 0.8566 0.8515 0.8455 0.8402 0.8353
3000.998688 0.8306 0.8261 0.8202 0.8137 0.8083
3005.973819 0.8033 0.7972 0.7907 0.7791 0.7657
3010.948950 0.7555 0.7465 0.7422 0.7397 0.7271
3015.924081 0.7104 0.7027 0.6982 0.6937 0.6892
3020.899212 0.6804 0.6699 0.6598 0.6498 0.6177
3025.874343 0.5768 0.5643 0.5633 0.5634 0.5639
3030.849474 0.5714 0.5818 0.5941 0.6070 0.6141
3035.824606 0.6187 0.6200 0.6200 0.6186 0.6166
3040.799737 0.6062 0.5923 0.5845 0.5795 0.5780
3045.774868 0.5780 0.5770 0.5755 0.5716 0.5666
3050.749999 0.5522 0.5332 0.5183 0.5053 0.4970
3055.725130 0.4909 0.4774 0.4604 0.4445 0.4290
3060.700261 0.4233 0.4223 0.4227 0.4237 0.4306
3065.675392 0.4406 0.4499 0.4589 0.4659 0.4719
3070.650523 0.4782 0.4847 0.4876 0.4886 0.4919
3075.625654 0.4965 0.5006 0.5046 0.5138 0.5258
3080.600786 0.5430 0.5629 0.5781 0.5905 0.6020
3085.575917 0.6130 0.6218 0.6292 0.6370 0.6450
3090.551048 0.6671 0.6975 0.7183 0.7333 0.7440
3095.526179 0.7521 0.7607 0.7697 0.7739 0.7754
3100.501310 0.7760 0.7760 0.7751 0.7736 0.7733
3105.476441 0.7738 0.7761 0.7796 0.7840 0.7890
3110.451572 0.7970 0.8070 0.8152 0.8222 0.8265
3115.426703 0.8290 0.8303 0.8308 0.8313 0.8318
3120.401835 0.8332 0.8352 0.8393 0.8448 0.8502
3125.376966 0.8557 0.8586 0.8596 0.8603 0.8608
3130.352097 0.8610 0.8610 0.8616 0.8626 0.8639
3135.327228 0.8654 0.8669 0.8684 0.8699 0.8714
3140.302359 0.8734 0.8759 0.8773 0.8778 0.8783
3145.277490 0.8788 0.8793 0.8798 0.8803 0.8808
3150.252621 0.8813 0.8818 0.8820 0.8820 0.8825
3155.227752 0.8836 0.8840 0.8840 0.8840 0.8840
3160.202883 0.8843 0.8848 0.8850 0.8850 0.8850
3165.178015 0.8850 0.8850 0.8850 0.8850 0.8850
3170.153146 0.8850 0.8850 0.8850 0.8850 0.8850
3175.128277 0.8850 0.8850 0.8850 0.8850 0.8850
3180.103408 0.8850 0.8850 0.8850 0.8850 0.8850
3185.078539 0.8850 0.8850 0.8850 0.8850 0.8850
3190.053670 0.8850 0.8850 0.8850 0.8850 0.8850
3195.028801 0.8850 0.8850 0.8850 0.8850 0.8850
3200.003932 0.8850 0.8850 0.8850 0.8850 0.8850
3204.979063 0.8850 0.8848 0.8843 0.8840 0.8840
3209.954195 0.8840 0.8840 0.8842 0.8847 0.8850
3214.929326 0.8850 0.8852 0.8857 0.8860 0.8860
3219.904457 0.8860 0.8860 0.8862 0.8867 0.8870
3224.879588 0.8870 0.8870 0.8870 0.8870 0.8870
3229.854719 0.8870 0.8870 0.8870 0.8870 0.8870
3234.829850 0.8870 0.8870 0.8870 0.8870 0.8870
3239.804981 0.8870 0.8870 0.8870 0.8870 0.8870
3244.780112 0.8870 0.8870 0.8870 0.8870 0.8870
3249.755244 0.8870 0.8870 0.8870 0.8870 0.8870
3254.730375 0.8870 0.8870 0.8870 0.8870 0.8870
3259.705506 0.8870 0.8870 0.8870 0.8870 0.8870
3264.680637 0.8870 0.8870 0.8870 0.8868 0.8863
3269.655768 0.8860 0.8860 0.8860 0.8860 0.8860
3274.630899 0.8860 0.8860 0.8860 0.8860 0.8860
3279.606030 0.8860 0.8860 0.8860 0.8860 0.8860
3284.581161 0.8860 0.8860 0.8860 0.8860 0.8860
3289.556292 0.8860 0.8860 0.8860 0.8860 0.8860
3294.531424 0.8860 0.8858 0.8853 0.8850 0.8850
3299.506555 0.8850 0.8850 0.8850 0.8850 0.8850
3304.481686 0.8850 0.8850 0.8850 0.8848 0.8843
3309.456817 0.8840 0.8840 0.8838 0.8833 0.8828
3314.431948 0.8823 0.8820 0.8820 0.8820 0.8820
3319.407079 0.8820 0.8820 0.8820 0.8820 0.8820
3324.382210 0.8820 0.8820 0.8820 0.8820 0.8820
3329.357341 0.8820 0.8820 0.8818 0.8813 0.8810
3334.332473 0.8810 0.8810 0.8810 0.8810 0.8810
3339.307604 0.8808 0.8803 0.8798 0.8793 0.8787
3344.282735 0.8777 0.8770 0.8770 0.8767 0.8757
3349.257866 0.8747 0.8737 0.8730 0.8730 0.8730
3354.232997 0.8730 0.8730 0.8730 0.8730 0.8730
3359.208128 0.8730 0.8730 0.8731 0.8736 0.8739
3364.183259 0.8734 0.8730 0.8730 0.8730 0.8730
3369.158390 0.8730 0.8730 0.8729 0.8724 0.8720
3374.133521 0.8720 0.8720 0.8720 0.8719 0.8714
3379.108653 0.8709 0.8704 0.8700 0.8700 0.8699
3384.083784 0.8694 0.8689 0.8684 0.8677 0.8667
3389.058915 0.8657 0.8647 0.8640 0.8640 0.8639
3394.034046 0.8634 0.8630 0.8630 0.8629 0.8624
3399.009177 0.8619 0.8614 0.8610 0.8610 0.8610
3403.984308 0.8610 0.8609 0.8604 0.8600 0.8600
3408.959439 0.8600 0.8600 0.8600 0.8600 0.8600
3413.934570 0.8600 0.8600 0.8600 0.8600 0.8600
3418.909702 0.8600 0.8600 0.8600 0.8600 0.8600
3423.884833 0.8600 0.8601 0.8606 0.8610 0.8610
3428.859964 0.8610 0.8610 0.8610 0.8610 0.8611
3433.835095 0.8616 0.8621 0.8626 0.8631 0.8636
3438.810226 0.8640 0.8640 0.8641 0.8646 0.8650
3443.785357 0.8650 0.8650 0.8650 0.8650 0.8650
3448.760488 0.8651 0.8656 0.8661 0.8666 0.8671
3453.735619 0.8676 0.8680 0.8680 0.8681 0.8686
3458.710750 0.8690 0.8690 0.8690 0.8690 0.8690
3463.685882 0.8690 0.8690 0.8690 0.8691 0.8696
3468.661013 0.8702 0.8712 0.8720 0.8720 0.8721
3473.636144 0.8726 0.8730 0.8730 0.8731 0.8736
3478.611275 0.8740 0.8740 0.8741 0.8746 0.8750
3483.586406 0.8750 0.8750 0.8750 0.8750 0.8750
3488.561537 0.8750 0.8750 0.8750 0.8750 0.8750
3493.536668 0.8750 0.8750 0.8750 0.8751 0.8756
3498.511799 0.8761 0.8766 0.8771 0.8776 0.8780
3503.486931 0.8780 0.8780 0.8780 0.8780 0.8780
3508.462062 0.8781 0.8786 0.8790 0.8790 0.8790
3513.437193 0.8790 0.8790 0.8790 0.8790 0.8790
3518.412324 0.8790 0.8790 0.8790 0.8795 0.8800
3523.387455 0.8800 0.8800 0.8800 0.8800 0.8805
3528.362586 0.8810 0.8810 0.8810 0.8810 0.8810
3533.337717 0.8810 0.8810 0.8815 0.8820 0.8825
3538.312848 0.8830 0.8830 0.8830 0.8830 0.8830
3543.287979 0.8825 0.8820 0.8820 0.8820 0.8815
3548.263111 0.8810 0.8810 0.8810 0.8810 0.8810
3553.238242 0.8799 0.8790 0.8790 0.8790 0.8790
3558.213373 0.8790 0.8790 0.8790 0.8785 0.8780
3563.188504 0.8790 0.8800 0.8805 0.8810 0.8815
3568.163635 0.8820 0.8820 0.8820 0.8820 0.8820
3573.138766 0.8820 0.8820 0.8820 0.8820 0.8815
3578.113897 0.8810 0.8810 0.8810 0.8805 0.8800
3583.089028 0.8800 0.8800 0.8790 0.8780 0.8780
3588.064160 0.8780 0.8780 0.8780 0.8785 0.8790
3593.039291 0.8795 0.8800 0.8800 0.8800 0.8800
3598.014422 0.8800 0.8800 0.8800 0.8800 0.8800
3602.989553 0.8800 0.8800 0.8800 0.8800 0.8795
3607.964684 0.8790 0.8790 0.8790 0.8790 0.8790
3612.939815 0.8785 0.8780 0.8780 0.8780 0.8780
3617.914946 0.8780 0.8780 0.8780 0.8780 0.8780
3622.890077 0.8780 0.8780 0.8780 0.8780 0.8780
3627.865208 0.8780 0.8775 0.8770 0.8775 0.8780
3632.840340 0.8785 0.8790 0.8790 0.8790 0.8795
3637.815471 0.8800 0.8800 0.8800 0.8800 0.8800
3642.790602 0.8800 0.8800 0.8805 0.8810 0.8810
3647.765733 0.8810 0.8805 0.8800 0.8795 0.8790
3652.740864 0.8790 0.8790 0.8785 0.8780 0.8771
3657.715995 0.8761 0.8760 0.8760 0.8760 0.8760
3662.691126 0.8755 0.8750 0.8750 0.8750 0.8750
3667.666257 0.8750 0.8755 0.8760 0.8760 0.8760
3672.641388 0.8760 0.8760 0.8760 0.8760 0.8765
3677.616520 0.8770 0.8770 0.8770 0.8774 0.8779
3682.591651 0.8780 0.8780 0.8780 0.8780 0.8776
3687.566782 0.8771 0.8761 0.8751 0.8750 0.8750
3692.541913 0.8746 0.8741 0.8736 0.8731 0.8734
3697.517044 0.8739 0.8740 0.8740 0.8744 0.8749
3702.492175 0.8750 0.8750 0.8754 0.8759 0.8760
3707.467306 0.8760 0.8760 0.8760 0.8756 0.8751
3712.442437 0.8746 0.8741 0.8736 0.8731 0.8726
3717.417569 0.8721 0.8716 0.8711 0.8702 0.8692
3722.392700 0.8690 0.8690 0.8690 0.8690 0.8690
3727.367831 0.8690 0.8694 0.8699 0.8704 0.8709
3732.342962 0.8710 0.8710 0.8714 0.8719 0.8720
3737.318093 0.8720 0.8724 0.8729 0.8730 0.8730
3742.293224 0.8730 0.8730 0.8730 0.8730 0.8730
3747.268355 0.8730 0.8726 0.8721 0.8720 0.8720
3752.243486 0.8716 0.8711 0.8702 0.8692 0.8690
3757.218617 0.8690 0.8690 0.8690 0.8690 0.8690
3762.193749 0.8690 0.8690 0.8690 0.8690 0.8686
3767.168880 0.8681 0.8680 0.8680 0.8680 0.8680
3772.144011 0.8684 0.8689 0.8690 0.8690 0.8682
3777.119142 0.8672 0.8674 0.8679 0.8680 0.8680
3782.094273 0.8680 0.8680 0.8680 0.8680 0.8680
3787.069404 0.8680 0.8684 0.8689 0.8694 0.8699
3792.044535 0.8700 0.8700 0.8700 0.8700 0.8696
3797.019666 0.8691 0.8690 0.8690 0.8686 0.8681
3801.994798 0.8680 0.8680 0.8680 0.8680 0.8676
3806.969929 0.8671 0.8670 0.8670 0.8670 0.8670
3811.945060 0.8670 0.8670 0.8674 0.8679 0.8680
3816.920191 0.8680 0.8684 0.8689 0.8690 0.8690
3821.895322 0.8690 0.8690 0.8686 0.8681 0.8680
3826.870453 0.8680 0.8680 0.8680 0.8680 0.8680
3831.845584 0.8684 0.8689 0.8690 0.8690 0.8686
3836.820715 0.8681 0.8680 0.8680 0.8677 0.8672
3841.795846 0.8670 0.8670 0.8667 0.8662 0.8657
3846.770978 0.8652 0.8650 0.8650 0.8650 0.8650
3851.746109 0.8650 0.8650 0.8650 0.8650 0.8650
3856.721240 0.8650 0.8650 0.8650 0.8653 0.8658
3861.696371 0.8660 0.8660 0.8660 0.8660 0.8660
3866.671502 0.8660 0.8663 0.8668 0.8667 0.8662
3871.646633 0.8657 0.8652 0.8650 0.8650 0.8647
3876.621764 0.8642 0.8637 0.8632 0.8624 0.8614
3881.596895 0.8607 0.8602 0.8597 0.8592 0.8587
3886.572027 0.8582 0.8577 0.8572 0.8567 0.8562
3891.547158 0.8557 0.8552 0.8553 0.8558 0.8563
3896.522289 0.8568 0.8573 0.8578 0.8583 0.8588
3901.497420 0.8593 0.8598 0.8600 0.8600 0.8597
3906.472551 0.8592 0.8590 0.8590 0.8593 0.8598
3911.447682 0.8600 0.8600 0.8603 0.8608 0.8613
3916.422813 0.8618 0.8620 0.8620 0.8623 0.8628
3921.397944 0.8633 0.8638 0.8643 0.8648 0.8650
3926.373075 0.8650 0.8647 0.8642 0.8640 0.8640
3931.348207 0.8640 0.8640 0.8640 0.8640 0.8640
3936.323338 0.8640 0.8640 0.8640 0.8637 0.8632
3941.298469 0.8630 0.8630 0.8627 0.8622 0.8620
3946.273600 0.8620 0.8617 0.8612 0.8607 0.8602
3951.248731 0.8600 0.8600 0.8600 0.8600 0.8600
3956.223862 0.8600 0.8600 0.8600 0.8603 0.8608
3961.198993 0.8613 0.8618 0.8620 0.8620 0.8623
3966.174124 0.8628 0.8630 0.8630 0.8635 0.8645
3971.149256 0.8653 0.8658 0.8663 0.8668 0.8670
3976.124387 0.8670 0.8670 0.8670 0.8673 0.8678
3981.099518 0.8680 0.8680 0.8677 0.8672 0.8667
3986.074649 0.8662 0.8657 0.8652 0.8650 0.8650
3991.049780 0.8650 0.8650 0.8650 0.8650 0.8650
3996.024911 0.8650 0.8650 0.8650
##END=
