##TITLE=PHENANTHRENE
##JCAMP-DX=4.24
$$ By DXEDIT 1.05 (RS McDonald)
##DATA TYPE=INFRARED SPECTRUM
##CLASS=COBLENTZ III
##OWNER=COBLENTZ SOC.
Collection (C) 2018 copyright by the U.S. Secretary of Commerce
on behalf of the United States of America. All rights reserved.
##DATE=1964/04/20
##CAS REGISTRY NO=85-01-8
##MOLFORM=C14 H10
##MP=99.5 C
##SOURCE REFERENCE=COBLENTZ NO. 05070
##$NIST SOURCE=COBLENTZ
##$NIST IMAGE=cob5070
##SPECTROMETER/DATA SYSTEM=PERKIN-ELMER 21 (GRATING)
##INSTRUMENT PARAMETERS=FILTER AT ABOUT 10 MICRONS
##STATE=SOLUTION 4.5% (CS2 FOR 2-15 microns, AND C2Cl4 FOR 6.2-7.3 microns)
##PATH LENGTH=
$$ THE SPLIT IN THE SPECTRAL FEATURE AT 998 CM^-^1 IS AN ARTIFACT CAUSED BY FILTER CHANGE
##SAMPLING PROCEDURE=TRANSMISSION
##RESOLUTION=2
##DATA PROCESSING=DIGITIZED BY COBLENTZ SOCIETY (BATCH I) FROM HARD COPY
##XUNITS=1/CM
##YUNITS=TRANSMITTANCE
##XLABEL=Wavenumbers (cm-1)
##YLABEL=Transmittance
##XFACTOR=1
##YFACTOR=1
##DELTAX=1
##FIRSTX=4000
##LASTX=673
##FIRSTY=0.9685
##MAXX=4000
##MINX=673
##MAXY=1.0171
##MINY=0.0367
##NPOINTS=3328
##XYDATA=(X++(Y..Y))
4000.000000 0.9685 0.9684 0.9684 0.9684 0.9684
3995.000000 0.9684 0.9684 0.9683 0.9683 0.9683
3990.000000 0.9682 0.9682 0.9682 0.9682 0.9682
3985.000000 0.9683 0.9683 0.9684 0.9684 0.9684
3980.000000 0.9685 0.9685 0.9686 0.9686 0.9687
3975.000000 0.9687 0.9688 0.9688 0.9689 0.9689
3970.000000 0.9690 0.9690 0.9691 0.9691 0.9692
3965.000000 0.9692 0.9693 0.9693 0.9693 0.9694
3960.000000 0.9694 0.9695 0.9695 0.9696 0.9696
3955.000000 0.9697 0.9697 0.9698 0.9698 0.9699
3950.000000 0.9699 0.9700 0.9700 0.9701 0.9701
3945.000000 0.9702 0.9702 0.9703 0.9703 0.9704
3940.000000 0.9705 0.9705 0.9706 0.9707 0.9707
3935.000000 0.9708 0.9708 0.9709 0.9710 0.9710
3930.000000 0.9711 0.9711 0.9712 0.9712 0.9713
3925.000000 0.9713 0.9714 0.9715 0.9715 0.9716
3920.000000 0.9717 0.9717 0.9718 0.9718 0.9718
3915.000000 0.9720 0.9720 0.9721 0.9721 0.9721
3910.000000 0.9723 0.9724 0.9724 0.9725 0.9725
3905.000000 0.9725 0.9727 0.9727 0.9728 0.9728
3900.000000 0.9728 0.9728 0.9728 0.9730 0.9730
3895.000000 0.9730 0.9731 0.9731 0.9732 0.9732
3890.000000 0.9733 0.9733 0.9734 0.9734 0.9734
3885.000000 0.9735 0.9735 0.9735 0.9735 0.9736
3880.000000 0.9736 0.9736 0.9737 0.9737 0.9737
3875.000000 0.9738 0.9738 0.9739 0.9739 0.9740
3870.000000 0.9740 0.9741 0.9741 0.9741 0.9742
3865.000000 0.9742 0.9742 0.9743 0.9743 0.9743
3860.000000 0.9743 0.9743 0.9743 0.9743 0.9742
3855.000000 0.9742 0.9741 0.9741 0.9740 0.9740
3850.000000 0.9740 0.9739 0.9739 0.9739 0.9738
3845.000000 0.9738 0.9738 0.9737 0.9737 0.9737
3840.000000 0.9736 0.9736 0.9735 0.9735 0.9734
3835.000000 0.9734 0.9733 0.9733 0.9733 0.9732
3830.000000 0.9732 0.9732 0.9731 0.9731 0.9730
3825.000000 0.9730 0.9728 0.9728 0.9728 0.9728
3820.000000 0.9727 0.9727 0.9725 0.9725 0.9725
3815.000000 0.9725 0.9724 0.9724 0.9723 0.9723
3810.000000 0.9721 0.9721 0.9721 0.9720 0.9720
3805.000000 0.9718 0.9718 0.9718 0.9718 0.9718
3800.000000 0.9718 0.9718 0.9718 0.9718 0.9718
3795.000000 0.9718 0.9718 0.9717 0.9717 0.9717
3790.000000 0.9717 0.9717 0.9717 0.9716 0.9716
3785.000000 0.9716 0.9716 0.9716 0.9716 0.9716
3780.000000 0.9716 0.9716 0.9716 0.9716 0.9718
3775.000000 0.9720 0.9723 0.9725 0.9728 0.9731
3770.000000 0.9734 0.9736 0.9739 0.9742 0.9745
3765.000000 0.9748 0.9750 0.9753 0.9756 0.9758
3760.000000 0.9761 0.9763 0.9766 0.9768 0.9770
3755.000000 0.9773 0.9775 0.9777 0.9778 0.9781
3750.000000 0.9784 0.9786 0.9788 0.9790 0.9792
3745.000000 0.9794 0.9796 0.9798 0.9801 0.9803
3740.000000 0.9805 0.9807 0.9809 0.9811 0.9813
3735.000000 0.9815 0.9816 0.9818 0.9818 0.9821
3730.000000 0.9821 0.9823 0.9824 0.9825 0.9825
3725.000000 0.9827 0.9828 0.9828 0.9830 0.9831
3720.000000 0.9831 0.9830 0.9828 0.9828 0.9827
3715.000000 0.9825 0.9825 0.9824 0.9823 0.9821
3710.000000 0.9820 0.9818 0.9818 0.9817 0.9817
3705.000000 0.9816 0.9815 0.9814 0.9812 0.9811
3700.000000 0.9810 0.9808 0.9807 0.9806 0.9804
3695.000000 0.9803 0.9801 0.9800 0.9799 0.9797
3690.000000 0.9796 0.9795 0.9793 0.9792 0.9791
3685.000000 0.9790 0.9788 0.9787 0.9786 0.9785
3680.000000 0.9784 0.9783 0.9783 0.9782 0.9781
3675.000000 0.9781 0.9780 0.9780 0.9778 0.9778
3670.000000 0.9778 0.9777 0.9775 0.9775 0.9775
3665.000000 0.9774 0.9774 0.9773 0.9771 0.9771
3660.000000 0.9771 0.9771 0.9770 0.9768 0.9768
3655.000000 0.9768 0.9767 0.9767 0.9767 0.9767
3650.000000 0.9767 0.9767 0.9767 0.9767 0.9767
3645.000000 0.9767 0.9768 0.9768 0.9768 0.9768
3640.000000 0.9768 0.9768 0.9768 0.9768 0.9768
3635.000000 0.9768 0.9768 0.9768 0.9768 0.9768
3630.000000 0.9768 0.9768 0.9768 0.9768 0.9768
3625.000000 0.9768 0.9768 0.9768 0.9768 0.9768
3620.000000 0.9768 0.9768 0.9768 0.9770 0.9770
3615.000000 0.9770 0.9770 0.9770 0.9771 0.9771
3610.000000 0.9771 0.9771 0.9771 0.9771 0.9771
3605.000000 0.9771 0.9771 0.9771 0.9773 0.9773
3600.000000 0.9773 0.9773 0.9773 0.9774 0.9774
3595.000000 0.9774 0.9774 0.9774 0.9774 0.9775
3590.000000 0.9775 0.9775 0.9775 0.9775 0.9775
3585.000000 0.9775 0.9775 0.9775 0.9775 0.9777
3580.000000 0.9777 0.9777 0.9777 0.9777 0.9778
3575.000000 0.9778 0.9778 0.9778 0.9778 0.9778
3570.000000 0.9778 0.9778 0.9778 0.9778 0.9778
3565.000000 0.9778 0.9778 0.9778 0.9778 0.9778
3560.000000 0.9778 0.9778 0.9778 0.9778 0.9778
3555.000000 0.9778 0.9778 0.9778 0.9778 0.9778
3550.000000 0.9778 0.9778 0.9778 0.9778 0.9777
3545.000000 0.9777 0.9777 0.9777 0.9777 0.9775
3540.000000 0.9775 0.9775 0.9775 0.9775 0.9775
3535.000000 0.9775 0.9775 0.9775 0.9775 0.9775
3530.000000 0.9775 0.9775 0.9775 0.9775 0.9775
3525.000000 0.9775 0.9775 0.9775 0.9775 0.9777
3520.000000 0.9777 0.9777 0.9777 0.9777 0.9777
3515.000000 0.9777 0.9777 0.9777 0.9777 0.9777
3510.000000 0.9777 0.9777 0.9777 0.9777 0.9777
3505.000000 0.9777 0.9777 0.9777 0.9777 0.9778
3500.000000 0.9778 0.9778 0.9778 0.9778 0.9778
3495.000000 0.9778 0.9778 0.9778 0.9778 0.9778
3490.000000 0.9778 0.9778 0.9778 0.9778 0.9778
3485.000000 0.9778 0.9778 0.9778 0.9778 0.9778
3480.000000 0.9778 0.9778 0.9778 0.9778 0.9778
3475.000000 0.9778 0.9778 0.9778 0.9778 0.9778
3470.000000 0.9778 0.9778 0.9778 0.9778 0.9778
3465.000000 0.9778 0.9778 0.9778 0.9778 0.9778
3460.000000 0.9778 0.9778 0.9778 0.9777 0.9775
3455.000000 0.9775 0.9775 0.9774 0.9774 0.9773
3450.000000 0.9771 0.9771 0.9770 0.9768 0.9768
3445.000000 0.9767 0.9766 0.9765 0.9764 0.9763
3440.000000 0.9762 0.9761 0.9759 0.9758 0.9757
3435.000000 0.9756 0.9754 0.9753 0.9752 0.9751
3430.000000 0.9750 0.9749 0.9749 0.9748 0.9748
3425.000000 0.9748 0.9749 0.9750 0.9752 0.9754
3420.000000 0.9755 0.9757 0.9759 0.9761 0.9762
3415.000000 0.9764 0.9765 0.9767 0.9768 0.9770
3410.000000 0.9771 0.9774 0.9775 0.9778 0.9778
3405.000000 0.9781 0.9783 0.9785 0.9786 0.9788
3400.000000 0.9790 0.9792 0.9794 0.9796 0.9798
3395.000000 0.9800 0.9801 0.9803 0.9805 0.9807
3390.000000 0.9809 0.9811 0.9813 0.9814 0.9816
3385.000000 0.9817 0.9818 0.9820 0.9821 0.9823
3380.000000 0.9824 0.9825 0.9827 0.9828 0.9830
3375.000000 0.9831 0.9832 0.9834 0.9835 0.9836
3370.000000 0.9838 0.9839 0.9840 0.9842 0.9843
3365.000000 0.9844 0.9845 0.9845 0.9845 0.9845
3360.000000 0.9844 0.9844 0.9844 0.9844 0.9844
3355.000000 0.9844 0.9844 0.9844 0.9844 0.9844
3350.000000 0.9844 0.9844 0.9844 0.9844 0.9844
3345.000000 0.9844 0.9844 0.9844 0.9843 0.9843
3340.000000 0.9842 0.9841 0.9841 0.9840 0.9839
3335.000000 0.9839 0.9838 0.9837 0.9837 0.9836
3330.000000 0.9835 0.9835 0.9834 0.9833 0.9833
3325.000000 0.9832 0.9831 0.9831 0.9830 0.9830
3320.000000 0.9828 0.9828 0.9828 0.9827 0.9827
3315.000000 0.9825 0.9825 0.9825 0.9825 0.9824
3310.000000 0.9824 0.9823 0.9823 0.9823 0.9823
3305.000000 0.9823 0.9823 0.9823 0.9823 0.9823
3300.000000 0.9824 0.9824 0.9825 0.9825 0.9825
3295.000000 0.9827 0.9827 0.9828 0.9828 0.9828
3290.000000 0.9828 0.9830 0.9831 0.9832 0.9834
3285.000000 0.9835 0.9836 0.9837 0.9838 0.9839
3280.000000 0.9840 0.9841 0.9842 0.9843 0.9844
3275.000000 0.9845 0.9846 0.9848 0.9849 0.9850
3270.000000 0.9851 0.9852 0.9853 0.9854 0.9855
3265.000000 0.9856 0.9856 0.9857 0.9857 0.9858
3260.000000 0.9858 0.9859 0.9859 0.9859 0.9859
3255.000000 0.9860 0.9860 0.9861 0.9861 0.9861
3250.000000 0.9862 0.9862 0.9862 0.9862 0.9863
3245.000000 0.9863 0.9863 0.9863 0.9862 0.9862
3240.000000 0.9861 0.9861 0.9860 0.9860 0.9859
3235.000000 0.9859 0.9858 0.9858 0.9857 0.9857
3230.000000 0.9857 0.9856 0.9855 0.9854 0.9853
3225.000000 0.9852 0.9850 0.9849 0.9848 0.9847
3220.000000 0.9846 0.9844 0.9843 0.9842 0.9841
3215.000000 0.9839 0.9838 0.9837 0.9836 0.9834
3210.000000 0.9833 0.9831 0.9828 0.9828 0.9825
3205.000000 0.9824 0.9823 0.9821 0.9820 0.9818
3200.000000 0.9817 0.9817 0.9816 0.9815 0.9814
3195.000000 0.9813 0.9812 0.9811 0.9811 0.9811
3190.000000 0.9811 0.9811 0.9811 0.9811 0.9812
3185.000000 0.9812 0.9813 0.9813 0.9814 0.9814
3180.000000 0.9815 0.9815 0.9816 0.9816 0.9817
3175.000000 0.9818 0.9820 0.9821 0.9823 0.9824
3170.000000 0.9825 0.9827 0.9828 0.9828 0.9831
3165.000000 0.9832 0.9833 0.9835 0.9836 0.9838
3160.000000 0.9839 0.9840 0.9841 0.9842 0.9843
3155.000000 0.9844 0.9844 0.9845 0.9846 0.9846
3150.000000 0.9847 0.9847 0.9848 0.9849 0.9849
3145.000000 0.9850 0.9851 0.9851 0.9851 0.9851
3140.000000 0.9851 0.9851 0.9851 0.9851 0.9851
3135.000000 0.9851 0.9851 0.9851 0.9851 0.9851
3130.000000 0.9851 0.9851 0.9851 0.9851 0.9851
3125.000000 0.9851 0.9848 0.9846 0.9844 0.9842
3120.000000 0.9840 0.9838 0.9835 0.9833 0.9830
3115.000000 0.9827 0.9824 0.9820 0.9816 0.9812
3110.000000 0.9809 0.9805 0.9801 0.9797 0.9793
3105.000000 0.9789 0.9785 0.9781 0.9778 0.9771
3100.000000 0.9763 0.9756 0.9748 0.9741 0.9733
3095.000000 0.9725 0.9717 0.9709 0.9702 0.9694
3090.000000 0.9686 0.9674 0.9662 0.9649 0.9637
3085.000000 0.9623 0.9610 0.9597 0.9583 0.9568
3080.000000 0.9555 0.9541 0.9518 0.9493 0.9468
3075.000000 0.9442 0.9386 0.9330 0.9274 0.9223
3070.000000 0.9188 0.9152 0.9116 0.9068 0.9006
3065.000000 0.8944 0.8882 0.8821 0.8759 0.8697
3060.000000 0.8635 0.8573 0.8511 0.8449 0.8387
3055.000000 0.8325 0.8263 0.8200 0.8138 0.8075
3050.000000 0.8014 0.7951 0.7889 0.7825 0.7764
3045.000000 0.7701 0.7639 0.7575 0.7512 0.7464
3040.000000 0.7439 0.7414 0.7389 0.7378 0.7375
3035.000000 0.7371 0.7368 0.7365 0.7365 0.7365
3030.000000 0.7361 0.7361 0.7361 0.7361 0.7361
3025.000000 0.7361 0.7362 0.7364 0.7368 0.7374
3020.000000 0.7378 0.7385 0.7396 0.7407 0.7418
3015.000000 0.7431 0.7445 0.7458 0.7471 0.7489
3010.000000 0.7505 0.7521 0.7539 0.7558 0.7576
3005.000000 0.7596 0.7645 0.7701 0.7758 0.7811
3000.000000 0.7851 0.7892 0.7932 0.7972 0.8012
2995.000000 0.8054 0.8094 0.8134 0.8175 0.8215
2990.000000 0.8256 0.8296 0.8336 0.8377 0.8417
2985.000000 0.8458 0.8499 0.8539 0.8580 0.8621
2980.000000 0.8662 0.8703 0.8744 0.8784 0.8825
2975.000000 0.8866 0.8907 0.8948 0.8989 0.9030
2970.000000 0.9071 0.9112 0.9147 0.9183 0.9218
2965.000000 0.9244 0.9264 0.9284 0.9304 0.9317
2960.000000 0.9331 0.9345 0.9357 0.9368 0.9381
2955.000000 0.9392 0.9402 0.9411 0.9421 0.9428
2950.000000 0.9437 0.9445 0.9453 0.9461 0.9470
2945.000000 0.9478 0.9483 0.9486 0.9489 0.9492
2940.000000 0.9495 0.9498 0.9502 0.9505 0.9508
2935.000000 0.9511 0.9514 0.9514 0.9515 0.9515
2930.000000 0.9516 0.9516 0.9516 0.9516 0.9516
2925.000000 0.9517 0.9517 0.9518 0.9518 0.9518
2920.000000 0.9518 0.9518 0.9520 0.9521 0.9521
2915.000000 0.9521 0.9521 0.9525 0.9528 0.9532
2910.000000 0.9537 0.9542 0.9548 0.9553 0.9559
2905.000000 0.9565 0.9571 0.9577 0.9584 0.9590
2900.000000 0.9597 0.9604 0.9610 0.9617 0.9625
2895.000000 0.9633 0.9641 0.9650 0.9658 0.9667
2890.000000 0.9675 0.9683 0.9691 0.9699 0.9707
2885.000000 0.9715 0.9723 0.9731 0.9739 0.9747
2880.000000 0.9755 0.9762 0.9768 0.9777 0.9783
2875.000000 0.9789 0.9795 0.9801 0.9807 0.9812
2870.000000 0.9818 0.9824 0.9830 0.9836 0.9837
2865.000000 0.9838 0.9838 0.9839 0.9839 0.9839
2860.000000 0.9838 0.9838 0.9838 0.9837 0.9837
2855.000000 0.9837 0.9837 0.9836 0.9836 0.9836
2850.000000 0.9835 0.9835 0.9835 0.9835 0.9835
2845.000000 0.9835 0.9835 0.9835 0.9835 0.9835
2840.000000 0.9835 0.9835 0.9835 0.9836 0.9836
2835.000000 0.9836 0.9836 0.9836 0.9836 0.9837
2830.000000 0.9837 0.9837 0.9837 0.9837 0.9837
2825.000000 0.9837 0.9838 0.9838 0.9838 0.9839
2820.000000 0.9840 0.9840 0.9841 0.9841 0.9841
2815.000000 0.9842 0.9842 0.9843 0.9844 0.9844
2810.000000 0.9845 0.9845 0.9846 0.9846 0.9846
2805.000000 0.9847 0.9848 0.9849 0.9850 0.9851
2800.000000 0.9852 0.9853 0.9854 0.9856 0.9857
2795.000000 0.9858 0.9859 0.9860 0.9862 0.9863
2790.000000 0.9865 0.9868 0.9871 0.9874 0.9875
2785.000000 0.9878 0.9881 0.9885 0.9888 0.9891
2780.000000 0.9895 0.9899 0.9903 0.9907 0.9910
2775.000000 0.9914 0.9918 0.9923 0.9928 0.9933
2770.000000 0.9938 0.9944 0.9950 0.9955 0.9961
2765.000000 0.9965 0.9968 0.9971 0.9971 0.9971
2760.000000 0.9936 0.9967 0.9965 0.9964 0.9961
2755.000000 0.9959 0.9956 0.9952 0.9948 0.9944
2750.000000 0.9939 0.9935 0.9931 0.9927 0.9925
2745.000000 0.9924 0.9921 0.9920 0.9918 0.9916
2740.000000 0.9914 0.9912 0.9910 0.9908 0.9906
2735.000000 0.9904 0.9903 0.9902 0.9901 0.9901
2730.000000 0.9901 0.9900 0.9900 0.9900 0.9899
2725.000000 0.9899 0.9898 0.9897 0.9897 0.9897
2720.000000 0.9896 0.9896 0.9896 0.9895 0.9895
2715.000000 0.9895 0.9894 0.9894 0.9894 0.9893
2710.000000 0.9893 0.9893 0.9892 0.9892 0.9892
2705.000000 0.9891 0.9891 0.9891 0.9890 0.9890
2700.000000 0.9890 0.9889 0.9889 0.9889 0.9888
2695.000000 0.9888 0.9888 0.9887 0.9887 0.9886
2690.000000 0.9886 0.9886 0.9885 0.9885 0.9885
2685.000000 0.9884 0.9884 0.9884 0.9883 0.9883
2680.000000 0.9883 0.9882 0.9882 0.9882 0.9881
2675.000000 0.9881 0.9881 0.9880 0.9880 0.9880
2670.000000 0.9878 0.9878 0.9877 0.9877 0.9877
2665.000000 0.9875 0.9875 0.9875 0.9874 0.9874
2660.000000 0.9874 0.9874 0.9874 0.9874 0.9875
2655.000000 0.9877 0.9878 0.9880 0.9881 0.9883
2650.000000 0.9884 0.9886 0.9887 0.9888 0.9890
2645.000000 0.9892 0.9896 0.9900 0.9904 0.9908
2640.000000 0.9912 0.9916 0.9918 0.9923 0.9927
2635.000000 0.9931 0.9934 0.9937 0.9939 0.9942
2630.000000 0.9943 0.9945 0.9947 0.9949 0.9952
2625.000000 0.9952 0.9952 0.9951 0.9951 0.9950
2620.000000 0.9949 0.9948 0.9947 0.9946 0.9945
2615.000000 0.9943 0.9942 0.9940 0.9939 0.9937
2610.000000 0.9934 0.9932 0.9930 0.9928 0.9925
2605.000000 0.9924 0.9921 0.9918 0.9915 0.9911
2600.000000 0.9907 0.9903 0.9898 0.9894 0.9890
2595.000000 0.9887 0.9883 0.9880 0.9877 0.9874
2590.000000 0.9871 0.9868 0.9866 0.9863 0.9860
2585.000000 0.9858 0.9857 0.9856 0.9856 0.9856
2580.000000 0.9856 0.9855 0.9855 0.9855 0.9855
2575.000000 0.9855 0.9854 0.9854 0.9853 0.9853
2570.000000 0.9853 0.9853 0.9853 0.9853 0.9854
2565.000000 0.9855 0.9857 0.9859 0.9861 0.9862
2560.000000 0.9864 0.9865 0.9867 0.9868 0.9871
2555.000000 0.9871 0.9874 0.9875 0.9878 0.9880
2550.000000 0.9880 0.9880 0.9878 0.9878 0.9878
2545.000000 0.9878 0.9878 0.9877 0.9877 0.9877
2540.000000 0.9875 0.9875 0.9873 0.9873 0.9871
2535.000000 0.9871 0.9870 0.9870 0.9870 0.9870
2530.000000 0.9870 0.9870 0.9870 0.9871 0.9871
2525.000000 0.9871 0.9871 0.9871 0.9871 0.9871
2520.000000 0.9873 0.9875 0.9877 0.9880 0.9883
2515.000000 0.9887 0.9890 0.9894 0.9898 0.9904
2510.000000 0.9909 0.9914 0.9918 0.9924 0.9928
2505.000000 0.9935 0.9936 0.9937 0.9938 0.9939
2500.000000 0.9941 0.9941 0.9942 0.9942 0.9942
2495.000000 0.9941 0.9941 0.9940 0.9939 0.9938
2490.000000 0.9936 0.9936 0.9935 0.9934 0.9933
2485.000000 0.9931 0.9930 0.9928 0.9928 0.9927
2480.000000 0.9925 0.9924 0.9923 0.9921 0.9920
2475.000000 0.9918 0.9916 0.9915 0.9913 0.9911
2470.000000 0.9909 0.9907 0.9906 0.9904 0.9903
2465.000000 0.9902 0.9901 0.9899 0.9898 0.9897
2460.000000 0.9896 0.9894 0.9894 0.9894 0.9894
2455.000000 0.9895 0.9898 0.9901 0.9904 0.9906
2450.000000 0.9909 0.9912 0.9916 0.9920 0.9924
2445.000000 0.9928 0.9933 0.9936 0.9940 0.9944
2440.000000 0.9947 0.9950 0.9952 0.9955 0.9957
2435.000000 0.9960 0.9963 0.9964 0.9964 0.9965
2430.000000 0.9966 0.9967 0.9968 0.9968 0.9967
2425.000000 0.9967 0.9965 0.9963 0.9962 0.9961
2420.000000 0.9959 0.9958 0.9956 0.9953 0.9949
2415.000000 0.9946 0.9942 0.9939 0.9935 0.9930
2410.000000 0.9925 0.9921 0.9917 0.9913 0.9909
2405.000000 0.9909 0.9909 0.9909 0.9909 0.9910
2400.000000 0.9910 0.9910 0.9910 0.9910 0.9911
2395.000000 0.9911 0.9911 0.9912 0.9913 0.9915
2390.000000 0.9917 0.9918 0.9921 0.9923 0.9925
2385.000000 0.9927 0.9928 0.9931 0.9933 0.9934
2380.000000 0.9937 0.9941 0.9943 0.9946 0.9949
2375.000000 0.9952 0.9955 0.9958 0.9960 0.9963
2370.000000 0.9966 0.9968 0.9971 0.9973 0.9975
2365.000000 0.9978 0.9980 0.9981 0.9983 0.9985
2360.000000 0.9987 0.9989 0.9991 0.9993 0.9995
2355.000000 0.9997 0.9999 1.0000 1.0002 1.0004
2350.000000 1.0006 1.0007 1.0009 1.0010 1.0012
2345.000000 1.0014 1.0015 1.0017 1.0018 1.0020
2340.000000 1.0021 1.0023 1.0024 1.0024 1.0025
2335.000000 1.0025 1.0025 1.0025 1.0027 1.0027
2330.000000 1.0027 1.0028 1.0028 1.0028 1.0028
2325.000000 1.0030 1.0030 1.0030 1.0030 1.0030
2320.000000 1.0030 1.0028 1.0028 1.0028 1.0028
2315.000000 1.0028 1.0028 1.0028 1.0027 1.0027
2310.000000 1.0027 1.0027 1.0025 1.0025 1.0025
2305.000000 1.0025 1.0027 1.0027 1.0027 1.0027
2300.000000 1.0027 1.0028 1.0028 1.0028 1.0028
2295.000000 1.0028 1.0028 1.0030 1.0031 1.0032
2290.000000 1.0033 1.0034 1.0034 1.0035 1.0035
2285.000000 1.0036 1.0036 1.0037 1.0037 1.0038
2280.000000 1.0038 1.0038 1.0038 1.0038 1.0039
2275.000000 1.0039 1.0039 1.0039 1.0040 1.0040
2270.000000 1.0040 1.0040 1.0041 1.0041 1.0042
2265.000000 1.0042 1.0042 1.0042 1.0043 1.0043
2260.000000 1.0043 1.0043 1.0042 1.0042 1.0042
2255.000000 1.0042 1.0042 1.0042 1.0042 1.0042
2250.000000 1.0042 1.0042 1.0042 1.0042 1.0043
2245.000000 1.0043 1.0044 1.0044 1.0044 1.0044
2240.000000 1.0045 1.0045 1.0046 1.0046 1.0046
2235.000000 1.0046 1.0047 1.0047 1.0048 1.0049
2230.000000 1.0051 1.0058 1.0065 1.0071 1.0078
2225.000000 1.0085 1.0090 1.0095 1.0100 1.0105
2220.000000 1.0110 1.0115 1.0120 1.0125 1.0128
2215.000000 1.0133 1.0136 1.0139 1.0142 1.0145
2210.000000 1.0148 1.0151 1.0154 1.0157 1.0160
2205.000000 1.0162 1.0163 1.0163 1.0164 1.0165
2200.000000 1.0166 1.0167 1.0168 1.0168 1.0170
2195.000000 1.0171 1.0171 1.0171 1.0168 1.0168
2190.000000 1.0168 1.0167 1.0167 1.0166 1.0165
2185.000000 1.0164 1.0162 1.0161 1.0159 1.0156
2180.000000 1.0154 1.0150 1.0145 1.0140 1.0135
2175.000000 1.0131 1.0125 1.0121 1.0115 1.0111
2170.000000 1.0106 1.0101 1.0096 1.0092 1.0088
2165.000000 1.0083 1.0078 1.0074 1.0070 1.0066
2160.000000 1.0063 1.0060 1.0056 1.0052 1.0049
2155.000000 1.0046 1.0045 1.0043 1.0042 1.0041
2150.000000 1.0040 1.0039 1.0038 1.0037 1.0036
2145.000000 1.0034 1.0033 1.0032 1.0031 1.0031
2140.000000 1.0031 1.0031 1.0031 1.0031 1.0031
2135.000000 1.0031 1.0036 1.0040 1.0044 1.0047
2130.000000 1.0050 1.0053 1.0056 1.0059 1.0062
2125.000000 1.0065 1.0068 1.0070 1.0071 1.0074
2120.000000 1.0074 1.0075 1.0074 1.0068 1.0064
2115.000000 1.0059 1.0054 1.0048 1.0044 1.0039
2110.000000 1.0035 1.0030 1.0025 1.0020 1.0016
2105.000000 1.0015 1.0013 1.0012 1.0011 1.0010
2100.000000 1.0009 1.0009 1.0010 1.0012 1.0014
2095.000000 1.0016 1.0018 1.0020 1.0021 1.0024
2090.000000 1.0025 1.0028 1.0028 1.0031 1.0033
2085.000000 1.0035 1.0036 1.0038 1.0039 1.0041
2080.000000 1.0042 1.0044 1.0045 1.0046 1.0047
2075.000000 1.0047 1.0048 1.0048 1.0049 1.0049
2070.000000 1.0049 1.0049 1.0049 1.0049 1.0049
2065.000000 1.0049 1.0049 1.0049 1.0047 1.0045
2060.000000 1.0043 1.0040 1.0034 1.0027 1.0018
2055.000000 1.0008 0.9996 0.9985 0.9975 0.9966
2050.000000 0.9957 0.9949 0.9941 0.9934 0.9928
2045.000000 0.9925 0.9921 0.9917 0.9914 0.9910
2040.000000 0.9907 0.9903 0.9899 0.9896 0.9892
2035.000000 0.9890 0.9889 0.9887 0.9886 0.9885
2030.000000 0.9883 0.9882 0.9881 0.9880 0.9880
2025.000000 0.9878 0.9878 0.9878 0.9877 0.9875
2020.000000 0.9875 0.9875 0.9875 0.9874 0.9873
2015.000000 0.9873 0.9871 0.9871 0.9870 0.9868
2010.000000 0.9868 0.9868 0.9866 0.9866 0.9865
2005.000000 0.9864 0.9862 0.9861 0.9860 0.9859
2000.000000 0.9858 0.9856 0.9855 0.9854 0.9852
1995.000000 0.9851 0.9850 0.9849 0.9847 0.9846
1990.000000 0.9844 0.9843 0.9841 0.9840 0.9839
1985.000000 0.9837 0.9834 0.9832 0.9830 0.9828
1980.000000 0.9825 0.9824 0.9821 0.9820 0.9818
1975.000000 0.9816 0.9814 0.9812 0.9810 0.9808
1970.000000 0.9807 0.9807 0.9808 0.9808 0.9809
1965.000000 0.9811 0.9814 0.9817 0.9821 0.9824
1960.000000 0.9827 0.9830 0.9834 0.9837 0.9836
1955.000000 0.9836 0.9832 0.9827 0.9821 0.9814
1950.000000 0.9806 0.9799 0.9791 0.9782 0.9770
1945.000000 0.9752 0.9727 0.9666 0.9605 0.9544
1940.000000 0.9483 0.9421 0.9360 0.9299 0.9262
1935.000000 0.9252 0.9264 0.9283 0.9309 0.9336
1930.000000 0.9363 0.9389 0.9416 0.9442 0.9468
1925.000000 0.9496 0.9521 0.9549 0.9575 0.9588
1920.000000 0.9589 0.9586 0.9573 0.9553 0.9515
1915.000000 0.9478 0.9441 0.9404 0.9366 0.9328
1910.000000 0.9291 0.9261 0.9245 0.9245 0.9248
1905.000000 0.9256 0.9270 0.9287 0.9307 0.9331
1900.000000 0.9353 0.9370 0.9385 0.9401 0.9416
1895.000000 0.9431 0.9445 0.9458 0.9471 0.9485
1890.000000 0.9497 0.9508 0.9518 0.9528 0.9536
1885.000000 0.9543 0.9551 0.9557 0.9558 0.9554
1880.000000 0.9552 0.9550 0.9547 0.9544 0.9540
1875.000000 0.9540 0.9545 0.9559 0.9573 0.9587
1870.000000 0.9601 0.9615 0.9628 0.9643 0.9659
1865.000000 0.9674 0.9687 0.9696 0.9702 0.9707
1860.000000 0.9712 0.9714 0.9717 0.9718 0.9721
1855.000000 0.9724 0.9725 0.9728 0.9728 0.9728
1850.000000 0.9728 0.9728 0.9728 0.9728 0.9728
1845.000000 0.9728 0.9730 0.9731 0.9733 0.9734
1840.000000 0.9736 0.9737 0.9739 0.9739 0.9739
1835.000000 0.9738 0.9733 0.9717 0.9687 0.9644
1830.000000 0.9591 0.9554 0.9517 0.9495 0.9491
1825.000000 0.9490 0.9490 0.9489 0.9488 0.9486
1820.000000 0.9478 0.9468 0.9457 0.9440 0.9425
1815.000000 0.9418 0.9415 0.9423 0.9435 0.9449
1810.000000 0.9465 0.9481 0.9493 0.9499 0.9502
1805.000000 0.9504 0.9491 0.9463 0.9428 0.9395
1800.000000 0.9362 0.9328 0.9301 0.9287 0.9296
1795.000000 0.9324 0.9365 0.9413 0.9465 0.9513
1790.000000 0.9545 0.9570 0.9589 0.9604 0.9615
1785.000000 0.9620 0.9618 0.9616 0.9614 0.9607
1780.000000 0.9599 0.9592 0.9587 0.9587 0.9588
1775.000000 0.9589 0.9590 0.9591 0.9591 0.9592
1770.000000 0.9588 0.9580 0.9563 0.9547 0.9531
1765.000000 0.9515 0.9500 0.9485 0.9477 0.9468
1760.000000 0.9461 0.9453 0.9446 0.9439 0.9431
1755.000000 0.9421 0.9411 0.9400 0.9387 0.9375
1750.000000 0.9359 0.9341 0.9325 0.9318 0.9318
1745.000000 0.9320 0.9325 0.9345 0.9386 0.9421
1740.000000 0.9456 0.9480 0.9500 0.9520 0.9541
1735.000000 0.9561 0.9573 0.9581 0.9586 0.9589
1730.000000 0.9589 0.9578 0.9557 0.9521 0.9487
1725.000000 0.9463 0.9450 0.9450 0.9450 0.9461
1720.000000 0.9471 0.9485 0.9502 0.9518 0.9532
1715.000000 0.9541 0.9549 0.9557 0.9564 0.9570
1710.000000 0.9574 0.9578 0.9581 0.9585 0.9586
1705.000000 0.9582 0.9573 0.9565 0.9556 0.9548
1700.000000 0.9540 0.9531 0.9524 0.9516 0.9507
1695.000000 0.9497 0.9489 0.9478 0.9468 0.9466
1690.000000 0.9474 0.9486 0.9500 0.9514 0.9525
1685.000000 0.9533 0.9537 0.9540 0.9542 0.9537
1680.000000 0.9512 0.9488 0.9465 0.9442 0.9421
1675.000000 0.9400 0.9382 0.9368 0.9354 0.9342
1670.000000 0.9333 0.9330 0.9328 0.9335 0.9349
1665.000000 0.9364 0.9381 0.9403 0.9430 0.9457
1660.000000 0.9483 0.9504 0.9525 0.9545 0.9564
1655.000000 0.9578 0.9591 0.9604 0.9616 0.9627
1650.000000 0.9637 0.9648 0.9658 0.9668 0.9677
1645.000000 0.9685 0.9693 0.9700 0.9708 0.9716
1640.000000 0.9724 0.9731 0.9739 0.9746 0.9753
1635.000000 0.9761 0.9775 0.9789 0.9804 0.9818
1630.000000 0.9834 0.9847 0.9858 0.9868 0.9880
1625.000000 0.9886 0.9890 0.9890 0.9885 0.9880
1620.000000 0.9875 0.9868 0.9856 0.9844 0.9831
1615.000000 0.9820 0.9812 0.9805 0.9798 0.9790
1610.000000 0.9785 0.9782 0.9778 0.9777 0.9777
1605.000000 0.9777 0.9782 0.9795 0.9809 0.9818
1600.000000 0.9828 0.9838 0.9845 0.9825 0.9775
1595.000000 0.9725 0.9675 0.9627 0.9577 0.9527
1590.000000 0.9477 0.9425 0.9401 0.9436 0.9477
1585.000000 0.9510 0.9537 0.9560 0.9582 0.9603
1580.000000 0.9625 0.9647 0.9668 0.9685 0.9694
1575.000000 0.9698 0.9696 0.9690 0.9682 0.9674
1570.000000 0.9666 0.9659 0.9658 0.9658 0.9658
1565.000000 0.9658 0.9658 0.9660 0.9662 0.9664
1560.000000 0.9665 0.9667 0.9668 0.9671 0.9675
1555.000000 0.9677 0.9680 0.9683 0.9686 0.9688
1550.000000 0.9691 0.9685 0.9673 0.9657 0.9627
1545.000000 0.9596 0.9570 0.9551 0.9536 0.9535
1540.000000 0.9535 0.9536 0.9536 0.9537 0.9537
1535.000000 0.9537 0.9537 0.9542 0.9535 0.9525
1530.000000 0.9516 0.9499 0.9475 0.9441 0.9390
1525.000000 0.9336 0.9294 0.9274 0.9242 0.9253
1520.000000 0.9254 0.9262 0.9278 0.9295 0.9321
1515.000000 0.9352 0.9380 0.9403 0.9424 0.9439
1510.000000 0.9453 0.9463 0.9471 0.9478 0.9477
1505.000000 0.9475 0.9458 0.9258 0.8668 0.8058
1500.000000 0.7589 0.7596 0.7597 0.7771 0.8011
1495.000000 0.8252 0.8494 0.8736 0.8978 0.9199
1490.000000 0.9277 0.9311 0.9345 0.9375 0.9405
1485.000000 0.9425 0.9442 0.9453 0.9463 0.9473
1480.000000 0.9482 0.9488 0.9494 0.9498 0.9503
1475.000000 0.9548 0.9510 0.9512 0.9514 0.9517
1470.000000 0.9517 0.9517 0.9515 0.9512 0.9507
1465.000000 0.9496 0.9485 0.9474 0.9461 0.9433
1460.000000 0.9393 0.9308 0.9170 0.9012 0.8854
1455.000000 0.8696 0.8539 0.8228 0.8246 0.8221
1450.000000 0.8239 0.8315 0.8392 0.8468 0.8524
1445.000000 0.8535 0.8539 0.8543 0.8545 0.8545
1440.000000 0.8541 0.8568 0.8686 0.8805 0.8921
1435.000000 0.9035 0.9110 0.9154 0.9186 0.9217
1430.000000 0.9225 0.9231 0.9224 0.9204 0.9160
1425.000000 0.9110 0.9081 0.9068 0.9068 0.9068
1420.000000 0.9092 0.9132 0.9178 0.9215 0.9234
1415.000000 0.9240 0.9241 0.9243 0.9248 0.9263
1410.000000 0.9281 0.9302 0.9323 0.9344 0.9373
1405.000000 0.9406 0.9443 0.9467 0.9492 0.9493
1400.000000 0.9494 0.9495 0.9497 0.9499 0.9501
1395.000000 0.9504 0.9506 0.9509 0.9511 0.9514
1390.000000 0.9517 0.9518 0.9521 0.9523 0.9525
1385.000000 0.9527 0.9528 0.9531 0.9532 0.9534
1380.000000 0.9535 0.9536 0.9538 0.9538 0.9539
1375.000000 0.9541 0.9541 0.9539 0.9536 0.9533
1370.000000 0.9525 0.9513 0.9500 0.9486 0.9474
1365.000000 0.9464 0.9455 0.9445 0.9436 0.9425
1360.000000 0.9417 0.9406 0.9396 0.9385 0.9374
1355.000000 0.9363 0.9352 0.9342 0.9331 0.9330
1350.000000 0.9330 0.9330 0.9332 0.9334 0.9312
1345.000000 0.9339 0.9342 0.9345 0.9346 0.9349
1340.000000 0.9350 0.9353 0.9354 0.9356 0.9358
1335.000000 0.9360 0.9362 0.9362 0.9362 0.9360
1330.000000 0.9359 0.9357 0.9355 0.9354 0.9352
1325.000000 0.9349 0.9345 0.9342 0.9338 0.9334
1320.000000 0.9330 0.9318 0.9296 0.9271 0.9281
1315.000000 0.9291 0.9302 0.9321 0.9340 0.9348
1310.000000 0.9352 0.9345 0.9338 0.9331 0.9323
1305.000000 0.9315 0.9290 0.9262 0.9212 0.9125
1300.000000 0.8936 0.8725 0.8442 0.8465 0.8463
1295.000000 0.8575 0.8710 0.8843 0.8975 0.9047
1290.000000 0.9100 0.9153 0.9183 0.9200 0.9201
1285.000000 0.9195 0.9189 0.9185 0.9180 0.9178
1280.000000 0.9182 0.9187 0.9202 0.9223 0.9236
1275.000000 0.9248 0.9257 0.9267 0.9268 0.9270
1270.000000 0.9271 0.9271 0.9271 0.9271 0.9271
1265.000000 0.9258 0.9225 0.9200 0.9194 0.9203
1260.000000 0.9213 0.9242 0.9225 0.9228 0.9230
1255.000000 0.9218 0.9199 0.9180 0.9163 0.9152
1250.000000 0.9144 0.9136 0.9128 0.9117 0.9089
1245.000000 0.9010 0.8949 0.8546 0.7972 0.7399
1240.000000 0.7018 0.7021 0.7165 0.7425 0.7685
1235.000000 0.7945 0.8206 0.8314 0.8339 0.8364
1230.000000 0.8406 0.8466 0.8533 0.8599 0.8658
1225.000000 0.8709 0.8753 0.8798 0.8830 0.8863
1220.000000 0.8895 0.8899 0.8871 0.8849 0.8825
1215.000000 0.8805 0.8803 0.8810 0.8825 0.8854
1210.000000 0.8878 0.8902 0.8914 0.8925 0.8928
1205.000000 0.8928 0.8927 0.8917 0.8902 0.8864
1200.000000 0.8757 0.8620 0.8483 0.8349 0.8306
1195.000000 0.8318 0.8436 0.8539 0.8644 0.8745
1190.000000 0.8785 0.8798 0.8806 0.8814 0.8821
1185.000000 0.8828 0.8844 0.8878 0.8848 0.8870
1180.000000 0.8844 0.8823 0.8813 0.8805 0.8796
1175.000000 0.8789 0.8781 0.8773 0.8766 0.8755
1170.000000 0.8740 0.8725 0.8706 0.8678 0.8649
1165.000000 0.8601 0.8546 0.8487 0.8430 0.8386
1160.000000 0.8357 0.8333 0.8334 0.8356 0.8389
1155.000000 0.8404 0.8409 0.8411 0.8412 0.8413
1150.000000 0.8413 0.8410 0.8407 0.8403 0.8394
1145.000000 0.8385 0.8374 0.8359 0.8336 0.8249
1140.000000 0.8078 0.7910 0.7650 0.7639 0.7701
1135.000000 0.7884 0.8069 0.8194 0.8267 0.8341
1130.000000 0.8409 0.8437 0.8440 0.8444 0.8449
1125.000000 0.8471 0.8499 0.8505 0.8508 0.8510
1120.000000 0.8511 0.8513 0.8514 0.8515 0.8518
1115.000000 0.8524 0.8528 0.8533 0.8538 0.8542
1110.000000 0.8546 0.8550 0.8556 0.8563 0.8568
1105.000000 0.8575 0.8587 0.8600 0.8612 0.8625
1100.000000 0.8641 0.8656 0.8671 0.8701 0.8698
1095.000000 0.8705 0.8706 0.8694 0.8657 0.8558
1090.000000 0.8368 0.8386 0.8411 0.8466 0.8567
1085.000000 0.8660 0.8746 0.8814 0.8847 0.8863
1080.000000 0.8878 0.8892 0.8904 0.8916 0.8928
1075.000000 0.8939 0.8949 0.8960 0.8970 0.8978
1070.000000 0.8987 0.8996 0.9004 0.9013 0.9017
1065.000000 0.9008 0.8984 0.8970 0.8943 0.8939
1060.000000 0.8951 0.8980 0.8997 0.9012 0.9018
1055.000000 0.9020 0.9021 0.9025 0.9028 0.9033
1050.000000 0.9037 0.9037 0.9034 0.9031 0.9024
1045.000000 0.9018 0.9002 0.8980 0.8925 0.8812
1040.000000 0.8492 0.8055 0.7618 0.7015 0.7021
1035.000000 0.7098 0.7572 0.8065 0.8488 0.8631
1030.000000 0.8721 0.8778 0.8824 0.8861 0.8887
1025.000000 0.8904 0.8920 0.8931 0.8940 0.8947
1020.000000 0.8952 0.8961 0.8971 0.8988 0.9006
1015.000000 0.9025 0.9050 0.9075 0.9088 0.9089
1010.000000 0.9090 0.9085 0.9135 0.9110 0.9120
1005.000000 0.9108 0.9077 0.8968 0.8721 0.8456
1000.000000 0.8161 0.8902 0.8892 0.8343 0.8352
995.000000 0.8551 0.8866 0.8959 0.8995 0.9024
990.000000 0.9043 0.9050 0.9065 0.9065 0.9066
985.000000 0.9059 0.9051 0.9037 0.9020 0.8997
980.000000 0.8977 0.8961 0.8950 0.8949 0.8948
975.000000 0.8953 0.8958 0.8963 0.8968 0.8974
970.000000 0.8980 0.8986 0.8993 0.9000 0.9006
965.000000 0.9009 0.9013 0.9016 0.9018 0.9018
960.000000 0.9013 0.9003 0.9016 0.8975 0.8964
955.000000 0.8957 0.8950 0.8936 0.8914 0.8878
950.000000 0.8827 0.8763 0.8661 0.8172 0.7630
945.000000 0.7187 0.7260 0.7715 0.8169 0.8396
940.000000 0.8554 0.8689 0.8788 0.8884 0.8945
935.000000 0.9005 0.9050 0.9094 0.9135 0.9168
930.000000 0.9192 0.9208 0.9209 0.9205 0.9198
925.000000 0.9196 0.9194 0.9192 0.9190 0.9188
920.000000 0.9186 0.9184 0.9183 0.9182 0.9182
915.000000 0.9183 0.9184 0.9189 0.9197 0.9205
910.000000 0.9213 0.9225 0.9236 0.9248 0.9261
905.000000 0.9261 0.9262 0.9248 0.9232 0.9217
900.000000 0.9207 0.9206 0.9247 0.9274 0.9275
895.000000 0.9275 0.9275 0.9288 0.9301 0.9312
890.000000 0.9318 0.9318 0.9318 0.9313 0.9295
885.000000 0.9271 0.9259 0.9265 0.9278 0.9294
880.000000 0.9293 0.9245 0.9217 0.9242 0.9182
875.000000 0.9100 0.9027 0.8956 0.8921 0.8918
870.000000 0.8945 0.8971 0.8991 0.8998 0.8988
865.000000 0.8951 0.8823 0.8483 0.8085 0.7686
860.000000 0.7371 0.7369 0.7400 0.7508 0.7662
855.000000 0.7825 0.7951 0.8078 0.8205 0.8332
850.000000 0.8460 0.8588 0.8717 0.8845 0.9032
845.000000 0.9078 0.9125 0.9186 0.9251 0.9310
840.000000 0.9290 0.9267 0.9235 0.9220 0.9206
835.000000 0.9190 0.9171 0.9140 0.9095 0.9055
830.000000 0.9035 0.9008 0.8964 0.8885 0.8812
825.000000 0.8787 0.8757 0.8721 0.8685 0.8621
820.000000 0.8533 0.8385 0.8199 0.7882 0.7415
815.000000 0.7114 0.6487 0.5215 0.3646 0.2072
810.000000 0.0773 0.0763 0.1105 0.2283 0.3588
805.000000 0.4896 0.6269 0.6728 0.7183 0.7778
800.000000 0.8101 0.8295 0.8434 0.8542 0.8628
795.000000 0.8712 0.8787 0.8847 0.8877 0.8899
790.000000 0.8917 0.8933 0.8948 0.8964 0.8978
785.000000 0.8986 0.8975 0.8962 0.8954 0.8945
780.000000 0.8948 0.8952 0.8959 0.8970 0.8980
775.000000 0.8996 0.9011 0.9024 0.9031 0.9038
770.000000 0.9039 0.9028 0.9006 0.8989 0.9002
765.000000 0.8999 0.8958 0.8936 0.8935 0.8934
760.000000 0.8909 0.8888 0.8863 0.8838 0.8818
755.000000 0.8791 0.8760 0.8725 0.8680 0.8618
750.000000 0.8492 0.8427 0.8408 0.8368 0.8309
745.000000 0.8234 0.8130 0.7999 0.7847 0.7560
740.000000 0.7195 0.6821 0.6244 0.5529 0.3412
735.000000 0.2372 0.0387 0.0367 0.0431 0.0755
730.000000 0.2013 0.3999 0.5214 0.6189 0.7117
725.000000 0.7521 0.7787 0.8007 0.8239 0.8375
720.000000 0.8464 0.8531 0.8632 0.8649 0.8617
715.000000 0.8643 0.8667 0.8498 0.8149 0.7975
710.000000 0.7905 0.7811 0.7565 0.7354 0.7430
705.000000 0.7974 0.8274 0.8470 0.8610 0.8728
700.000000 0.8803 0.8856 0.8878 0.8903 0.8916
695.000000 0.8925 0.8936 0.8942 0.8947 0.8945
690.000000 0.8934 0.8924 0.8917 0.8908 0.8907
685.000000 0.8921 0.8955 0.8982 0.8995 0.9002
680.000000 0.8985 0.8981 0.8961 0.8944 0.8932
675.000000 0.8918 0.8909 0.8909
##END=
