##TITLE=PHENANTHRENE
##JCAMP-DX=4.24
##DATA TYPE=INFRARED SPECTRUM
##CLASS=COBLENTZ
##ORIGIN=CENTRE D'ETUDES NUCLEAIRES DE GRENOBLE
##OWNER=COBLENTZ SOCIETY
Collection (C) 2018 copyright by the U.S. Secretary of Commerce
on behalf of the United States of America. All rights reserved.
##DATE=Not specified, most likely prior to 1970
##CAS REGISTRY NO=85-01-8
##MOLFORM=C14 H10
##SOURCE REFERENCE=COBLENTZ NO. 4253
##$NIST SOURCE=COBLENTZ
##$NIST IMAGE=cob4253
##SPECTROMETER/DATA SYSTEM=Not specified, most likely a prism, grating, or hybrid spectrometer.
##STATE=SOLUTION (SATURATED IN HEPTANE)
##PATH LENGTH=0.05 CM
$$PURITY 99.99%
##SAMPLING PROCEDURE=TRANSMISSION
##RESOLUTION=4
##DATA PROCESSING=DIGITIZED BY NIST FROM HARD COPY
##XUNITS=MICROMETERS
##YUNITS=TRANSMITTANCE
##XFACTOR=1.000000
##YFACTOR=1
##DELTAX=000.011124
##FIRSTX=14.665
##LASTX=35.1221
##FIRSTY=0.843
##MAXX=35.1221
##MINX=14.665
##MAXY=0.93
##MINY=0.358
##NPOINTS=1840
##XYDATA=(X++(Y..Y))
14.665000 0.8430 0.8430 0.8450 0.8470 0.8470
14.720651 0.8480 0.8500 0.8500 0.8520 0.8520
14.776000 0.8530 0.8530 0.8550 0.8550 0.8550
14.831651 0.8570 0.8580 0.8600 0.8620 0.8620
14.888000 0.8630 0.8630 0.8650 0.8670 0.8670
14.943651 0.8670 0.8680 0.8680 0.8700 0.8700
14.999000 0.8720 0.8720 0.8730 0.8730 0.8750
15.054651 0.8750 0.8770 0.8770 0.8780 0.8780
15.110000 0.8800 0.8800 0.8800 0.8820 0.8830
15.165651 0.8830 0.8830 0.8830 0.8830 0.8830
15.221000 0.8830 0.8850 0.8850 0.8850 0.8850
15.276651 0.8850 0.8850 0.8870 0.8870 0.8870
15.333000 0.8880 0.8880 0.8880 0.8880 0.8900
15.388651 0.8900 0.8900 0.8920 0.8920 0.8920
15.444000 0.8920 0.8920 0.8920 0.8930 0.8930
15.499651 0.8930 0.8930 0.8930 0.8950 0.8950
15.555000 0.8950 0.8950 0.8970 0.8970 0.8970
15.610651 0.8970 0.8970 0.8970 0.8970 0.8970
15.666000 0.8950 0.8950 0.8950 0.8930 0.8930
15.721651 0.8930 0.8930 0.8930 0.8930 0.8930
15.778000 0.8930 0.8930 0.8950 0.8950 0.8950
15.833651 0.8970 0.8970 0.8970 0.8970 0.8950
15.889000 0.8930 0.8920 0.8900 0.8870 0.8830
15.944651 0.8820 0.8680 0.8550 0.8470 0.8380
16.000000 0.8270 0.8150 0.8030 0.7950 0.7700
16.055651 0.7540 0.7250 0.7090 0.6960 0.6760
16.111000 0.6720 0.6660 0.6590 0.6560 0.6520
16.166651 0.6420 0.6320 0.6290 0.6310 0.6460
16.222000 0.6610 0.6760 0.6910 0.7050 0.7200
16.277651 0.7320 0.7600 0.7800 0.7950 0.8050
16.334000 0.8220 0.8300 0.8520 0.8630 0.8700
16.389651 0.8730 0.8750 0.8770 0.8780 0.8850
16.445000 0.8950 0.8970 0.8980 0.9000 0.9000
16.500651 0.9010 0.9030 0.9030 0.9030 0.9050
16.556000 0.9050 0.9050 0.9050 0.9050 0.9050
16.611651 0.9050 0.9050 0.9050 0.9050 0.9050
16.667000 0.9050 0.9060 0.9060 0.9060 0.9060
16.722651 0.9060 0.9080 0.9080 0.9100 0.9100
16.779000 0.9110 0.9110 0.9110 0.9110 0.9130
16.834651 0.9130 0.9130 0.9130 0.9130 0.9130
16.890000 0.9130 0.9130 0.9130 0.9130 0.9150
16.945651 0.9150 0.9150 0.9150 0.9150 0.9150
17.001000 0.9150 0.9150 0.9150 0.9150 0.9150
17.056651 0.9160 0.9160 0.9160 0.9160 0.9160
17.112000 0.9160 0.9160 0.9160 0.9180 0.9180
17.167651 0.9180 0.9180 0.9180 0.9180 0.9180
17.224000 0.9180 0.9180 0.9180 0.9180 0.9180
17.279651 0.9180 0.9180 0.9180 0.9180 0.9180
17.335000 0.9160 0.9160 0.9160 0.9160 0.9160
17.390651 0.9160 0.9150 0.9150 0.9150 0.9150
17.446000 0.9150 0.9150 0.9150 0.9150 0.9150
17.501651 0.9150 0.9150 0.9150 0.9150 0.9150
17.557000 0.9150 0.9150 0.9150 0.9150 0.9150
17.612651 0.9150 0.9150 0.9160 0.9160 0.9160
17.669000 0.9160 0.9160 0.9180 0.9180 0.9180
17.724651 0.9160 0.9160 0.9150 0.9150 0.9130
17.780000 0.9110 0.9100 0.9080 0.9080 0.9080
17.835651 0.9080 0.9080 0.9060 0.9060 0.9060
17.891000 0.9080 0.9080 0.9080 0.9080 0.9080
17.946651 0.9100 0.9100 0.9100 0.9110 0.9110
18.002000 0.9110 0.9110 0.9110 0.9100 0.9080
18.057651 0.9080 0.9060 0.9060 0.9050 0.9030
18.114000 0.9010 0.9010 0.9000 0.9000 0.9000
18.169651 0.9000 0.9000 0.8980 0.8970 0.8950
18.225000 0.8900 0.8880 0.8870 0.8870 0.8850
18.280651 0.8830 0.8820 0.8820 0.8820 0.8830
18.336000 0.8830 0.8870 0.8880 0.8900 0.8920
18.391651 0.8930 0.8930 0.8970 0.8980 0.8980
18.447000 0.8980 0.9000 0.9000 0.9000 0.9000
18.502651 0.9010 0.9010 0.9010 0.9030 0.9030
18.559000 0.9030 0.9030 0.9030 0.9030 0.9030
18.614651 0.9030 0.9030 0.9030 0.9030 0.9050
18.670000 0.9050 0.9050 0.9030 0.9030 0.9030
18.725651 0.9030 0.9030 0.9030 0.9030 0.9030
18.781000 0.9030 0.9030 0.9030 0.9030 0.9030
18.836651 0.9030 0.9030 0.9050 0.9050 0.9060
18.892000 0.9060 0.9060 0.9050 0.9050 0.9030
18.947651 0.9030 0.9030 0.9010 0.9010 0.9010
19.004000 0.9000 0.9000 0.9000 0.8980 0.8980
19.059651 0.8980 0.8980 0.8980 0.8980 0.8980
19.115000 0.8980 0.8980 0.8980 0.9000 0.9000
19.170651 0.9000 0.9010 0.9010 0.9010 0.9010
19.226000 0.9010 0.9010 0.9010 0.9010 0.9010
19.281651 0.9000 0.9000 0.9000 0.9000 0.8980
19.337000 0.8980 0.8980 0.8970 0.8970 0.8970
19.392651 0.8970 0.8970 0.8970 0.8950 0.8950
19.448000 0.8930 0.8920 0.8920 0.8920 0.8900
19.503651 0.8900 0.8880 0.8880 0.8870 0.8870
19.560000 0.8850 0.8850 0.8830 0.8830 0.8820
19.615651 0.8820 0.8800 0.8770 0.8750 0.8730
19.671000 0.8720 0.8700 0.8670 0.8630 0.8600
19.726651 0.8580 0.8550 0.8530 0.8480 0.8470
19.782000 0.8450 0.8430 0.8420 0.8380 0.8330
19.837651 0.8270 0.8170 0.8130 0.8100 0.8050
19.893000 0.8030 0.7950 0.7940 0.7800 0.7600
19.948651 0.7390 0.7120 0.6970 0.6960 0.6870
20.005000 0.6720 0.6520 0.6310 0.6070 0.5840
20.060651 0.5630 0.5410 0.5240 0.5130 0.5000
20.116000 0.4750 0.4630 0.4530 0.4510 0.4500
20.171651 0.4510 0.4550 0.4650 0.4710 0.4750
20.227000 0.4860 0.4930 0.5000 0.5010 0.5130
20.282651 0.5530 0.5730 0.5860 0.5960 0.6040
20.338000 0.6160 0.6310 0.6520 0.6620 0.6820
20.393651 0.6920 0.7040 0.7150 0.7390 0.7450
20.450000 0.7520 0.7590 0.7650 0.7720 0.7790
20.505651 0.7850 0.7900 0.7970 0.8020 0.8070
20.561000 0.8120 0.8150 0.8150 0.8170 0.8180
20.616651 0.8220 0.8270 0.8320 0.8370 0.8400
20.672000 0.8420 0.8420 0.8430 0.8430 0.8430
20.727651 0.8450 0.8450 0.8470 0.8470 0.8480
20.783000 0.8500 0.8550 0.8580 0.8600 0.8600
20.838651 0.8620 0.8620 0.8630 0.8630 0.8650
20.895000 0.8650 0.8650 0.8670 0.8670 0.8670
20.950651 0.8670 0.8680 0.8700 0.8700 0.8700
21.006000 0.8700 0.8700 0.8700 0.8700 0.8700
21.061651 0.8700 0.8700 0.8700 0.8700 0.8700
21.117000 0.8700 0.8700 0.8700 0.8700 0.8720
21.172651 0.8720 0.8730 0.8750 0.8750 0.8750
21.228000 0.8750 0.8770 0.8770 0.8780 0.8800
21.283651 0.8800 0.8820 0.8820 0.8820 0.8830
21.340000 0.8830 0.8830 0.8850 0.8870 0.8870
21.395651 0.8870 0.8870 0.8870 0.8870 0.8880
21.451000 0.8880 0.8880 0.8880 0.8880 0.8900
21.506651 0.8900 0.8900 0.8900 0.8900 0.8920
21.562000 0.8920 0.8920 0.8920 0.8920 0.8920
21.617651 0.8920 0.8920 0.8920 0.8920 0.8920
21.673000 0.8920 0.8920 0.8920 0.8920 0.8920
21.728651 0.8920 0.8920 0.8920 0.8920 0.8920
21.785000 0.8920 0.8920 0.8920 0.8920 0.8920
21.840651 0.8920 0.8920 0.8920 0.8920 0.8920
21.896000 0.8920 0.8920 0.8920 0.8920 0.8920
21.951651 0.8900 0.8900 0.8900 0.8900 0.8900
22.007000 0.8880 0.8880 0.8880 0.8880 0.8880
22.062651 0.8880 0.8880 0.8870 0.8870 0.8870
22.118000 0.8870 0.8870 0.8870 0.8870 0.8850
22.173651 0.8850 0.8850 0.8830 0.8830 0.8830
22.230000 0.8820 0.8820 0.8820 0.8800 0.8800
22.285651 0.8780 0.8770 0.8750 0.8730 0.8700
22.341000 0.8670 0.8650 0.8630 0.8600 0.8570
22.396651 0.8530 0.8500 0.8450 0.8400 0.8350
22.452000 0.8280 0.8180 0.8150 0.8130 0.8120
22.507651 0.8020 0.7870 0.7740 0.7620 0.7540
22.563000 0.7450 0.7370 0.7270 0.7200 0.7170
22.618651 0.7140 0.7100 0.7050 0.7040 0.7020
22.674000 0.7020 0.7040 0.7050 0.7070 0.7090
22.729651 0.7100 0.7120 0.7150 0.7170 0.7200
22.786000 0.7220 0.7250 0.7290 0.7320 0.7350
22.841651 0.7390 0.7400 0.7420 0.7450 0.7490
22.897000 0.7520 0.7550 0.7590 0.7600 0.7600
22.952651 0.7600 0.7590 0.7570 0.7550 0.7540
23.008000 0.7520 0.7490 0.7440 0.7400 0.7340
23.063651 0.7270 0.7170 0.7090 0.6970 0.6860
23.119000 0.6740 0.6610 0.6460 0.6320 0.6170
23.174651 0.6010 0.5930 0.5760 0.5590 0.5390
23.231000 0.5240 0.5140 0.4760 0.4580 0.4460
23.286651 0.4310 0.4200 0.4050 0.4030 0.3950
23.342000 0.3830 0.3730 0.3700 0.3670 0.3620
23.397651 0.3600 0.3580 0.3600 0.3620 0.3630
23.453000 0.3680 0.3700 0.3730 0.3820 0.3900
23.508651 0.4000 0.4100 0.4210 0.4330 0.4450
23.564000 0.4560 0.4700 0.4830 0.4980 0.5040
23.619651 0.5110 0.5260 0.5410 0.5560 0.5690
23.676000 0.5860 0.6010 0.6160 0.6310 0.6440
23.731651 0.6590 0.6740 0.6870 0.6940 0.7020
23.787000 0.7090 0.7170 0.7270 0.7350 0.7440
23.842651 0.7520 0.7600 0.7690 0.7740 0.7790
23.898000 0.7800 0.7820 0.7850 0.7900 0.7950
23.953651 0.8000 0.8050 0.8070 0.8130 0.8180
24.009000 0.8230 0.8280 0.8320 0.8350 0.8380
24.064651 0.8420 0.8430 0.8470 0.8480 0.8500
24.121000 0.8520 0.8530 0.8550 0.8570 0.8570
24.176651 0.8580 0.8600 0.8620 0.8620 0.8630
24.232000 0.8650 0.8680 0.8680 0.8680 0.8700
24.287651 0.8700 0.8700 0.8720 0.8720 0.8720
24.343000 0.8730 0.8730 0.8730 0.8730 0.8730
24.398651 0.8720 0.8720 0.8700 0.8680 0.8650
24.454000 0.8630 0.8620 0.8550 0.8500 0.8470
24.509651 0.8420 0.8400 0.8400 0.8400 0.8420
24.566000 0.8420 0.8430 0.8430 0.8450 0.8470
24.621651 0.8480 0.8500 0.8520 0.8530 0.8550
24.677000 0.8570 0.8580 0.8600 0.8620 0.8630
24.732651 0.8630 0.8650 0.8670 0.8720 0.8730
24.788000 0.8750 0.8770 0.8800 0.8820 0.8820
24.843651 0.8830 0.8850 0.8850 0.8870 0.8870
24.899000 0.8880 0.8900 0.8920 0.8930 0.8930
24.954651 0.8950 0.8950 0.8950 0.8950 0.8950
25.011000 0.8930 0.8930 0.8930 0.8930 0.8920
25.066651 0.8920 0.8920 0.8920 0.8920 0.8920
25.122000 0.8920 0.8920 0.8920 0.8920 0.8920
25.177651 0.8920 0.8930 0.8930 0.8950 0.8950
25.233000 0.8970 0.8970 0.8980 0.8980 0.9000
25.288651 0.9000 0.9000 0.9000 0.9000 0.9000
25.344000 0.9000 0.9010 0.9010 0.9030 0.9030
25.399651 0.9030 0.9050 0.9050 0.9060 0.9080
25.456000 0.9100 0.9100 0.9110 0.9130 0.9130
25.511651 0.9130 0.9130 0.9150 0.9150 0.9150
25.567000 0.9150 0.9150 0.9150 0.9150 0.9130
25.622651 0.9130 0.9110 0.9110 0.9100 0.9100
25.678000 0.9080 0.9080 0.9080 0.9080 0.9080
25.733651 0.9060 0.9060 0.9060 0.9060 0.9050
25.789000 0.9050 0.9050 0.9050 0.9050 0.9050
25.844651 0.9050 0.9050 0.9050 0.9050 0.9050
25.900000 0.9050 0.9050 0.9050 0.9050 0.9060
25.955651 0.9060 0.9060 0.9060 0.9060 0.9060
26.012000 0.9060 0.9060 0.9060 0.9080 0.9080
26.067651 0.9100 0.9100 0.9110 0.9110 0.9130
26.123000 0.9130 0.9150 0.9150 0.9160 0.9180
26.178651 0.9200 0.9200 0.9200 0.9200 0.9200
26.234000 0.9180 0.9180 0.9180 0.9160 0.9160
26.289651 0.9160 0.9160 0.9160 0.9150 0.9150
26.345000 0.9150 0.9150 0.9150 0.9150 0.9150
26.400651 0.9150 0.9150 0.9150 0.9150 0.9130
26.457000 0.9130 0.9130 0.9130 0.9130 0.9110
26.512651 0.9110 0.9110 0.9110 0.9110 0.9100
26.568000 0.9100 0.9100 0.9100 0.9110 0.9110
26.623651 0.9110 0.9110 0.9110 0.9110 0.9110
26.679000 0.9130 0.9150 0.9150 0.9150 0.9150
26.734651 0.9150 0.9150 0.9150 0.9160 0.9160
26.790000 0.9160 0.9160 0.9160 0.9160 0.9160
26.845651 0.9160 0.9180 0.9180 0.9180 0.9180
26.902000 0.9180 0.9200 0.9200 0.9210 0.9210
26.957651 0.9230 0.9230 0.9230 0.9250 0.9250
27.013000 0.9250 0.9250 0.9250 0.9250 0.9250
27.068651 0.9250 0.9250 0.9250 0.9250 0.9250
27.124000 0.9250 0.9250 0.9250 0.9230 0.9230
27.179651 0.9230 0.9210 0.9210 0.9210 0.9200
27.235000 0.9200 0.9200 0.9200 0.9200 0.9180
27.290651 0.9180 0.9180 0.9160 0.9160 0.9150
27.347000 0.9150 0.9150 0.9150 0.9130 0.9130
27.402651 0.9130 0.9130 0.9130 0.9130 0.9130
27.458000 0.9130 0.9130 0.9150 0.9150 0.9150
27.513651 0.9150 0.9150 0.9150 0.9160 0.9160
27.569000 0.9160 0.9180 0.9180 0.9180 0.9200
27.624651 0.9200 0.9200 0.9200 0.9200 0.9210
27.680000 0.9210 0.9230 0.9230 0.9250 0.9250
27.735651 0.9260 0.9260 0.9260 0.9280 0.9300
27.792000 0.9300 0.9300 0.9300 0.9300 0.9300
27.847651 0.9300 0.9300 0.9300 0.9300 0.9300
27.903000 0.9300 0.9280 0.9280 0.9260 0.9260
27.958651 0.9260 0.9250 0.9250 0.9230 0.9210
28.014000 0.9210 0.9200 0.9180 0.9180 0.9180
28.069651 0.9160 0.9160 0.9160 0.9160 0.9150
28.125000 0.9150 0.9150 0.9150 0.9130 0.9130
28.180651 0.9130 0.9130 0.9130 0.9130 0.9130
28.237000 0.9130 0.9130 0.9130 0.9150 0.9150
28.292651 0.9150 0.9150 0.9150 0.9150 0.9150
28.348000 0.9150 0.9160 0.9160 0.9160 0.9180
28.403651 0.9180 0.9180 0.9180 0.9180 0.9180
28.459000 0.9200 0.9200 0.9200 0.9200 0.9200
28.514651 0.9200 0.9210 0.9210 0.9210 0.9210
28.570000 0.9210 0.9210 0.9230 0.9230 0.9230
28.625651 0.9230 0.9230 0.9230 0.9230 0.9250
28.681000 0.9250 0.9250 0.9250 0.9250 0.9250
28.736651 0.9250 0.9250 0.9250 0.9250 0.9250
28.793000 0.9250 0.9250 0.9250 0.9250 0.9250
28.848651 0.9250 0.9250 0.9250 0.9250 0.9250
28.904000 0.9250 0.9250 0.9230 0.9230 0.9230
28.959651 0.9210 0.9200 0.9180 0.9160 0.9150
29.015000 0.9150 0.9160 0.9180 0.9180 0.9180
29.070651 0.9160 0.9160 0.9160 0.9150 0.9130
29.126000 0.9110 0.9110 0.9100 0.9100 0.9100
29.181651 0.9100 0.9110 0.9130 0.9150 0.9160
29.238000 0.9160 0.9160 0.9180 0.9180 0.9180
29.293651 0.9180 0.9180 0.9180 0.9180 0.9200
29.349000 0.9200 0.9200 0.9200 0.9210 0.9210
29.404651 0.9230 0.9230 0.9230 0.9230 0.9250
29.460000 0.9250 0.9250 0.9250 0.9250 0.9250
29.515651 0.9260 0.9260 0.9260 0.9260 0.9260
29.571000 0.9260 0.9260 0.9260 0.9260 0.9250
29.626651 0.9250 0.9250 0.9230 0.9230 0.9230
29.683000 0.9230 0.9230 0.9210 0.9210 0.9200
29.738651 0.9200 0.9200 0.9180 0.9180 0.9180
29.794000 0.9160 0.9160 0.9160 0.9150 0.9150
29.849651 0.9150 0.9150 0.9130 0.9130 0.9110
29.905000 0.9110 0.9100 0.9100 0.9100 0.9100
29.960651 0.9080 0.9080 0.9080 0.9080 0.9080
30.016000 0.9080 0.9080 0.9080 0.9080 0.9080
30.071651 0.9100 0.9100 0.9100 0.9100 0.9110
30.128000 0.9110 0.9110 0.9130 0.9130 0.9130
30.183651 0.9130 0.9130 0.9150 0.9150 0.9150
30.239000 0.9150 0.9150 0.9150 0.9150 0.9150
30.294651 0.9150 0.9160 0.9160 0.9180 0.9200
30.350000 0.9200 0.9210 0.9210 0.9210 0.9230
30.405651 0.9230 0.9230 0.9250 0.9250 0.9250
30.461000 0.9260 0.9260 0.9280 0.9280 0.9280
30.516651 0.9280 0.9280 0.9280 0.9280 0.9280
30.573000 0.9280 0.9280 0.9280 0.9280 0.9280
30.628651 0.9280 0.9280 0.9280 0.9280 0.9280
30.684000 0.9280 0.9280 0.9260 0.9260 0.9260
30.739651 0.9260 0.9260 0.9250 0.9250 0.9230
30.795000 0.9210 0.9210 0.9200 0.9200 0.9200
30.850651 0.9180 0.9180 0.9180 0.9160 0.9160
30.906000 0.9160 0.9160 0.9160 0.9150 0.9150
30.961651 0.9150 0.9130 0.9130 0.9130 0.9130
31.018000 0.9130 0.9130 0.9130 0.9130 0.9130
31.073651 0.9130 0.9130 0.9130 0.9110 0.9110
31.129000 0.9110 0.9110 0.9110 0.9110 0.9100
31.184651 0.9100 0.9100 0.9080 0.9080 0.9080
31.240000 0.9080 0.9060 0.9060 0.9060 0.9060
31.295651 0.9060 0.9060 0.9060 0.9080 0.9080
31.351000 0.9100 0.9100 0.9110 0.9110 0.9130
31.406651 0.9130 0.9150 0.9150 0.9150 0.9160
31.463000 0.9160 0.9180 0.9200 0.9200 0.9200
31.518651 0.9200 0.9210 0.9210 0.9210 0.9230
31.574000 0.9230 0.9230 0.9230 0.9250 0.9250
31.629651 0.9250 0.9250 0.9250 0.9260 0.9260
31.685000 0.9260 0.9260 0.9260 0.9260 0.9260
31.740651 0.9260 0.9250 0.9250 0.9230 0.9230
31.796000 0.9230 0.9210 0.9210 0.9180 0.9180
31.851651 0.9160 0.9160 0.9150 0.9150 0.9130
31.907000 0.9130 0.9110 0.9110 0.9100 0.9080
31.962651 0.9080 0.9060 0.9050 0.9030 0.9010
32.019000 0.9000 0.9000 0.8980 0.8970 0.8970
32.074651 0.8970 0.8980 0.9000 0.9000 0.9000
32.130000 0.9000 0.9000 0.8970 0.8970 0.8950
32.185651 0.8950 0.8920 0.8920 0.8900 0.8900
32.241000 0.8900 0.8920 0.8920 0.8930 0.8930
32.296651 0.8930 0.8950 0.8970 0.8980 0.8980
32.352000 0.8980 0.8980 0.9000 0.9000 0.9000
32.407651 0.9000 0.9000 0.9000 0.9000 0.9000
32.464000 0.9000 0.9000 0.9000 0.9000 0.9000
32.519651 0.9000 0.9000 0.9010 0.9010 0.9010
32.575000 0.9030 0.9030 0.9030 0.9050 0.9050
32.630651 0.9050 0.9050 0.9050 0.9060 0.9080
32.686000 0.9080 0.9080 0.9100 0.9100 0.9100
32.741651 0.9110 0.9110 0.9110 0.9130 0.9130
32.797000 0.9130 0.9160 0.9160 0.9180 0.9180
32.852651 0.9180 0.9160 0.9160 0.9160 0.9160
32.909000 0.9180 0.9200 0.9200 0.9200 0.9200
32.964651 0.9200 0.9180 0.9160 0.9130 0.9100
33.020000 0.9080 0.9080 0.9060 0.9060 0.9050
33.075651 0.9030 0.9010 0.9000 0.8970 0.8970
33.131000 0.8950 0.8950 0.8930 0.8930 0.8920
33.186651 0.8920 0.8900 0.8880 0.8880 0.8880
33.242000 0.8880 0.8880 0.8870 0.8870 0.8870
33.297651 0.8870 0.8870 0.8850 0.8850 0.8850
33.354000 0.8850 0.8850 0.8850 0.8850 0.8870
33.409651 0.8870 0.8870 0.8870 0.8870 0.8870
33.465000 0.8880 0.8880 0.8880 0.8880 0.8900
33.520651 0.8900 0.8920 0.8920 0.8920 0.8920
33.576000 0.8920 0.8920 0.8920 0.8930 0.8930
33.631651 0.8930 0.8930 0.8930 0.8950 0.8950
33.687000 0.8970 0.8970 0.8970 0.8980 0.8980
33.742651 0.8970 0.8970 0.8970 0.8970 0.8950
33.799000 0.8950 0.8950 0.8930 0.8930 0.8930
33.854651 0.8920 0.8920 0.8930 0.8930 0.8930
33.910000 0.8930 0.8930 0.8950 0.8950 0.8950
33.965651 0.8950 0.8970 0.8970 0.8970 0.8970
34.021000 0.8970 0.8970 0.8970 0.8970 0.8950
34.076651 0.8950 0.8930 0.8930 0.8920 0.8920
34.132000 0.8920 0.8920 0.8920 0.8900 0.8900
34.187651 0.8880 0.8880 0.8870 0.8870 0.8830
34.244000 0.8830 0.8820 0.8800 0.8770 0.8720
34.299651 0.8700 0.8670 0.8650 0.8620 0.8600
34.355000 0.8580 0.8580 0.8580 0.8580 0.8570
34.410651 0.8570 0.8530 0.8500 0.8470 0.8450
34.466000 0.8430 0.8430 0.8430 0.8430 0.8430
34.521651 0.8420 0.8400 0.8370 0.8350 0.8330
34.577000 0.8320 0.8300 0.8300 0.8300 0.8300
34.632651 0.8300 0.8300 0.8280 0.8270 0.8250
34.689000 0.8250 0.8200 0.8180 0.8170 0.8170
34.744651 0.8170 0.8150 0.8150 0.8150 0.8130
34.800000 0.8130 0.8130 0.8120 0.8120 0.8120
34.855651 0.8120 0.8120 0.8120 0.8120 0.8120
34.911000 0.8120 0.8100 0.8100 0.8100 0.8100
34.966651 0.8100 0.8080 0.8080 0.8080 0.8080
35.022000 0.8080 0.8070 0.8070 0.8070 0.8070
35.077651 0.8070 0.8070 0.8050 0.8050 0.8050
##END=
