##TITLE=ANTHRANILIC ACID, N-METHYL-, METHYL ESTER
##JCAMP-DX=4.24
##DATA TYPE=INFRARED SPECTRUM
##CLASS=COBLENTZ III
##ORIGIN=WESTERN REGIONAL RES. USDA
##OWNER=COBLENTZ SOCIETY
Collection (C) 2018 copyright by the U.S. Secretary of Commerce
on behalf of the United States of America. All rights reserved.
##DATE=1964/05/15
##NAMES=methyl 2-(methylamino)benzoate
##CAS REGISTRY NO=85-91-6
##MOLFORM=C9 H11 N O2
##SOURCE REFERENCE=COBLENTZ NO. 6184
##$NIST SOURCE=COBLENTZ
##$NIST IMAGE=cob6184
##SPECTROMETER/DATA SYSTEM=BECKMAN IR-7 (GRATING)
##INSTRUMENT PARAMETERS=GRATING CHANGES AT 3000, 2200, 1150 CM^-^1
##STATE=SOLUTION (10% IN CCl4 FOR 4000-1350 CM^-^1, 10% IN CS2 FOR 1350-600 CM^-^1)
##PATH LENGTH=0.010 CM, 0.010 CM
##SAMPLING PROCEDURE=TRANSMISSION
##RESOLUTION=4
##DATA PROCESSING=DIGITIZED BY NIST FROM HARD COPY (FROM TWO SEGMENTS)
##XUNITS=1/CM
##YUNITS=TRANSMITTANCE
##XFACTOR=1.000000
##YFACTOR=1
##DELTAX=0.660689
##FIRSTX=598.679
##LASTX=3981.41
##FIRSTY=0.636
##MAXX=3981.41
##MINX=598.679
##MAXY=0.875
##MINY=0
##NPOINTS=5121
##XYDATA=(X++(Y..Y))
598.679000 0.6360 0.6410 0.6430 0.6360 0.6410
601.982444 0.6430 0.6440 0.6440 0.6470 0.6490
605.285888 0.6520 0.6520 0.6520 0.6560 0.6620
608.589332 0.6660 0.6700 0.6730 0.6760 0.6780
611.892777 0.6810 0.6830 0.6850 0.6880 0.6900
615.196221 0.6920 0.6950 0.6980 0.7010 0.7040
618.499665 0.7060 0.7080 0.7090 0.7100 0.7120
621.803109 0.7140 0.7150 0.7170 0.7170 0.7180
625.106553 0.7190 0.7190 0.7200 0.7210 0.7220
628.409997 0.7230 0.7230 0.7250 0.7250 0.7250
631.713441 0.7260 0.7270 0.7270 0.7270 0.7270
635.016885 0.7270 0.7270 0.7270 0.7270 0.7270
638.320330 0.7270 0.7270 0.7270 0.7260 0.7250
641.623774 0.7230 0.7220 0.7210 0.7190 0.7190
644.927218 0.7180 0.7170 0.7140 0.7110 0.7090
648.230662 0.7080 0.7060 0.7050 0.7030 0.7020
651.534106 0.6970 0.6900 0.6850 0.6780 0.6760
654.837550 0.6730 0.6690 0.6650 0.6610 0.6580
658.140994 0.6550 0.6520 0.6460 0.6380 0.5911
661.444439 0.5710 0.5600 0.5480 0.5360 0.5241
664.747883 0.5120 0.5010 0.4890 0.4890 0.4890
668.051327 0.5230 0.5430 0.5689 0.5949 0.6189
671.354771 0.6600 0.6740 0.6750 0.7010 0.7020
674.658215 0.7050 0.7090 0.7130 0.7160 0.7190
677.961659 0.7210 0.7240 0.7270 0.7310 0.7370
681.265103 0.7400 0.7420 0.7440 0.7440 0.7440
684.568547 0.7440 0.7440 0.7420 0.7420 0.7390
687.871992 0.7360 0.7320 0.7280 0.7240 0.7200
691.175436 0.7170 0.7110 0.7040 0.6940 0.6820
694.478880 0.6740 0.6670 0.5952 0.5541 0.5291
697.782324 0.5100 0.4920 0.2261 0.1890 0.1511
701.085768 0.1111 0.1090 0.1110 0.1509 0.1879
704.389212 0.2200 0.2360 0.2800 0.3240 0.4728
707.692656 0.5239 0.5779 0.5920 0.6040 0.6169
710.996100 0.6290 0.6430 0.6560 0.6670 0.6760
714.299545 0.6830 0.6880 0.6910 0.6970 0.6990
717.602989 0.7050 0.7080 0.7100 0.7100 0.7130
720.906433 0.7160 0.7180 0.7210 0.7210 0.7230
724.209877 0.7230 0.7240 0.7240 0.7240 0.7240
727.513321 0.7240 0.7240 0.7230 0.7230 0.7210
730.816765 0.7190 0.7150 0.7120 0.7050 0.7000
734.120209 0.6960 0.6920 0.6890 0.6820 0.6730
737.423654 0.6620 0.6460 0.6240 0.5250 0.5010
740.727098 0.4870 0.4680 0.4530 0.4181 0.2824
744.030542 0.2529 0.1620 0.1220 0.1000 0.0610
747.333986 0.0420 0.0051 0.0030 0.0030 0.0030
750.637430 0.0050 0.0430 0.0800 0.1170 0.1530
753.940874 0.1899 0.2159 0.2300 0.2719 0.3119
757.244318 0.4001 0.5230 0.5610 0.5950 0.6000
760.547762 0.6050 0.6220 0.6409 0.6599 0.6749
763.851207 0.6870 0.6940 0.7020 0.7120 0.7200
767.154651 0.7270 0.7320 0.7380 0.7440 0.7500
770.458095 0.7540 0.7580 0.7620 0.7660 0.7690
773.761539 0.7720 0.7740 0.7770 0.7780 0.7790
777.064983 0.7810 0.7810 0.7820 0.7830 0.7830
780.368427 0.7830 0.7830 0.7830 0.7830 0.7820
783.671871 0.7810 0.7790 0.7770 0.7760 0.7730
786.975316 0.7700 0.7650 0.7600 0.7381 0.7181
790.278760 0.6710 0.6420 0.5790 0.5480 0.5480
793.582204 0.5710 0.5940 0.6060 0.6170 0.6399
796.885648 0.6410 0.6590 0.6740 0.6960 0.7140
800.189092 0.7300 0.7430 0.7530 0.7600 0.7650
803.492536 0.7680 0.7700 0.7720 0.7730 0.7740
806.795980 0.7750 0.7770 0.7770 0.7780 0.7810
810.099424 0.7820 0.7830 0.7840 0.7850 0.7860
813.402869 0.7860 0.7870 0.7880 0.7880 0.7880
816.706313 0.7880 0.7880 0.7880 0.7880 0.7880
820.009757 0.7860 0.7830 0.7810 0.7780 0.7740
823.313201 0.7690 0.7630 0.7570 0.7520 0.7460
826.616645 0.7380 0.7280 0.7150 0.6981 0.6751
829.920089 0.5690 0.5120 0.5040 0.4491 0.4320
833.223533 0.4001 0.4000 0.4279 0.4938 0.5229
836.526977 0.5590 0.5970 0.6080 0.6180 0.6240
839.830422 0.6250 0.6230 0.5871 0.5312 0.4822
843.133866 0.4820 0.5719 0.5870 0.6020 0.6120
846.437310 0.6150 0.6160 0.6309 0.6330 0.6390
849.740754 0.6390 0.6420 0.6450 0.6500 0.6540
853.044198 0.6600 0.6620 0.6690 0.6740 0.6790
856.347642 0.6810 0.6830 0.6890 0.6900 0.6920
859.651086 0.6950 0.6980 0.7020 0.7060 0.7100
862.954531 0.7120 0.7150 0.7170 0.7190 0.7200
866.257975 0.7220 0.7240 0.7280 0.7300 0.7320
869.561419 0.7330 0.7360 0.7390 0.7420 0.7470
872.864863 0.7500 0.7520 0.7540 0.7560 0.7580
876.168307 0.7590 0.7600 0.7620 0.7640 0.7660
879.471751 0.7670 0.7690 0.7730 0.7790 0.7830
882.775195 0.7860 0.7900 0.7930 0.7960 0.7980
886.078639 0.8000 0.8040 0.8060 0.8090 0.8130
889.382084 0.8160 0.8180 0.8210 0.8250 0.8260
892.685528 0.8280 0.8290 0.8310 0.8310 0.8330
895.988972 0.8330 0.8340 0.8360 0.8370 0.8370
899.292416 0.8380 0.8380 0.8380 0.8380 0.8390
902.595860 0.8400 0.8400 0.8410 0.8420 0.8420
905.899304 0.8420 0.8430 0.8440 0.8440 0.8450
909.202748 0.8450 0.8460 0.8460 0.8470 0.8470
912.506193 0.8480 0.8480 0.8480 0.8480 0.8480
915.809637 0.8480 0.8490 0.8490 0.8490 0.8490
919.113081 0.8490 0.8500 0.8500 0.8500 0.8500
922.416525 0.8500 0.8500 0.8500 0.8500 0.8500
925.719969 0.8500 0.8500 0.8500 0.8500 0.8500
929.023413 0.8500 0.8500 0.8500 0.8490 0.8490
932.326857 0.8490 0.8480 0.8480 0.8480 0.8480
935.630301 0.8480 0.8480 0.8460 0.8460 0.8450
938.933746 0.8440 0.8440 0.8440 0.8400 0.8380
942.237190 0.8350 0.8320 0.8290 0.8270 0.8230
945.540634 0.8180 0.8100 0.8000 0.7900 0.7472
948.844078 0.7410 0.7410 0.7500 0.7560 0.7820
952.147522 0.7880 0.7960 0.8000 0.8050 0.8060
955.450966 0.8070 0.8070 0.8080 0.8080 0.8080
958.754410 0.8080 0.8080 0.8080 0.8080 0.8080
962.057854 0.8050 0.8040 0.7970 0.7930 0.7900
965.361299 0.7830 0.7790 0.7710 0.7690 0.7670
968.664743 0.7600 0.7530 0.7460 0.7400 0.7390
971.968187 0.7400 0.7470 0.7540 0.7600 0.7670
975.271631 0.7730 0.7750 0.7790 0.7850 0.7920
978.575075 0.7970 0.8020 0.8060 0.8090 0.8120
981.878519 0.8140 0.8160 0.8180 0.8190 0.8200
985.181963 0.8210 0.8220 0.8230 0.8230 0.8230
988.485408 0.8240 0.8240 0.8250 0.8250 0.8250
991.788852 0.8250 0.8250 0.8250 0.8250 0.8250
995.092296 0.8250 0.8250 0.8250 0.8250 0.8250
998.395740 0.8250 0.8250 0.8250 0.8250 0.8250
1001.699184 0.8240 0.8230 0.8230 0.8230 0.8220
1005.002628 0.8220 0.8220 0.8210 0.8210 0.8210
1008.306072 0.8210 0.8210 0.8200 0.8190 0.8190
1011.609516 0.8180 0.8160 0.8150 0.8140 0.8130
1014.912961 0.8110 0.8100 0.8080 0.8070 0.8060
1018.216405 0.8040 0.8020 0.8010 0.7990 0.7980
1021.519849 0.7960 0.7940 0.7920 0.7900 0.7870
1024.823293 0.7850 0.7830 0.7800 0.7770 0.7750
1028.126737 0.7720 0.7690 0.7650 0.7560 0.7490
1031.430181 0.7480 0.7380 0.7310 0.7260 0.7210
1034.733625 0.7150 0.7090 0.7010 0.6890 0.6740
1038.037070 0.6540 0.5951 0.5541 0.4892 0.4770
1041.340514 0.4750 0.4750 0.5200 0.5700 0.5850
1044.643958 0.6010 0.6180 0.6409 0.6540 0.6699
1047.947402 0.6870 0.6980 0.6980 0.7020 0.7040
1051.250846 0.7050 0.7040 0.7040 0.7020 0.7000
1054.554290 0.6960 0.6890 0.6810 0.6750 0.6670
1057.857734 0.6530 0.5981 0.5651 0.4873 0.4491
1061.161178 0.4400 0.4230 0.3880 0.3760 0.3630
1064.464623 0.3510 0.3380 0.3260 0.3130 0.3010
1067.768067 0.3010 0.3660 0.3980 0.4749 0.5149
1071.071511 0.5828 0.5910 0.5960 0.6010 0.6020
1074.374955 0.6020 0.6010 0.5940 0.5860 0.5730
1077.678399 0.5501 0.5291 0.5141 0.5011 0.4791
1080.981843 0.4580 0.4370 0.4150 0.3930 0.3720
1084.285287 0.3481 0.2762 0.2242 0.1742 0.1471
1087.588731 0.1180 0.0900 0.0610 0.0321 0.0300
1090.892176 0.0310 0.0440 0.0759 0.1188 0.1628
1094.195620 0.1740 0.2010 0.2530 0.2770 0.3010
1097.499064 0.3489 0.3849 0.4159 0.4419 0.4619
1100.802508 0.4640 0.4650 0.4640 0.4630 0.4620
1104.105952 0.4590 0.4540 0.4490 0.4420 0.4360
1107.409396 0.4310 0.4300 0.4290 0.4300 0.4310
1110.712840 0.4440 0.4510 0.4570 0.4640 0.4650
1114.016285 0.4660 0.4640 0.4580 0.4520 0.4430
1117.319729 0.4290 0.4120 0.3911 0.3671 0.2923
1120.623173 0.2360 0.1840 0.1280 0.0960 0.0920
1123.926617 0.0840 0.0680 0.0530 0.0381 0.0231
1127.230061 0.0210 0.0210 0.0230 0.0400 0.0450
1130.533505 0.0550 0.0919 0.1458 0.1719 0.1859
1133.836949 0.2050 0.2330 0.2610 0.2910 0.2980
1137.140393 0.3050 0.3319 0.3529 0.3889 0.4149
1140.443838 0.4490 0.4700 0.4730 0.4800 0.4810
1143.747282 0.4890 0.4980 0.5040 0.5050 0.5060
1147.050726 0.5080 0.5090 0.5090 0.5100 0.4990
1150.354170 0.4870 0.4651 0.4431 0.4400 0.4291
1153.657614 0.4100 0.3760 0.3320 0.2870 0.1951
1156.961058 0.1620 0.1111 0.0611 0.0470 0.0460
1160.264502 0.0470 0.0550 0.0810 0.1140 0.1370
1163.567947 0.1540 0.1700 0.1800 0.1860 0.1850
1166.871391 0.1840 0.1800 0.1590 0.1150 0.0780
1170.174835 0.0461 0.0151 0.0110 0.0090 0.0090
1173.478279 0.0100 0.0230 0.0420 0.0860 0.1140
1176.781723 0.1350 0.1550 0.1849 0.2308 0.2708
1180.085167 0.2970 0.3220 0.3430 0.3450 0.3470
1183.388611 0.3410 0.3350 0.3250 0.2782 0.2571
1186.692055 0.2300 0.1950 0.1460 0.1340 0.1330
1189.995500 0.1330 0.1340 0.1380 0.1430 0.1639
1193.298944 0.1820 0.2090 0.2430 0.2789 0.2960
1196.602388 0.3120 0.3399 0.3579 0.3610 0.4058
1199.905832 0.4410 0.4680 0.4860 0.4990 0.5070
1203.209276 0.5120 0.5160 0.5190 0.5230 0.5250
1206.512720 0.5270 0.5280 0.5290 0.5280 0.5260
1209.816164 0.5240 0.5220 0.5190 0.5130 0.5060
1213.119608 0.4990 0.4950 0.4850 0.4810 0.4660
1216.423053 0.4540 0.4430 0.4320 0.4200 0.4041
1219.726497 0.3850 0.3600 0.3310 0.2760 0.2510
1223.029941 0.2260 0.2040 0.1821 0.1631 0.1431
1226.333385 0.1260 0.1110 0.0960 0.0830 0.0710
1229.636829 0.0610 0.0520 0.0340 0.0230 0.0190
1232.940273 0.0150 0.0060 0.0050 0.0030 0.0030
1236.243717 0.0020 0.0010 0.0010 0.0010 0.0010
1239.547162 0.0000 0.0000 0.0000 0.0000 0.0000
1242.850606 0.0000 0.0000 0.0000 0.0000 0.0000
1246.154050 0.0000 0.0000 0.0000 0.0000 0.0010
1249.457494 0.0030 0.0080 0.0130 0.0150 0.0160
1252.760938 0.0170 0.0170 0.0170 0.0160 0.0150
1256.064382 0.0150 0.0130 0.0110 0.0070 0.0050
1259.367826 0.0020 0.0010 0.0000 0.0000 0.0000
1262.671270 0.0010 0.0040 0.0050 0.0090 0.0110
1265.974715 0.0270 0.0440 0.0610 0.0780 0.0950
1269.278159 0.1130 0.1170 0.1280 0.1649 0.1939
1272.581603 0.2240 0.2440 0.2570 0.2660 0.2740
1275.885047 0.2840 0.2950 0.3020 0.3080 0.3220
1279.188491 0.3370 0.3530 0.3700 0.3860 0.4010
1282.491935 0.4150 0.4280 0.4390 0.4470 0.4510
1285.795379 0.4520 0.4520 0.4530 0.4530 0.4520
1289.098824 0.4390 0.4310 0.4180 0.4080 0.3960
1292.402268 0.3660 0.3650 0.3640 0.3640 0.3660
1295.705712 0.3939 0.3980 0.4070 0.4180 0.4300
1299.009156 0.4470 0.4760 0.4980 0.5120 0.5220
1302.312600 0.5280 0.5320 0.5350 0.5370 0.5380
1305.616044 0.5380 0.5370 0.5370 0.5320 0.5250
1308.919488 0.5180 0.5120 0.5040 0.4950 0.4831
1312.222932 0.4690 0.4510 0.4280 0.4220 0.3951
1315.526377 0.3850 0.3760 0.3620 0.3540 0.3411
1318.829821 0.3270 0.2940 0.2800 0.2660 0.2570
1322.133265 0.2361 0.2320 0.2210 0.2100 0.2090
1325.436709 0.2090 0.2090 0.2100 0.2250 0.2410
1328.740153 0.2530 0.2620 0.2759 0.2889 0.2950
1332.043597 0.3000 0.3050 0.3090 0.3110 0.3140
1335.347041 0.3160 0.3180 0.3240 0.3340 0.3489
1338.650485 0.3650 0.3840 0.4040 0.4859 0.5100
1341.953930 0.5350 0.5580 0.5799 0.5900 0.6000
1345.257374 0.6180 0.6340 0.6490 0.6620 0.6740
1348.560818 0.6850 0.6940 0.7030 0.7100 0.7170
1351.864262 0.7230 0.7280 0.7320 0.7360 0.7390
1355.167706 0.7420 0.7440 0.7480 0.7510 0.7540
1358.471150 0.7560 0.7580 0.7610 0.7630 0.7640
1361.774594 0.7650 0.7660 0.7660 0.7670 0.7670
1365.078039 0.7670 0.7670 0.7670 0.7660 0.7660
1368.381483 0.7650 0.7640 0.7630 0.7610 0.7580
1371.684927 0.7570 0.7560 0.7560 0.7570 0.7570
1374.988371 0.7580 0.7580 0.7600 0.7600 0.7610
1378.291815 0.7620 0.7630 0.7670 0.7700 0.7710
1381.595259 0.7730 0.7770 0.7810 0.7860 0.7910
1384.898703 0.7940 0.7980 0.7980 0.7990 0.8000
1388.202147 0.8000 0.8000 0.7990 0.7990 0.7960
1391.505592 0.7930 0.7900 0.7880 0.7850 0.7830
1394.809036 0.7820 0.7810 0.7800 0.7790 0.7770
1398.112480 0.7760 0.7750 0.7710 0.7630 0.7570
1401.415924 0.7510 0.7460 0.7410 0.7370 0.7340
1404.719368 0.7310 0.7290 0.7270 0.7250 0.7230
1408.022812 0.7220 0.7210 0.7190 0.7180 0.7170
1411.326256 0.7160 0.7140 0.7130 0.7110 0.7080
1414.629701 0.7060 0.7020 0.6920 0.6850 0.6790
1417.933145 0.6710 0.6640 0.6530 0.6400 0.6220
1421.236589 0.5711 0.5361 0.4921 0.4392 0.3782
1424.540033 0.3300 0.2810 0.2570 0.2330 0.2090
1427.843477 0.1890 0.1760 0.1610 0.1590 0.1600
1431.146921 0.1660 0.1730 0.1780 0.1780 0.1740
1434.450365 0.1670 0.1550 0.1062 0.0582 0.0321
1437.753809 0.0110 0.0100 0.0110 0.0449 0.0789
1441.057254 0.1129 0.1469 0.1609 0.1769 0.2019
1444.360698 0.2490 0.2700 0.2730 0.2740 0.2760
1447.664142 0.2800 0.2830 0.2910 0.2960 0.3010
1450.967586 0.3140 0.3280 0.3410 0.3550 0.3660
1454.271030 0.3750 0.3800 0.3870 0.3940 0.3950
1457.574474 0.3960 0.3970 0.3970 0.3970 0.3960
1460.877918 0.3890 0.3740 0.3531 0.3331 0.2941
1464.181362 0.2750 0.2750 0.2910 0.2990 0.3070
1467.484807 0.3240 0.3400 0.3589 0.4766 0.4860
1470.788251 0.4870 0.4870 0.4620 0.4460 0.4310
1474.091695 0.4160 0.4050 0.3871 0.3671 0.3471
1477.395139 0.3270 0.2880 0.2880 0.3050 0.3220
1480.698583 0.3529 0.4019 0.4508 0.4978 0.4990
1484.002027 0.4990 0.4980 0.4980 0.4950 0.4900
1487.305471 0.4860 0.4830 0.4790 0.4770 0.4740
1490.608916 0.4700 0.4670 0.4640 0.4640 0.4620
1493.912360 0.4560 0.4510 0.4351 0.4211 0.4081
1497.215804 0.3980 0.3890 0.3820 0.3760 0.3710
1500.519248 0.3660 0.3630 0.3600 0.3590 0.3580
1503.822692 0.3580 0.3580 0.3580 0.3570 0.3570
1507.126136 0.3560 0.3550 0.3530 0.3450 0.3261
1510.429580 0.2830 0.2600 0.2360 0.2110 0.1860
1513.733024 0.1620 0.1390 0.1161 0.0951 0.0761
1517.036469 0.0580 0.0430 0.0300 0.0210 0.0160
1520.339913 0.0130 0.0010 0.0000 0.0000 0.0000
1523.643357 0.0010 0.0150 0.0290 0.0440 0.0570
1526.946801 0.0720 0.0870 0.1169 0.1499 0.2317
1530.250245 0.2970 0.3050 0.3120 0.3130 0.3240
1533.553689 0.3350 0.3470 0.3580 0.3700 0.3830
1536.857133 0.3910 0.3930 0.3950 0.3970 0.3980
1540.160578 0.3980 0.3980 0.3970 0.3950 0.3910
1543.464022 0.3850 0.3800 0.3740 0.3710 0.3690
1546.767466 0.3660 0.3660 0.3640 0.3620 0.3620
1550.070910 0.3620 0.3620 0.3610 0.3610 0.3600
1553.374354 0.3600 0.3600 0.3600 0.3600 0.3600
1556.677798 0.3580 0.3570 0.3520 0.3430 0.3410
1559.981242 0.3350 0.3300 0.3240 0.3180 0.3160
1563.284686 0.3160 0.3170 0.3180 0.3200 0.3220
1566.588131 0.3280 0.3280 0.3280 0.3280 0.3280
1569.891575 0.3210 0.2920 0.2740 0.2300 0.2010
1573.195019 0.1740 0.1431 0.1181 0.0971 0.0801
1576.498463 0.0680 0.0580 0.0500 0.0430 0.0370
1579.801907 0.0300 0.0230 0.0130 0.0070 0.0060
1583.105351 0.0050 0.0060 0.0070 0.0110 0.0150
1586.408795 0.0200 0.0270 0.0360 0.0460 0.0580
1589.712239 0.0710 0.0850 0.0990 0.1140 0.1290
1593.015684 0.1440 0.1590 0.1720 0.1860 0.1980
1596.319128 0.2090 0.2190 0.2270 0.2380 0.2400
1599.622572 0.2410 0.2400 0.2350 0.2091 0.1861
1602.926016 0.1640 0.1360 0.1220 0.1090 0.0950
1606.229460 0.0820 0.0680 0.0411 0.0400 0.0400
1609.532904 0.0620 0.0830 0.1040 0.1130 0.1230
1612.836348 0.1420 0.1649 0.1989 0.2139 0.2150
1616.139793 0.2180 0.2200 0.2220 0.2260 0.2460
1619.443237 0.2659 0.2929 0.3089 0.3239 0.3559
1622.746681 0.3820 0.4050 0.4240 0.4400 0.4530
1626.050125 0.4640 0.4720 0.4790 0.4840 0.4880
1629.353569 0.4920 0.4950 0.5040 0.5100 0.5140
1632.657013 0.5180 0.5220 0.5230 0.5260 0.5290
1635.960457 0.5310 0.5340 0.5370 0.5400 0.5430
1639.263901 0.5450 0.5470 0.5550 0.5620 0.5670
1642.567346 0.5710 0.5730 0.5750 0.5750 0.5760
1645.870790 0.5760 0.5750 0.5740 0.5700 0.5640
1649.174234 0.5570 0.5480 0.5390 0.5290 0.5180
1652.477678 0.5040 0.5020 0.5010 0.5000 0.5000
1655.781122 0.5000 0.4990 0.4990 0.4980 0.4980
1659.084566 0.4970 0.4970 0.4960 0.4940 0.4830
1662.388010 0.4710 0.4580 0.4450 0.4330 0.4200
1665.691455 0.4070 0.3940 0.3800 0.3641 0.3471
1668.994899 0.3300 0.2890 0.2660 0.2410 0.2141
1672.298343 0.1841 0.1511 0.1161 0.0821 0.0750
1675.601787 0.0720 0.0600 0.0470 0.0350 0.0210
1678.905231 0.0170 0.0130 0.0100 0.0060 0.0040
1682.208675 0.0030 0.0010 0.0010 0.0000 0.0000
1685.512119 0.0000 0.0000 0.0000 0.0000 0.0000
1688.815563 0.0000 0.0000 0.0000 0.0000 0.0000
1692.119008 0.0000 0.0000 0.0000 0.0000 0.0000
1695.422452 0.0010 0.0010 0.0010 0.0020 0.0040
1698.725896 0.0100 0.0250 0.0340 0.0350 0.0559
1702.029340 0.0770 0.0930 0.0960 0.1150 0.1370
1705.332784 0.1530 0.1829 0.2109 0.2349 0.2768
1708.636228 0.2950 0.3120 0.3300 0.3630 0.3700
1711.939672 0.3710 0.3860 0.4020 0.4179 0.4329
1715.243116 0.4490 0.4510 0.4600 0.4740 0.4890
1718.546561 0.5020 0.5100 0.5329 0.5539 0.5729
1721.850005 0.5890 0.5970 0.6040 0.6180 0.6300
1725.153449 0.6400 0.6490 0.6570 0.6640 0.6690
1728.456893 0.6790 0.6870 0.6920 0.6940 0.6980
1731.760337 0.7020 0.7030 0.7060 0.7100 0.7140
1735.063781 0.7170 0.7200 0.7210 0.7210 0.7230
1738.367225 0.7250 0.7270 0.7290 0.7300 0.7320
1741.670670 0.7340 0.7360 0.7370 0.7390 0.7400
1744.974114 0.7420 0.7430 0.7450 0.7460 0.7470
1748.277558 0.7480 0.7480 0.7490 0.7500 0.7500
1751.581002 0.7510 0.7520 0.7520 0.7520 0.7520
1754.884446 0.7520 0.7520 0.7530 0.7530 0.7540
1758.187890 0.7540 0.7540 0.7540 0.7540 0.7550
1761.491334 0.7550 0.7560 0.7570 0.7580 0.7590
1764.794778 0.7600 0.7600 0.7610 0.7620 0.7620
1768.098223 0.7630 0.7670 0.7690 0.7720 0.7750
1771.401667 0.7770 0.7790 0.7810 0.7840 0.7860
1774.705111 0.7870 0.7890 0.7910 0.7920 0.7940
1778.008555 0.7960 0.7980 0.7990 0.8000 0.8020
1781.311999 0.8030 0.8040 0.8060 0.8060 0.8060
1784.615443 0.8050 0.8050 0.8040 0.8030 0.8020
1787.918887 0.7990 0.7970 0.7940 0.7910 0.7880
1791.222332 0.7850 0.7820 0.7790 0.7750 0.7750
1794.525776 0.7740 0.7750 0.7750 0.7770 0.7790
1797.829220 0.7820 0.7850 0.7870 0.7900 0.7940
1801.132664 0.7970 0.8000 0.8040 0.8070 0.8090
1804.436108 0.8110 0.8120 0.8130 0.8130 0.8130
1807.739552 0.8130 0.8130 0.8130 0.8140 0.8140
1811.042996 0.8140 0.8140 0.8140 0.8140 0.8150
1814.346440 0.8150 0.8150 0.8150 0.8170 0.8170
1817.649885 0.8170 0.8190 0.8200 0.8220 0.8250
1820.953329 0.8280 0.8310 0.8320 0.8330 0.8340
1824.256773 0.8340 0.8340 0.8340 0.8350 0.8360
1827.560217 0.8360 0.8360 0.8360 0.8360 0.8360
1830.863661 0.8360 0.8370 0.8380 0.8380 0.8390
1834.167105 0.8390 0.8400 0.8400 0.8400 0.8400
1837.470549 0.8410 0.8420 0.8420 0.8420 0.8420
1840.773993 0.8430 0.8430 0.8430 0.8430 0.8430
1844.077438 0.8430 0.8430 0.8430 0.8420 0.8420
1847.380882 0.8420 0.8410 0.8410 0.8410 0.8410
1850.684326 0.8400 0.8400 0.8400 0.8400 0.8390
1853.987770 0.8390 0.8390 0.8380 0.8380 0.8380
1857.291214 0.8380 0.8380 0.8370 0.8370 0.8370
1860.594658 0.8360 0.8360 0.8360 0.8360 0.8360
1863.898102 0.8360 0.8360 0.8360 0.8360 0.8360
1867.201547 0.8360 0.8360 0.8370 0.8370 0.8380
1870.504991 0.8390 0.8400 0.8400 0.8400 0.8410
1873.808435 0.8410 0.8400 0.8410 0.8410 0.8420
1877.111879 0.8420 0.8420 0.8420 0.8420 0.8430
1880.415323 0.8430 0.8440 0.8440 0.8440 0.8450
1883.718767 0.8450 0.8450 0.8450 0.8450 0.8450
1887.022211 0.8440 0.8440 0.8440 0.8420 0.8400
1890.325655 0.8380 0.8350 0.8330 0.8310 0.8280
1893.629100 0.8260 0.8240 0.8220 0.8210 0.8190
1896.932544 0.8180 0.8170 0.8170 0.8170 0.8180
1900.235988 0.8180 0.8190 0.8210 0.8220 0.8230
1903.539432 0.8230 0.8250 0.8270 0.8270 0.8280
1906.842876 0.8290 0.8290 0.8290 0.8290 0.8290
1910.146320 0.8290 0.8290 0.8280 0.8270 0.8270
1913.449764 0.8250 0.8190 0.8170 0.8050 0.7960
1916.753209 0.7900 0.7860 0.7830 0.7810 0.7790
1920.056653 0.7760 0.7750 0.7750 0.7760 0.7780
1923.360097 0.7790 0.7850 0.7900 0.7960 0.8010
1926.663541 0.8020 0.8020 0.8030 0.8030 0.8040
1929.966985 0.8040 0.8050 0.8050 0.8040 0.8040
1933.270429 0.8040 0.8040 0.8030 0.8020 0.8000
1936.573873 0.7980 0.7960 0.7940 0.7920 0.7900
1939.877317 0.7900 0.7890 0.7880 0.7890 0.7900
1943.180762 0.7950 0.8000 0.8050 0.8090 0.8130
1946.484206 0.8170 0.8210 0.8240 0.8270 0.8300
1949.787650 0.8330 0.8340 0.8360 0.8380 0.8390
1953.091094 0.8400 0.8400 0.8410 0.8410 0.8410
1956.394538 0.8410 0.8410 0.8410 0.8410 0.8400
1959.697982 0.8400 0.8400 0.8380 0.8380 0.8370
1963.001426 0.8360 0.8360 0.8360 0.8350 0.8350
1966.304870 0.8350 0.8360 0.8370 0.8380 0.8390
1969.608315 0.8400 0.8400 0.8410 0.8420 0.8420
1972.911759 0.8430 0.8440 0.8440 0.8450 0.8460
1976.215203 0.8460 0.8460 0.8460 0.8470 0.8470
1979.518647 0.8480 0.8480 0.8480 0.8480 0.8490
1982.822091 0.8490 0.8490 0.8500 0.8500 0.8500
1986.125535 0.8500 0.8500 0.8500 0.8500 0.8500
1989.428979 0.8500 0.8500 0.8500 0.8500 0.8500
1992.732424 0.8500 0.8500 0.8500 0.8490 0.8490
1996.035868 0.8490 0.8490 0.8490 0.8480 0.8480
1999.339312 0.8480 0.8480 0.8480 0.8480 0.8480
2002.642756 0.8480 0.8480 0.8480 0.8480 0.8480
2005.946200 0.8477 0.8475 0.8472 0.8470 0.8470
2009.249644 0.8470 0.8470 0.8470 0.8470 0.8470
2012.553088 0.8470 0.8469 0.8467 0.8464 0.8462
2015.856532 0.8460 0.8460 0.8460 0.8460 0.8460
2019.159977 0.8460 0.8460 0.8460 0.8460 0.8460
2022.463421 0.8460 0.8460 0.8460 0.8460 0.8460
2025.766865 0.8460 0.8458 0.8456 0.8453 0.8451
2029.070309 0.8450 0.8450 0.8450 0.8450 0.8450
2032.373753 0.8450 0.8450 0.8450 0.8448 0.8445
2035.677197 0.8443 0.8440 0.8440 0.8440 0.8440
2038.980641 0.8440 0.8440 0.8440 0.8440 0.8440
2042.284086 0.8440 0.8440 0.8440 0.8440 0.8440
2045.587530 0.8440 0.8440 0.8440 0.8437 0.8434
2048.890974 0.8432 0.8430 0.8430 0.8430 0.8430
2052.194418 0.8429 0.8427 0.8424 0.8421 0.8420
2055.497862 0.8420 0.8420 0.8420 0.8420 0.8420
2058.801306 0.8420 0.8420 0.8420 0.8420 0.8420
2062.104750 0.8420 0.8420 0.8420 0.8420 0.8420
2065.408194 0.8420 0.8420 0.8420 0.8420 0.8418
2068.711639 0.8416 0.8413 0.8410 0.8410 0.8410
2072.015083 0.8410 0.8410 0.8410 0.8410 0.8410
2075.318527 0.8410 0.8408 0.8405 0.8402 0.8400
2078.621971 0.8400 0.8400 0.8400 0.8400 0.8400
2081.925415 0.8400 0.8400 0.8400 0.8397 0.8394
2085.228859 0.8392 0.8390 0.8390 0.8390 0.8390
2088.532303 0.8389 0.8387 0.8384 0.8382 0.8380
2091.835747 0.8380 0.8380 0.8380 0.8379 0.8376
2095.139192 0.8374 0.8371 0.8369 0.8366 0.8364
2098.442636 0.8361 0.8359 0.8356 0.8353 0.8351
2101.746080 0.8348 0.8346 0.8343 0.8341 0.8340
2105.049524 0.8340 0.8340 0.8340 0.8338 0.8335
2108.352968 0.8333 0.8330 0.8328 0.8325 0.8323
2111.656412 0.8320 0.8318 0.8315 0.8313 0.8310
2114.959856 0.8310 0.8310 0.8310 0.8310 0.8305
2118.263301 0.8300 0.8294 0.8290 0.8287 0.8285
2121.566745 0.8282 0.8280 0.8280 0.8280 0.8280
2124.870189 0.8279 0.8277 0.8274 0.8272 0.8270
2128.173633 0.8270 0.8270 0.8270 0.8270 0.8270
2131.477077 0.8270 0.8270 0.8270 0.8270 0.8270
2134.780521 0.8270 0.8269 0.8266 0.8264 0.8261
2138.083965 0.8258 0.8256 0.8253 0.8251 0.8250
2141.387409 0.8250 0.8250 0.8250 0.8250 0.8250
2144.690854 0.8250 0.8250 0.8250 0.8250 0.8250
2147.994298 0.8250 0.8252 0.8255 0.8257 0.8260
2151.297742 0.8260 0.8260 0.8260 0.8260 0.8260
2154.601186 0.8260 0.8260 0.8260 0.8260 0.8260
2157.904630 0.8260 0.8260 0.8263 0.8266 0.8268
2161.208074 0.8270 0.8270 0.8270 0.8270 0.8270
2164.511518 0.8270 0.8270 0.8270 0.8270 0.8270
2167.814963 0.8270 0.8270 0.8270 0.8270 0.8270
2171.118407 0.8270 0.8270 0.8270 0.8270 0.8270
2174.421851 0.8271 0.8274 0.8277 0.8279 0.8282
2177.725295 0.8284 0.8287 0.8289 0.8290 0.8290
2181.028739 0.8290 0.8290 0.8290 0.8290 0.8290
2184.332183 0.8290 0.8292 0.8295 0.8297 0.8300
2187.635627 0.8300 0.8300 0.8300 0.8300 0.8303
2190.939071 0.8305 0.8308 0.8310 0.8310 0.8310
2194.242516 0.8310 0.8310 0.8310 0.8310 0.8310
2197.545960 0.8310 0.8313 0.8316 0.8318 0.8321
2200.849404 0.8323 0.8326 0.8328 0.8330 0.8330
2204.152848 0.8330 0.8330 0.8330 0.8330 0.8330
2207.456292 0.8330 0.8334 0.8341 0.8349 0.8357
2210.759736 0.8360 0.8360 0.8360 0.8360 0.8362
2214.063180 0.8364 0.8367 0.8369 0.8372 0.8374
2217.366624 0.8377 0.8379 0.8380 0.8380 0.8380
2220.670069 0.8380 0.8382 0.8385 0.8387 0.8390
2223.973513 0.8392 0.8395 0.8397 0.8400 0.8400
2227.276957 0.8400 0.8400 0.8400 0.8400 0.8400
2230.580401 0.8400 0.8400 0.8403 0.8405 0.8408
2233.883845 0.8410 0.8413 0.8416 0.8418 0.8420
2237.187289 0.8420 0.8420 0.8420 0.8421 0.8423
2240.490733 0.8426 0.8428 0.8431 0.8433 0.8436
2243.794178 0.8439 0.8440 0.8440 0.8440 0.8440
2247.097622 0.8441 0.8444 0.8446 0.8449 0.8450
2250.401066 0.8450 0.8450 0.8450 0.8450 0.8450
2253.704510 0.8450 0.8450 0.8450 0.8450 0.8450
2257.007954 0.8450 0.8448 0.8446 0.8443 0.8440
2260.311398 0.8440 0.8440 0.8440 0.8440 0.8440
2263.614842 0.8440 0.8440 0.8440 0.8440 0.8440
2266.918286 0.8440 0.8440 0.8440 0.8440 0.8440
2270.221731 0.8440 0.8437 0.8435 0.8432 0.8430
2273.525175 0.8427 0.8424 0.8422 0.8420 0.8420
2276.828619 0.8420 0.8420 0.8420 0.8420 0.8420
2280.132063 0.8420 0.8420 0.8420 0.8420 0.8420
2283.435507 0.8420 0.8420 0.8420 0.8420 0.8420
2286.738951 0.8420 0.8420 0.8420 0.8417 0.8412
2290.042395 0.8407 0.8402 0.8400 0.8400 0.8400
2293.345840 0.8400 0.8400 0.8400 0.8400 0.8400
2296.649284 0.8400 0.8400 0.8400 0.8400 0.8400
2299.952728 0.8400 0.8400 0.8400 0.8398 0.8395
2303.256172 0.8393 0.8390 0.8387 0.8385 0.8382
2306.559616 0.8380 0.8380 0.8380 0.8380 0.8380
2309.863060 0.8380 0.8380 0.8380 0.8380 0.8380
2313.166504 0.8380 0.8380 0.8380 0.8380 0.8380
2316.469948 0.8380 0.8380 0.8380 0.8380 0.8380
2319.773393 0.8380 0.8380 0.8380 0.8380 0.8380
2323.076837 0.8380 0.8380 0.8380 0.8381 0.8384
2326.380281 0.8386 0.8389 0.8390 0.8390 0.8390
2329.683725 0.8390 0.8392 0.8394 0.8397 0.8399
2332.987169 0.8400 0.8400 0.8400 0.8400 0.8400
2336.290613 0.8400 0.8400 0.8400 0.8400 0.8400
2339.594057 0.8400 0.8400 0.8403 0.8405 0.8408
2342.897501 0.8410 0.8410 0.8410 0.8410 0.8410
2346.200946 0.8413 0.8415 0.8418 0.8420 0.8420
2349.504390 0.8420 0.8420 0.8421 0.8423 0.8426
2352.807834 0.8428 0.8430 0.8430 0.8430 0.8430
2356.111278 0.8431 0.8433 0.8436 0.8439 0.8440
2359.414722 0.8440 0.8440 0.8440 0.8440 0.8440
2362.718166 0.8440 0.8440 0.8440 0.8440 0.8440
2366.021610 0.8440 0.8442 0.8444 0.8447 0.8449
2369.325055 0.8450 0.8450 0.8450 0.8450 0.8450
2372.628499 0.8450 0.8450 0.8450 0.8452 0.8455
2375.931943 0.8457 0.8460 0.8460 0.8460 0.8460
2379.235387 0.8460 0.8460 0.8460 0.8460 0.8460
2382.538831 0.8460 0.8460 0.8460 0.8460 0.8460
2385.842275 0.8460 0.8460 0.8460 0.8460 0.8460
2389.145719 0.8460 0.8460 0.8460 0.8460 0.8460
2392.449163 0.8460 0.8460 0.8460 0.8460 0.8461
2395.752608 0.8464 0.8466 0.8469 0.8471 0.8474
2399.056052 0.8476 0.8479 0.8481 0.8484 0.8486
2402.359496 0.8489 0.8490 0.8490 0.8490 0.8490
2405.662940 0.8492 0.8494 0.8497 0.8499 0.8500
2408.966384 0.8500 0.8500 0.8500 0.8502 0.8505
2412.269828 0.8507 0.8510 0.8512 0.8515 0.8517
2415.573272 0.8520 0.8520 0.8520 0.8520 0.8520
2418.876717 0.8520 0.8520 0.8520 0.8520 0.8523
2422.180161 0.8525 0.8528 0.8530 0.8533 0.8536
2425.483605 0.8538 0.8541 0.8543 0.8546 0.8548
2428.787049 0.8551 0.8553 0.8556 0.8558 0.8561
2432.090493 0.8563 0.8566 0.8569 0.8570 0.8570
2435.393937 0.8570 0.8570 0.8573 0.8578 0.8583
2438.697381 0.8588 0.8591 0.8594 0.8597 0.8599
2442.000825 0.8602 0.8604 0.8607 0.8609 0.8612
2445.304270 0.8614 0.8617 0.8619 0.8620 0.8620
2448.607714 0.8620 0.8620 0.8622 0.8625 0.8627
2451.911158 0.8630 0.8630 0.8630 0.8630 0.8630
2455.214602 0.8630 0.8630 0.8630 0.8630 0.8630
2458.518046 0.8630 0.8630 0.8630 0.8630 0.8630
2461.821490 0.8630 0.8630 0.8630 0.8630 0.8630
2465.124934 0.8630 0.8630 0.8630 0.8630 0.8629
2468.428379 0.8627 0.8624 0.8621 0.8620 0.8620
2471.731823 0.8620 0.8620 0.8619 0.8616 0.8614
2475.035267 0.8611 0.8610 0.8610 0.8610 0.8610
2478.338711 0.8608 0.8606 0.8603 0.8601 0.8598
2481.642155 0.8596 0.8593 0.8591 0.8590 0.8590
2484.945599 0.8590 0.8590 0.8588 0.8585 0.8583
2488.249043 0.8580 0.8578 0.8575 0.8573 0.8570
2491.552487 0.8568 0.8565 0.8562 0.8560 0.8555
2494.855932 0.8550 0.8545 0.8539 0.8534 0.8529
2498.159376 0.8524 0.8519 0.8514 0.8509 0.8504
2501.462820 0.8499 0.8497 0.8494 0.8492 0.8490
2504.766264 0.8490 0.8490 0.8490 0.8489 0.8487
2508.069708 0.8484 0.8481 0.8480 0.8480 0.8480
2511.373152 0.8480 0.8480 0.8480 0.8480 0.8480
2514.676596 0.8483 0.8488 0.8493 0.8498 0.8500
2517.980040 0.8500 0.8500 0.8500 0.8502 0.8504
2521.283485 0.8507 0.8509 0.8514 0.8519 0.8524
2524.586929 0.8529 0.8534 0.8539 0.8545 0.8550
2527.890373 0.8555 0.8560 0.8565 0.8570 0.8573
2531.193817 0.8575 0.8578 0.8580 0.8583 0.8585
2534.497261 0.8588 0.8590 0.8590 0.8590 0.8590
2537.800705 0.8590 0.8593 0.8596 0.8598 0.8600
2541.104149 0.8600 0.8600 0.8600 0.8601 0.8603
2544.407594 0.8606 0.8608 0.8609 0.8606 0.8604
2547.711038 0.8601 0.8600 0.8600 0.8600 0.8600
2551.014482 0.8599 0.8596 0.8594 0.8591 0.8590
2554.317926 0.8590 0.8590 0.8590 0.8590 0.8590
2557.621370 0.8590 0.8590 0.8586 0.8581 0.8576
2560.924814 0.8571 0.8566 0.8561 0.8556 0.8551
2564.228258 0.8546 0.8541 0.8535 0.8530 0.8528
2567.531702 0.8525 0.8523 0.8520 0.8520 0.8520
2570.835147 0.8520 0.8519 0.8514 0.8509 0.8504
2574.138591 0.8500 0.8500 0.8500 0.8500 0.8499
2577.442035 0.8497 0.8494 0.8492 0.8490 0.8490
2580.745479 0.8490 0.8490 0.8489 0.8487 0.8484
2584.048923 0.8481 0.8479 0.8476 0.8474 0.8471
2587.352367 0.8466 0.8459 0.8451 0.8443 0.8434
2590.655811 0.8424 0.8414 0.8404 0.8397 0.8392
2593.959256 0.8387 0.8382 0.8378 0.8376 0.8373
2597.262700 0.8371 0.8368 0.8365 0.8363 0.8360
2600.566144 0.8362 0.8365 0.8367 0.8370 0.8372
2603.869588 0.8375 0.8377 0.8380 0.8380 0.8380
2607.173032 0.8380 0.8380 0.8388 0.8396 0.8403
2610.476476 0.8411 0.8418 0.8426 0.8434 0.8442
2613.779920 0.8452 0.8462 0.8472 0.8482 0.8489
2617.083364 0.8497 0.8505 0.8512 0.8520 0.8527
2620.386809 0.8535 0.8542 0.8547 0.8552 0.8557
2623.690253 0.8561 0.8564 0.8566 0.8569 0.8571
2626.993697 0.8574 0.8576 0.8579 0.8580 0.8580
2630.297141 0.8580 0.8580 0.8580 0.8580 0.8580
2633.600585 0.8580 0.8578 0.8576 0.8573 0.8571
2636.904029 0.8560 0.8547 0.8535 0.8522 0.8516
2640.207473 0.8511 0.8505 0.8500 0.8486 0.8471
2643.510917 0.8456 0.8440 0.8428 0.8415 0.8402
2646.814362 0.8389 0.8377 0.8364 0.8351 0.8338
2650.117806 0.8325 0.8313 0.8300 0.8288 0.8281
2653.421250 0.8273 0.8265 0.8259 0.8253 0.8248
2656.724694 0.8243 0.8239 0.8237 0.8234 0.8231
2660.028138 0.8228 0.8223 0.8218 0.8213 0.8210
2663.331582 0.8210 0.8210 0.8210 0.8210 0.8210
2666.635026 0.8210 0.8210 0.8213 0.8218 0.8223
2669.938471 0.8228 0.8232 0.8234 0.8237 0.8239
2673.241915 0.8248 0.8258 0.8268 0.8278 0.8286
2676.545359 0.8294 0.8302 0.8309 0.8317 0.8325
2679.848803 0.8332 0.8340 0.8347 0.8355 0.8363
2683.152247 0.8370 0.8373 0.8375 0.8378 0.8380
2686.455691 0.8383 0.8385 0.8388 0.8390 0.8393
2689.759135 0.8396 0.8398 0.8401 0.8403 0.8406
2693.062579 0.8408 0.8411 0.8413 0.8416 0.8418
2696.366024 0.8421 0.8423 0.8426 0.8429 0.8431
2699.669468 0.8434 0.8436 0.8439 0.8440 0.8440
2702.972912 0.8440 0.8440 0.8442 0.8444 0.8447
2706.276356 0.8449 0.8452 0.8454 0.8457 0.8459
2709.579800 0.8460 0.8460 0.8460 0.8460 0.8462
2712.883244 0.8465 0.8467 0.8470 0.8470 0.8470
2716.186688 0.8470 0.8470 0.8470 0.8470 0.8470
2719.490133 0.8470 0.8468 0.8465 0.8462 0.8460
2722.793577 0.8460 0.8460 0.8460 0.8460 0.8460
2726.097021 0.8460 0.8460 0.8460 0.8460 0.8460
2729.400465 0.8460 0.8459 0.8457 0.8454 0.8452
2732.703909 0.8449 0.8447 0.8444 0.8441 0.8439
2736.007353 0.8436 0.8434 0.8431 0.8428 0.8423
2739.310797 0.8417 0.8412 0.8409 0.8406 0.8404
2742.614241 0.8401 0.8397 0.8392 0.8387 0.8382
2745.917686 0.8380 0.8380 0.8380 0.8380 0.8378
2749.221130 0.8376 0.8373 0.8371 0.8370 0.8370
2752.524574 0.8370 0.8370 0.8368 0.8365 0.8363
2755.828018 0.8360 0.8358 0.8355 0.8352 0.8350
2759.131462 0.8347 0.8345 0.8342 0.8340 0.8340
2762.434906 0.8340 0.8340 0.8340 0.8337 0.8335
2765.738350 0.8332 0.8330 0.8330 0.8330 0.8330
2769.041794 0.8330 0.8330 0.8330 0.8330 0.8329
2772.345239 0.8327 0.8324 0.8321 0.8319 0.8316
2775.648683 0.8314 0.8311 0.8310 0.8310 0.8310
2778.952127 0.8310 0.8308 0.8306 0.8303 0.8301
2782.255571 0.8297 0.8292 0.8287 0.8281 0.8278
2785.559015 0.8276 0.8273 0.8271 0.8264 0.8256
2788.862459 0.8249 0.8241 0.8238 0.8235 0.8233
2792.165903 0.8230 0.8225 0.8220 0.8215 0.8210
2795.469348 0.8208 0.8205 0.8202 0.8200 0.8187
2798.772792 0.8174 0.8161 0.8144 0.8080 0.8017
2802.076236 0.7953 0.7886 0.7798 0.7711 0.7623
2805.379680 0.7544 0.7485 0.7427 0.7368 0.7314
2808.683124 0.7269 0.7223 0.7177 0.7133 0.7093
2811.986568 0.7052 0.7012 0.6967 0.6919 0.6871
2815.290012 0.6823 0.6658 0.6391 0.6124 0.5858
2818.593456 0.5726 0.5685 0.5644 0.5604 0.5374
2821.896901 0.5046 0.4718 0.4390 0.4300 0.4300
2825.200345 0.4300 0.4300 0.4498 0.4750 0.5001
2828.503789 0.5252 0.5397 0.5523 0.5650 0.5776
2831.807233 0.5900 0.6025 0.6149 0.6272 0.6351
2835.110677 0.6430 0.6509 0.6585 0.6638 0.6692
2838.414121 0.6745 0.6792 0.6808 0.6823 0.6838
2841.717565 0.6854 0.6875 0.6895 0.6915 0.6931
2845.021010 0.6933 0.6936 0.6938 0.6940 0.6940
2848.324454 0.6940 0.6940 0.6938 0.6933 0.6928
2851.627898 0.6923 0.6907 0.6879 0.6851 0.6823
2854.931342 0.6733 0.6588 0.6444 0.6300 0.6250
2858.234786 0.6250 0.6250 0.6250 0.6372 0.6542
2861.538230 0.6712 0.6882 0.6920 0.6920 0.6920
2864.841674 0.6920 0.6903 0.6883 0.6862 0.6842
2868.145118 0.6819 0.6796 0.6774 0.6751 0.6735
2871.448563 0.6720 0.6705 0.6689 0.6666 0.6644
2874.752007 0.6621 0.6597 0.6564 0.6531 0.6498
2878.055451 0.6440 0.6252 0.6064 0.5876 0.5723
2881.358895 0.5689 0.5656 0.5622 0.5554 0.5416
2884.662339 0.5279 0.5142 0.5060 0.5060 0.5060
2887.965783 0.5060 0.5127 0.5272 0.5417 0.5562
2891.269227 0.5705 0.5848 0.5990 0.6132 0.6124
2894.572671 0.6012 0.5900 0.5788 0.5672 0.5552
2897.876116 0.5433 0.5313 0.5258 0.5228 0.5197
2901.179560 0.5167 0.5102 0.5029 0.4955 0.4881
2904.483004 0.4805 0.4729 0.4653 0.4577 0.4502
2907.786448 0.4427 0.4353 0.4278 0.4202 0.4126
2911.089892 0.4049 0.3980 0.3977 0.3975 0.3972
2914.393336 0.3970 0.3973 0.3975 0.3978 0.3995
2917.696780 0.4066 0.4138 0.4209 0.4287 0.4384
2921.000225 0.4480 0.4577 0.4641 0.4643 0.4646
2924.303669 0.4648 0.4725 0.4911 0.5096 0.5282
2927.607113 0.5386 0.5399 0.5411 0.5424 0.5430
2930.910557 0.5430 0.5430 0.5430 0.5428 0.5426
2934.214001 0.5423 0.5421 0.5418 0.5416 0.5413
2937.517445 0.5411 0.5367 0.5311 0.5255 0.5199
2940.820889 0.5045 0.4872 0.4700 0.4527 0.4462
2944.124333 0.4409 0.4355 0.4302 0.4256 0.4210
2947.427778 0.4164 0.4117 0.4015 0.3914 0.3812
2950.731222 0.3701 0.3495 0.3289 0.3084 0.2910
2954.034666 0.2910 0.2910 0.2910 0.2925 0.2994
2957.338110 0.3062 0.3131 0.3199 0.3266 0.3333
2960.641554 0.3400 0.3494 0.3628 0.3763 0.3898
2963.944998 0.3971 0.3974 0.3976 0.3979 0.4099
2967.248442 0.4325 0.4551 0.4777 0.5002 0.5225
2970.551887 0.5449 0.5672 0.5823 0.5935 0.6046
2973.855331 0.6158 0.6268 0.6377 0.6487 0.6596
2977.158775 0.6620 0.6620 0.6620 0.6620 0.6620
2980.462219 0.6620 0.6620 0.6620 0.6588 0.6552
2983.765663 0.6517 0.6481 0.6463 0.6445 0.6426
2987.069107 0.6407 0.6369 0.6331 0.6292 0.6258
2990.372551 0.6245 0.6233 0.6220 0.6204 0.6176
2993.675995 0.6148 0.6120 0.6078 0.5996 0.5915
2996.979440 0.5834 0.5758 0.5692 0.5626 0.5559
3000.282884 0.5492 0.5424 0.5355 0.5287 0.5223
3003.586328 0.5164 0.5106 0.5048 0.5020 0.5020
3006.889772 0.5020 0.5020 0.5023 0.5028 0.5033
3010.193216 0.5038 0.5057 0.5083 0.5108 0.5134
3013.496660 0.5185 0.5243 0.5302 0.5360 0.5451
3016.800104 0.5547 0.5644 0.5740 0.5812 0.5880
3020.103548 0.5949 0.6017 0.6088 0.6160 0.6231
3023.406993 0.6301 0.6344 0.6387 0.6431 0.6470
3026.710437 0.6473 0.6475 0.6478 0.6480 0.6480
3030.013881 0.6480 0.6480 0.6477 0.6461 0.6446
3033.317325 0.6431 0.6386 0.6264 0.6142 0.6020
3036.620769 0.5940 0.5940 0.5940 0.5940 0.5956
3039.924213 0.5992 0.6027 0.6063 0.6097 0.6130
3043.227657 0.6163 0.6196 0.6271 0.6375 0.6479
3046.531102 0.6583 0.6714 0.6859 0.7003 0.7148
3049.834546 0.7190 0.7190 0.7190 0.7190 0.7178
3053.137990 0.7163 0.7148 0.7132 0.7115 0.7097
3056.441434 0.7080 0.7062 0.7049 0.7036 0.7023
3059.744878 0.7010 0.7010 0.7010 0.7010 0.7010
3063.048322 0.7023 0.7036 0.7049 0.7063 0.7080
3066.351766 0.7098 0.7116 0.7136 0.7164 0.7192
3069.655210 0.7220 0.7247 0.7272 0.7298 0.7323
3072.958655 0.7351 0.7384 0.7417 0.7450 0.7469
3076.262099 0.7466 0.7464 0.7461 0.7455 0.7445
3079.565543 0.7435 0.7425 0.7403 0.7370 0.7337
3082.868987 0.7304 0.7262 0.7213 0.7165 0.7117
3086.172431 0.7035 0.6936 0.6837 0.6738 0.6675
3089.475875 0.6626 0.6577 0.6528 0.6509 0.6497
3092.779319 0.6484 0.6471 0.6470 0.6470 0.6470
3096.082764 0.6470 0.6497 0.6525 0.6553 0.6581
3099.386208 0.6650 0.6719 0.6787 0.6856 0.6922
3102.689652 0.6988 0.7054 0.7114 0.7142 0.7170
3105.993096 0.7198 0.7225 0.7248 0.7271 0.7293
3109.296540 0.7315 0.7333 0.7350 0.7368 0.7385
3112.599984 0.7400 0.7416 0.7431 0.7462 0.7516
3115.903428 0.7570 0.7624 0.7671 0.7712 0.7752
3119.206872 0.7793 0.7829 0.7862 0.7895 0.7928
3122.510317 0.7956 0.7982 0.8007 0.8033 0.8056
3125.813761 0.8079 0.8102 0.8125 0.8140 0.8153
3129.117205 0.8165 0.8178 0.8186 0.8194 0.8202
3132.420649 0.8209 0.8219 0.8229 0.8239 0.8250
3135.724093 0.8255 0.8260 0.8265 0.8270 0.8275
3139.027537 0.8280 0.8285 0.8291 0.8298 0.8306
3142.330981 0.8314 0.8321 0.8326 0.8331 0.8336
3145.634425 0.8341 0.8346 0.8352 0.8357 0.8362
3148.937870 0.8367 0.8372 0.8377 0.8382 0.8387
3152.241314 0.8392 0.8397 0.8402 0.8407 0.8412
3155.544758 0.8418 0.8421 0.8424 0.8426 0.8429
3158.848202 0.8431 0.8434 0.8437 0.8439 0.8442
3162.151646 0.8444 0.8447 0.8449 0.8450 0.8450
3165.455090 0.8450 0.8450 0.8452 0.8455 0.8457
3168.758534 0.8460 0.8460 0.8460 0.8460 0.8460
3172.061979 0.8460 0.8460 0.8460 0.8460 0.8460
3175.365423 0.8460 0.8460 0.8460 0.8460 0.8460
3178.668867 0.8460 0.8460 0.8457 0.8455 0.8452
3181.972311 0.8449 0.8447 0.8444 0.8442 0.8439
3185.275755 0.8437 0.8434 0.8432 0.8429 0.8427
3188.579199 0.8424 0.8422 0.8419 0.8416 0.8414
3191.882643 0.8411 0.8409 0.8406 0.8404 0.8401
3195.186087 0.8400 0.8400 0.8400 0.8400 0.8397
3198.489532 0.8392 0.8387 0.8382 0.8378 0.8376
3201.792976 0.8373 0.8371 0.8368 0.8366 0.8363
3205.096420 0.8360 0.8356 0.8351 0.8346 0.8341
3208.399864 0.8338 0.8335 0.8333 0.8330 0.8330
3211.703308 0.8330 0.8330 0.8330 0.8333 0.8335
3215.006752 0.8338 0.8340 0.8340 0.8340 0.8340
3218.310196 0.8342 0.8352 0.8362 0.8372 0.8380
3221.613641 0.8380 0.8380 0.8380 0.8383 0.8393
3224.917085 0.8404 0.8414 0.8424 0.8434 0.8444
3228.220529 0.8454 0.8467 0.8482 0.8497 0.8513
3231.523973 0.8523 0.8528 0.8533 0.8538 0.8544
3234.827417 0.8552 0.8560 0.8567 0.8572 0.8574
3238.130861 0.8577 0.8579 0.8582 0.8584 0.8587
3241.434305 0.8589 0.8590 0.8590 0.8590 0.8590
3244.737749 0.8590 0.8590 0.8590 0.8590 0.8590
3248.041194 0.8590 0.8590 0.8590 0.8590 0.8590
3251.344638 0.8590 0.8590 0.8585 0.8579 0.8574
3254.648082 0.8569 0.8564 0.8559 0.8554 0.8549
3257.951526 0.8547 0.8544 0.8542 0.8537 0.8527
3261.254970 0.8517 0.8507 0.8495 0.8480 0.8464
3264.558414 0.8449 0.8432 0.8412 0.8391 0.8371
3267.861858 0.8352 0.8334 0.8316 0.8299 0.8282
3271.165302 0.8267 0.8251 0.8236 0.8222 0.8209
3274.468747 0.8197 0.8184 0.8178 0.8176 0.8173
3277.772191 0.8171 0.8168 0.8166 0.8163 0.8160
3281.075635 0.8162 0.8165 0.8167 0.8170 0.8177
3284.379079 0.8184 0.8192 0.8200 0.8205 0.8210
3287.682523 0.8215 0.8220 0.8236 0.8251 0.8266
3290.985967 0.8281 0.8288 0.8296 0.8303 0.8311
3294.289411 0.8316 0.8321 0.8326 0.8332 0.8339
3297.592856 0.8347 0.8355 0.8361 0.8363 0.8366
3300.896300 0.8368 0.8370 0.8370 0.8370 0.8370
3304.199744 0.8370 0.8370 0.8370 0.8370 0.8369
3307.503188 0.8366 0.8364 0.8361 0.8359 0.8356
3310.806632 0.8353 0.8351 0.8348 0.8346 0.8343
3314.110076 0.8341 0.8338 0.8336 0.8333 0.8331
3317.413520 0.8330 0.8330 0.8330 0.8330 0.8324
3320.716964 0.8316 0.8308 0.8301 0.8293 0.8285
3324.020409 0.8278 0.8270 0.8265 0.8260 0.8255
3327.323853 0.8249 0.8234 0.8218 0.8203 0.8187
3330.627297 0.8164 0.8141 0.8118 0.8095 0.8070
3333.930741 0.8044 0.8019 0.7992 0.7961 0.7931
3337.234185 0.7901 0.7869 0.7836 0.7803 0.7770
3340.537629 0.7735 0.7697 0.7659 0.7621 0.7583
3343.841073 0.7545 0.7507 0.7468 0.7432 0.7396
3347.144518 0.7360 0.7325 0.7286 0.7245 0.7204
3350.447962 0.7163 0.7127 0.7094 0.7061 0.7028
3353.751406 0.6995 0.6962 0.6929 0.6896 0.6696
3357.054850 0.6459 0.6223 0.5987 0.5600 0.5193
3360.358294 0.4787 0.4380 0.4097 0.3820 0.3543
3363.661738 0.3269 0.3157 0.3045 0.2933 0.2822
3366.965182 0.2721 0.2619 0.2517 0.2416 0.2314
3370.268626 0.2213 0.2111 0.2009 0.1908 0.1806
3373.572071 0.1704 0.1603 0.1503 0.1402 0.1302
3376.875515 0.1239 0.1236 0.1234 0.1231 0.1231
3380.178959 0.1234 0.1236 0.1239 0.1294 0.1401
3383.482403 0.1508 0.1614 0.1723 0.1832 0.1941
3386.785847 0.2050 0.2159 0.2269 0.2378 0.2487
3390.089291 0.2628 0.2783 0.2938 0.3093 0.3248
3393.392735 0.3403 0.3558 0.3713 0.3742 0.3745
3396.696179 0.3747 0.3750 0.3804 0.3865 0.3926
3399.999624 0.3987 0.4051 0.4116 0.4180 0.4244
3403.303068 0.4302 0.4361 0.4419 0.4478 0.4542
3406.606512 0.4605 0.4669 0.4732 0.4793 0.4854
3409.909956 0.4915 0.4974 0.5030 0.5086 0.5142
3413.213400 0.5189 0.5217 0.5245 0.5273 0.5343
3416.516844 0.5480 0.5617 0.5755 0.5885 0.6007
3419.820288 0.6129 0.6251 0.6373 0.6495 0.6616
3423.123733 0.6738 0.6841 0.6930 0.7019 0.7108
3426.427177 0.7222 0.7351 0.7480 0.7608 0.7661
3429.730621 0.7689 0.7717 0.7745 0.7775 0.7805
3433.034065 0.7836 0.7866 0.7895 0.7923 0.7950
3436.337509 0.7978 0.8004 0.8029 0.8055 0.8080
3439.640953 0.8093 0.8105 0.8118 0.8131 0.8146
3442.944397 0.8162 0.8177 0.8190 0.8193 0.8195
3446.247841 0.8198 0.8200 0.8203 0.8206 0.8208
3449.551286 0.8209 0.8204 0.8199 0.8193 0.8186
3452.854730 0.8173 0.8160 0.8147 0.8131 0.8111
3456.158174 0.8090 0.8070 0.8050 0.8029 0.8009
3459.461618 0.7989 0.7980 0.7980 0.7980 0.7980
3462.765062 0.7978 0.7976 0.7973 0.7971 0.7972
3466.068506 0.7974 0.7977 0.7979 0.7980 0.7980
3469.371950 0.7980 0.7980 0.7993 0.8008 0.8023
3472.675395 0.8038 0.8056 0.8074 0.8091 0.8109
3475.978839 0.8124 0.8140 0.8155 0.8170 0.8175
3479.282283 0.8180 0.8186 0.8190 0.8193 0.8195
3482.585727 0.8198 0.8200 0.8197 0.8194 0.8192
3485.889171 0.8190 0.8190 0.8190 0.8190 0.8186
3489.192615 0.8173 0.8161 0.8148 0.8134 0.8119
3492.496059 0.8104 0.8088 0.8073 0.8058 0.8043
3495.799503 0.8028 0.8001 0.7963 0.7924 0.7886
3499.102948 0.7847 0.7806 0.7765 0.7725 0.7692
3502.406392 0.7664 0.7636 0.7608 0.7598 0.7596
3505.709836 0.7593 0.7590 0.7588 0.7585 0.7583
3509.013280 0.7580 0.7582 0.7585 0.7587 0.7590
3512.316724 0.7604 0.7620 0.7635 0.7650 0.7676
3515.620168 0.7701 0.7726 0.7753 0.7793 0.7834
3518.923612 0.7875 0.7914 0.7942 0.7970 0.7998
3522.227056 0.8031 0.8090 0.8148 0.8207 0.8256
3525.530501 0.8279 0.8302 0.8325 0.8347 0.8367
3528.833945 0.8387 0.8408 0.8426 0.8441 0.8457
3532.137389 0.8472 0.8485 0.8495 0.8505 0.8516
3535.440833 0.8526 0.8536 0.8546 0.8556 0.8563
3538.744277 0.8568 0.8573 0.8578 0.8582 0.8584
3542.047721 0.8587 0.8589 0.8592 0.8594 0.8597
3545.351165 0.8600 0.8602 0.8605 0.8607 0.8610
3548.654610 0.8610 0.8610 0.8610 0.8610 0.8610
3551.958054 0.8610 0.8610 0.8610 0.8613 0.8615
3555.261498 0.8618 0.8620 0.8623 0.8625 0.8628
3558.564942 0.8631 0.8636 0.8641 0.8646 0.8650
3561.868386 0.8650 0.8650 0.8650 0.8650 0.8650
3565.171830 0.8650 0.8650 0.8651 0.8654 0.8656
3568.475274 0.8659 0.8660 0.8660 0.8660 0.8660
3571.778718 0.8661 0.8664 0.8666 0.8669 0.8670
3575.082163 0.8670 0.8670 0.8670 0.8670 0.8670
3578.385607 0.8670 0.8670 0.8672 0.8674 0.8677
3581.689051 0.8679 0.8680 0.8680 0.8680 0.8680
3584.992495 0.8682 0.8685 0.8687 0.8690 0.8690
3588.295939 0.8690 0.8690 0.8690 0.8690 0.8690
3591.599383 0.8690 0.8690 0.8693 0.8695 0.8698
3594.902827 0.8700 0.8700 0.8700 0.8700 0.8700
3598.206272 0.8700 0.8700 0.8700 0.8701 0.8703
3601.509716 0.8706 0.8708 0.8710 0.8710 0.8710
3604.813160 0.8710 0.8710 0.8710 0.8710 0.8710
3608.116604 0.8711 0.8714 0.8716 0.8719 0.8721
3611.420048 0.8724 0.8727 0.8729 0.8730 0.8730
3614.723492 0.8730 0.8730 0.8730 0.8730 0.8730
3618.026936 0.8730 0.8730 0.8730 0.8730 0.8730
3621.330380 0.8730 0.8730 0.8730 0.8730 0.8730
3624.633825 0.8730 0.8730 0.8730 0.8730 0.8730
3627.937269 0.8730 0.8730 0.8730 0.8730 0.8730
3631.240713 0.8730 0.8730 0.8730 0.8730 0.8730
3634.544157 0.8733 0.8735 0.8738 0.8740 0.8740
3637.847601 0.8740 0.8740 0.8740 0.8740 0.8740
3641.151045 0.8740 0.8741 0.8743 0.8746 0.8749
3644.454489 0.8750 0.8750 0.8750 0.8750 0.8750
3647.757933 0.8750 0.8750 0.8750 0.8749 0.8746
3651.061378 0.8743 0.8741 0.8740 0.8740 0.8740
3654.364822 0.8740 0.8740 0.8740 0.8740 0.8740
3657.668266 0.8740 0.8740 0.8740 0.8740 0.8740
3660.971710 0.8740 0.8740 0.8740 0.8738 0.8735
3664.275154 0.8733 0.8730 0.8730 0.8730 0.8730
3667.578598 0.8730 0.8730 0.8730 0.8730 0.8730
3670.882042 0.8730 0.8730 0.8730 0.8730 0.8730
3674.185487 0.8730 0.8730 0.8729 0.8727 0.8724
3677.488931 0.8722 0.8719 0.8717 0.8714 0.8712
3680.792375 0.8710 0.8710 0.8710 0.8710 0.8710
3684.095819 0.8710 0.8710 0.8710 0.8709 0.8706
3687.399263 0.8704 0.8701 0.8698 0.8696 0.8693
3690.702707 0.8691 0.8690 0.8690 0.8690 0.8690
3694.006151 0.8688 0.8686 0.8683 0.8680 0.8680
3697.309595 0.8680 0.8680 0.8680 0.8678 0.8675
3700.613040 0.8673 0.8670 0.8670 0.8670 0.8670
3703.916484 0.8670 0.8670 0.8670 0.8670 0.8670
3707.219928 0.8670 0.8670 0.8670 0.8670 0.8670
3710.523372 0.8670 0.8670 0.8670 0.8670 0.8670
3713.826816 0.8670 0.8669 0.8667 0.8664 0.8662
3717.130260 0.8660 0.8660 0.8660 0.8660 0.8660
3720.433704 0.8660 0.8660 0.8660 0.8660 0.8660
3723.737149 0.8660 0.8660 0.8660 0.8660 0.8660
3727.040593 0.8660 0.8660 0.8660 0.8660 0.8660
3730.344037 0.8662 0.8664 0.8667 0.8669 0.8670
3733.647481 0.8670 0.8670 0.8670 0.8670 0.8670
3736.950925 0.8670 0.8670 0.8670 0.8670 0.8670
3740.254369 0.8670 0.8670 0.8670 0.8670 0.8670
3743.557813 0.8670 0.8670 0.8670 0.8670 0.8673
3746.861257 0.8675 0.8678 0.8680 0.8680 0.8680
3750.164702 0.8680 0.8681 0.8683 0.8686 0.8688
3753.468146 0.8691 0.8693 0.8696 0.8698 0.8701
3756.771590 0.8703 0.8706 0.8709 0.8710 0.8710
3760.075034 0.8710 0.8710 0.8710 0.8710 0.8710
3763.378478 0.8710 0.8710 0.8710 0.8710 0.8710
3766.681922 0.8712 0.8714 0.8717 0.8719 0.8720
3769.985366 0.8720 0.8720 0.8720 0.8720 0.8720
3773.288810 0.8720 0.8720 0.8720 0.8720 0.8720
3776.592255 0.8720 0.8720 0.8720 0.8720 0.8720
3779.895699 0.8717 0.8715 0.8712 0.8710 0.8710
3783.199143 0.8710 0.8710 0.8710 0.8710 0.8710
3786.502587 0.8710 0.8710 0.8707 0.8704 0.8702
3789.806031 0.8700 0.8700 0.8700 0.8700 0.8699
3793.109475 0.8697 0.8694 0.8691 0.8690 0.8690
3796.412919 0.8690 0.8690 0.8690 0.8690 0.8690
3799.716364 0.8690 0.8690 0.8690 0.8690 0.8690
3803.019808 0.8690 0.8690 0.8690 0.8690 0.8690
3806.323252 0.8690 0.8690 0.8690 0.8690 0.8690
3809.626696 0.8690 0.8690 0.8690 0.8690 0.8690
3812.930140 0.8690 0.8690 0.8690 0.8690 0.8690
3816.233584 0.8690 0.8690 0.8690 0.8690 0.8687
3819.537028 0.8685 0.8682 0.8680 0.8680 0.8680
3822.840472 0.8680 0.8680 0.8680 0.8680 0.8680
3826.143917 0.8679 0.8677 0.8674 0.8672 0.8670
3829.447361 0.8670 0.8670 0.8670 0.8670 0.8670
3832.750805 0.8670 0.8670 0.8670 0.8670 0.8670
3836.054249 0.8670 0.8670 0.8670 0.8670 0.8670
3839.357693 0.8670 0.8670 0.8670 0.8670 0.8668
3842.661137 0.8666 0.8663 0.8661 0.8660 0.8660
3845.964581 0.8660 0.8660 0.8660 0.8660 0.8660
3849.268026 0.8660 0.8658 0.8655 0.8653 0.8650
3852.571470 0.8650 0.8650 0.8650 0.8650 0.8650
3855.874914 0.8650 0.8650 0.8650 0.8650 0.8650
3859.178358 0.8650 0.8650 0.8650 0.8650 0.8650
3862.481802 0.8650 0.8650 0.8650 0.8650 0.8649
3865.785246 0.8647 0.8644 0.8642 0.8640 0.8640
3869.088690 0.8640 0.8640 0.8639 0.8636 0.8634
3872.392134 0.8631 0.8630 0.8630 0.8630 0.8630
3875.695579 0.8630 0.8630 0.8630 0.8630 0.8630
3878.999023 0.8630 0.8630 0.8630 0.8628 0.8626
3882.302467 0.8623 0.8621 0.8620 0.8620 0.8620
3885.605911 0.8620 0.8618 0.8615 0.8613 0.8610
3888.909355 0.8610 0.8610 0.8610 0.8610 0.8610
3892.212799 0.8610 0.8610 0.8610 0.8610 0.8610
3895.516243 0.8610 0.8609 0.8604 0.8599 0.8594
3898.819687 0.8590 0.8587 0.8584 0.8582 0.8579
3902.123132 0.8574 0.8569 0.8564 0.8560 0.8560
3905.426576 0.8560 0.8560 0.8560 0.8560 0.8560
3908.730020 0.8560 0.8559 0.8556 0.8554 0.8551
3912.033464 0.8550 0.8550 0.8550 0.8550 0.8550
3915.336908 0.8550 0.8550 0.8550 0.8550 0.8550
3918.640352 0.8550 0.8550 0.8550 0.8550 0.8550
3921.943796 0.8550 0.8550 0.8550 0.8550 0.8550
3925.247241 0.8550 0.8550 0.8550 0.8550 0.8550
3928.550685 0.8550 0.8550 0.8550 0.8550 0.8550
3931.854129 0.8550 0.8550 0.8550 0.8550 0.8550
3935.157573 0.8550 0.8550 0.8550 0.8550 0.8550
3938.461017 0.8547 0.8544 0.8542 0.8540 0.8540
3941.764461 0.8540 0.8540 0.8540 0.8540 0.8540
3945.067905 0.8540 0.8540 0.8540 0.8540 0.8540
3948.371349 0.8540 0.8540 0.8540 0.8540 0.8540
3951.674794 0.8540 0.8540 0.8540 0.8538 0.8536
3954.978238 0.8533 0.8531 0.8530 0.8530 0.8530
3958.281682 0.8530 0.8528 0.8526 0.8523 0.8521
3961.585126 0.8520 0.8520 0.8520 0.8520 0.8520
3964.888570 0.8520 0.8520 0.8520 0.8515 0.8510
3968.192014 0.8505 0.8500 0.8500 0.8500 0.8500
3971.495458 0.8500 0.8500 0.8500 0.8500 0.8500
3974.798903 0.8500 0.8500 0.8500 0.8500 0.8500
3978.102347 0.8500 0.8500 0.8500 0.8500 0.8500
3981.405791 0.8500
##END=
