##TITLE=BENZOIC ACID, o-(METHYLAMINO)-,METHYL ESTER
##JCAMP-DX=4.24
##DATA TYPE=INFRARED SPECTRUM
##CLASS=COBLENTZ III
##ORIGIN=ABBOTT LABORATORIES
##OWNER=Copyright (C) 1987 by the Coblentz Society
Collection (C) 2018 copyright by the U.S. Secretary of Commerce
on behalf of the United States of America. All rights reserved.
##DATE=1962/09/05
##NAMES=methyl 2-(methylamino)benzoate
##CAS REGISTRY NO=85-91-6
##MOLFORM=C9 H11 N O2
##SOURCE REFERENCE=COBLENTZ NO. 5324
##$NIST SOURCE=COBLENTZ
##$NIST IMAGE=cob5324
##SPECTROMETER/DATA SYSTEM=PERKIN-ELMER 21 (GRATING)
##INSTRUMENT PARAMETERS=FILTER AT ABOUT 10 MICRONS
$$ SPECTRAL FEATURE AT 1070 CM^-^1 IS PROBABLY AN ARTIFACT CAUSED BY FILTER CHANGE
##STATE=LIQUID (NEAT)
##PATH LENGTH=CAPILLARY
##RESOLUTION=2
##XUNITS=1/CM
##YUNITS=TRANSMITTANCE
##XFACTOR=1.0
##YFACTOR=1
##FIRSTX=665
##LASTX=4000
##FIRSTY=0.62
##MAXX=4000
##MINX=665
##MAXY=0.8679
##MINY=0.0755
##NPOINTS=3336
##XYDATA=(X++(Y..Y))
665.000000 0.6200 0.6515 0.6752 0.6972 0.7056
670.000000 0.7126 0.7184 0.7221 0.7253 0.7321
675.000000 0.7407 0.7421 0.7431 0.7397 0.7421
680.000000 0.7415 0.7408 0.7401 0.7383 0.7365
685.000000 0.7348 0.7330 0.7306 0.7280 0.7256
690.000000 0.7230 0.7189 0.7099 0.6980 0.6840
695.000000 0.6674 0.6470 0.6198 0.5829 0.5461
700.000000 0.5093 0.4745 0.4729 0.5235 0.5766
705.000000 0.6297 0.6684 0.6945 0.7169 0.7306
710.000000 0.7415 0.7492 0.7554 0.7573 0.7586
715.000000 0.7598 0.7611 0.7623 0.7633 0.7634
720.000000 0.7635 0.7635 0.7637 0.7632 0.7626
725.000000 0.7618 0.7611 0.7603 0.7572 0.7537
730.000000 0.7502 0.7467 0.7403 0.7335 0.7242
735.000000 0.7125 0.6997 0.6850 0.6691 0.6280
740.000000 0.5849 0.5419 0.4991 0.4565 0.4139
745.000000 0.3810 0.3551 0.3331 0.3270 0.3273
750.000000 0.3341 0.3416 0.3521 0.3667 0.4062
755.000000 0.4457 0.4852 0.5246 0.5639 0.6031
760.000000 0.6422 0.6904 0.7144 0.7316 0.7475
765.000000 0.7620 0.7729 0.7825 0.7886 0.7942
770.000000 0.7976 0.7989 0.8001 0.8042 0.8026
775.000000 0.8065 0.8125 0.8129 0.8131 0.8126
780.000000 0.8121 0.8096 0.8063 0.8016 0.7969
785.000000 0.7922 0.7867 0.7810 0.7754 0.7707
790.000000 0.7662 0.7618 0.7589 0.7625 0.7663
795.000000 0.7709 0.7768 0.7855 0.7955 0.8051
800.000000 0.8144 0.8224 0.8258 0.8266 0.8271
805.000000 0.8257 0.8275 0.8276 0.8273 0.8270
810.000000 0.8267 0.8261 0.8251 0.8240 0.8229
815.000000 0.8218 0.8203 0.8180 0.8158 0.8136
820.000000 0.8097 0.8043 0.7990 0.7915 0.7832
825.000000 0.7750 0.7603 0.7447 0.7313 0.7181
830.000000 0.7050 0.6925 0.6820 0.6862 0.6958
835.000000 0.7164 0.7500 0.7725 0.7855 0.7892
840.000000 0.7918 0.7941 0.7955 0.7932 0.7970
845.000000 0.7981 0.7998 0.8056 0.8120 0.8188
850.000000 0.8252 0.8317 0.8368 0.8399 0.8416
855.000000 0.8427 0.8445 0.8502 0.8532 0.8511
860.000000 0.8531 0.8531 0.8531 0.8530 0.8530
865.000000 0.8530 0.8529 0.8529 0.8529 0.8528
870.000000 0.8528 0.8528 0.8527 0.8527 0.8527
875.000000 0.8527 0.8526 0.8526 0.8526 0.8525
880.000000 0.8525 0.8525 0.8524 0.8524 0.8524
885.000000 0.8523 0.8523 0.8523 0.8522 0.8522
890.000000 0.8522 0.8521 0.8521 0.8521 0.8520
895.000000 0.8520 0.8520 0.8519 0.8519 0.8519
900.000000 0.8518 0.8518 0.8518 0.8518 0.8517
905.000000 0.8517 0.8517 0.8516 0.8516 0.8516
910.000000 0.8515 0.8515 0.8515 0.8515 0.8514
915.000000 0.8514 0.8514 0.8513 0.8513 0.8512
920.000000 0.8510 0.8507 0.8502 0.8492 0.8482
925.000000 0.8472 0.8459 0.8475 0.8412 0.8398
930.000000 0.8384 0.8372 0.8368 0.8366 0.8363
935.000000 0.8360 0.8358 0.8354 0.8335 0.8317
940.000000 0.8298 0.8275 0.8251 0.8227 0.8202
945.000000 0.8186 0.8177 0.8167 0.8157 0.8154
950.000000 0.8160 0.8166 0.8159 0.8148 0.8138
955.000000 0.8127 0.8110 0.8092 0.8075 0.8059
960.000000 0.8063 0.8054 0.8078 0.8083 0.8090
965.000000 0.8095 0.8101 0.8107 0.8112 0.8122
970.000000 0.8154 0.8211 0.8268 0.8285 0.8298
975.000000 0.8311 0.8324 0.8329 0.8329 0.8328
980.000000 0.8328 0.8328 0.8351 0.8327 0.8322
985.000000 0.8316 0.8308 0.8302 0.8296 0.8289
990.000000 0.8277 0.8265 0.8253 0.8244 0.8241
995.000000 0.8237 0.8234 0.8230 0.8227 0.8223
1000.000000 0.8218 0.8212 0.8206 0.8200 0.8194
1005.000000 0.8187 0.8182 0.8175 0.8169 0.8163
1010.000000 0.8157 0.8148 0.8136 0.8124 0.8113
1015.000000 0.8101 0.8086 0.8072 0.8057 0.8043
1020.000000 0.8028 0.8014 0.8003 0.7993 0.7982
1025.000000 0.7962 0.7914 0.7867 0.7820 0.7762
1030.000000 0.7690 0.7618 0.7546 0.7442 0.7320
1035.000000 0.7163 0.6924 0.6911 0.6897 0.7038
1040.000000 0.7253 0.7434 0.7636 0.7743 0.7791
1045.000000 0.7794 0.7801 0.7788 0.7752 0.7689
1050.000000 0.7623 0.7538 0.7453 0.7363 0.7272
1055.000000 0.7163 0.6978 0.6792 0.6606 0.6421
1060.000000 0.6275 0.6272 0.6269 0.6466 0.6677
1065.000000 0.6887 0.7097 0.7241 0.7249 0.6985
1070.000000 0.6802 0.6816 0.7066 0.7263 0.7256
1075.000000 0.7159 0.7026 0.6893 0.6760 0.6604
1080.000000 0.5976 0.5325 0.4674 0.4026 0.3483
1085.000000 0.3366 0.3363 0.3381 0.4029 0.4624
1090.000000 0.5217 0.5809 0.6401 0.6884 0.7045
1095.000000 0.7181 0.7306 0.7353 0.7353 0.7349
1100.000000 0.7354 0.7327 0.7305 0.7264 0.7181
1105.000000 0.7071 0.6994 0.6936 0.6878 0.6833
1110.000000 0.6768 0.6636 0.6497 0.6320 0.6126
1115.000000 0.5920 0.5651 0.5196 0.4733 0.4270
1120.000000 0.3809 0.3348 0.3119 0.3085 0.3085
1125.000000 0.3171 0.3555 0.3965 0.4374 0.4782
1130.000000 0.5190 0.5596 0.6003 0.6325 0.6491
1135.000000 0.6571 0.6646 0.6688 0.6716 0.6726
1140.000000 0.6721 0.6736 0.6708 0.6699 0.6678
1145.000000 0.6652 0.6603 0.6516 0.6308 0.6041
1150.000000 0.5774 0.5509 0.5243 0.4979 0.4714
1155.000000 0.4450 0.4240 0.4230 0.4269 0.4372
1160.000000 0.4473 0.4534 0.4520 0.4269 0.3944
1165.000000 0.3620 0.3296 0.2973 0.2650 0.2457
1170.000000 0.2475 0.2529 0.3033 0.3538 0.4041
1175.000000 0.4543 0.5045 0.5530 0.5587 0.5594
1180.000000 0.5566 0.5565 0.5448 0.5303 0.5157
1185.000000 0.5034 0.5004 0.5036 0.5123 0.5294
1190.000000 0.5466 0.5638 0.5810 0.5981 0.6153
1195.000000 0.6324 0.6494 0.6658 0.6755 0.6801
1200.000000 0.6816 0.6832 0.6811 0.6808 0.6802
1205.000000 0.6795 0.6784 0.6768 0.6731 0.6690
1210.000000 0.6627 0.6534 0.6402 0.6271 0.6142
1215.000000 0.5996 0.5743 0.5441 0.5139 0.4838
1220.000000 0.4536 0.4235 0.3935 0.3636 0.3336
1225.000000 0.3038 0.2740 0.2476 0.2071 0.1768
1230.000000 0.1484 0.1240 0.1083 0.0952 0.0861
1235.000000 0.0798 0.0771 0.0757 0.0755 0.0762
1240.000000 0.0758 0.0772 0.0827 0.0972 0.1141
1245.000000 0.1310 0.1479 0.1647 0.1803 0.1845
1250.000000 0.1834 0.1823 0.1635 0.1402 0.1171
1255.000000 0.0971 0.0937 0.0939 0.0952 0.0975
1260.000000 0.1182 0.1555 0.1931 0.2307 0.2682
1265.000000 0.3057 0.3433 0.3722 0.3915 0.4108
1270.000000 0.4299 0.4490 0.4682 0.4975 0.5806
1275.000000 0.5954 0.6095 0.6226 0.6356 0.6538
1280.000000 0.6735 0.6868 0.6977 0.7079 0.7148
1285.000000 0.7205 0.7261 0.7297 0.7317 0.7337
1290.000000 0.7357 0.7377 0.7392 0.7402 0.7412
1295.000000 0.7421 0.7432 0.7420 0.7417 0.7414
1300.000000 0.7401 0.7373 0.7333 0.7292 0.7228
1305.000000 0.7147 0.7062 0.6969 0.6827 0.6674
1310.000000 0.6523 0.6370 0.6219 0.6067 0.5916
1315.000000 0.5765 0.5615 0.5388 0.5188 0.5101
1320.000000 0.5083 0.5078 0.5079 0.5044 0.5260
1325.000000 0.5378 0.5459 0.5529 0.5597 0.5663
1330.000000 0.5731 0.5801 0.5898 0.6309 0.6795
1335.000000 0.7028 0.7069 0.7090 0.7171 0.7539
1340.000000 0.7683 0.7796 0.7851 0.7894 0.7937
1345.000000 0.7980 0.8021 0.8053 0.8076 0.8083
1350.000000 0.8085 0.8086 0.8086 0.8086 0.8087
1355.000000 0.8087 0.8087 0.8087 0.8088 0.8088
1360.000000 0.8088 0.8090 0.8092 0.8095 0.8098
1365.000000 0.8100 0.8103 0.8110 0.8120 0.8129
1370.000000 0.8139 0.8149 0.8157 0.8161 0.8165
1375.000000 0.8170 0.8172 0.8174 0.8171 0.8167
1380.000000 0.8153 0.8139 0.8126 0.8112 0.8098
1385.000000 0.8084 0.8066 0.8049 0.8033 0.8020
1390.000000 0.8007 0.7993 0.7980 0.7966 0.7952
1395.000000 0.7938 0.7923 0.7908 0.7890 0.7872
1400.000000 0.7854 0.7837 0.7819 0.7800 0.7772
1405.000000 0.7744 0.7716 0.7685 0.7637 0.7583
1410.000000 0.7512 0.7418 0.7244 0.7054 0.6864
1415.000000 0.6674 0.6484 0.6295 0.6106 0.5917
1420.000000 0.5728 0.5540 0.5352 0.5164 0.4976
1425.000000 0.4789 0.4602 0.4415 0.4229 0.4043
1430.000000 0.3857 0.3671 0.3506 0.3470 0.3518
1435.000000 0.3460 0.3841 0.4014 0.4187 0.4360
1440.000000 0.4533 0.4705 0.4877 0.5049 0.5220
1445.000000 0.5392 0.5563 0.5734 0.5913 0.6023
1450.000000 0.6038 0.6041 0.6042 0.6036 0.6024
1455.000000 0.6006 0.5982 0.5967 0.5962 0.5966
1460.000000 0.5986 0.6079 0.6196 0.6312 0.6411
1465.000000 0.6443 0.6439 0.6433 0.6416 0.6380
1470.000000 0.6319 0.6278 0.6269 0.6269 0.6276
1475.000000 0.6295 0.6363 0.6521 0.6677 0.6835
1480.000000 0.6992 0.7102 0.7104 0.7123 0.7097
1485.000000 0.7085 0.7066 0.7039 0.7005 0.6968
1490.000000 0.6927 0.6879 0.6830 0.6780 0.6695
1495.000000 0.6480 0.6331 0.6251 0.6192 0.6152
1500.000000 0.6113 0.6064 0.6000 0.5493 0.4764
1505.000000 0.4556 0.4477 0.4407 0.4357 0.4319
1510.000000 0.4206 0.3931 0.3620 0.3310 0.3000
1515.000000 0.2690 0.2381 0.2360 0.2366 0.2371
1520.000000 0.2513 0.2851 0.3188 0.3525 0.3861
1525.000000 0.4197 0.4533 0.4868 0.5202 0.5537
1530.000000 0.5871 0.6204 0.6537 0.6869 0.7168
1535.000000 0.7355 0.7481 0.7550 0.7582 0.7602
1540.000000 0.7622 0.7633 0.7639 0.7645 0.7647
1545.000000 0.7651 0.7648 0.7646 0.7644 0.7642
1550.000000 0.7638 0.7631 0.7623 0.7612 0.7591
1555.000000 0.7568 0.7540 0.7494 0.7419 0.7262
1560.000000 0.7093 0.7063 0.6902 0.6734 0.6709
1565.000000 0.6689 0.6669 0.6644 0.6613 0.6576
1570.000000 0.6255 0.5715 0.5143 0.4573 0.4003
1575.000000 0.3435 0.2867 0.2404 0.2281 0.2278
1580.000000 0.2277 0.2291 0.2388 0.2624 0.2892
1585.000000 0.3160 0.3427 0.3693 0.3960 0.4226
1590.000000 0.4492 0.4757 0.5022 0.5287 0.5421
1595.000000 0.5442 0.5439 0.5449 0.5400 0.5276
1600.000000 0.5105 0.4934 0.4763 0.4592 0.4421
1605.000000 0.4251 0.4092 0.4007 0.4002 0.4092
1610.000000 0.4475 0.4995 0.5514 0.6027 0.6467
1615.000000 0.6603 0.6689 0.6734 0.6777 0.6820
1620.000000 0.6864 0.6907 0.6949 0.6991 0.7032
1625.000000 0.7066 0.7092 0.7115 0.7133 0.7140
1630.000000 0.7143 0.7146 0.7148 0.7149 0.7132
1635.000000 0.7148 0.7148 0.7148 0.7147 0.7146
1640.000000 0.7142 0.7138 0.7134 0.7124 0.7103
1645.000000 0.7069 0.7014 0.6945 0.6857 0.6808
1650.000000 0.6760 0.6713 0.6679 0.6656 0.6636
1655.000000 0.6619 0.6608 0.6599 0.6591 0.6582
1660.000000 0.6574 0.6544 0.6476 0.6348 0.6033
1665.000000 0.5676 0.5355 0.5035 0.4715 0.4396
1670.000000 0.4077 0.3759 0.3440 0.3123 0.2805
1675.000000 0.2488 0.2172 0.1855 0.1545 0.1268
1680.000000 0.1208 0.1186 0.1175 0.1169 0.1167
1685.000000 0.1169 0.1181 0.1177 0.1188 0.1214
1690.000000 0.1327 0.1549 0.1813 0.2078 0.2342
1695.000000 0.2606 0.2869 0.3133 0.3396 0.3659
1700.000000 0.3921 0.4183 0.4445 0.4706 0.4967
1705.000000 0.5229 0.5489 0.5759 0.6078 0.6423
1710.000000 0.6557 0.6688 0.6817 0.7095 0.7331
1715.000000 0.7451 0.7568 0.7659 0.7745 0.7825
1720.000000 0.7877 0.7912 0.7948 0.7983 0.8019
1725.000000 0.8045 0.8065 0.8081 0.8097 0.8114
1730.000000 0.8130 0.8144 0.8155 0.8164 0.8173
1735.000000 0.8182 0.8191 0.8200 0.8209 0.8218
1740.000000 0.8227 0.8236 0.8242 0.8246 0.8250
1745.000000 0.8254 0.8258 0.8262 0.8266 0.8270
1750.000000 0.8274 0.8277 0.8281 0.8285 0.8290
1755.000000 0.8303 0.8321 0.8342 0.8364 0.8373
1760.000000 0.8375 0.8380 0.8384 0.8389 0.8394
1765.000000 0.8398 0.8401 0.8403 0.8405 0.8407
1770.000000 0.8409 0.8411 0.8413 0.8415 0.8417
1775.000000 0.8418 0.8418 0.8418 0.8418 0.8417
1780.000000 0.8416 0.8416 0.8415 0.8415 0.8414
1785.000000 0.8413 0.8412 0.8409 0.8408 0.8406
1790.000000 0.8404 0.8402 0.8400 0.8398 0.8398
1795.000000 0.8398 0.8398 0.8409 0.8424 0.8439
1800.000000 0.8454 0.8468 0.8484 0.8499 0.8515
1805.000000 0.8531 0.8546 0.8558 0.8568 0.8574
1810.000000 0.8580 0.8586 0.8592 0.8598 0.8602
1815.000000 0.8605 0.8607 0.8609 0.8611 0.8613
1820.000000 0.8615 0.8616 0.8615 0.8614 0.8613
1825.000000 0.8611 0.8610 0.8608 0.8607 0.8606
1830.000000 0.8605 0.8603 0.8602 0.8600 0.8600
1835.000000 0.8598 0.8596 0.8594 0.8593 0.8591
1840.000000 0.8590 0.8588 0.8586 0.8584 0.8583
1845.000000 0.8582 0.8580 0.8578 0.8576 0.8575
1850.000000 0.8573 0.8572 0.8570 0.8568 0.8566
1855.000000 0.8565 0.8562 0.8560 0.8558 0.8556
1860.000000 0.8554 0.8552 0.8549 0.8547 0.8545
1865.000000 0.8543 0.8541 0.8539 0.8536 0.8533
1870.000000 0.8531 0.8529 0.8527 0.8525 0.8523
1875.000000 0.8521 0.8518 0.8516 0.8514 0.8512
1880.000000 0.8510 0.8508 0.8506 0.8504 0.8501
1885.000000 0.8499 0.8496 0.8493 0.8490 0.8487
1890.000000 0.8485 0.8483 0.8480 0.8477 0.8474
1895.000000 0.8472 0.8469 0.8466 0.8463 0.8461
1900.000000 0.8459 0.8456 0.8453 0.8450 0.8448
1905.000000 0.8449 0.8450 0.8452 0.8454 0.8455
1910.000000 0.8457 0.8459 0.8461 0.8463 0.8464
1915.000000 0.8466 0.8468 0.8470 0.8473 0.8476
1920.000000 0.8480 0.8483 0.8487 0.8490 0.8494
1925.000000 0.8497 0.8501 0.8506 0.8511 0.8515
1930.000000 0.8520 0.8525 0.8531 0.8535 0.8539
1935.000000 0.8543 0.8545 0.8548 0.8550 0.8552
1940.000000 0.8555 0.8558 0.8560 0.8562 0.8564
1945.000000 0.8566 0.8569 0.8571 0.8573 0.8576
1950.000000 0.8578 0.8580 0.8583 0.8585 0.8587
1955.000000 0.8589 0.8591 0.8593 0.8595 0.8598
1960.000000 0.8600 0.8602 0.8604 0.8606 0.8609
1965.000000 0.8611 0.8613 0.8615 0.8617 0.8619
1970.000000 0.8621 0.8622 0.8623 0.8623 0.8624
1975.000000 0.8625 0.8625 0.8626 0.8627 0.8627
1980.000000 0.8628 0.8629 0.8629 0.8630 0.8630
1985.000000 0.8631 0.8632 0.8632 0.8633 0.8634
1990.000000 0.8634 0.8635 0.8635 0.8634 0.8633
1995.000000 0.8632 0.8631 0.8630 0.8629 0.8628
2000.000000 0.8627 0.8625 0.8624 0.8624 0.8623
2005.000000 0.8621 0.8620 0.8619 0.8618 0.8616
2010.000000 0.8615 0.8614 0.8612 0.8610 0.8609
2015.000000 0.8608 0.8606 0.8604 0.8603 0.8601
2020.000000 0.8600 0.8599 0.8597 0.8595 0.8594
2025.000000 0.8592 0.8590 0.8589 0.8588 0.8586
2030.000000 0.8585 0.8583 0.8581 0.8581 0.8581
2035.000000 0.8583 0.8585 0.8587 0.8589 0.8593
2040.000000 0.8597 0.8600 0.8604 0.8608 0.8612
2045.000000 0.8616 0.8619 0.8623 0.8626 0.8628
2050.000000 0.8628 0.8628 0.8628 0.8627 0.8627
2055.000000 0.8626 0.8626 0.8626 0.8625 0.8625
2060.000000 0.8625 0.8625 0.8624 0.8623 0.8623
2065.000000 0.8622 0.8621 0.8620 0.8619 0.8619
2070.000000 0.8618 0.8618 0.8617 0.8615 0.8615
2075.000000 0.8614 0.8614 0.8613 0.8613 0.8612
2080.000000 0.8612 0.8612 0.8612 0.8612 0.8612
2085.000000 0.8612 0.8612 0.8612 0.8612 0.8612
2090.000000 0.8612 0.8612 0.8612 0.8612 0.8612
2095.000000 0.8612 0.8612 0.8612 0.8612 0.8612
2100.000000 0.8612 0.8613 0.8613 0.8613 0.8613
2105.000000 0.8613 0.8613 0.8613 0.8613 0.8613
2110.000000 0.8613 0.8613 0.8613 0.8613 0.8613
2115.000000 0.8613 0.8613 0.8613 0.8613 0.8613
2120.000000 0.8613 0.8613 0.8613 0.8613 0.8613
2125.000000 0.8614 0.8615 0.8615 0.8615 0.8615
2130.000000 0.8616 0.8616 0.8616 0.8616 0.8617
2135.000000 0.8618 0.8618 0.8618 0.8618 0.8619
2140.000000 0.8619 0.8619 0.8619 0.8620 0.8620
2145.000000 0.8621 0.8621 0.8621 0.8622 0.8622
2150.000000 0.8622 0.8622 0.8623 0.8623 0.8624
2155.000000 0.8624 0.8624 0.8624 0.8625 0.8625
2160.000000 0.8625 0.8626 0.8626 0.8627 0.8627
2165.000000 0.8627 0.8627 0.8628 0.8628 0.8628
2170.000000 0.8628 0.8629 0.8629 0.8630 0.8630
2175.000000 0.8630 0.8629 0.8629 0.8628 0.8628
2180.000000 0.8627 0.8627 0.8626 0.8626 0.8625
2185.000000 0.8625 0.8624 0.8624 0.8623 0.8623
2190.000000 0.8622 0.8622 0.8621 0.8620 0.8620
2195.000000 0.8619 0.8619 0.8618 0.8618 0.8617
2200.000000 0.8617 0.8616 0.8616 0.8615 0.8615
2205.000000 0.8614 0.8614 0.8613 0.8613 0.8612
2210.000000 0.8612 0.8611 0.8611 0.8610 0.8610
2215.000000 0.8609 0.8609 0.8608 0.8608 0.8607
2220.000000 0.8607 0.8606 0.8606 0.8605 0.8605
2225.000000 0.8604 0.8604 0.8603 0.8603 0.8602
2230.000000 0.8602 0.8601 0.8601 0.8601 0.8601
2235.000000 0.8601 0.8601 0.8601 0.8601 0.8601
2240.000000 0.8601 0.8601 0.8601 0.8601 0.8601
2245.000000 0.8601 0.8601 0.8601 0.8601 0.8601
2250.000000 0.8601 0.8601 0.8601 0.8601 0.8601
2255.000000 0.8601 0.8601 0.8601 0.8601 0.8601
2260.000000 0.8601 0.8601 0.8601 0.8601 0.8601
2265.000000 0.8601 0.8601 0.8601 0.8601 0.8601
2270.000000 0.8602 0.8604 0.8610 0.8616 0.8621
2275.000000 0.8627 0.8632 0.8637 0.8643 0.8648
2280.000000 0.8653 0.8658 0.8663 0.8668 0.8672
2285.000000 0.8677 0.8678 0.8678 0.8679 0.8679
2290.000000 0.8679 0.8679 0.8679 0.8679 0.8678
2295.000000 0.8678 0.8677 0.8676 0.8675 0.8675
2300.000000 0.8674 0.8674 0.8674 0.8673 0.8673
2305.000000 0.8672 0.8672 0.8671 0.8671 0.8670
2310.000000 0.8670 0.8670 0.8670 0.8669 0.8669
2315.000000 0.8668 0.8668 0.8667 0.8667 0.8667
2320.000000 0.8666 0.8666 0.8665 0.8665 0.8664
2325.000000 0.8663 0.8662 0.8662 0.8661 0.8661
2330.000000 0.8660 0.8660 0.8660 0.8659 0.8659
2335.000000 0.8658 0.8658 0.8657 0.8657 0.8656
2340.000000 0.8656 0.8655 0.8654 0.8654 0.8653
2345.000000 0.8652 0.8651 0.8651 0.8650 0.8649
2350.000000 0.8648 0.8647 0.8646 0.8645 0.8645
2355.000000 0.8644 0.8644 0.8643 0.8642 0.8641
2360.000000 0.8640 0.8638 0.8634 0.8629 0.8622
2365.000000 0.8616 0.8609 0.8602 0.8596 0.8589
2370.000000 0.8583 0.8577 0.8572 0.8572 0.8572
2375.000000 0.8572 0.8572 0.8573 0.8573 0.8573
2380.000000 0.8573 0.8573 0.8573 0.8573 0.8573
2385.000000 0.8573 0.8574 0.8574 0.8575 0.8576
2390.000000 0.8577 0.8579 0.8580 0.8583 0.8586
2395.000000 0.8589 0.8592 0.8596 0.8599 0.8603
2400.000000 0.8605 0.8608 0.8610 0.8611 0.8613
2405.000000 0.8614 0.8616 0.8618 0.8620 0.8621
2410.000000 0.8622 0.8623 0.8623 0.8623 0.8623
2415.000000 0.8623 0.8623 0.8623 0.8623 0.8623
2420.000000 0.8623 0.8622 0.8622 0.8621 0.8620
2425.000000 0.8618 0.8618 0.8617 0.8615 0.8614
2430.000000 0.8613 0.8612 0.8611 0.8610 0.8609
2435.000000 0.8608 0.8606 0.8605 0.8604 0.8604
2440.000000 0.8600 0.8596 0.8593 0.8589 0.8586
2445.000000 0.8582 0.8578 0.8575 0.8572 0.8570
2450.000000 0.8568 0.8566 0.8565 0.8563 0.8561
2455.000000 0.8560 0.8558 0.8557 0.8555 0.8553
2460.000000 0.8551 0.8550 0.8550 0.8550 0.8551
2465.000000 0.8552 0.8553 0.8555 0.8557 0.8558
2470.000000 0.8560 0.8561 0.8563 0.8564 0.8565
2475.000000 0.8567 0.8568 0.8569 0.8570 0.8571
2480.000000 0.8572 0.8574 0.8575 0.8576 0.8577
2485.000000 0.8578 0.8579 0.8580 0.8581 0.8582
2490.000000 0.8582 0.8582 0.8582 0.8581 0.8581
2495.000000 0.8581 0.8580 0.8580 0.8578 0.8575
2500.000000 0.8573 0.8570 0.8568 0.8565 0.8563
2505.000000 0.8561 0.8558 0.8555 0.8552 0.8550
2510.000000 0.8548 0.8545 0.8543 0.8541 0.8539
2515.000000 0.8537 0.8535 0.8534 0.8534 0.8534
2520.000000 0.8534 0.8533 0.8533 0.8532 0.8532
2525.000000 0.8532 0.8532 0.8532 0.8531 0.8531
2530.000000 0.8531 0.8530 0.8530 0.8529 0.8529
2535.000000 0.8529 0.8528 0.8528 0.8528 0.8527
2540.000000 0.8527 0.8526 0.8526 0.8526 0.8525
2545.000000 0.8525 0.8524 0.8524 0.8524 0.8523
2550.000000 0.8523 0.8523 0.8522 0.8522 0.8521
2555.000000 0.8521 0.8521 0.8520 0.8520 0.8519
2560.000000 0.8519 0.8519 0.8518 0.8518 0.8518
2565.000000 0.8518 0.8518 0.8517 0.8517 0.8517
2570.000000 0.8516 0.8516 0.8516 0.8515 0.8515
2575.000000 0.8514 0.8514 0.8514 0.8513 0.8513
2580.000000 0.8512 0.8512 0.8512 0.8511 0.8511
2585.000000 0.8511 0.8510 0.8510 0.8510 0.8510
2590.000000 0.8510 0.8509 0.8508 0.8507 0.8506
2595.000000 0.8504 0.8503 0.8501 0.8500 0.8499
2600.000000 0.8498 0.8496 0.8495 0.8493 0.8492
2605.000000 0.8490 0.8489 0.8487 0.8486 0.8484
2610.000000 0.8483 0.8481 0.8480 0.8479 0.8477
2615.000000 0.8476 0.8474 0.8473 0.8472 0.8471
2620.000000 0.8469 0.8468 0.8465 0.8463 0.8461
2625.000000 0.8458 0.8456 0.8453 0.8451 0.8449
2630.000000 0.8447 0.8445 0.8442 0.8440 0.8437
2635.000000 0.8435 0.8433 0.8431 0.8430 0.8428
2640.000000 0.8428 0.8429 0.8430 0.8432 0.8433
2645.000000 0.8435 0.8436 0.8438 0.8440 0.8441
2650.000000 0.8442 0.8443 0.8445 0.8446 0.8448
2655.000000 0.8449 0.8450 0.8451 0.8452 0.8454
2660.000000 0.8455 0.8457 0.8458 0.8459 0.8461
2665.000000 0.8462 0.8463 0.8464 0.8465 0.8467
2670.000000 0.8468 0.8470 0.8471 0.8472 0.8474
2675.000000 0.8475 0.8477 0.8478 0.8479 0.8481
2680.000000 0.8482 0.8484 0.8485 0.8486 0.8487
2685.000000 0.8487 0.8488 0.8488 0.8488 0.8489
2690.000000 0.8490 0.8490 0.8491 0.8491 0.8491
2695.000000 0.8488 0.8484 0.8480 0.8476 0.8472
2700.000000 0.8468 0.8464 0.8459 0.8455 0.8451
2705.000000 0.8447 0.8443 0.8439 0.8435 0.8431
2710.000000 0.8427 0.8423 0.8418 0.8414 0.8410
2715.000000 0.8406 0.8402 0.8398 0.8394 0.8390
2720.000000 0.8386 0.8382 0.8378 0.8374 0.8370
2725.000000 0.8366 0.8362 0.8357 0.8353 0.8349
2730.000000 0.8345 0.8340 0.8336 0.8332 0.8328
2735.000000 0.8323 0.8319 0.8314 0.8310 0.8305
2740.000000 0.8301 0.8296 0.8292 0.8288 0.8284
2745.000000 0.8279 0.8274 0.8270 0.8265 0.8261
2750.000000 0.8257 0.8252 0.8248 0.8244 0.8239
2755.000000 0.8235 0.8230 0.8226 0.8221 0.8217
2760.000000 0.8212 0.8208 0.8203 0.8198 0.8192
2765.000000 0.8187 0.8182 0.8177 0.8172 0.8167
2770.000000 0.8162 0.8157 0.8152 0.8147 0.8142
2775.000000 0.8134 0.8119 0.8104 0.8089 0.8071
2780.000000 0.8054 0.8036 0.8019 0.8002 0.7985
2785.000000 0.7963 0.7942 0.7921 0.7900 0.7879
2790.000000 0.7857 0.7832 0.7806 0.7779 0.7748
2795.000000 0.7714 0.7680 0.7646 0.7613 0.7580
2800.000000 0.7554 0.7538 0.7521 0.7508 0.7503
2805.000000 0.7498 0.7494 0.7492 0.7490 0.7487
2810.000000 0.7486 0.7485 0.7484 0.7485 0.7488
2815.000000 0.7490 0.7495 0.7502 0.7508 0.7515
2820.000000 0.7521 0.7527 0.7533 0.7537 0.7540
2825.000000 0.7544 0.7547 0.7550 0.7553 0.7555
2830.000000 0.7556 0.7557 0.7555 0.7552 0.7548
2835.000000 0.7543 0.7537 0.7532 0.7526 0.7520
2840.000000 0.7514 0.7507 0.7494 0.7481 0.7467
2845.000000 0.7451 0.7435 0.7418 0.7401 0.7384
2850.000000 0.7366 0.7349 0.7332 0.7315 0.7299
2855.000000 0.7284 0.7269 0.7254 0.7239 0.7224
2860.000000 0.7210 0.7196 0.7184 0.7172 0.7161
2865.000000 0.7152 0.7144 0.7135 0.7127 0.7118
2870.000000 0.7110 0.7101 0.7093 0.7085 0.7077
2875.000000 0.7069 0.7061 0.7052 0.7044 0.7036
2880.000000 0.7028 0.7020 0.7012 0.7004 0.6995
2885.000000 0.6987 0.6979 0.6970 0.6960 0.6949
2890.000000 0.6939 0.6929 0.6919 0.6909 0.6899
2895.000000 0.6891 0.6883 0.6875 0.6869 0.6864
2900.000000 0.6859 0.6853 0.6848 0.6843 0.6837
2905.000000 0.6832 0.6827 0.6821 0.6818 0.6816
2910.000000 0.6813 0.6811 0.6810 0.6808 0.6807
2915.000000 0.6806 0.6805 0.6804 0.6783 0.6802
2920.000000 0.6801 0.6800 0.6799 0.6798 0.6798
2925.000000 0.6798 0.6798 0.6798 0.6799 0.6799
2930.000000 0.6799 0.6800 0.6800 0.6800 0.6800
2935.000000 0.6802 0.6803 0.6804 0.6807 0.6811
2940.000000 0.6815 0.6820 0.6827 0.6834 0.6842
2945.000000 0.6851 0.6862 0.6873 0.6884 0.6910
2950.000000 0.6937 0.6964 0.7001 0.7051 0.7101
2955.000000 0.7150 0.7214 0.7280 0.7345 0.7391
2960.000000 0.7412 0.7434 0.7455 0.7463 0.7470
2965.000000 0.7477 0.7483 0.7487 0.7492 0.7496
2970.000000 0.7499 0.7502 0.7505 0.7508 0.7511
2975.000000 0.7514 0.7517 0.7520 0.7523 0.7525
2980.000000 0.7528 0.7531 0.7534 0.7538 0.7545
2985.000000 0.7553 0.7562 0.7571 0.7582 0.7592
2990.000000 0.7603 0.7620 0.7641 0.7662 0.7683
2995.000000 0.7741 0.7800 0.7858 0.7896 0.7901
3000.000000 0.7906 0.7911 0.7917 0.7922 0.7927
3005.000000 0.7933 0.7938 0.7943 0.7948 0.7954
3010.000000 0.7959 0.7965 0.7970 0.7977 0.7983
3015.000000 0.7990 0.7997 0.8003 0.8009 0.8015
3020.000000 0.8022 0.8028 0.8034 0.8041 0.8046
3025.000000 0.8052 0.8058 0.8064 0.8069 0.8075
3030.000000 0.8081 0.8084 0.8085 0.8087 0.8089
3035.000000 0.8089 0.8090 0.8091 0.8092 0.8093
3040.000000 0.8093 0.8094 0.8095 0.8095 0.8096
3045.000000 0.8096 0.8097 0.8098 0.8099 0.8100
3050.000000 0.8101 0.8102 0.8103 0.8106 0.8110
3055.000000 0.8115 0.8119 0.8124 0.8128 0.8132
3060.000000 0.8137 0.8141 0.8146 0.8150 0.8156
3065.000000 0.8165 0.8175 0.8184 0.8195 0.8208
3070.000000 0.8221 0.8233 0.8246 0.8258 0.8271
3075.000000 0.8283 0.8287 0.8291 0.8295 0.8299
3080.000000 0.8303 0.8308 0.8312 0.8316 0.8320
3085.000000 0.8324 0.8328 0.8332 0.8336 0.8340
3090.000000 0.8345 0.8346 0.8347 0.8348 0.8348
3095.000000 0.8349 0.8349 0.8349 0.8349 0.8349
3100.000000 0.8349 0.8349 0.8350 0.8350 0.8350
3105.000000 0.8350 0.8350 0.8350 0.8350 0.8350
3110.000000 0.8350 0.8350 0.8350 0.8350 0.8350
3115.000000 0.8350 0.8350 0.8350 0.8351 0.8351
3120.000000 0.8351 0.8351 0.8351 0.8351 0.8351
3125.000000 0.8351 0.8351 0.8351 0.8351 0.8350
3130.000000 0.8350 0.8350 0.8350 0.8349 0.8349
3135.000000 0.8349 0.8349 0.8348 0.8348 0.8348
3140.000000 0.8348 0.8347 0.8347 0.8347 0.8347
3145.000000 0.8352 0.8346 0.8345 0.8345 0.8344
3150.000000 0.8344 0.8344 0.8344 0.8343 0.8343
3155.000000 0.8343 0.8343 0.8342 0.8342 0.8342
3160.000000 0.8342 0.8341 0.8341 0.8341 0.8341
3165.000000 0.8340 0.8340 0.8340 0.8340 0.8339
3170.000000 0.8339 0.8339 0.8339 0.8338 0.8338
3175.000000 0.8338 0.8338 0.8337 0.8337 0.8336
3180.000000 0.8336 0.8335 0.8335 0.8335 0.8335
3185.000000 0.8334 0.8334 0.8333 0.8332 0.8331
3190.000000 0.8331 0.8330 0.8330 0.8329 0.8329
3195.000000 0.8328 0.8328 0.8327 0.8327 0.8326
3200.000000 0.8326 0.8326 0.8325 0.8324 0.8323
3205.000000 0.8323 0.8322 0.8322 0.8321 0.8321
3210.000000 0.8320 0.8320 0.8319 0.8319 0.8318
3215.000000 0.8318 0.8317 0.8317 0.8316 0.8315
3220.000000 0.8315 0.8314 0.8313 0.8312 0.8311
3225.000000 0.8309 0.8308 0.8306 0.8304 0.8302
3230.000000 0.8299 0.8298 0.8296 0.8294 0.8292
3235.000000 0.8290 0.8288 0.8286 0.8284 0.8282
3240.000000 0.8280 0.8278 0.8276 0.8274 0.8272
3245.000000 0.8270 0.8268 0.8266 0.8264 0.8262
3250.000000 0.8260 0.8257 0.8255 0.8252 0.8250
3255.000000 0.8247 0.8244 0.8242 0.8239 0.8237
3260.000000 0.8234 0.8231 0.8229 0.8226 0.8224
3265.000000 0.8221 0.8219 0.8216 0.8213 0.8208
3270.000000 0.8202 0.8197 0.8191 0.8185 0.8179
3275.000000 0.8173 0.8167 0.8161 0.8155 0.8149
3280.000000 0.8143 0.8137 0.8131 0.8124 0.8118
3285.000000 0.8112 0.8103 0.8092 0.8082 0.8071
3290.000000 0.8061 0.8050 0.8040 0.8029 0.8018
3295.000000 0.8006 0.7994 0.7982 0.7969 0.7956
3300.000000 0.7943 0.7930 0.7917 0.7904 0.7891
3305.000000 0.7877 0.7864 0.7851 0.7838 0.7825
3310.000000 0.7812 0.7799 0.7773 0.7743 0.7713
3315.000000 0.7683 0.7646 0.7598 0.7549 0.7501
3320.000000 0.7452 0.7400 0.7347 0.7294 0.7241
3325.000000 0.7189 0.7136 0.7084 0.7031 0.6979
3330.000000 0.6926 0.6874 0.6821 0.6769 0.6717
3335.000000 0.6664 0.6612 0.6560 0.6507 0.6455
3340.000000 0.6403 0.6351 0.6298 0.6246 0.6195
3345.000000 0.6143 0.6091 0.6039 0.5987 0.5935
3350.000000 0.5883 0.5831 0.5779 0.5728 0.5676
3355.000000 0.5624 0.5574 0.5527 0.5480 0.5433
3360.000000 0.5387 0.5376 0.5375 0.5375 0.5374
3365.000000 0.5367 0.5373 0.5372 0.5371 0.5371
3370.000000 0.5370 0.5369 0.5369 0.5368 0.5367
3375.000000 0.5367 0.5366 0.5365 0.5365 0.5408
3380.000000 0.5478 0.5549 0.5619 0.5690 0.5785
3385.000000 0.5879 0.5974 0.6068 0.6163 0.6257
3390.000000 0.6351 0.6446 0.6540 0.6634 0.6728
3395.000000 0.6822 0.6916 0.7010 0.7104 0.7197
3400.000000 0.7291 0.7385 0.7478 0.7572 0.7666
3405.000000 0.7759 0.7853 0.7921 0.7990 0.8058
3410.000000 0.8127 0.8171 0.8173 0.8175 0.8176
3415.000000 0.8178 0.8180 0.8182 0.8184 0.8186
3420.000000 0.8188 0.8189 0.8191 0.8193 0.8194
3425.000000 0.8196 0.8198 0.8200 0.8202 0.8204
3430.000000 0.8206 0.8207 0.8209 0.8211 0.8212
3435.000000 0.8216 0.8221 0.8225 0.8229 0.8235
3440.000000 0.8246 0.8256 0.8267 0.8278 0.8289
3445.000000 0.8300 0.8312 0.8323 0.8334 0.8346
3450.000000 0.8358 0.8370 0.8382 0.8394 0.8405
3455.000000 0.8416 0.8427 0.8438 0.8447 0.8448
3460.000000 0.8450 0.8452 0.8453 0.8455 0.8457
3465.000000 0.8458 0.8459 0.8461 0.8462 0.8464
3470.000000 0.8466 0.8467 0.8469 0.8471 0.8472
3475.000000 0.8474 0.8475 0.8476 0.8478 0.8480
3480.000000 0.8481 0.8483 0.8485 0.8486 0.8488
3485.000000 0.8489 0.8490 0.8492 0.8493 0.8494
3490.000000 0.8496 0.8497 0.8498 0.8499 0.8499
3495.000000 0.8500 0.8501 0.8502 0.8503 0.8504
3500.000000 0.8504 0.8505 0.8506 0.8507 0.8508
3505.000000 0.8508 0.8509 0.8510 0.8511 0.8512
3510.000000 0.8512 0.8513 0.8514 0.8515 0.8516
3515.000000 0.8517 0.8517 0.8518 0.8519 0.8520
3520.000000 0.8521 0.8522 0.8523 0.8524 0.8525
3525.000000 0.8526 0.8526 0.8527 0.8528 0.8528
3530.000000 0.8529 0.8529 0.8530 0.8531 0.8531
3535.000000 0.8532 0.8532 0.8533 0.8533 0.8534
3540.000000 0.8534 0.8534 0.8535 0.8536 0.8536
3545.000000 0.8537 0.8537 0.8538 0.8539 0.8539
3550.000000 0.8540 0.8540 0.8541 0.8541 0.8542
3555.000000 0.8542 0.8542 0.8543 0.8544 0.8544
3560.000000 0.8545 0.8545 0.8546 0.8547 0.8547
3565.000000 0.8548 0.8548 0.8549 0.8549 0.8550
3570.000000 0.8550 0.8550 0.8551 0.8551 0.8552
3575.000000 0.8552 0.8552 0.8553 0.8553 0.8553
3580.000000 0.8553 0.8553 0.8554 0.8554 0.8554
3585.000000 0.8554 0.8554 0.8555 0.8555 0.8555
3590.000000 0.8555 0.8555 0.8556 0.8556 0.8556
3595.000000 0.8556 0.8556 0.8556 0.8557 0.8557
3600.000000 0.8557 0.8557 0.8557 0.8558 0.8558
3605.000000 0.8558 0.8558 0.8558 0.8559 0.8559
3610.000000 0.8559 0.8559 0.8559 0.8560 0.8560
3615.000000 0.8560 0.8560 0.8560 0.8561 0.8561
3620.000000 0.8561 0.8561 0.8561 0.8561 0.8562
3625.000000 0.8562 0.8562 0.8562 0.8562 0.8563
3630.000000 0.8563 0.8563 0.8563 0.8563 0.8564
3635.000000 0.8564 0.8564 0.8564 0.8564 0.8564
3640.000000 0.8573 0.8565 0.8565 0.8565 0.8565
3645.000000 0.8566 0.8566 0.8566 0.8566 0.8566
3650.000000 0.8567 0.8567 0.8567 0.8567 0.8567
3655.000000 0.8568 0.8568 0.8568 0.8568 0.8568
3660.000000 0.8568 0.8568 0.8568 0.8568 0.8568
3665.000000 0.8568 0.8569 0.8569 0.8569 0.8569
3670.000000 0.8569 0.8569 0.8570 0.8570 0.8570
3675.000000 0.8570 0.8570 0.8571 0.8571 0.8571
3680.000000 0.8571 0.8571 0.8572 0.8572 0.8572
3685.000000 0.8572 0.8572 0.8572 0.8573 0.8573
3690.000000 0.8573 0.8573 0.8573 0.8574 0.8574
3695.000000 0.8574 0.8574 0.8574 0.8574 0.8574
3700.000000 0.8574 0.8574 0.8574 0.8574 0.8575
3705.000000 0.8575 0.8575 0.8575 0.8575 0.8575
3710.000000 0.8574 0.8574 0.8573 0.8573 0.8573
3715.000000 0.8572 0.8572 0.8571 0.8571 0.8570
3720.000000 0.8570 0.8569 0.8569 0.8568 0.8567
3725.000000 0.8567 0.8566 0.8566 0.8565 0.8565
3730.000000 0.8564 0.8564 0.8563 0.8563 0.8562
3735.000000 0.8562 0.8561 0.8560 0.8560 0.8560
3740.000000 0.8559 0.8559 0.8559 0.8558 0.8558
3745.000000 0.8557 0.8557 0.8556 0.8556 0.8555
3750.000000 0.8555 0.8554 0.8553 0.8553 0.8552
3755.000000 0.8551 0.8551 0.8550 0.8549 0.8548
3760.000000 0.8547 0.8546 0.8546 0.8545 0.8544
3765.000000 0.8544 0.8543 0.8542 0.8541 0.8540
3770.000000 0.8539 0.8538 0.8537 0.8537 0.8536
3775.000000 0.8535 0.8534 0.8533 0.8532 0.8532
3780.000000 0.8531 0.8530 0.8530 0.8529 0.8529
3785.000000 0.8529 0.8528 0.8528 0.8527 0.8527
3790.000000 0.8527 0.8527 0.8527 0.8527 0.8526
3795.000000 0.8526 0.8526 0.8526 0.8526 0.8526
3800.000000 0.8526 0.8526 0.8526 0.8526 0.8526
3805.000000 0.8526 0.8525 0.8525 0.8525 0.8525
3810.000000 0.8525 0.8524 0.8524 0.8524 0.8524
3815.000000 0.8524 0.8524 0.8523 0.8523 0.8523
3820.000000 0.8523 0.8523 0.8523 0.8522 0.8522
3825.000000 0.8522 0.8522 0.8522 0.8522 0.8522
3830.000000 0.8522 0.8522 0.8522 0.8522 0.8522
3835.000000 0.8521 0.8521 0.8521 0.8521 0.8521
3840.000000 0.8521 0.8520 0.8520 0.8520 0.8520
3845.000000 0.8520 0.8520 0.8520 0.8520 0.8520
3850.000000 0.8520 0.8520 0.8520 0.8520 0.8520
3855.000000 0.8520 0.8520 0.8520 0.8520 0.8520
3860.000000 0.8520 0.8520 0.8520 0.8520 0.8519
3865.000000 0.8519 0.8519 0.8519 0.8519 0.8519
3870.000000 0.8519 0.8519 0.8519 0.8519 0.8519
3875.000000 0.8519 0.8519 0.8519 0.8519 0.8519
3880.000000 0.8519 0.8519 0.8519 0.8519 0.8519
3885.000000 0.8519 0.8519 0.8519 0.8519 0.8519
3890.000000 0.8519 0.8519 0.8519 0.8519 0.8519
3895.000000 0.8518 0.8518 0.8518 0.8518 0.8518
3900.000000 0.8518 0.8518 0.8518 0.8518 0.8518
3905.000000 0.8518 0.8518 0.8517 0.8517 0.8517
3910.000000 0.8517 0.8517 0.8517 0.8516 0.8516
3915.000000 0.8516 0.8516 0.8516 0.8516 0.8515
3920.000000 0.8515 0.8515 0.8515 0.8515 0.8515
3925.000000 0.8515 0.8515 0.8515 0.8515 0.8515
3930.000000 0.8515 0.8514 0.8514 0.8514 0.8514
3935.000000 0.8514 0.8514 0.8514 0.8513 0.8513
3940.000000 0.8513 0.8513 0.8513 0.8513 0.8513
3945.000000 0.8513 0.8513 0.8513 0.8513 0.8513
3950.000000 0.8512 0.8512 0.8512 0.8512 0.8512
3955.000000 0.8512 0.8511 0.8511 0.8511 0.8511
3960.000000 0.8511 0.8511 0.8510 0.8510 0.8510
3965.000000 0.8510 0.8510 0.8510 0.8510 0.8510
3970.000000 0.8510 0.8510 0.8510 0.8510 0.8510
3975.000000 0.8509 0.8509 0.8509 0.8509 0.8509
3980.000000 0.8509 0.8508 0.8508 0.8508 0.8508
3985.000000 0.8508 0.8508 0.8508 0.8507 0.8507
3990.000000 0.8507 0.8507 0.8507 0.8507 0.8506
3995.000000 0.8506 0.8506 0.8506 0.8506 0.8506
4000.000000 0.8505
##END=
