##TITLE=ANTHRANILIC ACID, N-METHYL-, METHYL ESTER
##JCAMP-DX=4.24
##DATA TYPE=INFRARED SPECTRUM
##CLASS=COBLENTZ III
##ORIGIN=WESTERN REGIONAL RES. USDA
##OWNER=COBLENTZ SOCIETY
Collection (C) 2018 copyright by the U.S. Secretary of Commerce
on behalf of the United States of America. All rights reserved.
##DATE=1964/05/11
##NAMES=methyl 2-(methylamino)benzoate
##CAS REGISTRY NO=85-91-6
##MOLFORM=C9 H11 N O2
##SOURCE REFERENCE=COBLENTZ NO. 6185
##$NIST SOURCE=COBLENTZ
##$NIST IMAGE=cob6185
##SPECTROMETER/DATA SYSTEM=BECKMAN IR-7 (GRATING)
##INSTRUMENT PARAMETERS=GRATING CHANGES AT 3000, 2200, 1150 CM^-^1
##STATE=LIQUID (NEAT)
##PATH LENGTH=CAPILLARY
##SAMPLING PROCEDURE=TRANSMISSION
##RESOLUTION=4
##DATA PROCESSING=DIGITIZED BY NIST FROM HARD COPY (FROM TWO SEGMENTS)
##XUNITS=1/CM
##YUNITS=TRANSMITTANCE
##XFACTOR=1.000000
##YFACTOR=1
##DELTAX=0.660689
##FIRSTX=598.679
##LASTX=3988.01
##FIRSTY=0.591
##MAXX=3988.01
##MINX=598.679
##MAXY=0.852
##MINY=0
##NPOINTS=5131
##XYDATA=(X++(Y..Y))
598.679000 0.5910 0.5890 0.5910 0.5890 0.5890
601.982444 0.5880 0.5870 0.5860 0.5850 0.5850
605.285888 0.5860 0.5870 0.5880 0.5900 0.5920
608.589332 0.5940 0.5970 0.6000 0.6030 0.6080
611.892777 0.6140 0.6190 0.6230 0.6270 0.6270
615.196221 0.6280 0.6300 0.6330 0.6350 0.6360
618.499665 0.6380 0.6410 0.6430 0.6480 0.6490
621.803109 0.6510 0.6530 0.6550 0.6580 0.6600
625.106553 0.6610 0.6640 0.6660 0.6680 0.6700
628.409997 0.6720 0.6740 0.6750 0.6760 0.6760
631.713441 0.6760 0.6770 0.6780 0.6810 0.6820
635.016885 0.6840 0.6850 0.6880 0.6890 0.6890
638.320330 0.6910 0.6910 0.6920 0.6930 0.6950
641.623774 0.6960 0.6970 0.6970 0.6970 0.6970
644.927218 0.6980 0.6990 0.6990 0.6990 0.6990
648.230662 0.6990 0.6990 0.6990 0.6980 0.6970
651.534106 0.6960 0.6950 0.6930 0.6910 0.6890
654.837550 0.6860 0.6820 0.6800 0.6760 0.6710
658.140994 0.6680 0.6590 0.6510 0.6450 0.6270
661.444439 0.6080 0.5831 0.5202 0.4393 0.4380
664.747883 0.4180 0.3990 0.3970 0.3980 0.4120
668.051327 0.4280 0.4400 0.4510 0.4630 0.5079
671.354771 0.5591 0.6090 0.6450 0.6680 0.6810
674.658215 0.6890 0.7000 0.7030 0.7100 0.7180
677.961659 0.7200 0.7210 0.7230 0.7270 0.7280
681.265103 0.7290 0.7300 0.7300 0.7280 0.7270
684.568547 0.7270 0.7260 0.7260 0.7240 0.7220
687.871992 0.7200 0.7180 0.7150 0.7120 0.7090
691.175436 0.7040 0.7000 0.6930 0.6780 0.6710
694.478880 0.6660 0.6510 0.6350 0.6121 0.5831
697.782324 0.5460 0.5020 0.3930 0.3510 0.3091
701.085768 0.2331 0.1382 0.1121 0.0891 0.0890
704.389212 0.0940 0.1340 0.1580 0.1820 0.2030
707.692656 0.2140 0.2399 0.3048 0.3897 0.4318
710.996100 0.4740 0.5410 0.5700 0.5940 0.6040
714.299545 0.6180 0.6290 0.6390 0.6430 0.6500
717.602989 0.6540 0.6610 0.6640 0.6680 0.6700
720.906433 0.6740 0.6740 0.6790 0.6800 0.6800
724.209877 0.6800 0.6800 0.6800 0.6790 0.6770
727.513321 0.6760 0.6740 0.6720 0.6710 0.6680
730.816765 0.6630 0.6580 0.6510 0.6490 0.6390
734.120209 0.6250 0.6200 0.6090 0.5910 0.5711
737.423654 0.5530 0.5380 0.5210 0.4980 0.4391
740.727098 0.4001 0.3531 0.2991 0.2362 0.1842
744.030542 0.1410 0.1080 0.0840 0.0650 0.0530
747.333986 0.0440 0.0290 0.0230 0.0210 0.0200
750.637430 0.0190 0.0190 0.0190 0.0200 0.0210
753.940874 0.0230 0.0290 0.0340 0.0400 0.0480
757.244318 0.0580 0.0700 0.0890 0.1100 0.1340
760.547762 0.1600 0.1889 0.2199 0.2529 0.2869
763.851207 0.3230 0.3610 0.3990 0.4390 0.4590
767.154651 0.4790 0.5199 0.5609 0.5740 0.6119
770.458095 0.6210 0.6220 0.6330 0.6450 0.6550
773.761539 0.6590 0.6650 0.6740 0.6860 0.6890
777.064983 0.6970 0.6990 0.7020 0.7070 0.7090
780.368427 0.7130 0.7160 0.7170 0.7180 0.7200
783.671871 0.7200 0.7200 0.7180 0.7170 0.7150
786.975316 0.7110 0.7070 0.7000 0.6950 0.6840
790.278760 0.6600 0.6300 0.5920 0.5680 0.5540
793.582204 0.5440 0.5320 0.5140 0.5110 0.5110
796.885648 0.5110 0.5230 0.5430 0.5620 0.5840
800.189092 0.6080 0.6310 0.6470 0.6640 0.6780
803.492536 0.6910 0.7050 0.7100 0.7120 0.7170
806.795980 0.7200 0.7240 0.7280 0.7320 0.7330
810.099424 0.7370 0.7390 0.7420 0.7440 0.7460
813.402869 0.7460 0.7470 0.7480 0.7480 0.7480
816.706313 0.7470 0.7460 0.7460 0.7450 0.7440
820.009757 0.7410 0.7380 0.7340 0.7300 0.7220
823.313201 0.7180 0.7150 0.7050 0.7000 0.6950
826.616645 0.6800 0.6601 0.6391 0.6141 0.5871
829.920089 0.5570 0.5250 0.4890 0.4111 0.3781
833.223533 0.3501 0.3231 0.3220 0.3220 0.3598
836.526977 0.3980 0.4030 0.4340 0.4570 0.4790
839.830422 0.5249 0.5788 0.6009 0.6020 0.6010
843.133866 0.5940 0.5860 0.5850 0.5710 0.5700
846.437310 0.5690 0.5680 0.5690 0.5720 0.5790
849.740754 0.5850 0.6000 0.6160 0.6310 0.6460
853.044198 0.6580 0.6700 0.6770 0.6940 0.7030
856.347642 0.7150 0.7260 0.7350 0.7440 0.7510
859.651086 0.7570 0.7630 0.7690 0.7750 0.7820
862.954531 0.7880 0.7940 0.7970 0.7990 0.8000
866.257975 0.8020 0.8040 0.8060 0.8080 0.8090
869.561419 0.8090 0.8100 0.8120 0.8130 0.8140
872.864863 0.8140 0.8150 0.8150 0.8150 0.8150
876.168307 0.8150 0.8150 0.8160 0.8160 0.8170
879.471751 0.8170 0.8170 0.8170 0.8170 0.8170
882.775195 0.8170 0.8170 0.8170 0.8170 0.8170
886.078639 0.8170 0.8170 0.8170 0.8170 0.8170
889.382084 0.8170 0.8180 0.8180 0.8180 0.8190
892.685528 0.8190 0.8190 0.8190 0.8190 0.8180
895.988972 0.8180 0.8180 0.8170 0.8170 0.8170
899.292416 0.8170 0.8170 0.8170 0.8160 0.8160
902.595860 0.8150 0.8150 0.8150 0.8150 0.8150
905.899304 0.8150 0.8150 0.8150 0.8140 0.8140
909.202748 0.8140 0.8140 0.8130 0.8130 0.8130
912.506193 0.8130 0.8130 0.8130 0.8130 0.8130
915.809637 0.8120 0.8120 0.8120 0.8120 0.8120
919.113081 0.8110 0.8110 0.8110 0.8110 0.8110
922.416525 0.8110 0.8110 0.8120 0.8120 0.8120
925.719969 0.8120 0.8120 0.8120 0.8120 0.8120
929.023413 0.8120 0.8120 0.8110 0.8110 0.8100
932.326857 0.8100 0.8100 0.8100 0.8100 0.8100
935.630301 0.8100 0.8090 0.8090 0.8080 0.8080
938.933746 0.8060 0.8060 0.8050 0.8040 0.8010
942.237190 0.7980 0.7950 0.7920 0.7870 0.7820
945.540634 0.7770 0.7710 0.7650 0.7580 0.7510
948.844078 0.7440 0.7350 0.7270 0.7180 0.7090
952.147522 0.7050 0.7010 0.6990 0.6990 0.6990
955.450966 0.7000 0.7010 0.7020 0.7030 0.7040
958.754410 0.7050 0.7040 0.7030 0.7020 0.6990
962.057854 0.6950 0.6890 0.6840 0.6790 0.6740
965.361299 0.6680 0.6610 0.6580 0.6480 0.6470
968.664743 0.6460 0.6470 0.6470 0.6510 0.6550
971.968187 0.6570 0.6600 0.6660 0.6700 0.6740
975.271631 0.6800 0.6860 0.6920 0.6980 0.7010
978.575075 0.7050 0.7090 0.7140 0.7200 0.7280
981.878519 0.7320 0.7360 0.7420 0.7460 0.7490
985.181963 0.7500 0.7510 0.7520 0.7530 0.7570
988.485408 0.7570 0.7570 0.7590 0.7610 0.7620
991.788852 0.7630 0.7630 0.7640 0.7640 0.7650
995.092296 0.7650 0.7650 0.7660 0.7660 0.7670
998.395740 0.7670 0.7670 0.7680 0.7680 0.7690
1001.699184 0.7690 0.7680 0.7680 0.7670 0.7650
1005.002628 0.7650 0.7640 0.7630 0.7620 0.7620
1008.306072 0.7610 0.7610 0.7610 0.7590 0.7580
1011.609516 0.7570 0.7570 0.7570 0.7560 0.7550
1014.912961 0.7540 0.7530 0.7510 0.7490 0.7480
1018.216405 0.7460 0.7460 0.7450 0.7420 0.7390
1021.519849 0.7360 0.7340 0.7310 0.7290 0.7260
1024.823293 0.7240 0.7220 0.7180 0.7160 0.7130
1028.126737 0.7090 0.7040 0.6990 0.6930 0.6870
1031.430181 0.6800 0.6700 0.6630 0.6570 0.6510
1034.733625 0.6460 0.6390 0.6310 0.6200 0.6060
1038.037070 0.5960 0.5651 0.5061 0.4412 0.4280
1041.340514 0.4010 0.3740 0.3560 0.3460 0.3460
1044.643958 0.3989 0.4200 0.4429 0.4560 0.4680
1047.947402 0.5010 0.5340 0.5680 0.6040 0.6130
1051.250846 0.6270 0.6310 0.6300 0.6300 0.6290
1054.554290 0.6290 0.6140 0.6030 0.5930 0.5810
1057.857734 0.5670 0.5480 0.5211 0.4403 0.3842
1061.161178 0.3320 0.3250 0.3100 0.2890 0.2690
1064.464623 0.2480 0.2290 0.2290 0.2310 0.2340
1067.768067 0.2550 0.2770 0.3060 0.3639 0.4049
1071.071511 0.4309 0.4480 0.4530 0.4590 0.4680
1074.374955 0.4780 0.4790 0.4800 0.4800 0.4790
1077.678399 0.4780 0.4700 0.4451 0.4281 0.4061
1080.981843 0.3810 0.3520 0.3170 0.2771 0.2451
1084.285287 0.1921 0.1422 0.1390 0.1211 0.1001
1087.588731 0.0790 0.0580 0.0380 0.0150 0.0140
1090.892176 0.0150 0.0250 0.0340 0.0440 0.0530
1094.195620 0.0630 0.0710 0.0880 0.1160 0.1979
1097.499064 0.2070 0.2300 0.2609 0.2839 0.3009
1100.802508 0.3130 0.3230 0.3280 0.3320 0.3350
1104.105952 0.3380 0.3420 0.3420 0.3430 0.3430
1107.409396 0.3420 0.3360 0.3350 0.3250 0.3180
1110.712840 0.3130 0.3090 0.3060 0.3040 0.3020
1114.016285 0.3000 0.2980 0.2940 0.2900 0.2840
1117.319729 0.2760 0.2650 0.2510 0.2121 0.1781
1120.623173 0.1470 0.1210 0.0980 0.0790 0.0630
1123.926617 0.0490 0.0380 0.0290 0.0230 0.0170
1127.230061 0.0160 0.0150 0.0160 0.0170 0.0190
1130.533505 0.0260 0.0310 0.0380 0.0480 0.0590
1133.836949 0.0730 0.0870 0.1030 0.1180 0.1340
1137.140393 0.1490 0.1630 0.1750 0.1989 0.2209
1140.443838 0.2400 0.2580 0.2730 0.2860 0.2980
1143.747282 0.3090 0.3170 0.3290 0.3320 0.3330
1147.050726 0.3320 0.3310 0.3260 0.3170 0.3130
1150.354170 0.3090 0.2841 0.2611 0.2401 0.2181
1153.657614 0.1960 0.1740 0.1530 0.1260 0.1130
1156.961058 0.1000 0.0880 0.0750 0.0630 0.0500
1160.264502 0.0390 0.0380 0.0390 0.0480 0.0560
1163.567947 0.0650 0.0710 0.0730 0.0730 0.0710
1166.871391 0.0690 0.0660 0.0610 0.0550 0.0480
1170.174835 0.0400 0.0300 0.0190 0.0070 0.0060
1173.478279 0.0050 0.0060 0.0070 0.0150 0.0280
1176.781723 0.0360 0.0440 0.0560 0.0759 0.1089
1180.085167 0.1410 0.1620 0.1640 0.1660 0.1660
1183.388611 0.1600 0.1590 0.1490 0.1380 0.1270
1186.692055 0.1160 0.1060 0.0960 0.0880 0.0870
1189.995500 0.0850 0.0850 0.0860 0.0960 0.1060
1193.298944 0.1160 0.1250 0.1350 0.1450 0.1550
1196.602388 0.1640 0.1740 0.1840 0.1870 0.1920
1199.905832 0.2280 0.2570 0.2820 0.3020 0.3210
1203.209276 0.3390 0.3500 0.3620 0.3640 0.3700
1206.512720 0.3750 0.3750 0.3750 0.3770 0.3770
1209.816164 0.3770 0.3770 0.3740 0.3720 0.3710
1213.119608 0.3610 0.3510 0.3350 0.2970 0.2690
1216.423053 0.2690 0.2560 0.2440 0.2360 0.2220
1219.726497 0.2110 0.1940 0.1700 0.1440 0.1200
1223.029941 0.0980 0.0800 0.0680 0.0630 0.0490
1226.333385 0.0460 0.0430 0.0340 0.0250 0.0140
1229.636829 0.0120 0.0090 0.0080 0.0060 0.0030
1232.940273 0.0020 0.0010 0.0010 0.0000 0.0000
1236.243717 0.0000 0.0000 0.0000 0.0000 0.0000
1239.547162 0.0000 0.0000 0.0000 0.0000 0.0000
1242.850606 0.0000 0.0000 0.0000 0.0000 0.0000
1246.154050 0.0000 0.0000 0.0000 0.0000 0.0000
1249.457494 0.0000 0.0000 0.0000 0.0000 0.0000
1252.760938 0.0000 0.0000 0.0000 0.0000 0.0000
1256.064382 0.0000 0.0000 0.0000 0.0000 0.0000
1259.367826 0.0000 0.0000 0.0000 0.0000 0.0000
1262.671270 0.0000 0.0000 0.0000 0.0000 0.0000
1265.974715 0.0000 0.0000 0.0010 0.0020 0.0060
1269.278159 0.0130 0.0170 0.0290 0.0460 0.0600
1272.581603 0.0720 0.0840 0.0950 0.1050 0.1150
1275.885047 0.1250 0.1350 0.1450 0.1550 0.1650
1279.188491 0.1760 0.1870 0.2000 0.2140 0.2280
1282.491935 0.2450 0.2620 0.2710 0.2730 0.2750
1285.795379 0.2760 0.2770 0.2770 0.2760 0.2750
1289.098824 0.2730 0.2670 0.2610 0.2530 0.2440
1292.402268 0.2340 0.2340 0.2330 0.2330 0.2340
1295.705712 0.2350 0.2380 0.2420 0.2530 0.2660
1299.009156 0.2770 0.2880 0.2980 0.3120 0.3260
1302.312600 0.3470 0.3610 0.3710 0.3740 0.3750
1305.616044 0.3760 0.3770 0.3770 0.3770 0.3770
1308.919488 0.3760 0.3640 0.3520 0.3500 0.3470
1312.222932 0.3370 0.3310 0.3120 0.2920 0.2730
1315.526377 0.2530 0.2351 0.2171 0.1991 0.1831
1318.829821 0.1680 0.1530 0.1390 0.1270 0.1160
1322.133265 0.1060 0.0980 0.0890 0.0890 0.0890
1325.436709 0.0890 0.0890 0.0940 0.0960 0.1020
1328.740153 0.1090 0.1160 0.1230 0.1300 0.1370
1332.043597 0.1440 0.1510 0.1560 0.1600 0.1640
1335.347041 0.1700 0.1790 0.1890 0.1930 0.2050
1338.650485 0.2090 0.2190 0.2360 0.2690 0.2970
1341.953930 0.3339 0.3699 0.4069 0.4429 0.4589
1345.257374 0.4740 0.5000 0.5140 0.5170 0.5380
1348.560818 0.5580 0.5760 0.5920 0.6060 0.6180
1351.864262 0.6290 0.6380 0.6460 0.6530 0.6580
1355.167706 0.6620 0.6640 0.6680 0.6700 0.6720
1358.471150 0.6750 0.6770 0.6780 0.6800 0.6820
1361.774594 0.6830 0.6840 0.6850 0.6860 0.6860
1365.078039 0.6870 0.6870 0.6870 0.6870 0.6860
1368.381483 0.6850 0.6840 0.6840 0.6830 0.6820
1371.684927 0.6820 0.6820 0.6820 0.6820 0.6820
1374.988371 0.6820 0.6830 0.6840 0.6840 0.6850
1378.291815 0.6860 0.6880 0.6890 0.6910 0.6920
1381.595259 0.6930 0.6950 0.6980 0.7010 0.7030
1384.898703 0.7050 0.7050 0.7060 0.7060 0.7070
1388.202147 0.7070 0.7070 0.7070 0.7080 0.7080
1391.505592 0.7080 0.7070 0.7050 0.7040 0.7040
1394.809036 0.7030 0.7010 0.6990 0.6990 0.6980
1398.112480 0.6970 0.6970 0.6930 0.6870 0.6790
1401.415924 0.6710 0.6630 0.6550 0.6480 0.6420
1404.719368 0.6380 0.6360 0.6320 0.6280 0.6230
1408.022812 0.6180 0.6120 0.6050 0.5980 0.5920
1411.326256 0.5850 0.5780 0.5710 0.5630 0.5560
1414.629701 0.5490 0.5420 0.5350 0.5191 0.5051
1417.933145 0.4930 0.4790 0.4420 0.4150 0.3791
1421.236589 0.3131 0.2641 0.2301 0.2051 0.1881
1424.540033 0.1740 0.1580 0.1390 0.1100 0.1000
1427.843477 0.0910 0.0820 0.0730 0.0660 0.0590
1431.146921 0.0520 0.0460 0.0390 0.0330 0.0270
1434.450365 0.0210 0.0140 0.0120 0.0120 0.0130
1437.753809 0.0170 0.0210 0.0250 0.0510 0.0630
1441.057254 0.0750 0.0880 0.1000 0.1120 0.1220
1444.360698 0.1240 0.1250 0.1270 0.1290 0.1310
1447.664142 0.1350 0.1420 0.1490 0.1550 0.1560
1450.967586 0.1660 0.1740 0.1800 0.1850 0.1890
1454.271030 0.1930 0.1970 0.2020 0.2080 0.2100
1457.574474 0.2130 0.2160 0.2190 0.2200 0.2200
1460.877918 0.2200 0.2180 0.1990 0.1761 0.1611
1464.181362 0.1600 0.1600 0.1740 0.1880 0.2020
1467.484807 0.2160 0.2240 0.2280 0.2709 0.3109
1470.788251 0.3120 0.3110 0.3100 0.2940 0.2740
1474.091695 0.2530 0.2321 0.2190 0.2110 0.2100
1477.395139 0.2110 0.2130 0.2200 0.2440 0.2610
1480.698583 0.2750 0.2860 0.2980 0.3129 0.3289
1484.002027 0.3460 0.3610 0.3620 0.3620 0.3620
1487.305471 0.3540 0.3450 0.3360 0.3290 0.3270
1490.608916 0.3270 0.3330 0.3460 0.3560 0.3550
1493.912360 0.3540 0.3490 0.3341 0.3230 0.3150
1497.215804 0.3080 0.3020 0.2930 0.2820 0.2660
1500.519248 0.2441 0.2131 0.2130 0.2090 0.2050
1503.822692 0.1980 0.1900 0.1820 0.1720 0.1600
1507.126136 0.1490 0.1370 0.1250 0.1121 0.0991
1510.429580 0.0870 0.0750 0.0630 0.0510 0.0500
1513.733024 0.0480 0.0420 0.0360 0.0300 0.0240
1517.036469 0.0180 0.0120 0.0060 0.0030 0.0010
1520.339913 0.0010 0.0000 0.0000 0.0000 0.0010
1523.643357 0.0020 0.0050 0.0070 0.0130 0.0190
1526.946801 0.0240 0.0300 0.0440 0.0530 0.1377
1530.250245 0.1870 0.2320 0.2750 0.3120 0.3430
1533.553689 0.3709 0.3949 0.4139 0.4319 0.4469
1536.857133 0.4530 0.4590 0.4700 0.4800 0.4900
1540.160578 0.4980 0.5070 0.5170 0.5260 0.5320
1543.464022 0.5360 0.5380 0.5400 0.5400 0.5410
1546.767466 0.5410 0.5420 0.5410 0.5410 0.5400
1550.070910 0.5380 0.5350 0.5310 0.5270 0.5230
1553.374354 0.5190 0.5130 0.5080 0.5020 0.4960
1556.677798 0.4880 0.4800 0.4700 0.4470 0.4330
1559.981242 0.4180 0.4011 0.3811 0.3601 0.3371
1563.284686 0.3110 0.3020 0.2960 0.2900 0.2820
1566.588131 0.2670 0.2441 0.2091 0.1662 0.1292
1569.891575 0.1240 0.1100 0.0950 0.0810 0.0670
1573.195019 0.0520 0.0380 0.0320 0.0260 0.0230
1576.498463 0.0150 0.0120 0.0090 0.0050 0.0030
1579.801907 0.0030 0.0020 0.0020 0.0030 0.0040
1583.105351 0.0070 0.0080 0.0110 0.0150 0.0210
1586.408795 0.0270 0.0350 0.0440 0.0540 0.0630
1589.712239 0.0720 0.0810 0.0900 0.0980 0.1060
1593.015684 0.1120 0.1160 0.1190 0.1200 0.1220
1596.319128 0.1220 0.1230 0.1220 0.1220 0.1190
1599.622572 0.1130 0.1050 0.0950 0.0850 0.0740
1602.926016 0.0630 0.0530 0.0440 0.0360 0.0310
1606.229460 0.0290 0.0280 0.0270 0.0280 0.0310
1609.532904 0.0400 0.0550 0.0680 0.0810 0.0940
1612.836348 0.1000 0.1020 0.1050 0.1060 0.1100
1616.139793 0.1140 0.1180 0.1220 0.1250 0.1270
1619.443237 0.1529 0.1699 0.1899 0.2099 0.2259
1622.746681 0.2410 0.2550 0.2690 0.2820 0.2940
1626.050125 0.3050 0.3160 0.3260 0.3350 0.3440
1629.353569 0.3520 0.3600 0.3680 0.3740 0.3800
1632.657013 0.3860 0.3910 0.3970 0.4010 0.4060
1635.960457 0.4100 0.4130 0.4170 0.4200 0.4230
1639.263901 0.4260 0.4290 0.4310 0.4320 0.4330
1642.567346 0.4340 0.4330 0.4320 0.4300 0.4260
1645.870790 0.4210 0.4160 0.4110 0.4070 0.4050
1649.174234 0.3950 0.3860 0.3790 0.3740 0.3700
1652.477678 0.3660 0.3640 0.3610 0.3590 0.3580
1655.781122 0.3560 0.3530 0.3500 0.3460 0.3420
1659.084566 0.3360 0.3290 0.3121 0.2941 0.2771
1662.388010 0.2590 0.2420 0.2240 0.2070 0.1890
1665.691455 0.1720 0.1550 0.1391 0.1221 0.1061
1668.994899 0.0910 0.0750 0.0600 0.0460 0.0320
1672.298343 0.0190 0.0140 0.0120 0.0100 0.0090
1675.601787 0.0070 0.0060 0.0050 0.0040 0.0030
1678.905231 0.0020 0.0010 0.0010 0.0010 0.0000
1682.208675 0.0000 0.0000 0.0000 0.0000 0.0000
1685.512119 0.0000 0.0000 0.0000 0.0000 0.0000
1688.815563 0.0000 0.0000 0.0000 0.0000 0.0000
1692.119008 0.0000 0.0000 0.0000 0.0000 0.0010
1695.422452 0.0010 0.0020 0.0020 0.0030 0.0050
1698.725896 0.0090 0.0150 0.0290 0.0400 0.0500
1702.029340 0.0600 0.0680 0.0750 0.0830 0.0890
1705.332784 0.0960 0.1030 0.1100 0.1409 0.1599
1708.636228 0.1780 0.1950 0.2080 0.2240 0.2480
1711.939672 0.2480 0.2709 0.2939 0.3169 0.3409
1715.243116 0.3640 0.3660 0.3750 0.3970 0.4110
1718.546561 0.4469 0.4550 0.4630 0.4929 0.4950
1721.850005 0.4960 0.5080 0.5200 0.5320 0.5440
1725.153449 0.5560 0.5680 0.5730 0.5780 0.6009
1728.456893 0.6040 0.6050 0.6130 0.6180 0.6210
1731.760337 0.6290 0.6350 0.6390 0.6420 0.6450
1735.063781 0.6470 0.6490 0.6500 0.6530 0.6550
1738.367225 0.6580 0.6630 0.6640 0.6700 0.6700
1741.670670 0.6720 0.6730 0.6740 0.6760 0.6780
1744.974114 0.6780 0.6800 0.6800 0.6810 0.6820
1748.277558 0.6830 0.6840 0.6840 0.6850 0.6860
1751.581002 0.6860 0.6870 0.6870 0.6880 0.6890
1754.884446 0.6890 0.6900 0.6900 0.6910 0.6910
1758.187890 0.6920 0.6930 0.6930 0.6930 0.6950
1761.491334 0.6960 0.6990 0.7050 0.7090 0.7110
1764.794778 0.7140 0.7170 0.7180 0.7200 0.7220
1768.098223 0.7290 0.7300 0.7320 0.7380 0.7410
1771.401667 0.7420 0.7420 0.7440 0.7470 0.7490
1774.705111 0.7510 0.7520 0.7530 0.7550 0.7570
1778.008555 0.7590 0.7610 0.7620 0.7630 0.7650
1781.311999 0.7660 0.7660 0.7670 0.7670 0.7670
1784.615443 0.7660 0.7650 0.7630 0.7620 0.7600
1787.918887 0.7590 0.7570 0.7550 0.7550 0.7540
1791.222332 0.7530 0.7530 0.7530 0.7530 0.7530
1794.525776 0.7530 0.7530 0.7530 0.7530 0.7540
1797.829220 0.7550 0.7570 0.7590 0.7610 0.7630
1801.132664 0.7640 0.7670 0.7710 0.7710 0.7730
1804.436108 0.7740 0.7750 0.7750 0.7760 0.7780
1807.739552 0.7800 0.7820 0.7840 0.7870 0.7880
1811.042996 0.7900 0.7910 0.7920 0.7920 0.7930
1814.346440 0.7940 0.7940 0.7950 0.7950 0.7970
1817.649885 0.7980 0.7980 0.7990 0.8000 0.8020
1820.953329 0.8020 0.8030 0.8030 0.8040 0.8050
1824.256773 0.8060 0.8060 0.8080 0.8080 0.8090
1827.560217 0.8100 0.8100 0.8120 0.8140 0.8160
1830.863661 0.8170 0.8190 0.8200 0.8220 0.8230
1834.167105 0.8230 0.8230 0.8240 0.8250 0.8250
1837.470549 0.8250 0.8260 0.8270 0.8280 0.8290
1840.773993 0.8290 0.8300 0.8310 0.8310 0.8310
1844.077438 0.8310 0.8320 0.8320 0.8320 0.8330
1847.380882 0.8330 0.8330 0.8330 0.8330 0.8330
1850.684326 0.8330 0.8330 0.8330 0.8330 0.8330
1853.987770 0.8330 0.8330 0.8330 0.8330 0.8310
1857.291214 0.8310 0.8310 0.8310 0.8310 0.8300
1860.594658 0.8300 0.8300 0.8300 0.8300 0.8300
1863.898102 0.8300 0.8310 0.8310 0.8310 0.8310
1867.201547 0.8310 0.8310 0.8310 0.8310 0.8310
1870.504991 0.8310 0.8320 0.8320 0.8320 0.8320
1873.808435 0.8320 0.8320 0.8320 0.8320 0.8320
1877.111879 0.8310 0.8310 0.8310 0.8310 0.8300
1880.415323 0.8290 0.8290 0.8280 0.8280 0.8270
1883.718767 0.8270 0.8250 0.8240 0.8230 0.8230
1887.022211 0.8230 0.8210 0.8200 0.8190 0.8170
1890.325655 0.8160 0.8140 0.8130 0.8110 0.8100
1893.629100 0.8080 0.8070 0.8060 0.8050 0.8040
1896.932544 0.8030 0.8020 0.8010 0.8010 0.8010
1900.235988 0.8000 0.8000 0.7990 0.7980 0.7970
1903.539432 0.7960 0.7960 0.7950 0.7940 0.7940
1906.842876 0.7930 0.7920 0.7910 0.7900 0.7900
1910.146320 0.7880 0.7880 0.7840 0.7830 0.7820
1913.449764 0.7810 0.7790 0.7770 0.7750 0.7730
1916.753209 0.7710 0.7690 0.7670 0.7660 0.7610
1920.056653 0.7570 0.7530 0.7520 0.7480 0.7450
1923.360097 0.7430 0.7420 0.7410 0.7400 0.7400
1926.663541 0.7400 0.7410 0.7420 0.7430 0.7460
1929.966985 0.7490 0.7530 0.7550 0.7570 0.7610
1933.270429 0.7650 0.7670 0.7670 0.7690 0.7700
1936.573873 0.7710 0.7730 0.7740 0.7750 0.7760
1939.877317 0.7770 0.7790 0.7810 0.7820 0.7830
1943.180762 0.7840 0.7850 0.7860 0.7880 0.7880
1946.484206 0.7880 0.7890 0.7920 0.7940 0.7960
1949.787650 0.7970 0.7970 0.7980 0.7980 0.8000
1953.091094 0.8000 0.8010 0.8020 0.8030 0.8040
1956.394538 0.8050 0.8060 0.8060 0.8080 0.8080
1959.697982 0.8090 0.8100 0.8090 0.8100 0.8110
1963.001426 0.8120 0.8130 0.8130 0.8140 0.8150
1966.304870 0.8150 0.8160 0.8170 0.8180 0.8190
1969.608315 0.8200 0.8220 0.8230 0.8280 0.8300
1972.911759 0.8310 0.8310 0.8320 0.8330 0.8330
1976.215203 0.8330 0.8350 0.8350 0.8370 0.8370
1979.518647 0.8370 0.8370 0.8390 0.8390 0.8400
1982.822091 0.8410 0.8420 0.8430 0.8430 0.8430
1986.125535 0.8430 0.8430 0.8430 0.8430 0.8430
1989.428979 0.8430 0.8430 0.8430 0.8430 0.8420
1992.732424 0.8420 0.8420 0.8420 0.8410 0.8410
1996.035868 0.8410 0.8410 0.8410 0.8410 0.8410
1999.339312 0.8410 0.8400 0.8400 0.8400 0.8400
2002.642756 0.8400 0.8400 0.8400 0.8400 0.8400
2005.946200 0.8397 0.8395 0.8392 0.8390 0.8390
2009.249644 0.8390 0.8390 0.8390 0.8390 0.8390
2012.553088 0.8390 0.8390 0.8390 0.8390 0.8390
2015.856532 0.8390 0.8390 0.8390 0.8390 0.8390
2019.159977 0.8390 0.8390 0.8390 0.8390 0.8390
2022.463421 0.8390 0.8390 0.8390 0.8390 0.8390
2025.766865 0.8390 0.8389 0.8386 0.8384 0.8381
2029.070309 0.8380 0.8380 0.8380 0.8380 0.8378
2032.373753 0.8376 0.8373 0.8371 0.8370 0.8370
2035.677197 0.8370 0.8370 0.8370 0.8370 0.8370
2038.980641 0.8370 0.8370 0.8370 0.8370 0.8370
2042.284086 0.8368 0.8365 0.8363 0.8360 0.8360
2045.587530 0.8360 0.8360 0.8360 0.8358 0.8355
2048.890974 0.8353 0.8350 0.8350 0.8350 0.8350
2052.194418 0.8350 0.8347 0.8345 0.8342 0.8340
2055.497862 0.8337 0.8335 0.8332 0.8330 0.8330
2058.801306 0.8330 0.8330 0.8329 0.8324 0.8319
2062.104750 0.8313 0.8309 0.8307 0.8304 0.8302
2065.408194 0.8299 0.8297 0.8294 0.8291 0.8290
2068.711639 0.8290 0.8290 0.8290 0.8288 0.8283
2072.015083 0.8277 0.8272 0.8270 0.8270 0.8270
2075.318527 0.8270 0.8269 0.8266 0.8263 0.8261
2078.621971 0.8258 0.8256 0.8253 0.8251 0.8248
2081.925415 0.8246 0.8243 0.8241 0.8238 0.8236
2085.228859 0.8233 0.8230 0.8228 0.8225 0.8223
2088.532303 0.8220 0.8218 0.8215 0.8213 0.8210
2091.835747 0.8205 0.8200 0.8195 0.8190 0.8188
2095.139192 0.8185 0.8182 0.8180 0.8175 0.8170
2098.442636 0.8165 0.8160 0.8157 0.8155 0.8152
2101.746080 0.8150 0.8147 0.8145 0.8142 0.8139
2105.049524 0.8137 0.8134 0.8132 0.8129 0.8127
2108.352968 0.8124 0.8122 0.8119 0.8117 0.8114
2111.656412 0.8112 0.8110 0.8110 0.8110 0.8110
2114.959856 0.8109 0.8106 0.8104 0.8101 0.8100
2118.263301 0.8100 0.8100 0.8100 0.8100 0.8100
2121.566745 0.8100 0.8100 0.8100 0.8100 0.8100
2124.870189 0.8100 0.8100 0.8100 0.8100 0.8100
2128.173633 0.8102 0.8104 0.8107 0.8109 0.8112
2131.477077 0.8115 0.8117 0.8120 0.8120 0.8120
2134.780521 0.8120 0.8120 0.8120 0.8120 0.8120
2138.083965 0.8120 0.8122 0.8125 0.8127 0.8130
2141.387409 0.8130 0.8130 0.8130 0.8130 0.8135
2144.690854 0.8140 0.8145 0.8150 0.8150 0.8150
2147.994298 0.8150 0.8150 0.8153 0.8155 0.8158
2151.297742 0.8160 0.8160 0.8160 0.8160 0.8161
2154.601186 0.8163 0.8166 0.8168 0.8170 0.8170
2157.904630 0.8170 0.8170 0.8170 0.8170 0.8170
2161.208074 0.8170 0.8170 0.8170 0.8170 0.8170
2164.511518 0.8169 0.8166 0.8164 0.8161 0.8159
2167.814963 0.8156 0.8154 0.8151 0.8150 0.8150
2171.118407 0.8150 0.8150 0.8150 0.8150 0.8150
2174.421851 0.8150 0.8146 0.8141 0.8136 0.8131
2177.725295 0.8130 0.8130 0.8130 0.8130 0.8128
2181.028739 0.8125 0.8123 0.8120 0.8118 0.8115
2184.332183 0.8113 0.8110 0.8110 0.8110 0.8110
2187.635627 0.8110 0.8110 0.8110 0.8110 0.8110
2190.939071 0.8113 0.8115 0.8118 0.8120 0.8120
2194.242516 0.8120 0.8120 0.8120 0.8120 0.8120
2197.545960 0.8120 0.8121 0.8123 0.8126 0.8128
2200.849404 0.8133 0.8143 0.8153 0.8163 0.8176
2204.152848 0.8197 0.8217 0.8237 0.8253 0.8261
2207.456292 0.8268 0.8276 0.8281 0.8284 0.8286
2210.759736 0.8289 0.8293 0.8298 0.8303 0.8308
2214.063180 0.8314 0.8322 0.8330 0.8337 0.8342
2217.366624 0.8344 0.8347 0.8349 0.8350 0.8350
2220.670069 0.8350 0.8350 0.8350 0.8350 0.8350
2223.973513 0.8350 0.8348 0.8346 0.8343 0.8340
2227.276957 0.8340 0.8340 0.8340 0.8340 0.8340
2230.580401 0.8340 0.8340 0.8340 0.8338 0.8335
2233.883845 0.8333 0.8330 0.8330 0.8330 0.8330
2237.187289 0.8330 0.8330 0.8330 0.8330 0.8330
2240.490733 0.8330 0.8330 0.8330 0.8330 0.8327
2243.794178 0.8324 0.8322 0.8320 0.8320 0.8320
2247.097622 0.8320 0.8319 0.8317 0.8314 0.8312
2250.401066 0.8310 0.8310 0.8310 0.8310 0.8310
2253.704510 0.8310 0.8310 0.8310 0.8310 0.8310
2257.007954 0.8310 0.8310 0.8310 0.8310 0.8310
2260.311398 0.8310 0.8310 0.8310 0.8310 0.8310
2263.614842 0.8308 0.8306 0.8303 0.8301 0.8300
2266.918286 0.8300 0.8300 0.8300 0.8300 0.8300
2270.221731 0.8300 0.8300 0.8300 0.8300 0.8300
2273.525175 0.8300 0.8300 0.8300 0.8300 0.8300
2276.828619 0.8300 0.8300 0.8300 0.8300 0.8298
2280.132063 0.8295 0.8293 0.8290 0.8290 0.8290
2283.435507 0.8290 0.8290 0.8290 0.8290 0.8290
2286.738951 0.8290 0.8290 0.8290 0.8290 0.8290
2290.042395 0.8290 0.8290 0.8290 0.8290 0.8290
2293.345840 0.8290 0.8290 0.8290 0.8290 0.8290
2296.649284 0.8290 0.8290 0.8290 0.8290 0.8290
2299.952728 0.8290 0.8290 0.8290 0.8290 0.8289
2303.256172 0.8286 0.8284 0.8281 0.8280 0.8280
2306.559616 0.8280 0.8280 0.8279 0.8276 0.8274
2309.863060 0.8271 0.8270 0.8270 0.8270 0.8270
2313.166504 0.8270 0.8270 0.8270 0.8270 0.8270
2316.469948 0.8270 0.8270 0.8270 0.8270 0.8270
2319.773393 0.8270 0.8270 0.8268 0.8265 0.8263
2323.076837 0.8260 0.8260 0.8260 0.8260 0.8260
2326.380281 0.8260 0.8260 0.8260 0.8260 0.8257
2329.683725 0.8255 0.8252 0.8250 0.8250 0.8250
2332.987169 0.8250 0.8250 0.8250 0.8250 0.8250
2336.290613 0.8250 0.8250 0.8250 0.8250 0.8251
2339.594057 0.8253 0.8256 0.8258 0.8260 0.8260
2342.897501 0.8260 0.8260 0.8260 0.8260 0.8260
2346.200946 0.8260 0.8259 0.8256 0.8254 0.8251
2349.504390 0.8250 0.8250 0.8250 0.8250 0.8250
2352.807834 0.8250 0.8250 0.8250 0.8249 0.8246
2356.111278 0.8244 0.8241 0.8240 0.8240 0.8240
2359.414722 0.8240 0.8238 0.8236 0.8233 0.8231
2362.718166 0.8230 0.8230 0.8230 0.8230 0.8228
2366.021610 0.8225 0.8223 0.8220 0.8213 0.8206
2369.325055 0.8198 0.8191 0.8185 0.8180 0.8175
2372.628499 0.8170 0.8163 0.8155 0.8147 0.8140
2375.931943 0.8137 0.8135 0.8132 0.8130 0.8130
2379.235387 0.8130 0.8130 0.8130 0.8127 0.8125
2382.538831 0.8122 0.8120 0.8120 0.8120 0.8120
2385.842275 0.8120 0.8120 0.8120 0.8120 0.8120
2389.145719 0.8120 0.8120 0.8120 0.8121 0.8123
2392.449163 0.8126 0.8129 0.8130 0.8130 0.8130
2395.752608 0.8130 0.8131 0.8134 0.8136 0.8139
2399.056052 0.8144 0.8152 0.8159 0.8167 0.8173
2402.359496 0.8178 0.8183 0.8188 0.8192 0.8194
2405.662940 0.8197 0.8199 0.8202 0.8204 0.8207
2408.966384 0.8209 0.8212 0.8214 0.8217 0.8219
2412.269828 0.8222 0.8225 0.8227 0.8230 0.8230
2415.573272 0.8230 0.8230 0.8230 0.8232 0.8235
2418.876717 0.8237 0.8240 0.8242 0.8245 0.8248
2422.180161 0.8250 0.8253 0.8255 0.8258 0.8261
2425.483605 0.8268 0.8276 0.8283 0.8290 0.8290
2428.787049 0.8290 0.8290 0.8290 0.8290 0.8290
2432.090493 0.8290 0.8291 0.8293 0.8296 0.8298
2435.393937 0.8301 0.8303 0.8306 0.8308 0.8310
2438.697381 0.8310 0.8310 0.8310 0.8311 0.8314
2442.000825 0.8316 0.8319 0.8321 0.8324 0.8326
2445.304270 0.8329 0.8330 0.8330 0.8330 0.8330
2448.607714 0.8330 0.8330 0.8330 0.8330 0.8332
2451.911158 0.8334 0.8337 0.8339 0.8342 0.8344
2455.214602 0.8347 0.8349 0.8350 0.8350 0.8350
2458.518046 0.8350 0.8350 0.8350 0.8350 0.8350
2461.821490 0.8352 0.8355 0.8357 0.8360 0.8360
2465.124934 0.8360 0.8360 0.8360 0.8360 0.8360
2468.428379 0.8360 0.8360 0.8360 0.8360 0.8360
2471.731823 0.8360 0.8357 0.8355 0.8352 0.8350
2475.035267 0.8347 0.8345 0.8342 0.8339 0.8337
2478.338711 0.8334 0.8332 0.8327 0.8317 0.8307
2481.642155 0.8297 0.8288 0.8283 0.8278 0.8273
2484.945599 0.8270 0.8270 0.8270 0.8270 0.8266
2488.249043 0.8256 0.8246 0.8236 0.8227 0.8219
2491.552487 0.8211 0.8204 0.8199 0.8196 0.8194
2494.855932 0.8191 0.8190 0.8190 0.8190 0.8190
2498.159376 0.8187 0.8182 0.8177 0.8171 0.8170
2501.462820 0.8170 0.8170 0.8170 0.8170 0.8170
2504.766264 0.8170 0.8170 0.8172 0.8175 0.8177
2508.069708 0.8180 0.8180 0.8180 0.8180 0.8180
2511.373152 0.8182 0.8185 0.8187 0.8190 0.8192
2514.676596 0.8195 0.8198 0.8200 0.8203 0.8205
2517.980040 0.8208 0.8210 0.8210 0.8210 0.8210
2521.283485 0.8210 0.8213 0.8215 0.8218 0.8221
2524.586929 0.8223 0.8226 0.8228 0.8232 0.8240
2527.890373 0.8247 0.8255 0.8261 0.8263 0.8266
2531.193817 0.8268 0.8272 0.8277 0.8282 0.8287
2534.497261 0.8291 0.8294 0.8296 0.8299 0.8300
2537.800705 0.8300 0.8300 0.8300 0.8299 0.8296
2541.104149 0.8294 0.8291 0.8290 0.8290 0.8290
2544.407594 0.8290 0.8288 0.8286 0.8283 0.8281
2547.711038 0.8280 0.8280 0.8280 0.8280 0.8276
2551.014482 0.8271 0.8266 0.8261 0.8256 0.8251
2554.317926 0.8246 0.8241 0.8236 0.8230 0.8225
2557.621370 0.8220 0.8218 0.8215 0.8213 0.8210
2560.924814 0.8210 0.8210 0.8210 0.8210 0.8207
2564.228258 0.8205 0.8202 0.8200 0.8197 0.8195
2567.531702 0.8192 0.8190 0.8187 0.8185 0.8182
2570.835147 0.8180 0.8177 0.8174 0.8172 0.8170
2574.138591 0.8170 0.8170 0.8170 0.8167 0.8160
2577.442035 0.8152 0.8145 0.8137 0.8129 0.8122
2580.745479 0.8114 0.8104 0.8092 0.8079 0.8066
2584.048923 0.8059 0.8056 0.8054 0.8051 0.8049
2587.352367 0.8046 0.8044 0.8041 0.8040 0.8040
2590.655811 0.8040 0.8040 0.8040 0.8040 0.8040
2593.959256 0.8040 0.8040 0.8040 0.8040 0.8040
2597.262700 0.8046 0.8053 0.8061 0.8069 0.8076
2600.566144 0.8084 0.8092 0.8099 0.8105 0.8110
2603.869588 0.8115 0.8120 0.8122 0.8125 0.8127
2607.173032 0.8130 0.8138 0.8145 0.8153 0.8160
2610.476476 0.8168 0.8176 0.8183 0.8191 0.8201
2613.779920 0.8211 0.8221 0.8231 0.8236 0.8241
2617.083364 0.8246 0.8250 0.8250 0.8250 0.8250
2620.386809 0.8251 0.8253 0.8256 0.8258 0.8261
2623.690253 0.8263 0.8266 0.8268 0.8270 0.8270
2626.993697 0.8270 0.8270 0.8269 0.8266 0.8264
2630.297141 0.8261 0.8259 0.8256 0.8254 0.8251
2633.600585 0.8250 0.8250 0.8250 0.8250 0.8247
2636.904029 0.8242 0.8237 0.8232 0.8223 0.8213
2640.207473 0.8203 0.8193 0.8174 0.8151 0.8128
2643.510917 0.8106 0.8079 0.8051 0.8023 0.7995
2646.814362 0.7982 0.7972 0.7962 0.7951 0.7941
2650.117806 0.7931 0.7921 0.7910 0.7900 0.7890
2653.421250 0.7880 0.7870 0.7860 0.7850 0.7840
2656.724694 0.7829 0.7819 0.7809 0.7799 0.7789
2660.028138 0.7782 0.7774 0.7766 0.7760 0.7760
2663.331582 0.7760 0.7760 0.7759 0.7757 0.7754
2666.635026 0.7752 0.7750 0.7750 0.7750 0.7750
2669.938471 0.7751 0.7753 0.7756 0.7758 0.7761
2673.241915 0.7763 0.7766 0.7769 0.7774 0.7785
2676.545359 0.7795 0.7805 0.7819 0.7837 0.7855
2679.848803 0.7872 0.7892 0.7912 0.7932 0.7952
2683.152247 0.7969 0.7985 0.8000 0.8015 0.8023
2686.455691 0.8028 0.8034 0.8039 0.8040 0.8040
2689.759135 0.8040 0.8040 0.8046 0.8053 0.8061
2693.062579 0.8069 0.8072 0.8075 0.8077 0.8080
2696.366024 0.8084 0.8089 0.8095 0.8100 0.8100
2699.669468 0.8100 0.8100 0.8100 0.8107 0.8115
2702.972912 0.8123 0.8130 0.8133 0.8135 0.8138
2706.276356 0.8140 0.8143 0.8145 0.8148 0.8151
2709.579800 0.8156 0.8161 0.8166 0.8170 0.8170
2712.883244 0.8170 0.8170 0.8170 0.8170 0.8170
2716.186688 0.8170 0.8170 0.8170 0.8170 0.8170
2719.490133 0.8169 0.8166 0.8164 0.8161 0.8159
2722.793577 0.8156 0.8154 0.8151 0.8150 0.8150
2726.097021 0.8150 0.8150 0.8149 0.8146 0.8144
2729.400465 0.8141 0.8138 0.8136 0.8133 0.8131
2732.703909 0.8130 0.8130 0.8130 0.8130 0.8126
2736.007353 0.8121 0.8116 0.8111 0.8104 0.8096
2739.310797 0.8089 0.8081 0.8076 0.8071 0.8066
2742.614241 0.8061 0.8055 0.8050 0.8045 0.8040
2745.917686 0.8038 0.8035 0.8033 0.8030 0.8027
2749.221130 0.8025 0.8022 0.8020 0.8017 0.8015
2752.524574 0.8012 0.8010 0.8007 0.8005 0.8002
2755.828018 0.8000 0.7997 0.7994 0.7992 0.7989
2759.131462 0.7987 0.7984 0.7982 0.7979 0.7977
2762.434906 0.7974 0.7972 0.7969 0.7967 0.7964
2765.738350 0.7962 0.7959 0.7956 0.7954 0.7951
2769.041794 0.7949 0.7946 0.7944 0.7941 0.7939
2772.345239 0.7936 0.7934 0.7931 0.7929 0.7926
2775.648683 0.7924 0.7921 0.7918 0.7916 0.7913
2778.952127 0.7911 0.7908 0.7906 0.7903 0.7901
2782.255571 0.7892 0.7882 0.7872 0.7862 0.7852
2785.559015 0.7842 0.7832 0.7821 0.7805 0.7787
2788.862459 0.7769 0.7752 0.7736 0.7721 0.7706
2792.165903 0.7691 0.7644 0.7596 0.7548 0.7500
2795.469348 0.7467 0.7434 0.7401 0.7368 0.7338
2798.772792 0.7308 0.7277 0.7240 0.7141 0.7042
2802.076236 0.6943 0.6835 0.6673 0.6510 0.6348
2805.379680 0.6193 0.6065 0.5937 0.5809 0.5693
2808.683124 0.5607 0.5521 0.5435 0.5348 0.5259
2811.986568 0.5171 0.5082 0.4960 0.4791 0.4621
2815.290012 0.4451 0.4319 0.4230 0.4142 0.4053
2818.593456 0.3967 0.3884 0.3800 0.3717 0.3680
2821.896901 0.3680 0.3680 0.3680 0.3736 0.3827
2825.200345 0.3918 0.4009 0.4101 0.4192 0.4283
2828.503789 0.4374 0.4434 0.4482 0.4531 0.4579
2831.807233 0.4625 0.4672 0.4718 0.4764 0.4790
2835.110677 0.4813 0.4835 0.4858 0.4900 0.4943
2838.414121 0.4986 0.5029 0.5094 0.5160 0.5226
2841.717565 0.5291 0.5337 0.5382 0.5428 0.5473
2845.021010 0.5513 0.5554 0.5594 0.5635 0.5678
2848.324454 0.5721 0.5764 0.5809 0.5862 0.5916
2851.627898 0.5969 0.6011 0.6013 0.6016 0.6018
2854.931342 0.6020 0.6020 0.6020 0.6020 0.6008
2858.234786 0.5969 0.5931 0.5892 0.5861 0.5841
2861.538230 0.5821 0.5801 0.5748 0.5659 0.5570
2864.841674 0.5482 0.5400 0.5324 0.5248 0.5172
2868.145118 0.5030 0.4840 0.4650 0.4460 0.4390
2871.448563 0.4390 0.4390 0.4390 0.4402 0.4420
2874.752007 0.4438 0.4455 0.4473 0.4491 0.4508
2878.055451 0.4526 0.4556 0.4589 0.4622 0.4654
2881.358895 0.4687 0.4720 0.4753 0.4786 0.4819
2884.662339 0.4853 0.4886 0.4920 0.4962 0.5005
2887.965783 0.5049 0.5090 0.5090 0.5090 0.5090
2891.269227 0.5076 0.4911 0.4746 0.4582 0.4430
2894.572671 0.4359 0.4288 0.4218 0.4144 0.4058
2897.876116 0.3972 0.3885 0.3810 0.3770 0.3729
2901.179560 0.3689 0.3650 0.3614 0.3579 0.3543
2904.483004 0.3507 0.3469 0.3431 0.3393 0.3355
2907.786448 0.3317 0.3279 0.3241 0.3220 0.3220
2911.089892 0.3220 0.3220 0.3248 0.3298 0.3349
2914.393336 0.3399 0.3473 0.3561 0.3650 0.3739
2917.696780 0.3795 0.3832 0.3870 0.3908 0.3969
2921.000225 0.4040 0.4111 0.4182 0.4196 0.4191
2924.303669 0.4186 0.4181 0.4180 0.4180 0.4180
2927.607113 0.4180 0.4165 0.4147 0.4130 0.4112
2930.910557 0.4087 0.4062 0.4037 0.4011 0.3993
2934.214001 0.3975 0.3958 0.3940 0.3891 0.3843
2937.517445 0.3794 0.3745 0.3700 0.3654 0.3609
2940.820889 0.3547 0.3395 0.3243 0.3091 0.2954
2944.124333 0.2876 0.2797 0.2719 0.2639 0.2558
2947.427778 0.2477 0.2396 0.2331 0.2300 0.2270
2950.731222 0.2240 0.2220 0.2220 0.2220 0.2220
2954.034666 0.2316 0.2551 0.2786 0.3022 0.3229
2957.338110 0.3401 0.3573 0.3745 0.3866 0.3937
2960.641554 0.4008 0.4079 0.4150 0.4222 0.4294
2963.944998 0.4366 0.4413 0.4449 0.4484 0.4520
2967.248442 0.4555 0.4591 0.4626 0.4662 0.4703
2970.551887 0.4746 0.4789 0.4832 0.4964 0.5115
2973.855331 0.5267 0.5419 0.5495 0.5558 0.5621
2977.158775 0.5685 0.5683 0.5675 0.5668 0.5660
2980.462219 0.5658 0.5655 0.5652 0.5650 0.5629
2983.765663 0.5609 0.5589 0.5567 0.5524 0.5481
2987.069107 0.5438 0.5395 0.5351 0.5308 0.5264
2990.372551 0.5220 0.5174 0.5129 0.5083 0.5038
2993.675995 0.4992 0.4947 0.4901 0.4855 0.4810
2996.979440 0.4764 0.4719 0.4659 0.4575 0.4492
3000.282884 0.4408 0.4360 0.4360 0.4360 0.4360
3003.586328 0.4373 0.4401 0.4429 0.4457 0.4477
3006.889772 0.4489 0.4502 0.4515 0.4527 0.4540
3010.193216 0.4553 0.4565 0.4597 0.4640 0.4683
3013.496660 0.4726 0.4769 0.4813 0.4857 0.4900
3016.800104 0.4940 0.4977 0.5015 0.5053 0.5100
3020.103548 0.5148 0.5196 0.5244 0.5268 0.5288
3023.406993 0.5308 0.5329 0.5356 0.5384 0.5412
3026.710437 0.5439 0.5450 0.5460 0.5470 0.5480
3030.013881 0.5485 0.5490 0.5495 0.5500 0.5497
3033.317325 0.5495 0.5492 0.5483 0.5427 0.5371
3036.620769 0.5316 0.5270 0.5270 0.5270 0.5270
3039.924213 0.5277 0.5308 0.5339 0.5370 0.5391
3043.227657 0.5393 0.5396 0.5398 0.5466 0.5635
3046.531102 0.5805 0.5975 0.6090 0.6136 0.6181
3049.834546 0.6227 0.6273 0.6322 0.6370 0.6418
3053.137990 0.6444 0.6452 0.6459 0.6467 0.6477
3056.441434 0.6490 0.6503 0.6515 0.6533 0.6553
3059.744878 0.6573 0.6594 0.6621 0.6651 0.6682
3063.048322 0.6712 0.6731 0.6746 0.6762 0.6777
3066.351766 0.6782 0.6785 0.6787 0.6790 0.6792
3069.655210 0.6795 0.6797 0.6800 0.6800 0.6800
3072.958655 0.6800 0.6800 0.6792 0.6785 0.6777
3076.262099 0.6768 0.6720 0.6672 0.6623 0.6576
3079.565543 0.6538 0.6500 0.6462 0.6425 0.6389
3082.868987 0.6354 0.6318 0.6283 0.6251 0.6218
3086.172431 0.6185 0.6151 0.6116 0.6080 0.6045
3089.475875 0.6011 0.5981 0.5950 0.5920 0.5900
3092.779319 0.5900 0.5900 0.5900 0.5918 0.5959
3096.082764 0.5999 0.6040 0.6083 0.6129 0.6174
3099.386208 0.6220 0.6264 0.6307 0.6350 0.6393
3102.689652 0.6422 0.6443 0.6463 0.6483 0.6505
3105.993096 0.6528 0.6551 0.6573 0.6623 0.6684
3109.296540 0.6744 0.6805 0.6853 0.6896 0.6939
3112.599984 0.6982 0.7002 0.7017 0.7033 0.7048
3115.903428 0.7096 0.7149 0.7202 0.7255 0.7316
3119.206872 0.7378 0.7439 0.7500 0.7518 0.7536
3122.510317 0.7553 0.7570 0.7578 0.7586 0.7593
3125.813761 0.7601 0.7608 0.7616 0.7624 0.7632
3129.117205 0.7645 0.7657 0.7670 0.7681 0.7683
3132.420649 0.7686 0.7688 0.7691 0.7693 0.7696
3135.724093 0.7698 0.7701 0.7703 0.7706 0.7708
3139.027537 0.7711 0.7713 0.7716 0.7719 0.7725
3142.330981 0.7738 0.7751 0.7763 0.7772 0.7778
3145.634425 0.7783 0.7788 0.7797 0.7810 0.7823
3148.937870 0.7835 0.7843 0.7848 0.7853 0.7858
3152.241314 0.7860 0.7860 0.7860 0.7860 0.7864
3155.544758 0.7869 0.7874 0.7879 0.7882 0.7884
3158.848202 0.7887 0.7890 0.7892 0.7895 0.7897
3162.151646 0.7900 0.7904 0.7909 0.7915 0.7920
3165.455090 0.7920 0.7920 0.7920 0.7920 0.7920
3168.758534 0.7920 0.7920 0.7920 0.7920 0.7920
3172.061979 0.7920 0.7920 0.7920 0.7920 0.7920
3175.365423 0.7920 0.7920 0.7920 0.7920 0.7920
3178.668867 0.7920 0.7920 0.7920 0.7920 0.7920
3181.972311 0.7920 0.7920 0.7918 0.7913 0.7908
3185.275755 0.7903 0.7900 0.7900 0.7900 0.7900
3188.579199 0.7899 0.7896 0.7894 0.7891 0.7890
3191.882643 0.7890 0.7890 0.7890 0.7889 0.7886
3195.186087 0.7884 0.7881 0.7880 0.7880 0.7880
3198.489532 0.7880 0.7880 0.7880 0.7880 0.7880
3201.792976 0.7878 0.7876 0.7873 0.7871 0.7870
3205.096420 0.7870 0.7870 0.7870 0.7868 0.7865
3208.399864 0.7863 0.7860 0.7860 0.7860 0.7860
3211.703308 0.7860 0.7862 0.7865 0.7867 0.7870
3215.006752 0.7875 0.7880 0.7885 0.7890 0.7898
3218.310196 0.7905 0.7913 0.7920 0.7926 0.7931
3221.613641 0.7936 0.7941 0.7949 0.7956 0.7964
3224.917085 0.7972 0.7979 0.7987 0.7995 0.8002
3228.220529 0.8010 0.8017 0.8025 0.8033 0.8040
3231.523973 0.8048 0.8055 0.8063 0.8071 0.8078
3234.827417 0.8086 0.8091 0.8094 0.8096 0.8099
3238.130861 0.8100 0.8100 0.8100 0.8100 0.8101
3241.434305 0.8104 0.8106 0.8109 0.8110 0.8110
3244.737749 0.8110 0.8110 0.8108 0.8106 0.8103
3248.041194 0.8101 0.8098 0.8096 0.8093 0.8091
3251.344638 0.8084 0.8076 0.8069 0.8061 0.8051
3254.648082 0.8041 0.8031 0.8021 0.8009 0.7996
3257.951526 0.7983 0.7971 0.7953 0.7935 0.7918
3261.254970 0.7900 0.7890 0.7880 0.7870 0.7858
3264.558414 0.7817 0.7777 0.7736 0.7699 0.7689
3267.861858 0.7679 0.7669 0.7658 0.7645 0.7633
3271.165302 0.7620 0.7610 0.7610 0.7610 0.7610
3274.468747 0.7609 0.7607 0.7604 0.7602 0.7601
3277.772191 0.7603 0.7606 0.7609 0.7612 0.7617
3281.075635 0.7622 0.7627 0.7632 0.7637 0.7642
3284.379079 0.7648 0.7655 0.7665 0.7675 0.7686
3287.682523 0.7696 0.7706 0.7716 0.7726 0.7736
3290.985967 0.7746 0.7756 0.7767 0.7777 0.7787
3294.289411 0.7797 0.7807 0.7814 0.7819 0.7824
3297.592856 0.7829 0.7832 0.7834 0.7837 0.7840
3300.896300 0.7840 0.7840 0.7840 0.7840 0.7835
3304.199744 0.7830 0.7825 0.7820 0.7815 0.7810
3307.503188 0.7805 0.7800 0.7797 0.7795 0.7792
3310.806632 0.7789 0.7779 0.7769 0.7759 0.7749
3314.110076 0.7739 0.7729 0.7718 0.7708 0.7698
3317.413520 0.7688 0.7678 0.7663 0.7633 0.7602
3320.716964 0.7572 0.7544 0.7524 0.7504 0.7484
3324.020409 0.7465 0.7450 0.7435 0.7420 0.7403
3327.323853 0.7385 0.7367 0.7349 0.7327 0.7299
3330.627297 0.7271 0.7243 0.7222 0.7207 0.7192
3333.930741 0.7176 0.7164 0.7154 0.7144 0.7134
3337.234185 0.7114 0.7089 0.7063 0.7038 0.6990
3340.537629 0.6932 0.6874 0.6816 0.6754 0.6690
3343.841073 0.6627 0.6564 0.6518 0.6478 0.6437
3347.144518 0.6397 0.6360 0.6325 0.6290 0.6254
3350.447962 0.6237 0.6221 0.6206 0.6191 0.6149
3353.751406 0.6106 0.6062 0.6018 0.5968 0.5917
3357.054850 0.5866 0.5816 0.5765 0.5714 0.5664
3360.358294 0.5547 0.5018 0.4489 0.3960 0.3499
3363.661738 0.3334 0.3170 0.3005 0.2844 0.2695
3366.965182 0.2546 0.2396 0.2269 0.2199 0.2128
3370.268626 0.2057 0.1994 0.1946 0.1897 0.1849
3373.572071 0.1796 0.1735 0.1675 0.1614 0.1554
3376.875515 0.1496 0.1438 0.1380 0.1321 0.1262
3380.178959 0.1203 0.1144 0.1085 0.1027 0.0969
3383.482403 0.0911 0.0854 0.0798 0.0743 0.0687
3386.785847 0.0670 0.0670 0.0670 0.0670 0.0715
3390.089291 0.0776 0.0837 0.0898 0.0956 0.1015
3393.392735 0.1073 0.1131 0.1192 0.1252 0.1313
3396.696179 0.1374 0.1435 0.1495 0.1556 0.1617
3399.999624 0.1654 0.1689 0.1725 0.1760 0.1780
3403.303068 0.1801 0.1821 0.1849 0.2031 0.2214
3406.606512 0.2396 0.2577 0.2754 0.2932 0.3109
3409.909956 0.3302 0.3558 0.3814 0.4069 0.4274
3413.213400 0.4327 0.4380 0.4433 0.4485 0.4536
3416.516844 0.4587 0.4637 0.4685 0.4728 0.4771
3419.820288 0.4814 0.4848 0.4868 0.4889 0.4909
3423.123733 0.5037 0.5293 0.5548 0.5804 0.5999
3426.427177 0.6136 0.6273 0.6410 0.6503 0.6561
3429.730621 0.6619 0.6677 0.6711 0.6729 0.6747
3433.034065 0.6765 0.6786 0.6809 0.6832 0.6855
3436.337509 0.6912 0.6980 0.7049 0.7117 0.7142
3439.640953 0.7158 0.7173 0.7188 0.7190 0.7190
3442.944397 0.7190 0.7190 0.7188 0.7185 0.7183
3446.247841 0.7180 0.7156 0.7130 0.7105 0.7080
3449.551286 0.7067 0.7054 0.7042 0.7028 0.7003
3452.854730 0.6978 0.6952 0.6929 0.6919 0.6909
3456.158174 0.6898 0.6888 0.6878 0.6868 0.6857
3459.461618 0.6847 0.6837 0.6827 0.6817 0.6806
3462.765062 0.6793 0.6781 0.6768 0.6754 0.6739
3466.068506 0.6724 0.6709 0.6698 0.6693 0.6688
3469.371950 0.6683 0.6678 0.6673 0.6667 0.6662
3472.675395 0.6656 0.6648 0.6641 0.6633 0.6618
3475.978839 0.6598 0.6578 0.6558 0.6537 0.6517
3479.282283 0.6497 0.6477 0.6458 0.6440 0.6423
3482.585727 0.6405 0.6385 0.6365 0.6344 0.6324
3485.889171 0.6303 0.6283 0.6263 0.6242 0.6238
3489.192615 0.6235 0.6233 0.6230 0.6232 0.6235
3492.496059 0.6237 0.6240 0.6280 0.6320 0.6361
3495.799503 0.6401 0.6439 0.6477 0.6515 0.6551
3499.102948 0.6558 0.6566 0.6573 0.6584 0.6612
3502.406392 0.6639 0.6667 0.6704 0.6780 0.6856
3505.709836 0.6932 0.6999 0.7040 0.7080 0.7121
3509.013280 0.7173 0.7252 0.7332 0.7411 0.7482
3512.316724 0.7541 0.7599 0.7657 0.7707 0.7745
3515.620168 0.7783 0.7821 0.7855 0.7885 0.7916
3518.923612 0.7946 0.7971 0.7991 0.8011 0.8032
3522.227056 0.8046 0.8056 0.8066 0.8076 0.8085
3525.530501 0.8092 0.8100 0.8108 0.8115 0.8123
3528.833945 0.8130 0.8138 0.8146 0.8153 0.8161
3532.137389 0.8168 0.8174 0.8179 0.8184 0.8189
3535.440833 0.8194 0.8199 0.8205 0.8210 0.8215
3538.744277 0.8220 0.8225 0.8230 0.8230 0.8230
3542.047721 0.8230 0.8230 0.8230 0.8230 0.8230
3545.351165 0.8230 0.8230 0.8230 0.8230 0.8231
3548.654610 0.8236 0.8241 0.8246 0.8250 0.8250
3551.958054 0.8250 0.8250 0.8250 0.8250 0.8250
3555.261498 0.8250 0.8252 0.8257 0.8262 0.8267
3558.564942 0.8271 0.8273 0.8276 0.8278 0.8282
3561.868386 0.8287 0.8292 0.8297 0.8301 0.8304
3565.171830 0.8306 0.8309 0.8310 0.8310 0.8310
3568.475274 0.8310 0.8310 0.8310 0.8310 0.8310
3571.778718 0.8312 0.8314 0.8317 0.8319 0.8320
3575.082163 0.8320 0.8320 0.8320 0.8322 0.8324
3578.385607 0.8327 0.8330 0.8330 0.8330 0.8330
3581.689051 0.8330 0.8330 0.8330 0.8330 0.8330
3584.992495 0.8332 0.8335 0.8337 0.8340 0.8342
3588.295939 0.8345 0.8348 0.8350 0.8350 0.8350
3591.599383 0.8350 0.8351 0.8356 0.8361 0.8366
3594.902827 0.8370 0.8370 0.8370 0.8370 0.8371
3598.206272 0.8376 0.8381 0.8386 0.8390 0.8390
3601.509716 0.8390 0.8390 0.8390 0.8390 0.8390
3604.813160 0.8390 0.8391 0.8393 0.8396 0.8399
3608.116604 0.8401 0.8404 0.8406 0.8409 0.8410
3611.420048 0.8410 0.8410 0.8410 0.8410 0.8410
3614.723492 0.8410 0.8410 0.8410 0.8410 0.8410
3618.026936 0.8410 0.8410 0.8410 0.8410 0.8410
3621.330380 0.8410 0.8410 0.8410 0.8410 0.8410
3624.633825 0.8410 0.8410 0.8410 0.8408 0.8405
3627.937269 0.8403 0.8400 0.8398 0.8395 0.8393
3631.240713 0.8390 0.8390 0.8390 0.8390 0.8390
3634.544157 0.8390 0.8390 0.8390 0.8390 0.8385
3637.847601 0.8380 0.8375 0.8370 0.8367 0.8365
3641.151045 0.8362 0.8360 0.8357 0.8354 0.8352
3644.454489 0.8349 0.8347 0.8344 0.8342 0.8340
3647.757933 0.8340 0.8340 0.8340 0.8340 0.8340
3651.061378 0.8340 0.8340 0.8341 0.8344 0.8346
3654.364822 0.8349 0.8351 0.8354 0.8356 0.8359
3657.668266 0.8361 0.8364 0.8366 0.8369 0.8371
3660.971710 0.8374 0.8376 0.8379 0.8381 0.8384
3664.275154 0.8387 0.8389 0.8390 0.8390 0.8390
3667.578598 0.8390 0.8390 0.8390 0.8390 0.8390
3670.882042 0.8392 0.8395 0.8397 0.8400 0.8400
3674.185487 0.8400 0.8400 0.8400 0.8402 0.8405
3677.488931 0.8407 0.8410 0.8410 0.8410 0.8410
3680.792375 0.8410 0.8410 0.8410 0.8410 0.8410
3684.095819 0.8415 0.8420 0.8425 0.8430 0.8436
3687.399263 0.8441 0.8446 0.8451 0.8456 0.8461
3690.702707 0.8466 0.8470 0.8470 0.8470 0.8470
3694.006151 0.8471 0.8473 0.8476 0.8478 0.8480
3697.309595 0.8480 0.8480 0.8480 0.8480 0.8480
3700.613040 0.8480 0.8480 0.8481 0.8484 0.8486
3703.916484 0.8489 0.8491 0.8494 0.8496 0.8499
3707.219928 0.8500 0.8500 0.8500 0.8500 0.8500
3710.523372 0.8500 0.8500 0.8500 0.8500 0.8500
3713.826816 0.8500 0.8500 0.8500 0.8500 0.8500
3717.130260 0.8500 0.8500 0.8500 0.8500 0.8500
3720.433704 0.8500 0.8500 0.8500 0.8500 0.8500
3723.737149 0.8500 0.8500 0.8500 0.8500 0.8500
3727.040593 0.8500 0.8500 0.8500 0.8500 0.8500
3730.344037 0.8500 0.8500 0.8500 0.8500 0.8500
3733.647481 0.8497 0.8495 0.8492 0.8490 0.8490
3736.950925 0.8490 0.8490 0.8490 0.8490 0.8490
3740.254369 0.8490 0.8489 0.8487 0.8484 0.8482
3743.557813 0.8480 0.8480 0.8480 0.8480 0.8480
3746.861257 0.8480 0.8480 0.8480 0.8481 0.8484
3750.164702 0.8486 0.8489 0.8490 0.8490 0.8490
3753.468146 0.8490 0.8491 0.8494 0.8496 0.8499
3756.771590 0.8500 0.8500 0.8500 0.8500 0.8500
3760.075034 0.8500 0.8500 0.8500 0.8500 0.8500
3763.378478 0.8500 0.8500 0.8500 0.8500 0.8500
3766.681922 0.8500 0.8502 0.8505 0.8507 0.8510
3769.985366 0.8510 0.8510 0.8510 0.8510 0.8512
3773.288810 0.8515 0.8518 0.8520 0.8520 0.8520
3776.592255 0.8520 0.8520 0.8520 0.8520 0.8520
3779.895699 0.8520 0.8520 0.8520 0.8520 0.8520
3783.199143 0.8520 0.8520 0.8520 0.8520 0.8520
3786.502587 0.8520 0.8520 0.8520 0.8520 0.8520
3789.806031 0.8520 0.8520 0.8520 0.8520 0.8520
3793.109475 0.8520 0.8520 0.8520 0.8520 0.8520
3796.412919 0.8520 0.8520 0.8520 0.8519 0.8516
3799.716364 0.8514 0.8511 0.8510 0.8510 0.8510
3803.019808 0.8510 0.8510 0.8510 0.8510 0.8510
3806.323252 0.8512 0.8514 0.8517 0.8519 0.8518
3809.626696 0.8516 0.8513 0.8511 0.8510 0.8510
3812.930140 0.8510 0.8510 0.8508 0.8505 0.8503
3816.233584 0.8500 0.8500 0.8500 0.8500 0.8500
3819.537028 0.8500 0.8500 0.8500 0.8500 0.8500
3822.840472 0.8500 0.8500 0.8500 0.8500 0.8500
3826.143917 0.8500 0.8500 0.8500 0.8500 0.8500
3829.447361 0.8500 0.8500 0.8500 0.8500 0.8500
3832.750805 0.8500 0.8500 0.8500 0.8500 0.8500
3836.054249 0.8500 0.8500 0.8499 0.8497 0.8494
3839.357693 0.8492 0.8489 0.8486 0.8484 0.8481
3842.661137 0.8480 0.8480 0.8480 0.8480 0.8480
3845.964581 0.8480 0.8480 0.8480 0.8479 0.8476
3849.268026 0.8473 0.8471 0.8470 0.8470 0.8470
3852.571470 0.8470 0.8468 0.8466 0.8463 0.8461
3855.874914 0.8460 0.8460 0.8460 0.8460 0.8462
3859.178358 0.8465 0.8467 0.8470 0.8470 0.8470
3862.481802 0.8470 0.8470 0.8470 0.8470 0.8470
3865.785246 0.8470 0.8470 0.8470 0.8470 0.8470
3869.088690 0.8467 0.8465 0.8462 0.8460 0.8460
3872.392134 0.8460 0.8460 0.8460 0.8457 0.8455
3875.695579 0.8452 0.8449 0.8447 0.8444 0.8442
3878.999023 0.8440 0.8440 0.8440 0.8440 0.8440
3882.302467 0.8440 0.8440 0.8440 0.8440 0.8440
3885.605911 0.8440 0.8440 0.8439 0.8436 0.8434
3888.909355 0.8431 0.8430 0.8430 0.8430 0.8430
3892.212799 0.8430 0.8430 0.8430 0.8430 0.8430
3895.516243 0.8430 0.8430 0.8430 0.8428 0.8426
3898.819687 0.8423 0.8421 0.8420 0.8420 0.8420
3902.123132 0.8420 0.8418 0.8416 0.8413 0.8410
3905.426576 0.8410 0.8410 0.8410 0.8410 0.8408
3908.730020 0.8405 0.8403 0.8400 0.8400 0.8400
3912.033464 0.8400 0.8400 0.8398 0.8395 0.8392
3915.336908 0.8390 0.8390 0.8390 0.8390 0.8390
3918.640352 0.8390 0.8390 0.8390 0.8390 0.8387
3921.943796 0.8385 0.8382 0.8380 0.8383 0.8385
3925.247241 0.8388 0.8390 0.8390 0.8390 0.8390
3928.550685 0.8390 0.8390 0.8390 0.8390 0.8391
3931.854129 0.8393 0.8396 0.8399 0.8400 0.8400
3935.157573 0.8400 0.8400 0.8401 0.8404 0.8406
3938.461017 0.8409 0.8410 0.8410 0.8410 0.8410
3941.764461 0.8411 0.8414 0.8417 0.8419 0.8420
3945.067905 0.8420 0.8420 0.8420 0.8422 0.8424
3948.371349 0.8427 0.8429 0.8430 0.8430 0.8430
3951.674794 0.8430 0.8430 0.8430 0.8430 0.8430
3954.978238 0.8430 0.8430 0.8430 0.8430 0.8430
3958.281682 0.8430 0.8430 0.8430 0.8430 0.8430
3961.585126 0.8430 0.8430 0.8427 0.8425 0.8422
3964.888570 0.8420 0.8417 0.8415 0.8412 0.8410
3968.192014 0.8410 0.8410 0.8410 0.8410 0.8410
3971.495458 0.8410 0.8410 0.8410 0.8410 0.8410
3974.798903 0.8410 0.8410 0.8410 0.8410 0.8410
3978.102347 0.8410 0.8410 0.8410 0.8410 0.8410
3981.405791 0.8410 0.8410 0.8410 0.8409 0.8406
3984.709235 0.8404 0.8401 0.8400 0.8400 0.8400
3988.012679 0.8400
##END=
