##TITLE=3-(t-Octylamino)propionitrile
##JCAMP-DX=4.24
##DATA TYPE=INFRARED SPECTRUM
##ORIGIN=EPA-IR VAPOR PHASE LIBRARY
##OWNER=SRD/NIST
Collection (C) 2018 copyright by the U.S. Secretary of Commerce
on behalf of the United States of America. All rights reserved.
##CAS REGISTRY NO=86375-28-2
##MOLFORM=C 11 H 22 N 2
##$NIST SOURCE=MSDC-IR
##STATE=gas
##XUNITS=1/CM
##YUNITS=ABSORBANCE
##XFACTOR=1.
##YFACTOR=0.001
##DELTAX=1.92898
##FIRSTX=549.8
##LASTX=4000.7
##FIRSTY=3.0447
##MAXX=4000.7
##MINX=549.759
##MAXY=0.143185
##MINY=0
##NPOINTS=1790
##XYDATA=(X++(Y..Y))
549.759 3.0447 3.2547 3.2347 2.9447 2.7747 2.6847 3.0047 2.9247 2.9547 3.1547
569.049 2.7747 2.7847 2.7547 2.7647 3.0447 3.0747 3.2647 3.3947 3.2247 3.0347
588.339 2.9547 2.9647 3.1947 3.4147 3.3947 3.4947 3.4047 3.3447 3.4347 3.4547
607.628 3.4447 3.5247 3.9147 4.0247 3.8447 3.8547 3.8947 4.1147 4.2747 4.1947
626.918 4.3747 4.7247 4.9247 4.8147 4.7547 4.9547 5.2347 5.3547 5.4747 5.6947
646.208 5.9747 6.1447 6.2847 6.5347 6.7747 6.9447 6.8847 6.9947 7.2447 7.5247
665.498 7.7847 7.9047 8.2147 8.4147 8.4747 8.7247 8.8347 8.9447 9.0947 9.2347
684.787 9.3747 9.4147 9.4147 9.2947 9.0747 8.9347 8.8447 8.6947 8.4547 8.0947
704.077 7.5947 7.2447 6.9047 6.6347 6.3447 5.8347 5.5447 5.1247 4.6747 4.6447
723.367 4.6547 4.4547 4.3147 4.3147 4.3147 4.3847 4.2547 4.1347 4.2147 4.1647
742.657 4.1947 4.0347 3.6747 3.5047 3.2447 2.9847 2.9447 2.9547 2.8547 2.8847
761.947 2.9147 2.5547 2.4747 2.6147 2.5047 2.4947 2.5347 2.5047 2.5247 2.5447
781.236 2.6447 2.5247 2.3947 2.3147 2.0547 2.0247 2.0247 1.9247 1.9447 1.9447
800.526 1.7747 1.7347 1.7447 1.7647 1.8247 1.6147 1.6847 1.6947 1.5847 1.6747
819.816 1.7047 1.7447 1.6747 1.6747 1.6947 1.8347 1.7547 1.5147 1.6347 1.7447
839.106 1.8847 1.9147 1.8147 1.7347 1.7247 1.9447 2.1747 2.3147 2.0747 1.8347
858.395 1.8247 1.7647 1.7747 1.8247 1.8047 1.7547 1.6547 1.4347 1.3647 1.3647
877.685 1.4847 1.7047 1.7047 1.6847 1.7847 1.8047 1.8347 2.0147 2.1147 2.1747
896.975 2.1247 2.1647 2.3047 2.4847 2.5147 2.3647 2.5447 2.6547 2.5647 2.7347
916.265 2.8347 2.7147 2.4847 2.3147 2.4347 2.4647 2.4047 2.3847 2.4147 2.5047
935.555 2.4847 2.3647 2.3947 2.5847 2.6747 2.8347 3.0647 3.0547 2.9447 3.0247
954.844 3.1247 2.9747 3.0147 3.2347 3.2147 3.1647 3.3647 3.6147 3.6547 3.7247
974.134 3.8047 3.9947 4.0947 3.7947 3.5647 3.3947 2.9947 2.6347 2.5347 2.4047
993.424 2.2247 2.2447 2.1547 2.0747 1.9647 1.8147 1.8147 1.9147 1.9547 1.8547
1012.714 1.7647 1.6847 1.7847 2.0647 2.1447 2.1347 2.2047 2.0947 2.1647 2.4247
1032.003 2.5147 2.6047 2.6747 2.6147 2.7447 2.8147 2.9747 2.9247 2.5547 2.5247
1051.293 2.4447 2.3347 2.4647 2.7147 2.8747 2.8847 3.0447 2.9347 2.6847 2.8447
1070.583 3.2347 3.6447 3.9747 4.3547 4.7047 5.2847 6.1047 6.8047 7.6447 8.4747
1089.873 9.4947 10.5947 11.7347 12.5347 13.1147 13.1147 12.6047 12.2047 11.6647 10.8947
1109.163 9.9547 9.3547 8.7447 8.0747 8.3347 9.0947 9.2647 9.4347 10.1847 11.1647
1128.452 11.8947 12.7447 13.8947 14.7647 15.4347 16.4947 17.2447 17.5247 18.0447 18.6747
1147.742 19.0647 19.1447 19.0647 18.6047 17.9547 16.9747 15.4447 13.9447 12.5347 11.4247
1167.032 10.3647 9.3047 8.4247 7.8147 7.7447 7.6347 7.6647 7.9647 8.1047 8.5747
1186.322 9.3747 10.0547 10.7947 11.6547 12.8747 13.8947 14.5747 15.7747 17.2747 18.8647
1205.611 20.4247 21.8147 23.6447 25.5847 27.3647 29.0747 30.7247 32.5647 33.7347 34.1847
1224.901 34.0947 33.3147 32.2847 30.6047 28.3947 26.2947 24.2447 22.3447 20.4247 18.2347
1244.191 16.4047 14.9847 13.5947 12.3247 11.0147 9.8247 8.9247 8.0947 7.4947 7.0347
1263.481 6.5847 6.0747 5.5547 5.0247 4.5647 4.3547 4.2547 3.9847 3.6147 3.3247
1282.771 3.2247 3.1847 3.0647 2.9747 2.9847 2.9047 2.8447 2.8247 2.7547 2.7747
1302.060 2.9147 3.0347 3.1847 3.4147 3.6847 4.0747 4.5247 4.8547 5.2247 5.6247
1321.350 5.9047 6.1047 6.2047 6.1947 6.2047 6.2547 6.4047 6.7247 7.1647 7.9047
1340.640 8.8447 9.7647 10.6747 11.5347 12.3647 13.2247 14.0747 15.0347 16.3147 17.9847
1359.930 20.0347 22.3847 24.7747 26.9847 28.7147 29.5147 29.1947 27.9447 26.2147 24.5647
1379.219 23.2047 22.2647 21.7347 21.3347 20.9547 20.6147 20.1347 19.3747 18.1147 16.5247
1398.509 14.9447 13.4947 12.2447 10.9747 9.7147 8.6947 8.0847 7.7747 7.7847 8.1147
1417.799 8.7147 9.6247 10.6147 11.6047 12.5147 13.2047 13.7147 13.9647 13.9247 13.7547
1437.089 13.5347 13.3847 13.5147 13.8547 14.4447 15.2547 16.0147 16.8147 17.7247 18.6247
1456.378 19.5547 20.5047 21.5347 22.6747 23.8147 24.9747 26.1047 27.1847 28.1647 28.9447
1475.668 29.5147 29.8347 29.7147 29.1747 28.2147 26.7647 24.9247 22.7447 20.3747 17.9547
1494.958 15.6047 13.3747 11.3247 9.5747 8.2047 7.0847 6.1147 5.3047 4.7347 4.2847
1514.248 3.8347 3.4447 3.2047 2.9847 2.7247 2.5347 2.4147 2.2147 2.0547 2.0247
1533.538 1.9047 1.7547 1.7347 1.7347 1.6747 1.5947 1.5047 1.4147 1.3947 1.3547
1552.827 1.2547 1.2047 1.2047 1.2447 1.1647 1.0247 1.0547 1.0137 0.9353 0.9386
1572.117 0.941 0.9387 0.9813 0.9813 0.9399 0.9349 0.9547 0.9628 0.836 0.7565
1591.407 0.8018 0.8677 0.8717 0.8231 0.7449 0.7256 0.8173 0.8133 0.7417 0.7211
1610.697 0.7502 0.7295 0.7205 0.7613 0.7419 0.7599 0.7498 0.6963 0.7159 0.7298
1629.986 0.7706 0.7554 0.7174 0.7534 0.7628 0.7222 0.6603 0.64 0.6768 0.6834
1649.276 0.6651 0.6557 0.6268 0.6334 0.6458 0.6034 0.6301 0.6233 0.5874 0.593
1668.566 0.5783 0.5651 0.5765 0.5383 0.525 0.6173 0.6304 0.6176 0.6627 0.7149
1687.856 0.6883 0.6068 0.6442 0.6578 0.6163 0.604 0.5442 0.5467 0.5833 0.5989
1707.146 0.549 0.5359 0.577 0.5666 0.57 0.5925 0.5567 0.5859 0.6372 0.5947
1726.435 0.6107 0.5853 0.5204 0.4925 0.5112 0.5307 0.5861 0.5976 0.5877 0.6099
1745.725 0.5762 0.5748 0.585 0.5879 0.6104 0.6367 0.6339 0.5772 0.5007 0.5122
1765.015 0.5244 0.5232 0.5688 0.6106 0.6309 0.6512 0.6653 0.6258 0.5717 0.6006
1784.305 0.6312 0.647 0.6837 0.6171 0.5813 0.6077 0.6018 0.6056 0.5978 0.6304
1803.594 0.6097 0.5514 0.5673 0.5126 0.4986 0.4898 0.4782 0.5508 0.5904 0.5705
1822.884 0.5517 0.544 0.4938 0.4554 0.4294 0.4197 0.4298 0.462 0.4746 0.4415
1842.174 0.4358 0.4605 0.4396 0.4604 0.4924 0.4467 0.3902 0.3834 0.4184 0.4574
1861.464 0.4467 0.3849 0.3788 0.3895 0.3833 0.3902 0.3956 0.3971 0.3848 0.3937
1880.754 0.4239 0.4091 0.4165 0.3609 0.3311 0.3579 0.3488 0.365 0.3492 0.3501
1900.043 0.3706 0.3648 0.375 0.3582 0.3256 0.3485 0.3448 0.3319 0.3462 0.3567
1919.333 0.3347 0.348 0.3391 0.2916 0.343 0.3938 0.3979 0.3565 0.314 0.3334
1938.623 0.3639 0.3818 0.3632 0.3341 0.3026 0.3116 0.329 0.3219 0.361 0.3429
1957.913 0.3288 0.3196 0.3014 0.3167 0.3211 0.3093 0.3793 0.4512 0.4008 0.3358
1977.202 0.3005 0.3282 0.3265 0.3047 0.2687 0.2556 0.2824 0.3002 0.2567 0.2342
1996.492 0.2494 0.2673 0.2641 0.279 0.2653 0.2565 0.2979 0.3048 0.3492 0.2798
2015.782 0.1994 0.2135 0.2339 0.2289 0.2229 0.2323 0.2405 0.2824 0.2508 0.2328
2035.072 0.2902 0.2919 0.2878 0.2549 0.2362 0.2513 0.2579 0.2612 0.2708 0.311
2054.362 0.31 0.2571 0.2502 0.2508 0.2099 0.1994 0.2282 0.248 0.2939 0.3286
2073.651 0.31 0.2653 0.2635 0.3044 0.2806 0.2975 0.3422 0.3554 0.3478 0.289
2092.941 0.302 0.3426 0.3433 0.3455 0.3403 0.3722 0.3736 0.369 0.37 0.3542
2112.231 0.3599 0.3728 0.3461 0.3111 0.3637 0.3725 0.3337 0.3572 0.3959 0.4297
2131.521 0.3906 0.3276 0.2932 0.3061 0.3729 0.351 0.3061 0.3633 0.4156 0.4154
2150.810 0.4286 0.4598 0.4461 0.3645 0.3798 0.449 0.4657 0.4482 0.3942 0.3951
2170.100 0.4525 0.4614 0.4322 0.4271 0.4517 0.4651 0.4585 0.4318 0.4824 0.5328
2189.390 0.5104 0.5146 0.5137 0.5028 0.4293 0.4239 0.4707 0.4525 0.4443 0.4962
2208.680 0.5052 0.438 0.4447 0.4513 0.4391 0.5097 0.5545 0.5237 0.5322 0.5746
2227.970 0.6286 0.6551 0.6991 0.8404 0.9384 1.0647 1.3047 1.5647 1.8047 1.9747
2247.259 2.1747 2.3447 2.3347 2.2547 2.1047 1.8447 1.6247 1.4147 1.1747 0.9983
2266.549 0.8614 0.7922 0.6774 0.6138 0.6193 0.5726 0.5765 0.5426 0.4666 0.4718
2285.839 0.577 0.5357 0.4267 0.4846 0.4773 0.478 0.5244 0.4715 0.4048 0.3636
2305.129 0.3908 0.3714 0.3836 0.4842 0.4558 0.389 0.4152 0.4238 0.3842 0.3614
2324.418 0.3888 0.425 0.4222 0.4081 0.3779 0.3806 0.3628 0.3548 0.3615 0.3438
2343.708 0.3875 0.4258 0.3745 0.283 0.2979 0.3714 0.351 0.3279 0.3733 0.4086
2362.998 0.3914 0.3679 0.343 0.3234 0.3689 0.3765 0.3803 0.4309 0.4153 0.4055
2382.288 0.3687 0.3287 0.3869 0.4276 0.4454 0.4051 0.3899 0.4156 0.3658 0.3709
2401.578 0.3999 0.3841 0.3339 0.3607 0.4191 0.4351 0.4326 0.3722 0.3608 0.4063
2420.867 0.4819 0.4466 0.3616 0.4734 0.4931 0.4091 0.4059 0.4242 0.4239 0.3497
2440.157 0.3469 0.3836 0.3699 0.3168 0.3278 0.3738 0.3277 0.3146 0.3459 0.4015
2459.447 0.4677 0.4336 0.3938 0.4312 0.4367 0.4097 0.4227 0.4077 0.3827 0.3855
2478.737 0.3757 0.4253 0.4492 0.4027 0.429 0.4801 0.462 0.4814 0.4858 0.4485
2498.026 0.4168 0.4051 0.4747 0.5479 0.5605 0.5143 0.4665 0.514 0.5551 0.474
2517.316 0.4485 0.5314 0.5248 0.4625 0.4601 0.4636 0.4718 0.5715 0.6572 0.5658
2536.606 0.5818 0.6362 0.5198 0.5092 0.495 0.488 0.5551 0.5742 0.6296 0.667
2555.896 0.6902 0.631 0.5398 0.6178 0.7198 0.7032 0.6993 0.7725 0.7218 0.6632
2575.186 0.6476 0.6755 0.7099 0.6843 0.7488 0.7202 0.7349 0.8415 0.8717 0.8853
2594.475 0.8596 0.8227 0.8412 0.9077 0.9114 0.9136 0.9019 0.9124 0.942 0.8909
2613.765 0.9211 0.9133 0.8353 0.907 0.9562 0.9305 0.9754 1.0747 1.0847 1.0247
2633.055 1.0347 1.1447 1.1647 1.1847 1.2347 1.3047 1.3147 1.2147 1.3047 1.3947
2652.345 1.3747 1.3947 1.4747 1.5547 1.5047 1.4347 1.5547 1.6247 1.6647 1.7847
2671.634 1.7847 1.8447 1.8547 1.8847 2.0147 2.1247 2.1247 2.1347 2.2047 2.2647
2690.924 2.4247 2.4347 2.4147 2.5147 2.4847 2.4347 2.5047 2.5647 2.5247 2.5347
2710.214 2.6047 2.5547 2.5547 2.6447 2.5947 2.5847 2.6947 2.6847 2.6147 2.5847
2729.504 2.5647 2.5247 2.4647 2.5447 2.5447 2.4047 2.4347 2.5347 2.5347 2.5447
2748.794 2.4947 2.4147 2.5247 2.5947 2.5947 2.5847 2.4947 2.5747 2.6147 2.6147
2768.083 2.7147 2.7647 2.7847 2.7947 2.8447 2.9347 3.0647 3.1447 3.3047 3.5447
2787.373 3.5747 3.7047 3.9447 4.1447 4.2947 4.5247 4.7347 4.7547 4.9547 5.3047
2806.663 5.6147 5.8547 6.1847 6.7247 7.1247 7.4547 7.8747 8.2647 8.7847 9.3447
2825.953 9.9347 10.6447 11.4847 12.3647 13.3147 14.3947 15.5547 16.7547 18.0847 19.4647
2845.242 20.8147 22.0647 23.3647 24.6147 25.7147 26.8147 27.8647 28.9147 30.0947 31.4347
2864.532 32.9547 34.6447 36.6147 38.6947 40.4747 41.9947 43.4847 44.8147 45.7147 46.2847
2883.822 46.5947 46.7547 46.8147 46.8847 47.1147 47.6847 48.6347 49.8147 51.3747 53.3747
2903.112 55.7447 58.1747 60.4447 62.4847 63.9247 64.6347 64.7547 64.1347 63.1547 62.0747
2922.401 60.8847 59.9047 59.4547 59.5947 60.2647 61.4547 62.9647 64.7547 66.9147 69.3447
2941.691 72.1047 75.4547 79.5547 84.6147 90.8347 98.1147 106.365 115.485 124.545 132.345
2960.981 138.325 142.125 143.185 141.105 135.995 128.445 119.295 109.645 100.025 90.4747
2980.271 81.3147 73.0347 66.0347 60.0847 54.9847 50.5647 46.5747 43.1347 39.9147 36.7547
2999.561 33.7547 30.7447 27.7847 24.9247 22.0447 19.2047 16.5847 14.2547 12.2147 10.4647
3018.850 8.9547 7.7547 6.7747 6.0047 5.5147 5.0047 4.5247 4.0947 3.8347 3.6547
3038.140 3.3847 3.1547 2.9547 2.8447 2.7447 2.5847 2.5047 2.4547 2.3847 2.2947
3057.430 2.2147 2.1847 2.1347 2.1247 2.0947 1.9447 1.9347 1.9647 1.9547 1.9647
3076.720 1.8447 1.8047 1.8947 1.9047 1.8347 1.8347 1.8147 1.7247 1.7747 1.7847
3096.009 1.6947 1.6747 1.6447 1.5847 1.6047 1.6147 1.6747 1.6347 1.4947 1.5547
3115.299 1.5647 1.4947 1.5547 1.5447 1.4947 1.4647 1.3547 1.4647 1.5447 1.5047
3134.589 1.4847 1.4047 1.3747 1.4547 1.5247 1.4547 1.3047 1.2447 1.2547 1.2747
3153.879 1.3747 1.3947 1.3947 1.4647 1.5547 1.5047 1.4747 1.5347 1.4447 1.5347
3173.169 1.6247 1.6247 1.6547 1.6347 1.7147 1.7147 1.6147 1.5847 1.5547 1.5447
3192.458 1.5447 1.6347 1.7147 1.6847 1.6547 1.6147 1.5847 1.6447 1.6347 1.6547
3211.748 1.6547 1.6247 1.6347 1.5147 1.5247 1.6547 1.6347 1.5247 1.5547 1.5147
3231.038 1.4047 1.3247 1.3847 1.3947 1.3347 1.3547 1.3147 1.2647 1.3147 1.3747
3250.328 1.2347 1.1347 1.1247 1.1747 1.2047 1.1647 1.1247 1.0747 1.1047 1.1647
3269.617 0.9712 0.8678 0.9111 0.9053 0.8595 0.7322 0.824 0.9527 0.8664 0.7153
3288.907 0.6692 0.74 0.767 0.6985 0.6352 0.7338 0.7508 0.6363 0.6377 0.5564
3308.197 0.5175 0.6082 0.7458 0.8343 0.7726 0.8255 0.8751 0.853 0.8137 0.9294
3327.487 0.9813 0.8535 0.912 0.9115 0.7929 0.7915 0.8848 0.858 0.6855 0.5377
3346.777 0.6942 0.8918 0.7904 0.8001 0.8772 0.8271 0.8057 0.7263 0.8061 0.9249
3366.066 0.9181 0.9443 1.0647 1.2047 1.1147 1.0547 1.0447 0.9734 1.0747 1.0647
3385.356 0.9515 1.0547 1.1447 1.0747 1.0547 0.9297 0.8249 0.9627 0.9786 0.8164
3404.646 0.7955 0.8485 0.873 0.8517 0.7596 0.7629 0.7709 0.6947 0.743 0.8844
3423.936 0.8799 0.9039 0.7384 0.5672 0.631 0.5807 0.5074 0.4466 0.4738 0.5291
3443.225 0.5044 0.498 0.4729 0.4025 0.3809 0.4584 0.3982 0.357 0.3239 0.292
3462.515 0.2884 0.2521 0.3916 0.5812 0.415 0.3971 0.4617 0.2658 0.2328 0.1658
3481.805 0.2043 0.2831 0.2772 0.3493 0.5378 0.475 0.3196 0.4361 0.4162 0.3212
3501.095 0.3078 0.3749 0.5314 0.5225 0.3766 0.2674 0.3134 0.3546 0.3333 0.3344
3520.385 0.3391 0.3116 0.2796 0.2918 0.2732 0.2376 0.2227 0.2304 0.3622 0.4246
3539.674 0.3565 0.2757 0.2696 0.2736 0.3702 0.4038 0.3936 0.4762 0.4122 0.2371
3558.964 0.020571 0 0.08744 0.1979 0.1792 0.1519 0.2917 0.3772 0.3003 0.247
3578.254 0.1889 0.164 0.2119 0.2421 0.2673 0.2307 0.2019 0.2461 0.3996 0.4047
3597.544 0.2976 0.1928 0.1174 0.2159 0.2737 0.3664 0.3789 0.2282 0.1862 0.2738
3616.833 0.1787 0.10978 0.3091 0.2903 0.11404 0.1173 0.2154 0.2347 0.2414 0.2094
3636.123 0.09542 0.10606 0.2086 0.2063 0.2274 0.2958 0.3184 0.3566 0.279 0.1466
3655.413 0.1949 0.1833 0.08162 0.08476 0.297 0.3337 0.2125 0.2357 0.09412 0.06253
3674.703 0.2671 0.2099 0.11381 0.1995 0.1343 0.1467 0.1878 0.09221 0.1563 0.327
3693.993 0.2431 0.07982 0.2254 0.2699 0.2446 0.2273 0.2078 0.19 0.11163 0.1972
3713.282 0.2244 0.3184 0.4292 0.2269 0.1979 0.2953 0.2593 0.3358 0.4171 0.3243
3732.572 0.1392 0.1166 0.1697 0.1395 0.1254 0.126 0.2465 0.2966 0.2292 0.183
3751.862 0.04294 0.1409 0.1796 0.1276 0.1697 0.2222 0.3148 0.2612 0.3106 0.435
3771.152 0.3103 0.1266 0.1598 0.2252 0.1696 0.1351 0.3595 0.3358 0.2425 0.2893
3790.441 0.2195 0.2704 0.2518 0.1846 0.165 0.2552 0.3934 0.4759 0.3765 0.3364
3809.731 0.4241 0.4101 0.3759 0.3684 0.3982 0.3521 0.2196 0.2554 0.3527 0.3536
3829.021 0.3764 0.4644 0.5327 0.4816 0.4833 0.4691 0.3968 0.3779 0.3969 0.4195
3848.311 0.401 0.5242 0.6231 0.3915 0.3469 0.525 0.4417 0.386 0.3626 0.305
3867.601 0.4055 0.4606 0.5786 0.5506 0.3475 0.2697 0.3963 0.6004 0.5896 0.4822
3886.890 0.4112 0.5314 0.5847 0.4746 0.5224 0.5596 0.4489 0.3692 0.3864 0.4002
3906.180 0.3976 0.5731 0.5702 0.3873 0.3897 0.3993 0.5313 0.685 0.7342 0.629
3925.470 0.4526 0.421 0.4744 0.5774 0.4563 0.3986 0.4858 0.5069 0.5493 0.4703
3944.760 0.4279 0.4975 0.4682 0.4471 0.4094 0.4614 0.4837 0.5007 0.6417 0.5985
3964.049 0.4609 0.4554 0.518 0.3942 0.4215 0.5779 0.5502 0.471 0.6175 0.6381
3983.339 0.4403 0.4612 0.5469 0.6978 0.7228 0.5982 0.7178 0.7497 0.6558 0.5678
##END=
