##TITLE=1-NAPHTHOIC ACID
##JCAMP-DX=4.24
##DATA TYPE=INFRARED SPECTRUM
##CLASS=COBLENTZ III
##ORIGIN=DOW CHEMICAL COMPANY
##OWNER=COBLENTZ SOC.
Collection (C) 2018 copyright by the U.S. Secretary of Commerce
on behalf of the United States of America. All rights reserved.
##DATE=1963/12/24
##CAS REGISTRY NO=86-55-5
##MOLFORM=C11 H8 O2
##MP=161 C
##SOURCE REFERENCE=COBLENTZ NO. 06381
##$NIST SOURCE=COBLENTZ
##$NIST IMAGE=cob6381
##SPECTROMETER/DATA SYSTEM=DOW KBr FOREPRISM-GRATING
##INSTRUMENT PARAMETERS=BLAZED AT 3.5, 12.0, 20.0 MICRON AND CHANGED AT 5.0, 7.5, 14.9 MICRON
##STATE=SOLID (SPLIT MULL)
$$ SPECTRAL FEATURE AT 1996 CM^-^1 IS AN ARTIFACT CAUSED BY GRATING CHANGE
##SAMPLING PROCEDURE=TRANSMISSION
##RESOLUTION=2
##DATA PROCESSING=DIGITIZED BY COBLENTZ SOCIETY (BATCH I) FROM HARD COPY
##XUNITS=1/CM
##YUNITS=TRANSMITTANCE
##XLABEL=Wavenumbers (cm-1)
##YLABEL=% Transmission
##XFACTOR=1
##YFACTOR=1
##DELTAX=1
##FIRSTX=384
##LASTX=3814
##FIRSTY=0.998
##MAXX=3814
##MINX=384
##MAXY=1.0021
##MINY=0.083
##NPOINTS=3431
##XYDATA=(X++(Y..Y))
384.000000 0.9980 0.9988 0.9992 0.9997 1.0001
389.000000 1.0006 1.0010 1.0013 1.0015 1.0018
394.000000 1.0020 1.0021 1.0021 1.0018 1.0014
399.000000 1.0010 1.0006 1.0002 0.9999 0.9995
404.000000 0.9991 0.9987 0.9983 0.9978 0.9975
409.000000 0.9971 0.9967 0.9963 0.9960 0.9957
414.000000 0.9953 0.9945 0.9937 0.9930 0.9921
419.000000 0.9913 0.9905 0.9897 0.9889 0.9881
424.000000 0.9873 0.9865 0.9857 0.9849 0.9841
429.000000 0.9816 0.9827 0.9820 0.9812 0.9805
434.000000 0.9798 0.9791 0.9784 0.9775 0.9766
439.000000 0.9756 0.9746 0.9736 0.9725 0.9716
444.000000 0.9704 0.9689 0.9674 0.9659 0.9644
449.000000 0.9628 0.9614 0.9594 0.9571 0.9548
454.000000 0.9525 0.9499 0.9473 0.9446 0.9418
459.000000 0.9393 0.9366 0.9328 0.9288 0.9244
464.000000 0.9194 0.9144 0.9078 0.9004 0.8935
469.000000 0.8867 0.8798 0.8445 0.8423 0.8418
474.000000 0.8425 0.8428 0.8448 0.8508 0.8660
479.000000 0.8823 0.8975 0.9031 0.9042 0.9043
484.000000 0.9044 0.9030 0.9011 0.8982 0.8951
489.000000 0.8920 0.8878 0.8818 0.8552 0.8285
494.000000 0.8018 0.7751 0.7484 0.7305 0.7325
499.000000 0.7405 0.8312 0.8408 0.8571 0.8702
504.000000 0.8780 0.8856 0.8906 0.8952 0.8995
509.000000 0.9034 0.9073 0.9108 0.9136 0.9164
514.000000 0.9189 0.9212 0.9232 0.9246 0.9259
519.000000 0.9264 0.9268 0.9287 0.9267 0.9252
524.000000 0.9227 0.9203 0.9178 0.9153 0.9128
529.000000 0.9123 0.9136 0.9193 0.9249 0.9256
534.000000 0.9259 0.9262 0.9262 0.9261 0.9260
539.000000 0.9259 0.9255 0.9251 0.9248 0.9245
544.000000 0.9244 0.9242 0.9241 0.9238 0.9235
549.000000 0.9231 0.9224 0.9215 0.9205 0.9196
554.000000 0.9186 0.9177 0.9167 0.9156 0.9145
559.000000 0.9134 0.9123 0.9112 0.9101 0.9086
564.000000 0.9071 0.9058 0.9044 0.9030 0.8993
569.000000 0.8956 0.8918 0.8883 0.8846 0.8798
574.000000 0.8714 0.8630 0.8546 0.8462 0.8378
579.000000 0.8294 0.8211 0.8126 0.8043 0.7958
584.000000 0.7875 0.7791 0.7707 0.7622 0.7541
589.000000 0.7541 0.7549 0.7508 0.7697 0.7872
594.000000 0.8049 0.8225 0.8402 0.8578 0.8755
599.000000 0.8946 0.9042 0.9062 0.9062 0.9062
604.000000 0.9062 0.9057 0.9018 0.8948 0.8889
609.000000 0.8887 0.8892 0.8963 0.9106 0.9173
614.000000 0.9214 0.9238 0.9256 0.9268 0.9266
619.000000 0.9275 0.9277 0.9271 0.9264 0.9256
624.000000 0.9247 0.9239 0.9230 0.9218 0.9202
629.000000 0.9186 0.9171 0.9160 0.9147 0.9135
634.000000 0.9121 0.9103 0.9083 0.9064 0.9045
639.000000 0.9021 0.8989 0.8957 0.8920 0.8875
644.000000 0.8831 0.8768 0.8297 0.7193 0.6089
649.000000 0.4986 0.4783 0.4797 0.5964 0.8212
654.000000 0.9046 0.9125 0.9177 0.9200 0.9221
659.000000 0.9230 0.9238 0.9238 0.9238 0.9243
664.000000 0.9247 0.9251 0.9256 0.9264 0.9275
669.000000 0.9286 0.9311 0.9345 0.9377 0.9406
674.000000 0.9434 0.9457 0.9474 0.9501 0.9483
679.000000 0.9483 0.9483 0.9483 0.9480 0.9477
684.000000 0.9470 0.9464 0.9458 0.9450 0.9440
689.000000 0.9431 0.9421 0.9412 0.9401 0.9388
694.000000 0.9375 0.9362 0.9349 0.9336 0.9323
699.000000 0.9311 0.9298 0.9281 0.9265 0.9248
704.000000 0.9231 0.9214 0.9180 0.9141 0.9102
709.000000 0.9055 0.9002 0.8949 0.8885 0.8806
714.000000 0.8725 0.8627 0.8528 0.8345 0.7625
719.000000 0.7118 0.7115 0.7274 0.7578 0.7884
724.000000 0.8142 0.8207 0.8331 0.8424 0.8482
729.000000 0.8510 0.8531 0.8543 0.8543 0.8543
734.000000 0.8528 0.8528 0.8520 0.8510 0.8484
739.000000 0.8457 0.8416 0.8371 0.8303 0.8221
744.000000 0.8139 0.8053 0.7968 0.7701 0.7355
749.000000 0.7094 0.7091 0.7134 0.7188 0.7208
754.000000 0.7218 0.7364 0.7512 0.7661 0.7811
759.000000 0.7891 0.7891 0.7891 0.7868 0.7849
764.000000 0.7649 0.6639 0.5629 0.4619 0.3609
769.000000 0.2599 0.1589 0.0867 0.0841 0.0834
774.000000 0.0830 0.1171 0.1940 0.2708 0.3476
779.000000 0.4244 0.5012 0.5781 0.6330 0.6430
784.000000 0.6739 0.7603 0.7834 0.8065 0.8296
789.000000 0.8388 0.8380 0.8351 0.8271 0.8193
794.000000 0.8114 0.8030 0.8026 0.8409 0.8397
799.000000 0.8363 0.8333 0.8287 0.8239 0.8182
804.000000 0.8125 0.8001 0.7833 0.7174 0.6625
809.000000 0.6640 0.6775 0.7211 0.7645 0.8080
814.000000 0.8515 0.8828 0.8837 0.8836 0.8833
819.000000 0.8830 0.8828 0.8821 0.8815 0.8808
824.000000 0.8801 0.8792 0.8783 0.8774 0.8765
829.000000 0.8754 0.8740 0.8725 0.8710 0.8695
834.000000 0.8678 0.8661 0.8643 0.8625 0.8608
839.000000 0.8590 0.8565 0.8540 0.8514 0.8483
844.000000 0.8447 0.8412 0.8377 0.8337 0.8286
849.000000 0.8236 0.8185 0.8121 0.8058 0.7996
854.000000 0.7875 0.7714 0.7514 0.7428 0.7435
859.000000 0.7458 0.7480 0.7480 0.7480 0.7718
864.000000 0.7980 0.8115 0.8108 0.8128 0.8060
869.000000 0.7994 0.7945 0.7892 0.7835 0.7768
874.000000 0.7661 0.7562 0.7465 0.7354 0.7089
879.000000 0.6945 0.6839 0.6728 0.6612 0.6537
884.000000 0.6471 0.6425 0.6383 0.6360 0.6336
889.000000 0.6326 0.6322 0.6309 0.6343 0.6380
894.000000 0.6422 0.6482 0.6611 0.6776 0.6943
899.000000 0.7090 0.7190 0.7269 0.7330 0.7391
904.000000 0.7458 0.7525 0.7667 0.7778 0.7876
909.000000 0.7942 0.7987 0.8032 0.8076 0.8124
914.000000 0.8172 0.8221 0.8288 0.8357 0.8401
919.000000 0.8433 0.8452 0.8453 0.8484 0.8439
924.000000 0.8358 0.8227 0.8100 0.8093 0.8104
929.000000 0.8243 0.8348 0.8452 0.8509 0.8539
934.000000 0.8549 0.8550 0.8556 0.8536 0.8505
939.000000 0.8460 0.8385 0.8280 0.8175 0.8118
944.000000 0.8108 0.8291 0.8414 0.8530 0.8467
949.000000 0.8449 0.8442 0.8435 0.8431 0.8431
954.000000 0.8445 0.8468 0.8490 0.8513 0.8524
959.000000 0.8532 0.8538 0.8539 0.8541 0.8520
964.000000 0.8498 0.8485 0.8471 0.8473 0.8478
969.000000 0.8483 0.8487 0.8491 0.8494 0.8497
974.000000 0.8505 0.8517 0.8548 0.8578 0.8596
979.000000 0.8610 0.8612 0.8612 0.8611 0.8606
984.000000 0.8601 0.8593 0.8571 0.8549 0.8521
989.000000 0.8491 0.8447 0.8403 0.8342 0.8230
994.000000 0.7985 0.7740 0.7495 0.7433 0.7433
999.000000 0.7753 0.8021 0.8291 0.8552 0.8573
1004.000000 0.8594 0.8608 0.8620 0.8632 0.8637
1009.000000 0.8642 0.8647 0.8651 0.8650 0.8650
1014.000000 0.8650 0.8649 0.8644 0.8634 0.8625
1019.000000 0.8600 0.8565 0.8517 0.8463 0.8371
1024.000000 0.8081 0.7789 0.7653 0.7649 0.8005
1029.000000 0.8509 0.8803 0.8807 0.8812 0.8815
1034.000000 0.8820 0.8818 0.8818 0.8817 0.8815
1039.000000 0.8812 0.8810 0.8808 0.8806 0.8804
1044.000000 0.8802 0.8800 0.8798 0.8796 0.8793
1049.000000 0.8790 0.8787 0.8784 0.8780 0.8777
1054.000000 0.8774 0.8770 0.8766 0.8762 0.8757
1059.000000 0.8753 0.8749 0.8744 0.8735 0.8725
1064.000000 0.8715 0.8705 0.8690 0.8665 0.8639
1069.000000 0.8614 0.8598 0.8594 0.8592 0.8591
1074.000000 0.8590 0.8589 0.8589 0.8563 0.8515
1079.000000 0.8467 0.8431 0.8402 0.8396 0.8415
1084.000000 0.8607 0.8723 0.8754 0.8777 0.8785
1089.000000 0.8761 0.8793 0.8792 0.8786 0.8780
1094.000000 0.8774 0.8768 0.8762 0.8752 0.8740
1099.000000 0.8727 0.8715 0.8703 0.8692 0.8680
1104.000000 0.8668 0.8657 0.8646 0.8635 0.8624
1109.000000 0.8614 0.8603 0.8592 0.8582 0.8571
1114.000000 0.8561 0.8552 0.8543 0.8533 0.8524
1119.000000 0.8514 0.8501 0.8487 0.8474 0.8461
1124.000000 0.8447 0.8427 0.8404 0.8381 0.8358
1129.000000 0.8335 0.8301 0.8266 0.8227 0.8171
1134.000000 0.8117 0.8058 0.7974 0.7890 0.7805
1139.000000 0.7268 0.7012 0.6999 0.6971 0.6808
1144.000000 0.6476 0.6147 0.5817 0.5486 0.5356
1149.000000 0.5514 0.7422 0.7612 0.7740 0.7858
1154.000000 0.7968 0.8061 0.8121 0.8178 0.8198
1159.000000 0.8212 0.8248 0.8205 0.8192 0.8111
1164.000000 0.8058 0.8005 0.7911 0.7912 0.7917
1169.000000 0.7945 0.8011 0.8015 0.8021 0.8018
1174.000000 0.8015 0.8008 0.8000 0.7990 0.7980
1179.000000 0.7968 0.7953 0.7937 0.7917 0.7886
1184.000000 0.7856 0.7825 0.7792 0.7755 0.7718
1189.000000 0.7669 0.7607 0.7517 0.7419 0.7311
1194.000000 0.7182 0.7001 0.6855 0.6718 0.6584
1199.000000 0.6251 0.5917 0.5583 0.5250 0.4916
1204.000000 0.4583 0.4527 0.4537 0.5126 0.5903
1209.000000 0.6681 0.7258 0.7258 0.7200 0.7115
1214.000000 0.7030 0.6958 0.6987 0.7218 0.7450
1219.000000 0.7638 0.7639 0.7639 0.7639 0.7657
1224.000000 0.7624 0.7614 0.7601 0.7584 0.7561
1229.000000 0.7521 0.7480 0.7437 0.7349 0.7245
1234.000000 0.7147 0.7060 0.6972 0.6861 0.6740
1239.000000 0.6639 0.6539 0.6430 0.6310 0.6189
1244.000000 0.6024 0.5864 0.5728 0.5564 0.5186
1249.000000 0.4255 0.4251 0.4266 0.4281 0.4449
1254.000000 0.4560 0.4657 0.4740 0.4821 0.4888
1259.000000 0.4954 0.5021 0.5083 0.5148 0.5221
1264.000000 0.5295 0.5393 0.5946 0.6259 0.6572
1269.000000 0.6886 0.6894 0.6892 0.6911 0.6878
1274.000000 0.6860 0.6828 0.6789 0.6743 0.6671
1279.000000 0.6592 0.6521 0.6462 0.6404 0.6346
1284.000000 0.6270 0.6189 0.6109 0.6028 0.5876
1289.000000 0.5669 0.5444 0.5303 0.4579 0.4070
1294.000000 0.3559 0.3050 0.2540 0.2029 0.1520
1299.000000 0.1010 0.0954 0.0945 0.0951 0.0960
1304.000000 0.0982 0.1017 0.1056 0.1402 0.1827
1309.000000 0.2253 0.2679 0.3105 0.3530 0.3957
1314.000000 0.4383 0.4808 0.5234 0.5660 0.6086
1319.000000 0.6511 0.6703 0.6806 0.6914 0.7065
1324.000000 0.7211 0.7319 0.7407 0.7487 0.7553
1329.000000 0.7575 0.7578 0.7603 0.7575 0.7568
1334.000000 0.7561 0.7547 0.7508 0.7428 0.7350
1339.000000 0.7253 0.7190 0.7135 0.7080 0.7022
1344.000000 0.6969 0.6921 0.6862 0.6846 0.6868
1349.000000 0.6872 0.6893 0.6921 0.6950 0.6976
1354.000000 0.7008 0.7041 0.7084 0.7131 0.7298
1359.000000 0.7547 0.7628 0.7718 0.7835 0.7881
1364.000000 0.7890 0.7918 0.7896 0.7897 0.7894
1369.000000 0.7864 0.7822 0.7797 0.7782 0.7778
1374.000000 0.7774 0.7774 0.7775 0.7775 0.7767
1379.000000 0.7733 0.7689 0.7640 0.7590 0.7539
1384.000000 0.7486 0.7453 0.7436 0.7417 0.7439
1389.000000 0.7464 0.7555 0.7653 0.7721 0.7743
1394.000000 0.7751 0.7757 0.7775 0.7761 0.7753
1399.000000 0.7734 0.7705 0.7658 0.7601 0.7539
1404.000000 0.7472 0.7391 0.7278 0.7161 0.7028
1409.000000 0.6851 0.6611 0.6317 0.6024 0.5730
1414.000000 0.5436 0.5251 0.5243 0.5229 0.5647
1419.000000 0.5954 0.6260 0.6568 0.6875 0.7183
1424.000000 0.7491 0.7798 0.7845 0.7868 0.7843
1429.000000 0.7818 0.7693 0.7538 0.7383 0.7293
1434.000000 0.7218 0.7153 0.7112 0.7099 0.7089
1439.000000 0.7080 0.7069 0.7058 0.7007 0.6935
1444.000000 0.6755 0.6575 0.6396 0.6216 0.6042
1449.000000 0.6042 0.6043 0.6597 0.7058 0.7518
1454.000000 0.7978 0.8012 0.8042 0.7736 0.7589
1459.000000 0.7442 0.7295 0.7147 0.7011 0.7031
1464.000000 0.7258 0.7715 0.8172 0.8395 0.8433
1469.000000 0.8459 0.8484 0.8463 0.8452 0.8441
1474.000000 0.8427 0.8412 0.8390 0.8366 0.8342
1479.000000 0.8321 0.8301 0.8280 0.8255 0.8227
1484.000000 0.8203 0.8183 0.8164 0.8144 0.8124
1489.000000 0.8105 0.8088 0.8069 0.8053 0.8021
1494.000000 0.7987 0.7954 0.7911 0.7851 0.7793
1499.000000 0.7732 0.7669 0.7608 0.7534 0.7458
1504.000000 0.7285 0.7212 0.7142 0.6999 0.6860
1509.000000 0.6678 0.6362 0.5751 0.5018 0.4286
1514.000000 0.3553 0.3418 0.3408 0.4138 0.5662
1519.000000 0.7188 0.8184 0.8261 0.8299 0.8321
1524.000000 0.8331 0.8331 0.8327 0.8321 0.8306
1529.000000 0.8293 0.8284 0.8274 0.8265 0.8256
1534.000000 0.8244 0.8232 0.8221 0.8209 0.8200
1539.000000 0.8191 0.8183 0.8174 0.8165 0.8158
1544.000000 0.8151 0.8146 0.8140 0.8135 0.8126
1549.000000 0.8115 0.8104 0.8091 0.8071 0.8053
1554.000000 0.8034 0.8010 0.7981 0.7951 0.7911
1559.000000 0.7867 0.7822 0.7778 0.7735 0.7691
1564.000000 0.7647 0.7604 0.7544 0.7481 0.7418
1569.000000 0.7356 0.7295 0.7234 0.7064 0.6882
1574.000000 0.6700 0.6518 0.6472 0.6482 0.7245
1579.000000 0.7342 0.7324 0.7318 0.7274 0.7185
1584.000000 0.7099 0.7018 0.6915 0.6808 0.6669
1589.000000 0.6418 0.5830 0.5229 0.4628 0.4027
1594.000000 0.3757 0.3754 0.3720 0.4089 0.6033
1599.000000 0.7593 0.7612 0.7549 0.7498 0.7446
1604.000000 0.7394 0.7343 0.7291 0.7239 0.7187
1609.000000 0.7136 0.7084 0.7032 0.6984 0.6918
1614.000000 0.6853 0.6775 0.6691 0.6607 0.6522
1619.000000 0.6410 0.6210 0.6010 0.5810 0.5610
1624.000000 0.5539 0.5535 0.6282 0.6746 0.6856
1629.000000 0.6868 0.6784 0.6708 0.6631 0.6554
1634.000000 0.6476 0.6401 0.6324 0.6247 0.6171
1639.000000 0.6094 0.6017 0.5941 0.5864 0.5781
1644.000000 0.5712 0.5656 0.5598 0.5523 0.5417
1649.000000 0.5312 0.5192 0.5072 0.4979 0.4894
1654.000000 0.4808 0.4710 0.4610 0.4489 0.4345
1659.000000 0.3940 0.3510 0.3291 0.3109 0.2937
1664.000000 0.2781 0.2624 0.2455 0.2282 0.2087
1669.000000 0.1816 0.1643 0.1485 0.1292 0.1172
1674.000000 0.1171 0.1171 0.1183 0.1204 0.1241
1679.000000 0.1287 0.1389 0.1458 0.1812 0.1971
1684.000000 0.2081 0.2197 0.2322 0.2576 0.3449
1689.000000 0.3882 0.4062 0.4215 0.4320 0.4425
1694.000000 0.4544 0.5015 0.5271 0.6593 0.6845
1699.000000 0.7036 0.7184 0.7287 0.7375 0.7476
1704.000000 0.7588 0.7712 0.7780 0.7844 0.7901
1709.000000 0.7948 0.7995 0.8044 0.8086 0.8121
1714.000000 0.8161 0.8213 0.8268 0.8344 0.8433
1719.000000 0.8487 0.8521 0.8554 0.8584 0.8607
1724.000000 0.8624 0.8641 0.8649 0.8657 0.8665
1729.000000 0.8674 0.8680 0.8685 0.8690 0.8695
1734.000000 0.8700 0.8704 0.8707 0.8710 0.8713
1739.000000 0.8716 0.8718 0.8721 0.8721 0.8721
1744.000000 0.8721 0.8721 0.8721 0.8721 0.8723
1749.000000 0.8723 0.8723 0.8723 0.8721 0.8718
1754.000000 0.8717 0.8715 0.8713 0.8710 0.8708
1759.000000 0.8706 0.8703 0.8698 0.8693 0.8687
1764.000000 0.8682 0.8675 0.8668 0.8662 0.8656
1769.000000 0.8649 0.8642 0.8636 0.8628 0.8623
1774.000000 0.8616 0.8609 0.8603 0.8596 0.8590
1779.000000 0.8588 0.8586 0.8584 0.8581 0.8578
1784.000000 0.8577 0.8575 0.8574 0.8574 0.8573
1789.000000 0.8573 0.8573 0.8571 0.8571 0.8571
1794.000000 0.8571 0.8570 0.8567 0.8561 0.8549
1799.000000 0.8538 0.8527 0.8515 0.8504 0.8493
1804.000000 0.8482 0.8471 0.8461 0.8450 0.8442
1809.000000 0.8439 0.8436 0.8433 0.8431 0.8436
1814.000000 0.8442 0.8449 0.8455 0.8462 0.8468
1819.000000 0.8473 0.8475 0.8477 0.8475 0.8475
1824.000000 0.8468 0.8462 0.8455 0.8449 0.8442
1829.000000 0.8435 0.8428 0.8421 0.8417 0.8412
1834.000000 0.8407 0.8401 0.8396 0.8391 0.8386
1839.000000 0.8380 0.8374 0.8368 0.8363 0.8358
1844.000000 0.8352 0.8347 0.8342 0.8338 0.8335
1849.000000 0.8332 0.8328 0.8325 0.8321 0.8318
1854.000000 0.8317 0.8321 0.8325 0.8330 0.8334
1859.000000 0.8339 0.8345 0.8350 0.8355 0.8361
1864.000000 0.8365 0.8367 0.8368 0.8368 0.8367
1869.000000 0.8361 0.8356 0.8351 0.8346 0.8341
1874.000000 0.8335 0.8334 0.8332 0.8330 0.8328
1879.000000 0.8325 0.8324 0.8323 0.8321 0.8320
1884.000000 0.8318 0.8318 0.8316 0.8315 0.8314
1889.000000 0.8311 0.8308 0.8306 0.8303 0.8300
1894.000000 0.8297 0.8291 0.8285 0.8278 0.8271
1899.000000 0.8265 0.8259 0.8256 0.8257 0.8257
1904.000000 0.8257 0.8261 0.8267 0.8273 0.8280
1909.000000 0.8286 0.8292 0.8298 0.8296 0.8293
1914.000000 0.8290 0.8287 0.8280 0.8271 0.8261
1919.000000 0.8252 0.8242 0.8233 0.8224 0.8218
1924.000000 0.8212 0.8207 0.8201 0.8195 0.8193
1929.000000 0.8191 0.8189 0.8187 0.8185 0.8183
1934.000000 0.8181 0.8178 0.8176 0.8171 0.8165
1939.000000 0.8157 0.8149 0.8141 0.8125 0.8111
1944.000000 0.8097 0.8082 0.8068 0.8061 0.8053
1949.000000 0.8050 0.8050 0.8061 0.8084 0.8111
1954.000000 0.8140 0.8175 0.8213 0.8252 0.8291
1959.000000 0.8312 0.8317 0.8301 0.8285 0.8261
1964.000000 0.8228 0.8194 0.8181 0.8168 0.8158
1969.000000 0.8148 0.8138 0.8128 0.8118 0.8108
1974.000000 0.8100 0.8090 0.8081 0.8071 0.8061
1979.000000 0.8051 0.8042 0.8033 0.8022 0.8015
1984.000000 0.8010 0.8003 0.7996 0.7990 0.7982
1989.000000 0.7971 0.7960 0.7949 0.7938 0.7926
1994.000000 0.7915 0.7901 0.7886 0.7937 0.8184
1999.000000 0.8432 0.8498 0.8498 0.8498 0.8498
2004.000000 0.8499 0.8499 0.8499 0.8499 0.8499
2009.000000 0.8499 0.8500 0.8501 0.8502 0.8503
2014.000000 0.8504 0.8504 0.8504 0.8504 0.8504
2019.000000 0.8501 0.8499 0.8496 0.8494 0.8492
2024.000000 0.8490 0.8487 0.8484 0.8480 0.8477
2029.000000 0.8473 0.8470 0.8466 0.8463 0.8459
2034.000000 0.8455 0.8451 0.8448 0.8444 0.8441
2039.000000 0.8437 0.8434 0.8431 0.8428 0.8424
2044.000000 0.8421 0.8417 0.8414 0.8411 0.8408
2049.000000 0.8404 0.8401 0.8397 0.8394 0.8391
2054.000000 0.8388 0.8384 0.8381 0.8378 0.8375
2059.000000 0.8368 0.8363 0.8356 0.8349 0.8342
2064.000000 0.8336 0.8328 0.8323 0.8316 0.8309
2069.000000 0.8302 0.8296 0.8289 0.8283 0.8275
2074.000000 0.8268 0.8262 0.8255 0.8248 0.8241
2079.000000 0.8233 0.8225 0.8218 0.8212 0.8206
2084.000000 0.8201 0.8195 0.8190 0.8185 0.8180
2089.000000 0.8174 0.8168 0.8162 0.8158 0.8151
2094.000000 0.8147 0.8141 0.8136 0.8131 0.8125
2099.000000 0.8119 0.8115 0.8108 0.8104 0.8098
2104.000000 0.8093 0.8088 0.8083 0.8076 0.8071
2109.000000 0.8065 0.8061 0.8055 0.8050 0.8045
2114.000000 0.8040 0.8035 0.8030 0.8025 0.8019
2119.000000 0.8015 0.8011 0.8006 0.8001 0.7996
2124.000000 0.7992 0.7987 0.7983 0.7978 0.7972
2129.000000 0.7968 0.7964 0.7958 0.7954 0.7950
2134.000000 0.7947 0.7943 0.7939 0.7935 0.7932
2139.000000 0.7928 0.7925 0.7921 0.7918 0.7914
2144.000000 0.7910 0.7906 0.7903 0.7899 0.7896
2149.000000 0.7892 0.7889 0.7885 0.7882 0.7878
2154.000000 0.7875 0.7871 0.7868 0.7865 0.7861
2159.000000 0.7858 0.7856 0.7851 0.7849 0.7845
2164.000000 0.7842 0.7839 0.7836 0.7832 0.7828
2169.000000 0.7825 0.7822 0.7818 0.7815 0.7811
2174.000000 0.7808 0.7805 0.7801 0.7798 0.7795
2179.000000 0.7791 0.7788 0.7784 0.7781 0.7776
2184.000000 0.7774 0.7769 0.7767 0.7762 0.7760
2189.000000 0.7755 0.7751 0.7746 0.7741 0.7736
2194.000000 0.7732 0.7726 0.7721 0.7717 0.7712
2199.000000 0.7707 0.7701 0.7695 0.7689 0.7683
2204.000000 0.7676 0.7669 0.7664 0.7657 0.7651
2209.000000 0.7644 0.7638 0.7631 0.7625 0.7618
2214.000000 0.7612 0.7607 0.7601 0.7596 0.7591
2219.000000 0.7585 0.7580 0.7574 0.7568 0.7561
2224.000000 0.7557 0.7551 0.7546 0.7540 0.7535
2229.000000 0.7528 0.7524 0.7518 0.7512 0.7507
2234.000000 0.7501 0.7496 0.7491 0.7485 0.7480
2239.000000 0.7474 0.7468 0.7462 0.7458 0.7451
2244.000000 0.7447 0.7441 0.7436 0.7430 0.7425
2249.000000 0.7418 0.7414 0.7408 0.7403 0.7397
2254.000000 0.7391 0.7384 0.7378 0.7371 0.7365
2259.000000 0.7358 0.7353 0.7346 0.7340 0.7334
2264.000000 0.7328 0.7321 0.7315 0.7308 0.7301
2269.000000 0.7295 0.7289 0.7283 0.7276 0.7269
2274.000000 0.7264 0.7257 0.7250 0.7243 0.7236
2279.000000 0.7228 0.7222 0.7215 0.7208 0.7201
2284.000000 0.7195 0.7188 0.7182 0.7175 0.7168
2289.000000 0.7161 0.7154 0.7147 0.7141 0.7134
2294.000000 0.7126 0.7119 0.7112 0.7106 0.7100
2299.000000 0.7093 0.7087 0.7080 0.7072 0.7065
2304.000000 0.7060 0.7053 0.7047 0.7040 0.7033
2309.000000 0.7025 0.7019 0.7012 0.7007 0.7000
2314.000000 0.6993 0.6987 0.6981 0.6975 0.6968
2319.000000 0.6962 0.6958 0.6951 0.6947 0.6941
2324.000000 0.6936 0.6930 0.6925 0.6918 0.6914
2329.000000 0.6908 0.6903 0.6897 0.6892 0.6887
2334.000000 0.6882 0.6875 0.6871 0.6865 0.6861
2339.000000 0.6855 0.6850 0.6845 0.6840 0.6834
2344.000000 0.6828 0.6822 0.6818 0.6812 0.6808
2349.000000 0.6801 0.6797 0.6792 0.6787 0.6782
2354.000000 0.6776 0.6772 0.6768 0.6765 0.6761
2359.000000 0.6756 0.6751 0.6748 0.6744 0.6740
2364.000000 0.6736 0.6732 0.6728 0.6722 0.6718
2369.000000 0.6717 0.6715 0.6712 0.6711 0.6708
2374.000000 0.6707 0.6705 0.6703 0.6701 0.6700
2379.000000 0.6698 0.6696 0.6694 0.6692 0.6689
2384.000000 0.6686 0.6683 0.6680 0.6676 0.6675
2389.000000 0.6671 0.6668 0.6665 0.6662 0.6658
2394.000000 0.6656 0.6651 0.6649 0.6645 0.6642
2399.000000 0.6638 0.6635 0.6631 0.6626 0.6622
2404.000000 0.6618 0.6615 0.6611 0.6607 0.6603
2409.000000 0.6599 0.6595 0.6590 0.6586 0.6581
2414.000000 0.6575 0.6568 0.6562 0.6557 0.6551
2419.000000 0.6545 0.6539 0.6532 0.6525 0.6519
2424.000000 0.6514 0.6508 0.6501 0.6495 0.6489
2429.000000 0.6482 0.6475 0.6468 0.6462 0.6456
2434.000000 0.6450 0.6443 0.6437 0.6430 0.6424
2439.000000 0.6417 0.6411 0.6404 0.6398 0.6391
2444.000000 0.6384 0.6376 0.6369 0.6360 0.6354
2449.000000 0.6346 0.6338 0.6330 0.6323 0.6315
2454.000000 0.6308 0.6300 0.6293 0.6285 0.6277
2459.000000 0.6269 0.6262 0.6253 0.6245 0.6234
2464.000000 0.6224 0.6212 0.6202 0.6191 0.6181
2469.000000 0.6170 0.6160 0.6150 0.6140 0.6130
2474.000000 0.6121 0.6110 0.6102 0.6092 0.6083
2479.000000 0.6073 0.6064 0.6054 0.6045 0.6035
2484.000000 0.6026 0.6017 0.6008 0.6000 0.5993
2489.000000 0.5985 0.5977 0.5969 0.5960 0.5953
2494.000000 0.5945 0.5937 0.5930 0.5922 0.5914
2499.000000 0.5906 0.5898 0.5890 0.5882 0.5874
2504.000000 0.5867 0.5859 0.5851 0.5843 0.5835
2509.000000 0.5830 0.5826 0.5823 0.5820 0.5817
2514.000000 0.5814 0.5812 0.5812 0.5817 0.5821
2519.000000 0.5825 0.5829 0.5833 0.5837 0.5841
2524.000000 0.5846 0.5850 0.5854 0.5856 0.5858
2529.000000 0.5859 0.5858 0.5858 0.5856 0.5852
2534.000000 0.5848 0.5843 0.5839 0.5835 0.5831
2539.000000 0.5826 0.5822 0.5817 0.5812 0.5809
2544.000000 0.5805 0.5800 0.5796 0.5791 0.5787
2549.000000 0.5783 0.5779 0.5775 0.5772 0.5768
2554.000000 0.5765 0.5760 0.5758 0.5754 0.5751
2559.000000 0.5747 0.5744 0.5737 0.5731 0.5725
2564.000000 0.5719 0.5712 0.5706 0.5700 0.5694
2569.000000 0.5686 0.5679 0.5670 0.5660 0.5651
2574.000000 0.5642 0.5633 0.5624 0.5614 0.5605
2579.000000 0.5596 0.5587 0.5577 0.5567 0.5555
2584.000000 0.5544 0.5532 0.5520 0.5508 0.5496
2589.000000 0.5484 0.5473 0.5460 0.5449 0.5437
2594.000000 0.5425 0.5412 0.5402 0.5386 0.5371
2599.000000 0.5355 0.5339 0.5323 0.5308 0.5292
2604.000000 0.5276 0.5266 0.5256 0.5247 0.5238
2609.000000 0.5229 0.5220 0.5217 0.5215 0.5212
2614.000000 0.5210 0.5209 0.5207 0.5205 0.5205
2619.000000 0.5205 0.5206 0.5209 0.5224 0.5216
2624.000000 0.5220 0.5223 0.5227 0.5231 0.5235
2629.000000 0.5238 0.5242 0.5246 0.5250 0.5255
2634.000000 0.5260 0.5264 0.5269 0.5274 0.5279
2639.000000 0.5284 0.5289 0.5293 0.5298 0.5306
2644.000000 0.5314 0.5321 0.5329 0.5336 0.5344
2649.000000 0.5352 0.5360 0.5368 0.5376 0.5384
2654.000000 0.5392 0.5400 0.5408 0.5416 0.5425
2659.000000 0.5432 0.5440 0.5448 0.5456 0.5462
2664.000000 0.5471 0.5473 0.5475 0.5475 0.5476
2669.000000 0.5477 0.5478 0.5478 0.5478 0.5477
2674.000000 0.5476 0.5475 0.5475 0.5474 0.5473
2679.000000 0.5472 0.5472 0.5471 0.5470 0.5469
2684.000000 0.5469 0.5468 0.5468 0.5467 0.5466
2689.000000 0.5465 0.5465 0.5465 0.5465 0.5464
2694.000000 0.5464 0.5462 0.5462 0.5462 0.5462
2699.000000 0.5460 0.5460 0.5460 0.5460 0.5460
2704.000000 0.5460 0.5459 0.5459 0.5458 0.5458
2709.000000 0.5458 0.5458 0.5457 0.5457 0.5457
2714.000000 0.5457 0.5457 0.5457 0.5456 0.5456
2719.000000 0.5456 0.5456 0.5449 0.5443 0.5435
2724.000000 0.5428 0.5421 0.5414 0.5404 0.5395
2729.000000 0.5385 0.5375 0.5365 0.5356 0.5346
2734.000000 0.5336 0.5326 0.5317 0.5307 0.5297
2739.000000 0.5286 0.5276 0.5265 0.5255 0.5244
2744.000000 0.5233 0.5222 0.5212 0.5201 0.5191
2749.000000 0.5181 0.5171 0.5160 0.5151 0.5141
2754.000000 0.5131 0.5121 0.5112 0.5102 0.5092
2759.000000 0.5082 0.5072 0.5062 0.5053 0.5045
2764.000000 0.5037 0.5029 0.5021 0.5012 0.5005
2769.000000 0.4997 0.4989 0.4981 0.4973 0.4965
2774.000000 0.4957 0.4950 0.4944 0.4938 0.4933
2779.000000 0.4927 0.4922 0.4916 0.4910 0.4905
2784.000000 0.4900 0.4895 0.4890 0.4884 0.4879
2789.000000 0.4876 0.4873 0.4870 0.4868 0.4866
2794.000000 0.4864 0.4862 0.4860 0.4858 0.4856
2799.000000 0.4854 0.4852 0.4850 0.4848 0.4845
2804.000000 0.4843 0.4840 0.4838 0.4836 0.4834
2809.000000 0.4831 0.4829 0.4826 0.4824 0.4821
2814.000000 0.4819 0.4817 0.4815 0.4812 0.4810
2819.000000 0.4807 0.4805 0.4799 0.4794 0.4787
2824.000000 0.4781 0.4774 0.4768 0.4760 0.4755
2829.000000 0.4748 0.4742 0.4735 0.4729 0.4722
2834.000000 0.4716 0.4709 0.4703 0.4696 0.4690
2839.000000 0.4684 0.4678 0.4672 0.4666 0.4660
2844.000000 0.4654 0.4648 0.4642 0.4635 0.4629
2849.000000 0.4623 0.4617 0.4610 0.4605 0.4599
2854.000000 0.4593 0.4585 0.4578 0.4569 0.4560
2859.000000 0.4552 0.4544 0.4535 0.4527 0.4518
2864.000000 0.4510 0.4501 0.4492 0.4483 0.4475
2869.000000 0.4473 0.4472 0.4471 0.4470 0.4469
2874.000000 0.4469 0.4468 0.4467 0.4467 0.4468
2879.000000 0.4468 0.4469 0.4469 0.4470 0.4470
2884.000000 0.4471 0.4471 0.4472 0.4472 0.4473
2889.000000 0.4473 0.4474 0.4475 0.4476 0.4476
2894.000000 0.4477 0.4477 0.4477 0.4477 0.4478
2899.000000 0.4478 0.4479 0.4479 0.4480 0.4480
2904.000000 0.4481 0.4481 0.4481 0.4477 0.4473
2909.000000 0.4469 0.4465 0.4460 0.4456 0.4452
2914.000000 0.4448 0.4442 0.4436 0.4429 0.4422
2919.000000 0.4414 0.4407 0.4399 0.4392 0.4385
2924.000000 0.4378 0.4370 0.4362 0.4359 0.4355
2929.000000 0.4351 0.4348 0.4344 0.4340 0.4336
2934.000000 0.4333 0.4329 0.4326 0.4322 0.4318
2939.000000 0.4314 0.4310 0.4310 0.4310 0.4310
2944.000000 0.4310 0.4310 0.4310 0.4310 0.4310
2949.000000 0.4310 0.4310 0.4310 0.4310 0.4310
2954.000000 0.4312 0.4312 0.4312 0.4312 0.4312
2959.000000 0.4312 0.4312 0.4312 0.4312 0.4312
2964.000000 0.4314 0.4314 0.4315 0.4315 0.4315
2969.000000 0.4315 0.4316 0.4316 0.4317 0.4317
2974.000000 0.4318 0.4318 0.4319 0.4319 0.4320
2979.000000 0.4321 0.4322 0.4322 0.4323 0.4323
2984.000000 0.4324 0.4324 0.4325 0.4326 0.4327
2989.000000 0.4327 0.4327 0.4327 0.4327 0.4327
2994.000000 0.4327 0.4326 0.4326 0.4326 0.4326
2999.000000 0.4326 0.4326 0.4326 0.4326 0.4326
3004.000000 0.4326 0.4326 0.4326 0.4324 0.4323
3009.000000 0.4321 0.4320 0.4318 0.4317 0.4315
3014.000000 0.4314 0.4312 0.4310 0.4309 0.4308
3019.000000 0.4305 0.4303 0.4297 0.4292 0.4287
3024.000000 0.4282 0.4273 0.4264 0.4252 0.4241
3029.000000 0.4226 0.4210 0.4195 0.4180 0.4162
3034.000000 0.4146 0.4129 0.4112 0.4095 0.4078
3039.000000 0.4059 0.4043 0.4023 0.4004 0.3978
3044.000000 0.3953 0.3928 0.3903 0.3900 0.3900
3049.000000 0.3900 0.3900 0.3918 0.3938 0.3966
3054.000000 0.3996 0.4037 0.4078 0.4118 0.4158
3059.000000 0.4191 0.4225 0.4264 0.4303 0.4331
3064.000000 0.4360 0.4385 0.4410 0.4418 0.4427
3069.000000 0.4427 0.4428 0.4428 0.4428 0.4428
3074.000000 0.4428 0.4428 0.4428 0.4428 0.4429
3079.000000 0.4429 0.4429 0.4429 0.4429 0.4429
3084.000000 0.4429 0.4433 0.4437 0.4441 0.4446
3089.000000 0.4451 0.4456 0.4482 0.4508 0.4529
3094.000000 0.4551 0.4572 0.4594 0.4614 0.4634
3099.000000 0.4651 0.4668 0.4684 0.4701 0.4717
3104.000000 0.4734 0.4746 0.4759 0.4771 0.4783
3109.000000 0.4795 0.4808 0.4820 0.4833 0.4843
3114.000000 0.4854 0.4865 0.4877 0.4895 0.4912
3119.000000 0.4931 0.4950 0.4967 0.4985 0.4999
3124.000000 0.5012 0.5027 0.5041 0.5055 0.5070
3129.000000 0.5082 0.5094 0.5105 0.5117 0.5128
3134.000000 0.5139 0.5150 0.5160 0.5169 0.5177
3139.000000 0.5185 0.5193 0.5201 0.5210 0.5218
3144.000000 0.5226 0.5234 0.5242 0.5250 0.5258
3149.000000 0.5266 0.5274 0.5282 0.5290 0.5298
3154.000000 0.5306 0.5314 0.5322 0.5330 0.5338
3159.000000 0.5346 0.5354 0.5362 0.5370 0.5378
3164.000000 0.5387 0.5396 0.5405 0.5412 0.5422
3169.000000 0.5431 0.5440 0.5448 0.5457 0.5466
3174.000000 0.5475 0.5484 0.5493 0.5501 0.5510
3179.000000 0.5519 0.5528 0.5537 0.5546 0.5554
3184.000000 0.5562 0.5572 0.5581 0.5590 0.5599
3189.000000 0.5607 0.5616 0.5624 0.5633 0.5641
3194.000000 0.5650 0.5658 0.5667 0.5675 0.5684
3199.000000 0.5692 0.5701 0.5709 0.5718 0.5726
3204.000000 0.5735 0.5746 0.5758 0.5769 0.5780
3209.000000 0.5791 0.5802 0.5812 0.5825 0.5836
3214.000000 0.5847 0.5858 0.5869 0.5876 0.5884
3219.000000 0.5892 0.5900 0.5907 0.5915 0.5922
3224.000000 0.5930 0.5937 0.5945 0.5952 0.5959
3229.000000 0.5966 0.5973 0.5979 0.5986 0.5992
3234.000000 0.5999 0.6005 0.6012 0.6019 0.6026
3239.000000 0.6032 0.6039 0.6045 0.6052 0.6058
3244.000000 0.6065 0.6072 0.6079 0.6084 0.6090
3249.000000 0.6095 0.6101 0.6106 0.6112 0.6117
3254.000000 0.6123 0.6128 0.6134 0.6139 0.6145
3259.000000 0.6150 0.6156 0.6160 0.6166 0.6171
3264.000000 0.6176 0.6181 0.6186 0.6190 0.6195
3269.000000 0.6199 0.6204 0.6208 0.6212 0.6217
3274.000000 0.6222 0.6226 0.6231 0.6234 0.6237
3279.000000 0.6239 0.6241 0.6243 0.6246 0.6248
3284.000000 0.6251 0.6253 0.6256 0.6258 0.6260
3289.000000 0.6262 0.6265 0.6266 0.6267 0.6268
3294.000000 0.6270 0.6271 0.6273 0.6274 0.6276
3299.000000 0.6277 0.6278 0.6279 0.6281 0.6282
3304.000000 0.6284 0.6285 0.6287 0.6288 0.6289
3309.000000 0.6290 0.6292 0.6292 0.6292 0.6292
3314.000000 0.6292 0.6292 0.6293 0.6293 0.6293
3319.000000 0.6293 0.6293 0.6293 0.6293 0.6293
3324.000000 0.6294 0.6294 0.6294 0.6294 0.6294
3329.000000 0.6294 0.6294 0.6294 0.6294 0.6294
3334.000000 0.6294 0.6294 0.6294 0.6294 0.6294
3339.000000 0.6294 0.6294 0.6293 0.6293 0.6293
3344.000000 0.6293 0.6293 0.6293 0.6293 0.6293
3349.000000 0.6292 0.6291 0.6290 0.6289 0.6287
3354.000000 0.6286 0.6283 0.6280 0.6277 0.6275
3359.000000 0.6272 0.6270 0.6267 0.6264 0.6260
3364.000000 0.6259 0.6256 0.6254 0.6252 0.6251
3369.000000 0.6249 0.6247 0.6245 0.6243 0.6241
3374.000000 0.6240 0.6238 0.6236 0.6234 0.6233
3379.000000 0.6231 0.6229 0.6227 0.6225 0.6223
3384.000000 0.6221 0.6219 0.6217 0.6215 0.6212
3389.000000 0.6210 0.6209 0.6207 0.6205 0.6203
3394.000000 0.6201 0.6199 0.6197 0.6195 0.6193
3399.000000 0.6191 0.6190 0.6188 0.6186 0.6184
3404.000000 0.6182 0.6180 0.6178 0.6175 0.6173
3409.000000 0.6171 0.6169 0.6166 0.6164 0.6162
3414.000000 0.6160 0.6157 0.6155 0.6152 0.6150
3419.000000 0.6148 0.6146 0.6143 0.6141 0.6138
3424.000000 0.6136 0.6134 0.6132 0.6129 0.6127
3429.000000 0.6125 0.6123 0.6120 0.6118 0.6115
3434.000000 0.6112 0.6110 0.6109 0.6106 0.6104
3439.000000 0.6101 0.6099 0.6097 0.6095 0.6092
3444.000000 0.6090 0.6088 0.6086 0.6083 0.6081
3449.000000 0.6077 0.6074 0.6070 0.6067 0.6062
3454.000000 0.6060 0.6056 0.6053 0.6049 0.6046
3459.000000 0.6042 0.6039 0.6035 0.6032 0.6028
3464.000000 0.6025 0.6021 0.6018 0.6014 0.6010
3469.000000 0.6007 0.6004 0.6000 0.5997 0.5993
3474.000000 0.5990 0.5986 0.5983 0.5979 0.5976
3479.000000 0.5972 0.5968 0.5965 0.5962 0.5959
3484.000000 0.5956 0.5953 0.5951 0.5948 0.5945
3489.000000 0.5942 0.5939 0.5936 0.5934 0.5931
3494.000000 0.5928 0.5925 0.5922 0.5919 0.5917
3499.000000 0.5914 0.5910 0.5908 0.5905 0.5902
3504.000000 0.5900 0.5897 0.5894 0.5891 0.5888
3509.000000 0.5885 0.5883 0.5880 0.5877 0.5874
3514.000000 0.5871 0.5868 0.5865 0.5862 0.5860
3519.000000 0.5857 0.5854 0.5851 0.5848 0.5845
3524.000000 0.5843 0.5840 0.5838 0.5835 0.5832
3529.000000 0.5829 0.5827 0.5824 0.5822 0.5819
3534.000000 0.5816 0.5812 0.5810 0.5808 0.5806
3539.000000 0.5803 0.5800 0.5797 0.5795 0.5792
3544.000000 0.5790 0.5787 0.5785 0.5782 0.5780
3549.000000 0.5777 0.5775 0.5772 0.5770 0.5767
3554.000000 0.5765 0.5762 0.5760 0.5758 0.5756
3559.000000 0.5753 0.5751 0.5748 0.5746 0.5743
3564.000000 0.5741 0.5738 0.5736 0.5733 0.5730
3569.000000 0.5727 0.5725 0.5722 0.5720 0.5717
3574.000000 0.5715 0.5712 0.5710 0.5707 0.5705
3579.000000 0.5702 0.5699 0.5696 0.5694 0.5691
3584.000000 0.5689 0.5686 0.5684 0.5681 0.5679
3589.000000 0.5676 0.5674 0.5671 0.5668 0.5665
3594.000000 0.5662 0.5660 0.5658 0.5655 0.5653
3599.000000 0.5651 0.5649 0.5647 0.5646 0.5644
3604.000000 0.5642 0.5640 0.5638 0.5636 0.5634
3609.000000 0.5632 0.5630 0.5628 0.5627 0.5625
3614.000000 0.5623 0.5621 0.5619 0.5617 0.5615
3619.000000 0.5612 0.5610 0.5609 0.5608 0.5606
3624.000000 0.5604 0.5602 0.5600 0.5598 0.5596
3629.000000 0.5594 0.5592 0.5590 0.5589 0.5587
3634.000000 0.5585 0.5583 0.5581 0.5579 0.5577
3639.000000 0.5575 0.5573 0.5571 0.5569 0.5567
3644.000000 0.5565 0.5562 0.5560 0.5559 0.5557
3649.000000 0.5555 0.5553 0.5551 0.5549 0.5547
3654.000000 0.5545 0.5543 0.5541 0.5539 0.5537
3659.000000 0.5535 0.5533 0.5531 0.5529 0.5527
3664.000000 0.5525 0.5523 0.5521 0.5519 0.5517
3669.000000 0.5515 0.5512 0.5510 0.5509 0.5507
3674.000000 0.5505 0.5503 0.5501 0.5498 0.5496
3679.000000 0.5494 0.5492 0.5490 0.5488 0.5486
3684.000000 0.5484 0.5481 0.5479 0.5477 0.5475
3689.000000 0.5473 0.5471 0.5469 0.5467 0.5464
3694.000000 0.5462 0.5460 0.5458 0.5456 0.5454
3699.000000 0.5452 0.5450 0.5447 0.5445 0.5443
3704.000000 0.5441 0.5439 0.5437 0.5434 0.5432
3709.000000 0.5429 0.5427 0.5424 0.5422 0.5419
3714.000000 0.5417 0.5414 0.5412 0.5409 0.5407
3719.000000 0.5404 0.5402 0.5399 0.5397 0.5394
3724.000000 0.5392 0.5389 0.5387 0.5384 0.5382
3729.000000 0.5379 0.5376 0.5373 0.5371 0.5368
3734.000000 0.5366 0.5362 0.5360 0.5358 0.5356
3739.000000 0.5353 0.5351 0.5348 0.5346 0.5343
3744.000000 0.5341 0.5338 0.5336 0.5333 0.5331
3749.000000 0.5328 0.5326 0.5323 0.5321 0.5318
3754.000000 0.5316 0.5312 0.5310 0.5308 0.5306
3759.000000 0.5303 0.5301 0.5299 0.5297 0.5295
3764.000000 0.5294 0.5292 0.5290 0.5288 0.5287
3769.000000 0.5285 0.5283 0.5281 0.5280 0.5278
3774.000000 0.5277 0.5275 0.5273 0.5271 0.5270
3779.000000 0.5268 0.5266 0.5264 0.5262 0.5260
3784.000000 0.5259 0.5257 0.5255 0.5253 0.5252
3789.000000 0.5250 0.5248 0.5246 0.5244 0.5242
3794.000000 0.5241 0.5239 0.5237 0.5235 0.5233
3799.000000 0.5231 0.5230 0.5228 0.5226 0.5224
3804.000000 0.5222 0.5220 0.5219 0.5217 0.5215
3809.000000 0.5212 0.5210 0.5209 0.5208 0.5206
3814.000000 0.5205
##END=
