##TITLE=FLUORENE
##JCAMP-DX=4.24
##DATA TYPE=INFRARED SPECTRUM
##CLASS=COBLENTZ
##ORIGIN=DOW CHEMICAL COMPANY
##OWNER=COBLENTZ SOC.
Collection (C) 2018 copyright by the U.S. Secretary of Commerce
on behalf of the United States of America. All rights reserved.
##DATE=1961/11/09
##NAMES=9H-fluorene
##CAS REGISTRY NO=86-73-7
##MOLFORM=C13 H10
##SOURCE REFERENCE=COBLENTZ NO. 06251
##$NIST SOURCE=COBLENTZ
##$NIST IMAGE=cob6251
##SPECTROMETER/DATA SYSTEM=DOW KBr FOREPRISM-GRATING
##INSTRUMENT PARAMETERS=BLAZED AT 3.5, 12.0, 20.0 MICRON AND CHANGED AT 5.0, 7.5, 14.9 MICRON
##STATE=SOLUTION (10% CS2 FOR 3800-450 CM^-^1)
$$ SEE SPECTRUM NO. 6107 FOR CCl4 SOLUTION SPECTRUM
##PATH LENGTH=0.012 CM
$$SPECTRAL CONTAMINATION DUE TO CS2 AROUND 650, 850, 1500, 2160, 2293 CM^-^1
##SAMPLING PROCEDURE=TRANSMISSION
##RESOLUTION=2
##DATA PROCESSING=DIGITIZED BY COBLENTZ SOCIETY (BATCH I) FROM HARD COPY
##XUNITS=1/CM
##YUNITS=TRANSMITTANCE
##XLABEL=Wavenumbers (cm-1)
##YLABEL=% Transmission
##XFACTOR=1
##YFACTOR=1
##DELTAX=1
##FIRSTX=446
##LASTX=3816
##FIRSTY=0.8398
##MAXX=3816
##MINX=446
##MAXY=0.9328
##MINY=0.0003
##NPOINTS=3371
##XYDATA=(X++(Y..Y))
446.000000 0.8398 0.8388 0.8378 0.8370 0.8361
451.000000 0.8346 0.8327 0.8307 0.8287 0.8263
456.000000 0.8230 0.8185 0.8140 0.8075 0.8006
461.000000 0.7936 0.7867 0.7808 0.7812 0.8327
466.000000 0.7808 0.8524 0.8575 0.8621 0.8670
471.000000 0.8725 0.8778 0.8802 0.8825 0.8848
476.000000 0.8859 0.8863 0.8868 0.8860 0.8849
481.000000 0.8825 0.8794 0.8758 0.8724 0.8709
486.000000 0.8708 0.8759 0.8834 0.8947 0.8977
491.000000 0.9003 0.9021 0.9041 0.9058 0.9074
496.000000 0.9090 0.9103 0.9112 0.9121 0.9132
501.000000 0.9138 0.9144 0.9151 0.9157 0.9163
506.000000 0.9167 0.9168 0.9168 0.9168 0.9168
511.000000 0.9168 0.9168 0.9168 0.9167 0.9167
516.000000 0.9166 0.9166 0.9171 0.9178 0.9184
521.000000 0.9190 0.9196 0.9200 0.9203 0.9207
526.000000 0.9211 0.9214 0.9218 0.9217 0.9215
531.000000 0.9212 0.9210 0.9208 0.9200 0.9187
536.000000 0.9174 0.9158 0.9136 0.9115 0.9101
541.000000 0.9100 0.9105 0.9120 0.9153 0.9181
546.000000 0.9204 0.9217 0.9230 0.9236 0.9242
551.000000 0.9248 0.9253 0.9254 0.9256 0.9257
556.000000 0.9257 0.9256 0.9254 0.9252 0.9250
561.000000 0.9248 0.9246 0.9243 0.9241 0.9241
566.000000 0.9237 0.9234 0.9232 0.9230 0.9227
571.000000 0.9224 0.9220 0.9217 0.9213 0.9210
576.000000 0.9206 0.9203 0.9199 0.9195 0.9191
581.000000 0.9187 0.9184 0.9180 0.9175 0.9171
586.000000 0.9166 0.9160 0.9155 0.9149 0.9143
591.000000 0.9138 0.9132 0.9125 0.9120 0.9114
596.000000 0.9108 0.9102 0.9096 0.9090 0.9084
601.000000 0.9077 0.9066 0.9055 0.9040 0.9021
606.000000 0.9002 0.8983 0.8951 0.8901 0.8830
611.000000 0.8738 0.8609 0.7615 0.6711 0.5807
616.000000 0.4902 0.3997 0.3093 0.2719 0.2705
621.000000 0.8703 0.8713 0.8705 0.8666 0.8616
626.000000 0.8545 0.8514 0.8558 0.8651 0.8723
631.000000 0.8738 0.8741 0.8741 0.8736 0.8718
636.000000 0.8695 0.8665 0.8625 0.8591 0.8557
641.000000 0.8524 0.8494 0.8464 0.8433 0.8401
646.000000 0.8368 0.8337 0.8282 0.8214 0.8075
651.000000 0.8078 0.8154 0.8241 0.8307 0.8420
656.000000 0.8541 0.8605 0.8636 0.8666 0.8697
661.000000 0.8714 0.8725 0.8733 0.8741 0.8751
666.000000 0.8735 0.8721 0.8691 0.8671 0.8652
671.000000 0.8634 0.8617 0.8602 0.8589 0.8578
676.000000 0.8566 0.8555 0.8531 0.8455 0.8378
681.000000 0.8278 0.8156 0.7997 0.7815 0.7628
686.000000 0.6998 0.6016 0.5034 0.4212 0.4186
691.000000 0.4201 0.4585 0.5862 0.7138 0.7887
696.000000 0.8039 0.8162 0.8247 0.8278 0.8308
701.000000 0.8307 0.8307 0.8323 0.8316 0.8301
706.000000 0.8275 0.8233 0.8178 0.8125 0.8057
711.000000 0.7989 0.7915 0.7840 0.7696 0.7506
716.000000 0.7336 0.7161 0.7000 0.6851 0.6665
721.000000 0.6414 0.6272 0.6129 0.5925 0.5682
726.000000 0.5419 0.4492 0.3814 0.3138 0.2461
731.000000 0.1784 0.1107 0.0430 0.0033 0.0007
736.000000 0.0011 0.0010 0.0009 0.0003 0.0004
741.000000 0.0352 0.0966 0.1581 0.2195 0.2809
746.000000 0.3424 0.3837 0.4428 0.5312 0.5583
751.000000 0.6297 0.6528 0.6715 0.6868 0.7014
756.000000 0.7145 0.7275 0.7389 0.7501 0.7597
761.000000 0.7665 0.7735 0.7805 0.7874 0.7944
766.000000 0.8028 0.8061 0.8058 0.8037 0.8021
771.000000 0.8008 0.8008 0.8007 0.8015 0.8028
776.000000 0.8055 0.8101 0.8167 0.8214 0.8249
781.000000 0.8278 0.8311 0.8350 0.8380 0.8399
786.000000 0.8417 0.8430 0.8436 0.8436 0.8437
791.000000 0.8431 0.8411 0.8367 0.8309 0.8193
796.000000 0.8164 0.8220 0.8310 0.8384 0.8371
801.000000 0.8355 0.8327 0.8296 0.8263 0.8192
806.000000 0.7689 0.7553 0.7553 0.7551 0.7596
811.000000 0.7958 0.8323 0.8481 0.8516 0.8539
816.000000 0.8538 0.8536 0.8535 0.8532 0.8528
821.000000 0.8525 0.8520 0.8515 0.8504 0.8494
826.000000 0.8483 0.8462 0.8427 0.8391 0.8325
831.000000 0.8258 0.8189 0.8076 0.7951 0.7840
836.000000 0.7742 0.7674 0.7606 0.7462 0.7297
841.000000 0.7165 0.7108 0.7051 0.6995 0.6765
846.000000 0.6458 0.6153 0.5846 0.5539 0.5518
851.000000 0.5518 0.5784 0.6093 0.6386 0.6436
856.000000 0.6465 0.6511 0.6583 0.6664 0.6675
861.000000 0.6658 0.6624 0.6582 0.6578 0.6585
866.000000 0.6641 0.6733 0.7046 0.7081 0.7090
871.000000 0.7092 0.7190 0.7347 0.7455 0.7556
876.000000 0.7649 0.7715 0.7771 0.7828 0.7884
881.000000 0.7940 0.7996 0.8051 0.8103 0.8154
886.000000 0.8209 0.8274 0.8331 0.8362 0.8368
891.000000 0.8371 0.8377 0.8383 0.8400 0.8416
896.000000 0.8425 0.8432 0.8439 0.8437 0.8434
901.000000 0.8423 0.8406 0.8398 0.8392 0.8386
906.000000 0.8395 0.8410 0.8425 0.8443 0.8465
911.000000 0.8486 0.8510 0.8535 0.8563 0.8545
916.000000 0.8535 0.8524 0.8514 0.8505 0.8495
921.000000 0.8486 0.8475 0.8466 0.8454 0.8439
926.000000 0.8424 0.8408 0.8401 0.8400 0.8400
931.000000 0.8399 0.8396 0.8393 0.8388 0.8371
936.000000 0.8349 0.8307 0.8241 0.8165 0.8045
941.000000 0.7493 0.7276 0.7122 0.6567 0.5700
946.000000 0.4833 0.3964 0.3098 0.2795 0.3196
951.000000 0.7187 0.8061 0.8151 0.8207 0.8245
956.000000 0.8278 0.8300 0.8306 0.8312 0.8313
961.000000 0.8261 0.8225 0.8208 0.8224 0.8243
966.000000 0.8271 0.8301 0.8337 0.8373 0.8406
971.000000 0.8428 0.8451 0.8473 0.8495 0.8505
976.000000 0.8505 0.8503 0.8490 0.8477 0.8465
981.000000 0.8464 0.8463 0.8462 0.8461 0.8460
986.000000 0.8459 0.8458 0.8387 0.8266 0.8160
991.000000 0.7937 0.7806 0.7722 0.7067 0.6302
996.000000 0.5538 0.4773 0.4009 0.3520 0.3472
1001.000000 0.6537 0.8363 0.8358 0.8391 0.8342
1006.000000 0.8321 0.8245 0.8171 0.8104 0.8058
1011.000000 0.8038 0.7896 0.7731 0.7561 0.7526
1016.000000 0.7549 0.7789 0.7938 0.7939 0.7939
1021.000000 0.7412 0.6900 0.6593 0.6601 0.6598
1026.000000 0.7551 0.7965 0.7992 0.8047 0.8115
1031.000000 0.8175 0.8328 0.8435 0.8597 0.8642
1036.000000 0.8648 0.8654 0.8660 0.8665 0.8668
1041.000000 0.8670 0.8671 0.8673 0.8674 0.8674
1046.000000 0.8674 0.8673 0.8671 0.8671 0.8671
1051.000000 0.8671 0.8671 0.8671 0.8671 0.8671
1056.000000 0.8671 0.8671 0.8670 0.8668 0.8667
1061.000000 0.8665 0.8657 0.8649 0.8628 0.8609
1066.000000 0.8588 0.8570 0.8561 0.8559 0.8557
1071.000000 0.8555 0.8555 0.8554 0.8554 0.8542
1076.000000 0.8483 0.8387 0.8311 0.8241 0.8165
1081.000000 0.8040 0.7645 0.7251 0.6856 0.6697
1086.000000 0.6696 0.6703 0.6717 0.7675 0.8168
1091.000000 0.8252 0.8297 0.8300 0.8301 0.8292
1096.000000 0.8278 0.8256 0.8225 0.8183 0.8149
1101.000000 0.8149 0.8169 0.8220 0.8271 0.8318
1106.000000 0.8366 0.8415 0.8467 0.8513 0.8553
1111.000000 0.8585 0.8601 0.8609 0.8625 0.8617
1116.000000 0.8614 0.8606 0.8599 0.8571 0.8545
1121.000000 0.8517 0.8488 0.8460 0.8432 0.8401
1126.000000 0.8368 0.8335 0.8301 0.8268 0.8239
1131.000000 0.8209 0.8180 0.8151 0.8115 0.8078
1136.000000 0.8041 0.8004 0.7938 0.7858 0.7718
1141.000000 0.7575 0.7092 0.6607 0.6421 0.6421
1146.000000 0.6419 0.7706 0.7761 0.7800 0.7841
1151.000000 0.7883 0.7908 0.7919 0.7919 0.7931
1156.000000 0.7908 0.7871 0.7801 0.7744 0.7678
1161.000000 0.7587 0.7397 0.7207 0.7017 0.7014
1166.000000 0.7006 0.7746 0.8147 0.8125 0.8140
1171.000000 0.8134 0.8125 0.8097 0.8031 0.7956
1176.000000 0.7828 0.7564 0.7025 0.6195 0.5364
1181.000000 0.4532 0.3700 0.3609 0.3618 0.4417
1186.000000 0.5399 0.6381 0.6997 0.7008 0.7018
1191.000000 0.7031 0.7049 0.7228 0.7612 0.7999
1196.000000 0.8418 0.8475 0.8495 0.8501 0.8506
1201.000000 0.8509 0.8510 0.8524 0.8505 0.8496
1206.000000 0.8471 0.8441 0.8405 0.8353 0.8267
1211.000000 0.8230 0.8220 0.8349 0.8427 0.8505
1216.000000 0.8524 0.8527 0.8539 0.8516 0.8491
1221.000000 0.8370 0.8164 0.7955 0.7565 0.7175
1226.000000 0.6785 0.6526 0.6501 0.6511 0.8468
1231.000000 0.8511 0.8546 0.8560 0.8568 0.8568
1236.000000 0.8580 0.8613 0.8654 0.8668 0.8670
1241.000000 0.8670 0.8671 0.8671 0.8671 0.8671
1246.000000 0.8673 0.8673 0.8674 0.8674 0.8675
1251.000000 0.8675 0.8678 0.8678 0.8678 0.8678
1256.000000 0.8654 0.8615 0.8577 0.8568 0.8570
1261.000000 0.8571 0.8571 0.8571 0.8568 0.8567
1266.000000 0.8565 0.8562 0.8558 0.8555 0.8551
1271.000000 0.8547 0.8539 0.8527 0.8516 0.8504
1276.000000 0.8493 0.8448 0.8397 0.8351 0.8306
1281.000000 0.8252 0.8193 0.8132 0.8061 0.7991
1286.000000 0.7897 0.7801 0.7691 0.7578 0.7374
1291.000000 0.6557 0.5860 0.5164 0.4557 0.4552
1296.000000 0.4551 0.4551 0.7821 0.7824 0.7812
1301.000000 0.7775 0.7718 0.7640 0.7161 0.6398
1306.000000 0.5634 0.5560 0.5597 0.5865 0.7950
1311.000000 0.8022 0.8035 0.8039 0.8043 0.8047
1316.000000 0.8065 0.8126 0.8188 0.8196 0.8199
1321.000000 0.8202 0.8213 0.8158 0.8100 0.7972
1326.000000 0.7801 0.7630 0.7498 0.7505 0.7512
1331.000000 0.7495 0.7780 0.7825 0.7882 0.7925
1336.000000 0.7956 0.7984 0.8000 0.7991 0.8008
1341.000000 0.8034 0.8060 0.8086 0.8105 0.8121
1346.000000 0.8130 0.8131 0.8132 0.8118 0.8118
1351.000000 0.8118 0.8111 0.8105 0.8098 0.8091
1356.000000 0.8084 0.8071 0.8054 0.8008 0.7962
1361.000000 0.7915 0.7861 0.7808 0.7744 0.7676
1366.000000 0.7601 0.7524 0.7434 0.7253 0.7050
1371.000000 0.6908 0.6758 0.6586 0.6572 0.6568
1376.000000 0.6590 0.6780 0.6790 0.6788 0.6776
1381.000000 0.6761 0.6674 0.6603 0.6518 0.6407
1386.000000 0.6290 0.6192 0.6087 0.5532 0.5189
1391.000000 0.4981 0.4412 0.4270 0.3430 0.2564
1396.000000 0.1696 0.1604 0.1604 0.1604 0.2282
1401.000000 0.3358 0.4112 0.4094 0.4096 0.4008
1406.000000 0.3836 0.3664 0.3494 0.3422 0.3368
1411.000000 0.3352 0.3337 0.3314 0.3274 0.3126
1416.000000 0.3041 0.2941 0.2781 0.2482 0.2238
1421.000000 0.2094 0.1953 0.1816 0.1552 0.1264
1426.000000 0.1148 0.1077 0.1006 0.0934 0.0859
1431.000000 0.0783 0.0708 0.0626 0.0543 0.0460
1436.000000 0.0379 0.0321 0.0272 0.0224 0.0181
1441.000000 0.0146 0.0087 0.0043 0.0019 0.0019
1446.000000 0.0019 0.0019 0.0018 0.0018 0.0018
1451.000000 0.0018 0.0018 0.0018 0.0018 0.0018
1456.000000 0.0018 0.0018 0.0017 0.0017 0.0017
1461.000000 0.0017 0.0017 0.0017 0.0017 0.0017
1466.000000 0.0017 0.0016 0.0016 0.0016 0.0016
1471.000000 0.0016 0.0016 0.0016 0.0016 0.0016
1476.000000 0.0016 0.0015 0.0015 0.0015 0.0015
1481.000000 0.0015 0.0015 0.0015 0.0015 0.0015
1486.000000 0.0014 0.0014 0.0014 0.0014 0.0014
1491.000000 0.0014 0.0014 0.0014 0.0014 0.0013
1496.000000 0.0013 0.0013 0.0013 0.0013 0.0013
1501.000000 0.0013 0.0013 0.0013 0.0013 0.0012
1506.000000 0.0012 0.0012 0.0012 0.0012 0.0012
1511.000000 0.0012 0.0012 0.0012 0.0011 0.0011
1516.000000 0.0011 0.0011 0.0011 0.0011 0.0011
1521.000000 0.0011 0.0011 0.0010 0.0010 0.0010
1526.000000 0.0010 0.0010 0.0010 0.0010 0.0010
1531.000000 0.0010 0.0010 0.0009 0.0009 0.0009
1536.000000 0.0009 0.0009 0.0009 0.0009 0.0009
1541.000000 0.0009 0.0008 0.0008 0.0008 0.0008
1546.000000 0.0008 0.0008 0.0008 0.0008 0.0008
1551.000000 0.0008 0.0007 0.0007 0.0007 0.0007
1556.000000 0.0007 0.0007 0.0007 0.0007 0.0007
1561.000000 0.0006 0.0006 0.0009 0.0015 0.0023
1566.000000 0.0031 0.0040 0.0049 0.0062 0.0076
1571.000000 0.0089 0.0104 0.0119 0.0134 0.0154
1576.000000 0.0176 0.0207 0.0257 0.0310 0.0375
1581.000000 0.0443 0.0506 0.0563 0.0624 0.0686
1586.000000 0.0747 0.0809 0.0907 0.1027 0.1182
1591.000000 0.1536 0.2472 0.2573 0.2674 0.2775
1596.000000 0.2925 0.3109 0.3672 0.4144 0.4275
1601.000000 0.4401 0.4512 0.4587 0.4648 0.4706
1606.000000 0.4724 0.4742 0.4758 0.4774 0.4882
1611.000000 0.5506 0.5740 0.5968 0.6172 0.6356
1616.000000 0.6476 0.6599 0.6705 0.6803 0.6901
1621.000000 0.6999 0.7068 0.7139 0.7208 0.7271
1626.000000 0.7325 0.7381 0.7436 0.7492 0.7551
1631.000000 0.7611 0.7668 0.7710 0.7753 0.7774
1636.000000 0.7790 0.7810 0.7833 0.7930 0.8067
1641.000000 0.8174 0.8337 0.8433 0.8493 0.8525
1646.000000 0.8548 0.8561 0.8568 0.8575 0.8575
1651.000000 0.8571 0.8567 0.8563 0.8557 0.8552
1656.000000 0.8546 0.8540 0.8532 0.8525 0.8518
1661.000000 0.8510 0.8502 0.8492 0.8471 0.8439
1666.000000 0.8407 0.8345 0.8268 0.8162 0.8133
1671.000000 0.8168 0.8232 0.8311 0.8400 0.8470
1676.000000 0.8525 0.8534 0.8531 0.8528 0.8506
1681.000000 0.8477 0.8444 0.8402 0.8344 0.8274
1686.000000 0.8185 0.8121 0.8125 0.8351 0.8492
1691.000000 0.8586 0.8654 0.8699 0.8723 0.8738
1696.000000 0.8745 0.8746 0.8741 0.8736 0.8724
1701.000000 0.8712 0.8701 0.8682 0.8663 0.8644
1706.000000 0.8620 0.8589 0.8559 0.8511 0.8462
1711.000000 0.8440 0.8447 0.8496 0.8544 0.8609
1716.000000 0.8655 0.8699 0.8746 0.8787 0.8797
1721.000000 0.8807 0.8802 0.8795 0.8788 0.8788
1726.000000 0.8788 0.8791 0.8793 0.8800 0.8811
1731.000000 0.8821 0.8830 0.8836 0.8841 0.8847
1736.000000 0.8852 0.8845 0.8830 0.8815 0.8797
1741.000000 0.8756 0.8728 0.8708 0.8691 0.8681
1746.000000 0.8675 0.8685 0.8704 0.8725 0.8760
1751.000000 0.8771 0.8774 0.8773 0.8765 0.8758
1756.000000 0.8750 0.8743 0.8724 0.8702 0.8671
1761.000000 0.8640 0.8663 0.8692 0.8715 0.8736
1766.000000 0.8756 0.8765 0.8773 0.8782 0.8790
1771.000000 0.8791 0.8792 0.8792 0.8788 0.8775
1776.000000 0.8763 0.8750 0.8734 0.8718 0.8701
1781.000000 0.8685 0.8657 0.8625 0.8599 0.8577
1786.000000 0.8555 0.8530 0.8502 0.8448 0.8278
1791.000000 0.8145 0.8018 0.7887 0.7758 0.7760
1796.000000 0.7765 0.7791 0.8084 0.8235 0.8238
1801.000000 0.8239 0.8245 0.8268 0.8311 0.8368
1806.000000 0.8430 0.8505 0.8581 0.8591 0.8583
1811.000000 0.8575 0.8566 0.8553 0.8531 0.8507
1816.000000 0.8484 0.8400 0.8287 0.8217 0.8164
1821.000000 0.8161 0.8167 0.8185 0.8244 0.8321
1826.000000 0.8494 0.8505 0.8502 0.8495 0.8478
1831.000000 0.8446 0.8421 0.8412 0.8444 0.8478
1836.000000 0.8524 0.8563 0.8570 0.8566 0.8539
1841.000000 0.8484 0.8421 0.8334 0.8237 0.8241
1846.000000 0.8256 0.8292 0.8387 0.8544 0.8728
1851.000000 0.8762 0.8785 0.8804 0.8812 0.8816
1856.000000 0.8818 0.8818 0.8818 0.8814 0.8810
1861.000000 0.8806 0.8802 0.8798 0.8794 0.8791
1866.000000 0.8787 0.8783 0.8775 0.8766 0.8758
1871.000000 0.8745 0.8725 0.8705 0.8670 0.8608
1876.000000 0.8485 0.8371 0.8275 0.8164 0.8051
1881.000000 0.7994 0.7994 0.7997 0.8004 0.8044
1886.000000 0.8090 0.8144 0.8221 0.8489 0.8566
1891.000000 0.8565 0.8563 0.8559 0.8552 0.8533
1896.000000 0.8502 0.8456 0.8343 0.8150 0.7915
1901.000000 0.7826 0.7746 0.7725 0.7736 0.7806
1906.000000 0.8128 0.8281 0.8445 0.8530 0.8598
1911.000000 0.8628 0.8647 0.8637 0.8625 0.8609
1916.000000 0.8591 0.8554 0.8517 0.8439 0.8368
1921.000000 0.8328 0.8362 0.8395 0.8428 0.8458
1926.000000 0.8488 0.8506 0.8503 0.8487 0.8445
1931.000000 0.8401 0.8321 0.8071 0.7849 0.7626
1936.000000 0.7405 0.7218 0.7184 0.7189 0.7231
1941.000000 0.7464 0.7697 0.7930 0.8262 0.8403
1946.000000 0.8477 0.8538 0.8610 0.8700 0.8768
1951.000000 0.8830 0.8859 0.8878 0.8891 0.8903
1956.000000 0.8907 0.8911 0.8915 0.8918 0.8918
1961.000000 0.8918 0.8917 0.8916 0.8915 0.8915
1966.000000 0.8913 0.8912 0.8911 0.8909 0.8908
1971.000000 0.8907 0.8905 0.8904 0.8904 0.8903
1976.000000 0.8903 0.8902 0.8902 0.8902 0.8903
1981.000000 0.8905 0.8907 0.8908 0.8910 0.8920
1986.000000 0.8932 0.8962 0.9000 0.9023 0.9046
1991.000000 0.9044 0.9040 0.9037 0.9033 0.9027
1996.000000 0.9021 0.9015 0.9006 0.8991 0.8971
2001.000000 0.8952 0.8933 0.8925 0.8918 0.8910
2006.000000 0.8903 0.8896 0.8889 0.8884 0.8880
2011.000000 0.8875 0.8871 0.8867 0.8864 0.8862
2016.000000 0.8861 0.8867 0.8873 0.8885 0.8897
2021.000000 0.8909 0.8921 0.8932 0.8944 0.8946
2026.000000 0.8946 0.8946 0.8946 0.8944 0.8943
2031.000000 0.8941 0.8940 0.8933 0.8927 0.8900
2036.000000 0.8874 0.8835 0.8797 0.8757 0.8717
2041.000000 0.8704 0.8692 0.8688 0.8687 0.8687
2046.000000 0.8687 0.8688 0.8690 0.8693 0.8697
2051.000000 0.8704 0.8711 0.8718 0.8725 0.8732
2056.000000 0.8738 0.8743 0.8748 0.8751 0.8754
2061.000000 0.8749 0.8745 0.8737 0.8728 0.8720
2066.000000 0.8712 0.8701 0.8691 0.8678 0.8665
2071.000000 0.8649 0.8634 0.8612 0.8590 0.8558
2076.000000 0.8527 0.8488 0.8450 0.8409 0.8368
2081.000000 0.8325 0.8282 0.8237 0.8192 0.8124
2086.000000 0.8056 0.7917 0.7778 0.7661 0.7547
2091.000000 0.7490 0.7434 0.7411 0.7389 0.7378
2096.000000 0.7368 0.7337 0.7307 0.7248 0.7189
2101.000000 0.6817 0.6446 0.6199 0.5952 0.5929
2106.000000 0.5907 0.5891 0.5876 0.5793 0.5710
2111.000000 0.5473 0.5235 0.4996 0.4758 0.4520
2116.000000 0.4282 0.4044 0.3806 0.3568 0.3330
2121.000000 0.3121 0.2912 0.2805 0.2699 0.2528
2126.000000 0.2357 0.2263 0.2169 0.1963 0.1758
2131.000000 0.1580 0.1403 0.1261 0.1119 0.0982
2136.000000 0.0845 0.0741 0.0638 0.0546 0.0454
2141.000000 0.0346 0.0238 0.0184 0.0131 0.0095
2146.000000 0.0060 0.0047 0.0035 0.0032 0.0030
2151.000000 0.0028 0.0027 0.0027 0.0027 0.0028
2156.000000 0.0029 0.0030 0.0031 0.0034 0.0038
2161.000000 0.0042 0.0046 0.0050 0.0054 0.0063
2166.000000 0.0072 0.0089 0.0107 0.0123 0.0140
2171.000000 0.0162 0.0183 0.0212 0.0242 0.0273
2176.000000 0.0305 0.0348 0.0392 0.0437 0.0482
2181.000000 0.0536 0.0590 0.0725 0.0860 0.1151
2186.000000 0.1442 0.1632 0.1822 0.1871 0.1920
2191.000000 0.2051 0.2183 0.2314 0.2446 0.2577
2196.000000 0.2709 0.2840 0.2972 0.3097 0.3222
2201.000000 0.4652 0.6083 0.6204 0.6326 0.6693
2206.000000 0.7061 0.7161 0.7262 0.7345 0.7426
2211.000000 0.7508 0.7591 0.7656 0.7721 0.7761
2216.000000 0.7801 0.7841 0.7881 0.7921 0.7961
2221.000000 0.8001 0.8043 0.8084 0.8125 0.8167
2226.000000 0.8209 0.8252 0.8295 0.8337 0.8380
2231.000000 0.8398 0.8417 0.8421 0.8427 0.8425
2236.000000 0.8424 0.8421 0.8420 0.8415 0.8411
2241.000000 0.8408 0.8406 0.8399 0.8393 0.8381
2246.000000 0.8368 0.8354 0.8339 0.8324 0.8310
2251.000000 0.8293 0.8277 0.8263 0.8249 0.8228
2256.000000 0.8209 0.8160 0.8111 0.8061 0.8014
2261.000000 0.7971 0.7928 0.7876 0.7826 0.7768
2266.000000 0.7711 0.7647 0.7582 0.7508 0.7434
2271.000000 0.7294 0.7155 0.6893 0.6632 0.6385
2276.000000 0.6139 0.6023 0.5908 0.5776 0.5644
2281.000000 0.5362 0.5081 0.4799 0.4518 0.4236
2286.000000 0.3955 0.3673 0.3392 0.3110 0.2829
2291.000000 0.2547 0.2265 0.2256 0.2248 0.2345
2296.000000 0.2443 0.2678 0.2913 0.3147 0.3382
2301.000000 0.3616 0.3852 0.4086 0.4321 0.4556
2306.000000 0.4791 0.5025 0.5260 0.5408 0.5557
2311.000000 0.5684 0.5812 0.5885 0.5958 0.6016
2316.000000 0.6074 0.6126 0.6179 0.6269 0.6359
2321.000000 0.6475 0.6591 0.6715 0.6841 0.6962
2326.000000 0.7085 0.7154 0.7224 0.7285 0.7347
2331.000000 0.7399 0.7451 0.7521 0.7594 0.7825
2336.000000 0.8056 0.8134 0.8213 0.8268 0.8324
2341.000000 0.8410 0.8496 0.8562 0.8628 0.8671
2346.000000 0.8716 0.8738 0.8761 0.8783 0.8805
2351.000000 0.8821 0.8840 0.8856 0.8873 0.8884
2356.000000 0.8895 0.8903 0.8912 0.8920 0.8928
2361.000000 0.8936 0.8943 0.8943 0.8944 0.8944
2366.000000 0.8944 0.8944 0.8945 0.8945 0.8945
2371.000000 0.8945 0.8946 0.8947 0.8948 0.8949
2376.000000 0.8950 0.8950 0.8951 0.8951 0.8951
2381.000000 0.8951 0.8951 0.8951 0.8951 0.8951
2386.000000 0.8951 0.8950 0.8950 0.8949 0.8949
2391.000000 0.8949 0.8949 0.8948 0.8948 0.8948
2396.000000 0.8948 0.8948 0.8949 0.8949 0.8949
2401.000000 0.8949 0.8950 0.8950 0.8950 0.8950
2406.000000 0.8951 0.8951 0.8952 0.8952 0.8952
2411.000000 0.8952 0.8952 0.8952 0.8952 0.8951
2416.000000 0.8950 0.8949 0.8949 0.8948 0.8948
2421.000000 0.8947 0.8947 0.8946 0.8946 0.8945
2426.000000 0.8944 0.8943 0.8943 0.8941 0.8940
2431.000000 0.8937 0.8935 0.8933 0.8931 0.8928
2436.000000 0.8925 0.8924 0.8923 0.8921 0.8921
2441.000000 0.8921 0.8921 0.8923 0.8924 0.8930
2446.000000 0.8936 0.8941 0.8947 0.8952 0.8958
2451.000000 0.8963 0.8968 0.8973 0.8978 0.8978
2456.000000 0.8978 0.8978 0.8978 0.8978 0.8978
2461.000000 0.8978 0.8978 0.8978 0.8978 0.8978
2466.000000 0.8978 0.8978 0.8978 0.8978 0.8978
2471.000000 0.8978 0.8978 0.8978 0.8980 0.8980
2476.000000 0.8980 0.8980 0.8981 0.8981 0.8982
2481.000000 0.8983 0.8984 0.8985 0.8986 0.8987
2486.000000 0.8988 0.8988 0.8989 0.8990 0.8991
2491.000000 0.8991 0.8991 0.8991 0.8991 0.8991
2496.000000 0.8991 0.8991 0.8991 0.8991 0.8991
2501.000000 0.8991 0.8991 0.8990 0.8990 0.8988
2506.000000 0.8987 0.8985 0.8983 0.8981 0.8978
2511.000000 0.8977 0.8975 0.8974 0.8971 0.8970
2516.000000 0.8968 0.8964 0.8961 0.8958 0.8955
2521.000000 0.8951 0.8948 0.8944 0.8941 0.8938
2526.000000 0.8935 0.8931 0.8928 0.8924 0.8921
2531.000000 0.8917 0.8918 0.8918 0.8924 0.8932
2536.000000 0.8940 0.8948 0.8957 0.8959 0.8962
2541.000000 0.8963 0.8964 0.8964 0.8964 0.8963
2546.000000 0.8962 0.8960 0.8958 0.8956 0.8955
2551.000000 0.8953 0.8951 0.8948 0.8946 0.8943
2556.000000 0.8940 0.8936 0.8933 0.8930 0.8927
2561.000000 0.8924 0.8921 0.8918 0.8915 0.8912
2566.000000 0.8909 0.8907 0.8905 0.8903 0.8902
2571.000000 0.8900 0.8898 0.8896 0.8895 0.8893
2576.000000 0.8891 0.8889 0.8888 0.8886 0.8885
2581.000000 0.8883 0.8882 0.8881 0.8880 0.8878
2586.000000 0.8878 0.8878 0.8878 0.8877 0.8875
2591.000000 0.8875 0.8875 0.8874 0.8873 0.8871
2596.000000 0.8871 0.8871 0.8871 0.8870 0.8870
2601.000000 0.8868 0.8868 0.8867 0.8867 0.8866
2606.000000 0.8866 0.8865 0.8865 0.8870 0.8875
2611.000000 0.8886 0.8898 0.8901 0.8904 0.8906
2616.000000 0.8906 0.8905 0.8902 0.8896 0.8890
2621.000000 0.8882 0.8875 0.8867 0.8859 0.8850
2626.000000 0.8842 0.8830 0.8818 0.8807 0.8796
2631.000000 0.8794 0.8793 0.8799 0.8805 0.8815
2636.000000 0.8825 0.8846 0.8867 0.8881 0.8895
2641.000000 0.8905 0.8915 0.8924 0.8934 0.8943
2646.000000 0.8952 0.8951 0.8950 0.8948 0.8946
2651.000000 0.8943 0.8940 0.8936 0.8933 0.8928
2656.000000 0.8925 0.8921 0.8918 0.8914 0.8909
2661.000000 0.8909 0.8910 0.8912 0.8915 0.8917
2666.000000 0.8918 0.8924 0.8928 0.8934 0.8939
2671.000000 0.8940 0.8942 0.8942 0.8942 0.8942
2676.000000 0.8943 0.8943 0.8944 0.8944 0.8944
2681.000000 0.8944 0.8944 0.8944 0.8944 0.8943
2686.000000 0.8942 0.8941 0.8940 0.8939 0.8939
2691.000000 0.8938 0.8937 0.8936 0.8936 0.8935
2696.000000 0.8934 0.8933 0.8933 0.8932 0.8931
2701.000000 0.8931 0.8932 0.8932 0.8932 0.8932
2706.000000 0.8933 0.8933 0.8933 0.8933 0.8934
2711.000000 0.8934 0.8935 0.8935 0.8935 0.8935
2716.000000 0.8935 0.8934 0.8933 0.8931 0.8928
2721.000000 0.8927 0.8925 0.8923 0.8920 0.8916
2726.000000 0.8913 0.8906 0.8899 0.8891 0.8884
2731.000000 0.8877 0.8871 0.8865 0.8859 0.8852
2736.000000 0.8846 0.8839 0.8833 0.8825 0.8820
2741.000000 0.8812 0.8805 0.8798 0.8791 0.8783
2746.000000 0.8775 0.8768 0.8762 0.8748 0.8735
2751.000000 0.8721 0.8708 0.8694 0.8680 0.8666
2756.000000 0.8653 0.8639 0.8625 0.8611 0.8598
2761.000000 0.8584 0.8570 0.8556 0.8542 0.8524
2766.000000 0.8506 0.8488 0.8470 0.8452 0.8434
2771.000000 0.8415 0.8396 0.8377 0.8358 0.8339
2776.000000 0.8320 0.8275 0.8233 0.8171 0.8111
2781.000000 0.7891 0.7671 0.7657 0.7644 0.7643
2786.000000 0.7642 0.7655 0.7668 0.7726 0.7786
2791.000000 0.7807 0.7828 0.7825 0.7824 0.7814
2796.000000 0.7805 0.7794 0.7784 0.7842 0.7901
2801.000000 0.7961 0.8021 0.8096 0.8171 0.8232
2806.000000 0.8293 0.8347 0.8401 0.8439 0.8478
2811.000000 0.8511 0.8544 0.8563 0.8582 0.8601
2816.000000 0.8620 0.8628 0.8638 0.8643 0.8649
2821.000000 0.8654 0.8655 0.8655 0.8652 0.8644
2826.000000 0.8636 0.8625 0.8615 0.8606 0.8598
2831.000000 0.8594 0.8590 0.8599 0.8609 0.8618
2836.000000 0.8627 0.8636 0.8646 0.8652 0.8658
2841.000000 0.8664 0.8670 0.8675 0.8681 0.8687
2846.000000 0.8693 0.8698 0.8703 0.8706 0.8709
2851.000000 0.8712 0.8715 0.8715 0.8715 0.8713
2856.000000 0.8712 0.8711 0.8710 0.8709 0.8708
2861.000000 0.8703 0.8698 0.8685 0.8673 0.8645
2866.000000 0.8617 0.8589 0.8562 0.8517 0.8473
2871.000000 0.8413 0.8353 0.8289 0.8225 0.8126
2876.000000 0.8028 0.7915 0.7804 0.7660 0.7515
2881.000000 0.7067 0.6618 0.6510 0.6401 0.6355
2886.000000 0.6310 0.6317 0.6324 0.6342 0.6360
2891.000000 0.6395 0.6430 0.6465 0.6501 0.6517
2896.000000 0.6532 0.6528 0.6526 0.6524 0.6521
2901.000000 0.6508 0.6495 0.6430 0.6366 0.6351
2906.000000 0.6336 0.6355 0.6375 0.6404 0.6433
2911.000000 0.6462 0.6494 0.6540 0.6587 0.6639
2916.000000 0.6692 0.7083 0.7475 0.7589 0.7704
2921.000000 0.7812 0.7921 0.7985 0.8048 0.8115
2926.000000 0.8182 0.8250 0.8318 0.8349 0.8381
2931.000000 0.8397 0.8414 0.8421 0.8431 0.8435
2936.000000 0.8439 0.8442 0.8446 0.8449 0.8452
2941.000000 0.8455 0.8459 0.8463 0.8468 0.8473
2946.000000 0.8478 0.8485 0.8491 0.8497 0.8503
2951.000000 0.8510 0.8518 0.8525 0.8533 0.8542
2956.000000 0.8551 0.8564 0.8577 0.8589 0.8601
2961.000000 0.8610 0.8620 0.8628 0.8636 0.8640
2966.000000 0.8645 0.8647 0.8648 0.8648 0.8648
2971.000000 0.8647 0.8646 0.8645 0.8645 0.8640
2976.000000 0.8636 0.8628 0.8621 0.8612 0.8602
2981.000000 0.8591 0.8581 0.8568 0.8556 0.8535
2986.000000 0.8515 0.8494 0.8474 0.8441 0.8409
2991.000000 0.8374 0.8340 0.8281 0.8223 0.8139
2996.000000 0.8056 0.7978 0.7900 0.7458 0.7018
3001.000000 0.6883 0.6748 0.6631 0.6514 0.6415
3006.000000 0.6319 0.6227 0.6135 0.5989 0.5844
3011.000000 0.5576 0.5308 0.5040 0.4772 0.4503
3016.000000 0.4235 0.3966 0.3699 0.3676 0.3653
3021.000000 0.3652 0.3650 0.3889 0.4128 0.4415
3026.000000 0.4703 0.4870 0.5037 0.5036 0.5035
3031.000000 0.5033 0.5031 0.4946 0.4860 0.4755
3036.000000 0.4650 0.4544 0.4439 0.4333 0.4228
3041.000000 0.4122 0.4016 0.3910 0.3805 0.3779
3046.000000 0.3753 0.3884 0.4016 0.4155 0.4293
3051.000000 0.4431 0.4569 0.4706 0.4844 0.4970
3056.000000 0.5097 0.5095 0.5094 0.5087 0.5080
3061.000000 0.4969 0.4859 0.4606 0.4354 0.4102
3066.000000 0.3850 0.3598 0.3346 0.3094 0.2842
3071.000000 0.2739 0.2635 0.2637 0.2639 0.2884
3076.000000 0.3132 0.4026 0.4920 0.5814 0.6708
3081.000000 0.7034 0.7361 0.7361 0.7361 0.7351
3086.000000 0.7343 0.7128 0.6912 0.6808 0.6705
3091.000000 0.6708 0.6711 0.6718 0.6726 0.6875
3096.000000 0.7024 0.7221 0.7418 0.7724 0.8030
3101.000000 0.8171 0.8313 0.8451 0.8590 0.8644
3106.000000 0.8698 0.8715 0.8733 0.8747 0.8762
3111.000000 0.8780 0.8799 0.8809 0.8820 0.8831
3116.000000 0.8842 0.8856 0.8870 0.8883 0.8896
3121.000000 0.8905 0.8914 0.8923 0.8933 0.8942
3126.000000 0.8951 0.8956 0.8961 0.8966 0.8971
3131.000000 0.8975 0.8982 0.8987 0.8992 0.8992
3136.000000 0.8992 0.8992 0.8993 0.8987 0.8982
3141.000000 0.8977 0.8971 0.8966 0.8961 0.8952
3146.000000 0.8944 0.8935 0.8925 0.8909 0.8892
3151.000000 0.8871 0.8853 0.8828 0.8805 0.8790
3156.000000 0.8775 0.8775 0.8775 0.8781 0.8787
3161.000000 0.8794 0.8802 0.8809 0.8817 0.8825
3166.000000 0.8834 0.8852 0.8871 0.8896 0.8921
3171.000000 0.8957 0.8994 0.9015 0.9036 0.9052
3176.000000 0.9068 0.9075 0.9083 0.9090 0.9098
3181.000000 0.9102 0.9107 0.9109 0.9111 0.9113
3186.000000 0.9115 0.9117 0.9118 0.9121 0.9123
3191.000000 0.9125 0.9127 0.9128 0.9128 0.9128
3196.000000 0.9127 0.9125 0.9125 0.9124 0.9123
3201.000000 0.9121 0.9121 0.9120 0.9118 0.9117
3206.000000 0.9116 0.9115 0.9114 0.9112 0.9111
3211.000000 0.9110 0.9110 0.9111 0.9113 0.9114
3216.000000 0.9116 0.9117 0.9118 0.9120 0.9121
3221.000000 0.9123 0.9125 0.9125 0.9128 0.9130
3226.000000 0.9132 0.9134 0.9137 0.9140 0.9143
3231.000000 0.9146 0.9149 0.9151 0.9154 0.9156
3236.000000 0.9158 0.9160 0.9163 0.9165 0.9167
3241.000000 0.9168 0.9170 0.9171 0.9174 0.9175
3246.000000 0.9178 0.9180 0.9182 0.9184 0.9186
3251.000000 0.9187 0.9189 0.9191 0.9193 0.9195
3256.000000 0.9198 0.9200 0.9202 0.9204 0.9207
3261.000000 0.9209 0.9211 0.9213 0.9215 0.9217
3266.000000 0.9220 0.9221 0.9224 0.9225 0.9228
3271.000000 0.9230 0.9233 0.9235 0.9237 0.9239
3276.000000 0.9241 0.9243 0.9245 0.9247 0.9249
3281.000000 0.9250 0.9252 0.9253 0.9255 0.9256
3286.000000 0.9257 0.9258 0.9260 0.9261 0.9262
3291.000000 0.9263 0.9264 0.9264 0.9264 0.9264
3296.000000 0.9265 0.9265 0.9266 0.9266 0.9267
3301.000000 0.9267 0.9268 0.9268 0.9268 0.9268
3306.000000 0.9270 0.9270 0.9270 0.9270 0.9271
3311.000000 0.9271 0.9271 0.9271 0.9273 0.9273
3316.000000 0.9273 0.9273 0.9274 0.9274 0.9274
3321.000000 0.9274 0.9275 0.9275 0.9275 0.9275
3326.000000 0.9275 0.9275 0.9275 0.9275 0.9275
3331.000000 0.9275 0.9275 0.9275 0.9275 0.9275
3336.000000 0.9275 0.9275 0.9275 0.9274 0.9274
3341.000000 0.9274 0.9274 0.9274 0.9274 0.9273
3346.000000 0.9273 0.9273 0.9273 0.9271 0.9271
3351.000000 0.9271 0.9271 0.9271 0.9271 0.9271
3356.000000 0.9271 0.9271 0.9271 0.9271 0.9271
3361.000000 0.9271 0.9271 0.9271 0.9271 0.9271
3366.000000 0.9271 0.9271 0.9271 0.9271 0.9271
3371.000000 0.9271 0.9271 0.9271 0.9271 0.9271
3376.000000 0.9271 0.9271 0.9271 0.9271 0.9271
3381.000000 0.9271 0.9271 0.9271 0.9271 0.9271
3386.000000 0.9271 0.9271 0.9271 0.9271 0.9274
3391.000000 0.9277 0.9281 0.9284 0.9288 0.9292
3396.000000 0.9297 0.9301 0.9305 0.9309 0.9314
3401.000000 0.9316 0.9318 0.9320 0.9321 0.9323
3406.000000 0.9325 0.9327 0.9328 0.9328 0.9328
3411.000000 0.9328 0.9328 0.9328 0.9328 0.9325
3416.000000 0.9324 0.9321 0.9320 0.9317 0.9315
3421.000000 0.9313 0.9311 0.9309 0.9307 0.9304
3426.000000 0.9302 0.9299 0.9297 0.9294 0.9291
3431.000000 0.9288 0.9286 0.9283 0.9281 0.9278
3436.000000 0.9275 0.9273 0.9271 0.9268 0.9265
3441.000000 0.9262 0.9260 0.9257 0.9255 0.9252
3446.000000 0.9250 0.9247 0.9245 0.9242 0.9240
3451.000000 0.9237 0.9235 0.9232 0.9230 0.9228
3456.000000 0.9225 0.9223 0.9221 0.9218 0.9217
3461.000000 0.9215 0.9213 0.9210 0.9208 0.9206
3466.000000 0.9204 0.9201 0.9199 0.9197 0.9195
3471.000000 0.9193 0.9191 0.9190 0.9189 0.9187
3476.000000 0.9186 0.9185 0.9184 0.9183 0.9182
3481.000000 0.9180 0.9178 0.9178 0.9177 0.9175
3486.000000 0.9175 0.9173 0.9171 0.9171 0.9170
3491.000000 0.9168 0.9167 0.9166 0.9165 0.9163
3496.000000 0.9162 0.9161 0.9160 0.9158 0.9157
3501.000000 0.9156 0.9155 0.9153 0.9152 0.9150
3506.000000 0.9148 0.9146 0.9144 0.9142 0.9140
3511.000000 0.9138 0.9137 0.9135 0.9133 0.9131
3516.000000 0.9128 0.9127 0.9125 0.9123 0.9121
3521.000000 0.9118 0.9117 0.9115 0.9113 0.9111
3526.000000 0.9109 0.9106 0.9104 0.9102 0.9100
3531.000000 0.9098 0.9096 0.9093 0.9091 0.9089
3536.000000 0.9087 0.9084 0.9082 0.9080 0.9078
3541.000000 0.9075 0.9074 0.9071 0.9068 0.9067
3546.000000 0.9065 0.9062 0.9060 0.9059 0.9058
3551.000000 0.9058 0.9059 0.9059 0.9059 0.9059
3556.000000 0.9060 0.9060 0.9060 0.9060 0.9061
3561.000000 0.9061 0.9062 0.9062 0.9063 0.9063
3566.000000 0.9064 0.9064 0.9065 0.9065 0.9066
3571.000000 0.9066 0.9067 0.9067 0.9067 0.9067
3576.000000 0.9067 0.9067 0.9067 0.9067 0.9067
3581.000000 0.9066 0.9066 0.9066 0.9066 0.9066
3586.000000 0.9066 0.9066 0.9066 0.9065 0.9065
3591.000000 0.9065 0.9065 0.9064 0.9064 0.9064
3596.000000 0.9064 0.9063 0.9063 0.9062 0.9062
3601.000000 0.9061 0.9061 0.9060 0.9060 0.9059
3606.000000 0.9059 0.9058 0.9057 0.9056 0.9055
3611.000000 0.9053 0.9051 0.9049 0.9047 0.9045
3616.000000 0.9043 0.9041 0.9039 0.9037 0.9035
3621.000000 0.9033 0.9032 0.9030 0.9028 0.9025
3626.000000 0.9025 0.9023 0.9021 0.9020 0.9018
3631.000000 0.9017 0.9016 0.9012 0.9009 0.9004
3636.000000 0.8999 0.8994 0.8990 0.8985 0.8981
3641.000000 0.8977 0.8973 0.8968 0.8965 0.8961
3646.000000 0.8958 0.8954 0.8950 0.8947 0.8947
3651.000000 0.8948 0.8951 0.8954 0.8957 0.8960
3656.000000 0.8963 0.8966 0.8968 0.8971 0.8975
3661.000000 0.8978 0.8981 0.8984 0.8988 0.8991
3666.000000 0.8994 0.8994 0.8994 0.8994 0.8994
3671.000000 0.8993 0.8993 0.8992 0.8992 0.8992
3676.000000 0.8992 0.8991 0.8991 0.8990 0.8990
3681.000000 0.8989 0.8989 0.8989 0.8989 0.8988
3686.000000 0.8988 0.8987 0.8987 0.8988 0.8989
3691.000000 0.8992 0.8995 0.8998 0.9001 0.9005
3696.000000 0.9010 0.9015 0.9021 0.9027 0.9033
3701.000000 0.9036 0.9040 0.9038 0.9037 0.9036
3706.000000 0.9035 0.9034 0.9033 0.9031 0.9030
3711.000000 0.9028 0.9025 0.9021 0.9018 0.9015
3716.000000 0.9011 0.9007 0.9004 0.9002 0.9000
3721.000000 0.8998 0.8997 0.8995 0.8994 0.8994
3726.000000 0.8994 0.8995 0.8997 0.8998 0.8999
3731.000000 0.9000 0.9000 0.9000 0.9000 0.8999
3736.000000 0.8998 0.8995 0.8992 0.8986 0.8980
3741.000000 0.8974 0.8968 0.8962 0.8956 0.8952
3746.000000 0.8949 0.8945 0.8942 0.8941 0.8941
3751.000000 0.8941 0.8943 0.8944 0.8946 0.8947
3756.000000 0.8949 0.8951 0.8953 0.8955 0.8957
3761.000000 0.8959 0.8961 0.8963 0.8965 0.8967
3766.000000 0.8970 0.8971 0.8974 0.8975 0.8978
3771.000000 0.8981 0.8982 0.8983 0.8983 0.8982
3776.000000 0.8982 0.8981 0.8981 0.8980 0.8980
3781.000000 0.8978 0.8978 0.8977 0.8975 0.8974
3786.000000 0.8971 0.8970 0.8968 0.8966 0.8965
3791.000000 0.8963 0.8961 0.8959 0.8957 0.8955
3796.000000 0.8954 0.8954 0.8954 0.8953 0.8953
3801.000000 0.8953 0.8953 0.8953 0.8953 0.8950
3806.000000 0.8947 0.8942 0.8937 0.8932 0.8927
3811.000000 0.8921 0.8918 0.8913 0.8908 0.8903
3816.000000 0.8898
##END=
