##TITLE=Phosphonic acid, dimethyl ester
##JCAMP-DX=4.24
##DATA TYPE=INFRARED SPECTRUM
##CLASS=COBLENTZ III
##ORIGIN=DOW CHEMICAL COMPANY
##OWNER=COBLENTZ SOC.
Collection (C) 2018 copyright by the U.S. Secretary of Commerce
on behalf of the United States of America. All rights reserved.
##DATE=1965/12/06
##NAMES=dimethyl phosphonate
##CAS REGISTRY NO=868-85-9
##MOLFORM=C2 H7 O3 P
##SOURCE REFERENCE=COBLENTZ NO. 9155
##$NIST SOURCE=COBLENTZ
##$NIST IMAGE=cob9155
##SPECTROMETER/DATA SYSTEM=DOW KBr FOREPRISM-GRATING
##INSTRUMENT PARAMETERS=BLAZED AT 3.5, 12.0, 20.0 MICRON AND CHANGED AT 5.0, 7.5, 14.9 MICRON
##STATE=SOLUTION (10% CCl4 FOR 3800-1330, 10% CS2 FOR 1330-400 CM^-^1)
##PATH LENGTH=0.010 CM, 0.010 CM
$$SPECTRAL CONTAMINATION DUE TO CCl4 AROUND 1550, AND AN UNKNOWN AROUND 400 CM^-^1
##SAMPLING PROCEDURE=TRANSMISSION
##RESOLUTION=2
##DATA PROCESSING=DIGITIZED BY COBLENTZ SOCIETY (BATCH I) FROM HARD COPY
##XUNITS=1/CM
##YUNITS=TRANSMITTANCE
##XLABEL=Wavenumbers (cm-1)
##YLABEL=% Transmission
##XFACTOR=1
##YFACTOR=1
##DELTAX=1
##FIRSTX=385
##LASTX=3800
##FIRSTY=0.1817
##MAXX=3800
##MINX=385
##MAXY=0.8858
##MINY=0.0004
##NPOINTS=3416
##XYDATA=(X++(Y..Y))
385.000000 0.1817 0.1829 0.1840 0.1851 0.1868
390.000000 0.1885 0.1904 0.1924 0.1943 0.1964
395.000000 0.1989 0.2014 0.2039 0.2077 0.2118
400.000000 0.2160 0.2205 0.2305 0.2472 0.2662
405.000000 0.2853 0.3043 0.3234 0.3424 0.3614
410.000000 0.3805 0.3996 0.4186 0.4377 0.4567
415.000000 0.4758 0.4896 0.4997 0.5089 0.5186
420.000000 0.5283 0.5355 0.5426 0.5494 0.5556
425.000000 0.5618 0.5656 0.5694 0.5730 0.5750
430.000000 0.5770 0.5790 0.5798 0.5806 0.5814
435.000000 0.5822 0.5825 0.5826 0.5827 0.5828
440.000000 0.5831 0.5809 0.5800 0.5782 0.5764
445.000000 0.5746 0.5727 0.5709 0.5696 0.5684
450.000000 0.5672 0.5664 0.5689 0.5673 0.5679
455.000000 0.5700 0.5721 0.5762 0.5806 0.5857
460.000000 0.5915 0.5993 0.6144 0.6302 0.6422
465.000000 0.6519 0.6617 0.6743 0.6835 0.6908
470.000000 0.6947 0.6975 0.7005 0.7028 0.7043
475.000000 0.7057 0.7057 0.7060 0.7051 0.7045
480.000000 0.7024 0.7003 0.6978 0.6949 0.6919
485.000000 0.6885 0.6845 0.6795 0.6742 0.6660
490.000000 0.6575 0.6493 0.6401 0.6307 0.6204
495.000000 0.6102 0.6001 0.5893 0.5764 0.5621
500.000000 0.5503 0.5478 0.5476 0.5464 0.5470
505.000000 0.5477 0.5484 0.5493 0.5504 0.5515
510.000000 0.5526 0.5541 0.5556 0.5567 0.5572
515.000000 0.5578 0.5582 0.5566 0.5567 0.5524
520.000000 0.5500 0.5477 0.5454 0.5431 0.5405
525.000000 0.5368 0.5328 0.5270 0.5212 0.5153
530.000000 0.5094 0.4988 0.4804 0.4610 0.4416
535.000000 0.4246 0.3822 0.3580 0.3339 0.3097
540.000000 0.2856 0.2641 0.2303 0.1985 0.1820
545.000000 0.1774 0.1745 0.1744 0.1761 0.1848
550.000000 0.2122 0.2396 0.2669 0.2943 0.3216
555.000000 0.3490 0.3764 0.4037 0.4310 0.4584
560.000000 0.4858 0.5132 0.5405 0.5679 0.5952
565.000000 0.6226 0.6499 0.6772 0.7100 0.7369
570.000000 0.7538 0.7638 0.7710 0.7781 0.7851
575.000000 0.7921 0.7993 0.8064 0.8135 0.8180
580.000000 0.8225 0.8270 0.8315 0.8348 0.8377
585.000000 0.8406 0.8436 0.8465 0.8487 0.8508
590.000000 0.8528 0.8548 0.8568 0.8589 0.8609
595.000000 0.8621 0.8635 0.8647 0.8660 0.8671
600.000000 0.8685 0.8697 0.8709 0.8718 0.8728
605.000000 0.8738 0.8747 0.8757 0.8766 0.8774
610.000000 0.8782 0.8789 0.8797 0.8805 0.8813
615.000000 0.8814 0.8814 0.8814 0.8813 0.8812
620.000000 0.8782 0.8809 0.8798 0.8786 0.8774
625.000000 0.8763 0.8750 0.8732 0.8713 0.8695
630.000000 0.8673 0.8649 0.8625 0.8601 0.8578
635.000000 0.8551 0.8523 0.8494 0.8465 0.8434
640.000000 0.8396 0.8358 0.8320 0.8282 0.8244
645.000000 0.8201 0.8158 0.8115 0.8072 0.8039
650.000000 0.8007 0.7993 0.8000 0.7984 0.8062
655.000000 0.8108 0.8158 0.8220 0.8311 0.8449
660.000000 0.8578 0.8625 0.8666 0.8701 0.8723
665.000000 0.8746 0.8767 0.8781 0.8794 0.8808
670.000000 0.8815 0.8821 0.8825 0.8832 0.8836
675.000000 0.8837 0.8838 0.8838 0.8839 0.8840
680.000000 0.8836 0.8858 0.8828 0.8824 0.8820
685.000000 0.8813 0.8804 0.8795 0.8786 0.8778
690.000000 0.8768 0.8760 0.8752 0.8743 0.8735
695.000000 0.8725 0.8718 0.8710 0.8702 0.8695
700.000000 0.8687 0.8678 0.8671 0.8663 0.8654
705.000000 0.8641 0.8627 0.8614 0.8600 0.8587
710.000000 0.8573 0.8560 0.8546 0.8525 0.8506
715.000000 0.8486 0.8466 0.8446 0.8427 0.8407
720.000000 0.8387 0.8365 0.8339 0.8314 0.8289
725.000000 0.8264 0.8238 0.8207 0.8171 0.8136
730.000000 0.8101 0.8065 0.8031 0.7984 0.7931
735.000000 0.7876 0.7824 0.7768 0.7711 0.7651
740.000000 0.7593 0.7528 0.7438 0.7348 0.7239
745.000000 0.7128 0.6958 0.6655 0.6537 0.6190
750.000000 0.5819 0.5448 0.5077 0.4706 0.4335
755.000000 0.3964 0.3593 0.3222 0.2890 0.2624
760.000000 0.2453 0.2271 0.2144 0.2110 0.2114
765.000000 0.2132 0.2147 0.2177 0.2233 0.2309
770.000000 0.2406 0.2490 0.2572 0.2664 0.2764
775.000000 0.2883 0.2963 0.3035 0.3084 0.3133
780.000000 0.3176 0.3218 0.3260 0.3312 0.3378
785.000000 0.3444 0.3532 0.3622 0.3708 0.3794
790.000000 0.3918 0.3968 0.3997 0.4018 0.4039
795.000000 0.4058 0.4066 0.4066 0.4064 0.4064
800.000000 0.4050 0.4018 0.3977 0.3926 0.3849
805.000000 0.3728 0.3605 0.3405 0.2961 0.2517
810.000000 0.2074 0.1681 0.1534 0.1395 0.1250
815.000000 0.1092 0.0939 0.0828 0.0706 0.0716
820.000000 0.0686 0.0694 0.0708 0.0725 0.0749
825.000000 0.0779 0.0832 0.0906 0.0986 0.1202
830.000000 0.1431 0.1661 0.1890 0.2120 0.2350
835.000000 0.2579 0.2809 0.3039 0.3268 0.3498
840.000000 0.3728 0.3868 0.4062 0.4248 0.4376
845.000000 0.4449 0.4468 0.4459 0.4442 0.4420
850.000000 0.4392 0.4369 0.4367 0.4374 0.4389
855.000000 0.4427 0.4534 0.4825 0.5234 0.5407
860.000000 0.5569 0.5728 0.5852 0.5976 0.6089
865.000000 0.6196 0.6304 0.6415 0.6525 0.6611
870.000000 0.6686 0.6760 0.6834 0.6892 0.6949
875.000000 0.7007 0.7058 0.7107 0.7157 0.7206
880.000000 0.7238 0.7268 0.7298 0.7326 0.7357
885.000000 0.7386 0.7412 0.7438 0.7464 0.7490
890.000000 0.7515 0.7537 0.7555 0.7572 0.7591
895.000000 0.7598 0.7603 0.7607 0.7611 0.7617
900.000000 0.7648 0.7608 0.7601 0.7594 0.7578
905.000000 0.7562 0.7537 0.7508 0.7482 0.7417
910.000000 0.7388 0.7364 0.7358 0.7360 0.7365
915.000000 0.7371 0.7376 0.7375 0.7374 0.7361
920.000000 0.7349 0.7330 0.7304 0.7267 0.7228
925.000000 0.7191 0.7140 0.7086 0.7031 0.6967
930.000000 0.6904 0.6837 0.6768 0.6701 0.6634
935.000000 0.6548 0.6454 0.6349 0.6238 0.6114
940.000000 0.5982 0.5854 0.5732 0.5610 0.5460
945.000000 0.5307 0.5090 0.4876 0.4683 0.4358
950.000000 0.4117 0.3876 0.3634 0.3393 0.3152
955.000000 0.2910 0.2669 0.2428 0.2185 0.1944
960.000000 0.1704 0.1462 0.1221 0.1002 0.0813
965.000000 0.0171 0.0049 0.0013 0.0008 0.0009
970.000000 0.0010 0.0004 0.0013 0.0015 0.0017
975.000000 0.0018 0.0022 0.0027 0.0031 0.0035
980.000000 0.0042 0.0049 0.0056 0.0064 0.0073
985.000000 0.0082 0.0094 0.0111 0.0128 0.0145
990.000000 0.0164 0.0183 0.0203 0.0222 0.0256
995.000000 0.0294 0.0331 0.0370 0.0425 0.0479
1000.000000 0.0534 0.0584 0.0634 0.0684 0.0734
1005.000000 0.0786 0.0847 0.0911 0.0972 0.1040
1010.000000 0.1120 0.1172 0.1174 0.1200 0.1171
1015.000000 0.1157 0.1140 0.1117 0.1087 0.1058
1020.000000 0.1020 0.0978 0.0933 0.0884 0.0835
1025.000000 0.0783 0.0722 0.0660 0.0598 0.0522
1030.000000 0.0434 0.0346 0.0267 0.0196 0.0161
1035.000000 0.0132 0.0104 0.0077 0.0062 0.0047
1040.000000 0.0032 0.0028 0.0024 0.0020 0.0016
1045.000000 0.0015 0.0015 0.0016 0.0017 0.0018
1050.000000 0.0020 0.0022 0.0024 0.0026 0.0034
1055.000000 0.0041 0.0048 0.0056 0.0064 0.0076
1060.000000 0.0089 0.0101 0.0114 0.0127 0.0143
1065.000000 0.0159 0.0176 0.0191 0.0207 0.0223
1070.000000 0.0231 0.0233 0.0236 0.0248 0.0216
1075.000000 0.0204 0.0191 0.0178 0.0169 0.0163
1080.000000 0.0158 0.0153 0.0155 0.0156 0.0158
1085.000000 0.0160 0.0162 0.0164 0.0200 0.0225
1090.000000 0.0274 0.0368 0.0491 0.0596 0.0682
1095.000000 0.0856 0.1079 0.1302 0.1526 0.1749
1100.000000 0.1972 0.2130 0.2268 0.2485 0.2611
1105.000000 0.2737 0.2976 0.3111 0.3238 0.3536
1110.000000 0.3657 0.3747 0.3823 0.3899 0.3975
1115.000000 0.4050 0.4123 0.4189 0.4256 0.4315
1120.000000 0.4374 0.4432 0.4490 0.4574 0.4675
1125.000000 0.4769 0.4837 0.4906 0.4975 0.5047
1130.000000 0.5095 0.5135 0.5158 0.5170 0.5182
1135.000000 0.5194 0.5202 0.5208 0.5214 0.5220
1140.000000 0.5224 0.5225 0.5225 0.5225 0.5225
1145.000000 0.5219 0.5212 0.5206 0.5192 0.5177
1150.000000 0.5162 0.5145 0.5120 0.5094 0.5064
1155.000000 0.5022 0.4970 0.4918 0.4866 0.4815
1160.000000 0.4753 0.4665 0.4576 0.4482 0.4385
1165.000000 0.4256 0.4135 0.4022 0.3888 0.3628
1170.000000 0.3430 0.3316 0.3207 0.3102 0.2997
1175.000000 0.2824 0.2647 0.2469 0.2153 0.1939
1180.000000 0.1758 0.1502 0.1457 0.1460 0.1465
1185.000000 0.1469 0.1483 0.1501 0.1535 0.1585
1190.000000 0.1720 0.1931 0.2143 0.2349 0.2482
1195.000000 0.2610 0.2735 0.2856 0.2979 0.3104
1200.000000 0.3303 0.3529 0.3736 0.3945 0.4122
1205.000000 0.4226 0.4304 0.4347 0.4382 0.4414
1210.000000 0.4432 0.4430 0.4429 0.4422 0.4450
1215.000000 0.4403 0.4392 0.4377 0.4355 0.4329
1220.000000 0.4278 0.4218 0.4152 0.4096 0.4049
1225.000000 0.3999 0.3938 0.3876 0.3806 0.3718
1230.000000 0.3630 0.3550 0.3475 0.3399 0.3309
1235.000000 0.3222 0.3088 0.2876 0.2637 0.2398
1240.000000 0.2158 0.1919 0.1679 0.1548 0.1413
1245.000000 0.1277 0.1125 0.0952 0.0762 0.0545
1250.000000 0.0401 0.0311 0.0215 0.0105 0.0081
1255.000000 0.0072 0.0063 0.0056 0.0056 0.0056
1260.000000 0.0056 0.0056 0.0056 0.0056 0.0057
1265.000000 0.0058 0.0058 0.0074 0.0060 0.0060
1270.000000 0.0061 0.0061 0.0062 0.0062 0.0066
1275.000000 0.0070 0.0075 0.0080 0.0086 0.0097
1280.000000 0.0108 0.0119 0.0140 0.0178 0.0223
1285.000000 0.0276 0.0335 0.0384 0.0450 0.0642
1290.000000 0.0903 0.1165 0.1426 0.1687 0.1949
1295.000000 0.2210 0.2472 0.2733 0.2995 0.3256
1300.000000 0.3532 0.3766 0.3897 0.3972 0.4047
1305.000000 0.4188 0.4327 0.4459 0.4595 0.4750
1310.000000 0.4946 0.5235 0.5400 0.5529 0.5647
1315.000000 0.5756 0.5947 0.6097 0.6194 0.6250
1320.000000 0.6306 0.6362 0.6440 0.6518 0.6594
1325.000000 0.6660 0.6726 0.6790 0.6839 0.6888
1330.000000 0.6937 0.6987 0.7038 0.7087 0.7126
1335.000000 0.7167 0.7183 0.7200 0.7215 0.7225
1340.000000 0.7232 0.7239 0.7241 0.7242 0.7243
1345.000000 0.7244 0.7241 0.7238 0.7236 0.7233
1350.000000 0.7230 0.7221 0.7212 0.7204 0.7196
1355.000000 0.7187 0.7178 0.7175 0.7171 0.7167
1360.000000 0.7162 0.7161 0.7162 0.7162 0.7164
1365.000000 0.7165 0.7167 0.7169 0.7174 0.7178
1370.000000 0.7182 0.7190 0.7197 0.7204 0.7211
1375.000000 0.7218 0.7225 0.7233 0.7240 0.7247
1380.000000 0.7254 0.7260 0.7265 0.7269 0.7274
1385.000000 0.7278 0.7283 0.7287 0.7291 0.7291
1390.000000 0.7291 0.7291 0.7291 0.7291 0.7290
1395.000000 0.7288 0.7286 0.7283 0.7281 0.7278
1400.000000 0.7274 0.7268 0.7261 0.7255 0.7246
1405.000000 0.7235 0.7222 0.7211 0.7199 0.7182
1410.000000 0.7164 0.7147 0.7128 0.7107 0.7085
1415.000000 0.7064 0.7039 0.7011 0.6982 0.6953
1420.000000 0.6925 0.6896 0.6862 0.6831 0.6798
1425.000000 0.6765 0.6731 0.6680 0.6630 0.6580
1430.000000 0.6530 0.6478 0.6418 0.6358 0.6296
1435.000000 0.6215 0.6134 0.6034 0.5909 0.5781
1440.000000 0.5655 0.5429 0.5100 0.4771 0.4442
1445.000000 0.4112 0.3784 0.3455 0.3134 0.3142
1450.000000 0.3175 0.3220 0.3264 0.3302 0.3280
1455.000000 0.3266 0.3241 0.3200 0.3153 0.3094
1460.000000 0.3066 0.3044 0.3043 0.3060 0.3074
1465.000000 0.3099 0.3170 0.3295 0.3421 0.3546
1470.000000 0.3671 0.3797 0.3914 0.3968 0.4023
1475.000000 0.4099 0.4192 0.4295 0.4451 0.4498
1480.000000 0.4546 0.4594 0.4650 0.4785 0.5459
1485.000000 0.5644 0.5781 0.5829 0.5873 0.5901
1490.000000 0.5920 0.5934 0.5942 0.5955 0.5947
1495.000000 0.5944 0.5942 0.5938 0.5932 0.5925
1500.000000 0.5919 0.5899 0.5884 0.5870 0.5856
1505.000000 0.5837 0.5817 0.5797 0.5776 0.5751
1510.000000 0.5727 0.5702 0.5678 0.5648 0.5619
1515.000000 0.5590 0.5560 0.5531 0.5502 0.5473
1520.000000 0.5445 0.5416 0.5387 0.5358 0.5329
1525.000000 0.5299 0.5264 0.5230 0.5195 0.5160
1530.000000 0.5095 0.5022 0.4955 0.4890 0.4827
1535.000000 0.4759 0.4686 0.4614 0.4539 0.4462
1540.000000 0.4393 0.4337 0.4281 0.4226 0.4175
1545.000000 0.4125 0.4096 0.4084 0.4087 0.4090
1550.000000 0.4095 0.4105 0.4125 0.4154 0.4187
1555.000000 0.4235 0.4287 0.4340 0.4394 0.4453
1560.000000 0.4521 0.4589 0.4671 0.4758 0.4864
1565.000000 0.4986 0.5101 0.5166 0.5248 0.5295
1570.000000 0.5338 0.5370 0.5393 0.5417 0.5440
1575.000000 0.5464 0.5487 0.5510 0.5534 0.5557
1580.000000 0.5582 0.5609 0.5636 0.5662 0.5688
1585.000000 0.5710 0.5735 0.5758 0.5784 0.5812
1590.000000 0.5843 0.5879 0.5949 0.6085 0.6258
1595.000000 0.6370 0.6441 0.6511 0.6581 0.6648
1600.000000 0.6715 0.6792 0.6876 0.6956 0.7041
1605.000000 0.7133 0.7208 0.7268 0.7337 0.7421
1610.000000 0.7465 0.7503 0.7540 0.7576 0.7619
1615.000000 0.7658 0.7678 0.7701 0.7721 0.7744
1620.000000 0.7762 0.7780 0.7797 0.7815 0.7832
1625.000000 0.7849 0.7865 0.7881 0.7897 0.7912
1630.000000 0.7928 0.7942 0.7954 0.7965 0.7978
1635.000000 0.7990 0.8001 0.8011 0.8021 0.8031
1640.000000 0.8040 0.8050 0.8060 0.8068 0.8080
1645.000000 0.8092 0.8104 0.8117 0.8128 0.8141
1650.000000 0.8153 0.8162 0.8171 0.8182 0.8192
1655.000000 0.8202 0.8213 0.8224 0.8234 0.8245
1660.000000 0.8255 0.8260 0.8264 0.8268 0.8274
1665.000000 0.8278 0.8284 0.8289 0.8294 0.8298
1670.000000 0.8303 0.8307 0.8309 0.8311 0.8305
1675.000000 0.8316 0.8320 0.8324 0.8328 0.8328
1680.000000 0.8328 0.8328 0.8327 0.8327 0.8327
1685.000000 0.8327 0.8327 0.8327 0.8325 0.8321
1690.000000 0.8318 0.8315 0.8312 0.8309 0.8302
1695.000000 0.8295 0.8289 0.8282 0.8275 0.8268
1700.000000 0.8257 0.8246 0.8234 0.8221 0.8210
1705.000000 0.8199 0.8187 0.8176 0.8165 0.8155
1710.000000 0.8144 0.8134 0.8122 0.8111 0.8099
1715.000000 0.8086 0.8074 0.8061 0.8047 0.8032
1720.000000 0.8017 0.8003 0.7988 0.7975 0.7961
1725.000000 0.7949 0.7940 0.7936 0.7931 0.7925
1730.000000 0.7925 0.7925 0.7926 0.7928 0.7928
1735.000000 0.7930 0.7931 0.7937 0.7943 0.7949
1740.000000 0.7955 0.7962 0.7969 0.7978 0.7986
1745.000000 0.7993 0.8003 0.8014 0.8025 0.8037
1750.000000 0.8048 0.8058 0.8072 0.8087 0.8101
1755.000000 0.8111 0.8118 0.8125 0.8128 0.8131
1760.000000 0.8134 0.8134 0.8134 0.8132 0.8131
1765.000000 0.8128 0.8128 0.8125 0.8125 0.8125
1770.000000 0.8125 0.8125 0.8125 0.8143 0.8122
1775.000000 0.8119 0.8115 0.8112 0.8110 0.8106
1780.000000 0.8103 0.8099 0.8096 0.8083 0.8068
1785.000000 0.8056 0.8043 0.8028 0.8015 0.8004
1790.000000 0.7991 0.7978 0.7965 0.7953 0.7937
1795.000000 0.7918 0.7901 0.7884 0.7867 0.7851
1800.000000 0.7834 0.7818 0.7801 0.7784 0.7769
1805.000000 0.7755 0.7740 0.7725 0.7711 0.7698
1810.000000 0.7687 0.7675 0.7674 0.7674 0.7674
1815.000000 0.7667 0.7678 0.7685 0.7692 0.7706
1820.000000 0.7715 0.7722 0.7730 0.7737 0.7747
1825.000000 0.7757 0.7767 0.7780 0.7797 0.7815
1830.000000 0.7835 0.7855 0.7861 0.7865 0.7868
1835.000000 0.7872 0.7876 0.7880 0.7885 0.7890
1840.000000 0.7896 0.7901 0.7907 0.7908 0.7910
1845.000000 0.7911 0.7911 0.7912 0.7915 0.7915
1850.000000 0.7918 0.7918 0.7919 0.7919 0.7921
1855.000000 0.7921 0.7921 0.7922 0.7922 0.7924
1860.000000 0.7924 0.7925 0.7925 0.7925 0.7925
1865.000000 0.7925 0.7924 0.7922 0.7921 0.7921
1870.000000 0.7919 0.7918 0.7918 0.7917 0.7917
1875.000000 0.7915 0.7914 0.7911 0.7910 0.7908
1880.000000 0.7905 0.7903 0.7901 0.7898 0.7895
1885.000000 0.7891 0.7888 0.7885 0.7881 0.7878
1890.000000 0.7874 0.7869 0.7865 0.7860 0.7855
1895.000000 0.7850 0.7845 0.7841 0.7840 0.7838
1900.000000 0.7837 0.7835 0.7835 0.7864 0.7841
1905.000000 0.7848 0.7855 0.7861 0.7874 0.7888
1910.000000 0.7901 0.7915 0.7955 0.7999 0.8042
1915.000000 0.8097 0.8118 0.8134 0.8158 0.8203
1920.000000 0.8224 0.8240 0.8252 0.8263 0.8271
1925.000000 0.8277 0.8281 0.8286 0.8291 0.8295
1930.000000 0.8295 0.8295 0.8295 0.8295 0.8295
1935.000000 0.8295 0.8294 0.8294 0.8293 0.8292
1940.000000 0.8293 0.8294 0.8297 0.8300 0.8303
1945.000000 0.8306 0.8309 0.8314 0.8320 0.8325
1950.000000 0.8332 0.8338 0.8344 0.8351 0.8357
1955.000000 0.8364 0.8377 0.8391 0.8393 0.8378
1960.000000 0.8352 0.8313 0.8313 0.8315 0.8317
1965.000000 0.8318 0.8320 0.8321 0.8321 0.8323
1970.000000 0.8324 0.8325 0.8325 0.8325 0.8327
1975.000000 0.8327 0.8327 0.8327 0.8327 0.8327
1980.000000 0.8325 0.8320 0.8315 0.8310 0.8306
1985.000000 0.8301 0.8296 0.8287 0.8275 0.8266
1990.000000 0.8255 0.8245 0.8232 0.8213 0.8193
1995.000000 0.8174 0.8181 0.8230 0.8258 0.8286
2000.000000 0.8314 0.8341 0.8368 0.8378 0.8390
2005.000000 0.8396 0.8402 0.8408 0.8414 0.8420
2010.000000 0.8427 0.8432 0.8438 0.8444 0.8450
2015.000000 0.8455 0.8461 0.8465 0.8470 0.8474
2020.000000 0.8478 0.8481 0.8485 0.8488 0.8492
2025.000000 0.8496 0.8500 0.8503 0.8506 0.8509
2030.000000 0.8512 0.8515 0.8518 0.8520 0.8521
2035.000000 0.8521 0.8521 0.8521 0.8521 0.8521
2040.000000 0.8521 0.8521 0.8521 0.8521 0.8521
2045.000000 0.8521 0.8521 0.8521 0.8521 0.8521
2050.000000 0.8521 0.8521 0.8521 0.8521 0.8521
2055.000000 0.8520 0.8520 0.8518 0.8518 0.8518
2060.000000 0.8517 0.8516 0.8516 0.8515 0.8515
2065.000000 0.8514 0.8514 0.8514 0.8515 0.8515
2070.000000 0.8516 0.8517 0.8518 0.8518 0.8520
2075.000000 0.8520 0.8521 0.8521 0.8523 0.8523
2080.000000 0.8524 0.8525 0.8525 0.8525 0.8527
2085.000000 0.8528 0.8528 0.8528 0.8530 0.8531
2090.000000 0.8532 0.8532 0.8533 0.8534 0.8535
2095.000000 0.8535 0.8536 0.8537 0.8538 0.8538
2100.000000 0.8539 0.8540 0.8541 0.8542 0.8543
2105.000000 0.8543 0.8544 0.8545 0.8546 0.8546
2110.000000 0.8546 0.8546 0.8546 0.8546 0.8547
2115.000000 0.8547 0.8547 0.8547 0.8547 0.8547
2120.000000 0.8547 0.8547 0.8547 0.8547 0.8548
2125.000000 0.8548 0.8548 0.8548 0.8548 0.8548
2130.000000 0.8548 0.8548 0.8548 0.8548 0.8549
2135.000000 0.8549 0.8549 0.8549 0.8549 0.8549
2140.000000 0.8549 0.8549 0.8549 0.8549 0.8549
2145.000000 0.8549 0.8550 0.8551 0.8552 0.8553
2150.000000 0.8554 0.8554 0.8555 0.8556 0.8557
2155.000000 0.8558 0.8559 0.8559 0.8560 0.8561
2160.000000 0.8562 0.8563 0.8564 0.8564 0.8565
2165.000000 0.8566 0.8567 0.8568 0.8568 0.8568
2170.000000 0.8570 0.8570 0.8570 0.8570 0.8570
2175.000000 0.8568 0.8568 0.8568 0.8568 0.8567
2180.000000 0.8567 0.8566 0.8566 0.8565 0.8565
2185.000000 0.8564 0.8564 0.8563 0.8563 0.8562
2190.000000 0.8562 0.8561 0.8561 0.8560 0.8560
2195.000000 0.8559 0.8559 0.8558 0.8558 0.8557
2200.000000 0.8557 0.8555 0.8554 0.8552 0.8550
2205.000000 0.8548 0.8547 0.8545 0.8543 0.8541
2210.000000 0.8539 0.8537 0.8535 0.8533 0.8531
2215.000000 0.8528 0.8528 0.8525 0.8524 0.8521
2220.000000 0.8520 0.8518 0.8516 0.8514 0.8512
2225.000000 0.8510 0.8508 0.8501 0.8494 0.8487
2230.000000 0.8480 0.8473 0.8466 0.8459 0.8452
2235.000000 0.8445 0.8438 0.8431 0.8424 0.8415
2240.000000 0.8406 0.8397 0.8388 0.8378 0.8370
2245.000000 0.8361 0.8352 0.8343 0.8334 0.8327
2250.000000 0.8321 0.8315 0.8310 0.8305 0.8300
2255.000000 0.8296 0.8292 0.8291 0.8290 0.8288
2260.000000 0.8287 0.8286 0.8285 0.8284 0.8283
2265.000000 0.8283 0.8283 0.8283 0.8284 0.8284
2270.000000 0.8285 0.8286 0.8287 0.8287 0.8288
2275.000000 0.8289 0.8290 0.8291 0.8292 0.8293
2280.000000 0.8295 0.8296 0.8297 0.8298 0.8299
2285.000000 0.8299 0.8300 0.8300 0.8301 0.8301
2290.000000 0.8302 0.8302 0.8303 0.8303 0.8303
2295.000000 0.8300 0.8297 0.8293 0.8289 0.8285
2300.000000 0.8282 0.8278 0.8275 0.8259 0.8244
2305.000000 0.8230 0.8216 0.8202 0.8189 0.8175
2310.000000 0.8161 0.8148 0.8134 0.8118 0.8104
2315.000000 0.8091 0.8078 0.8067 0.8057 0.8046
2320.000000 0.8035 0.8024 0.8012 0.8001 0.7992
2325.000000 0.7981 0.7969 0.7958 0.7949 0.7938
2330.000000 0.7928 0.7917 0.7907 0.7896 0.7886
2335.000000 0.7874 0.7861 0.7849 0.7837 0.7825
2340.000000 0.7814 0.7800 0.7786 0.7765 0.7745
2345.000000 0.7717 0.7690 0.7654 0.7618 0.7571
2350.000000 0.7525 0.7497 0.7468 0.7457 0.7446
2355.000000 0.7436 0.7426 0.7419 0.7414 0.7408
2360.000000 0.7404 0.7399 0.7395 0.7388 0.7382
2365.000000 0.7371 0.7361 0.7343 0.7325 0.7305
2370.000000 0.7284 0.7257 0.7231 0.7191 0.7151
2375.000000 0.7118 0.7087 0.7047 0.7008 0.6961
2380.000000 0.6915 0.6847 0.6780 0.6694 0.6608
2385.000000 0.6541 0.6475 0.6415 0.6356 0.6269
2390.000000 0.6183 0.6124 0.6065 0.6026 0.5987
2395.000000 0.5949 0.5910 0.5882 0.5853 0.5824
2400.000000 0.5796 0.5767 0.5739 0.5699 0.5660
2405.000000 0.5620 0.5581 0.5541 0.5502 0.5452
2410.000000 0.5402 0.5350 0.5298 0.5232 0.5167
2415.000000 0.5096 0.5026 0.4975 0.4925 0.4884
2420.000000 0.4843 0.4802 0.4762 0.4717 0.4673
2425.000000 0.4619 0.4565 0.4510 0.4457 0.4406
2430.000000 0.4355 0.4323 0.4291 0.4282 0.4274
2435.000000 0.4274 0.4274 0.4281 0.4285 0.4290
2440.000000 0.4296 0.4308 0.4320 0.4332 0.4344
2445.000000 0.4356 0.4369 0.4381 0.4393 0.4438
2450.000000 0.4484 0.4695 0.4906 0.5005 0.5105
2455.000000 0.5117 0.5130 0.5226 0.5323 0.5397
2460.000000 0.5472 0.5556 0.5640 0.5749 0.5858
2465.000000 0.6295 0.6733 0.6889 0.7045 0.7151
2470.000000 0.7258 0.7328 0.7397 0.7449 0.7501
2475.000000 0.7554 0.7607 0.7656 0.7706 0.7755
2480.000000 0.7805 0.7839 0.7874 0.7903 0.7933
2485.000000 0.7961 0.7991 0.8015 0.8041 0.8056
2490.000000 0.8071 0.8087 0.8101 0.8117 0.8132
2495.000000 0.8147 0.8161 0.8172 0.8184 0.8195
2500.000000 0.8207 0.8218 0.8228 0.8240 0.8252
2505.000000 0.8262 0.8273 0.8282 0.8291 0.8300
2510.000000 0.8309 0.8318 0.8327 0.8336 0.8345
2515.000000 0.8354 0.8363 0.8371 0.8382 0.8391
2520.000000 0.8400 0.8406 0.8412 0.8417 0.8423
2525.000000 0.8428 0.8434 0.8439 0.8444 0.8449
2530.000000 0.8455 0.8460 0.8465 0.8470 0.8475
2535.000000 0.8481 0.8486 0.8489 0.8492 0.8494
2540.000000 0.8497 0.8500 0.8503 0.8506 0.8509
2545.000000 0.8512 0.8515 0.8518 0.8521 0.8523
2550.000000 0.8525 0.8528 0.8532 0.8535 0.8538
2555.000000 0.8539 0.8541 0.8541 0.8542 0.8542
2560.000000 0.8543 0.8543 0.8544 0.8544 0.8545
2565.000000 0.8545 0.8546 0.8546 0.8546 0.8546
2570.000000 0.8545 0.8543 0.8542 0.8541 0.8540
2575.000000 0.8539 0.8538 0.8537 0.8536 0.8534
2580.000000 0.8533 0.8531 0.8528 0.8525 0.8523
2585.000000 0.8518 0.8516 0.8513 0.8510 0.8507
2590.000000 0.8504 0.8500 0.8497 0.8493 0.8490
2595.000000 0.8486 0.8483 0.8478 0.8475 0.8471
2600.000000 0.8468 0.8466 0.8463 0.8459 0.8456
2605.000000 0.8452 0.8449 0.8446 0.8444 0.8443
2610.000000 0.8442 0.8441 0.8440 0.8439 0.8438
2615.000000 0.8437 0.8436 0.8435 0.8435 0.8435
2620.000000 0.8435 0.8437 0.8439 0.8441 0.8444
2625.000000 0.8446 0.8448 0.8450 0.8453 0.8457
2630.000000 0.8461 0.8465 0.8468 0.8473 0.8478
2635.000000 0.8482 0.8486 0.8489 0.8492 0.8495
2640.000000 0.8498 0.8500 0.8503 0.8506 0.8509
2645.000000 0.8511 0.8514 0.8517 0.8520 0.8521
2650.000000 0.8525 0.8527 0.8528 0.8530 0.8532
2655.000000 0.8533 0.8535 0.8536 0.8538 0.8540
2660.000000 0.8542 0.8543 0.8545 0.8545 0.8545
2665.000000 0.8545 0.8545 0.8544 0.8544 0.8544
2670.000000 0.8544 0.8543 0.8543 0.8542 0.8542
2675.000000 0.8541 0.8541 0.8540 0.8540 0.8539
2680.000000 0.8539 0.8538 0.8537 0.8535 0.8534
2685.000000 0.8532 0.8531 0.8528 0.8528 0.8525
2690.000000 0.8525 0.8524 0.8523 0.8521 0.8520
2695.000000 0.8518 0.8517 0.8515 0.8514 0.8513
2700.000000 0.8512 0.8510 0.8509 0.8508 0.8507
2705.000000 0.8506 0.8505 0.8503 0.8502 0.8501
2710.000000 0.8500 0.8499 0.8498 0.8496 0.8495
2715.000000 0.8494 0.8493 0.8491 0.8490 0.8487
2720.000000 0.8485 0.8483 0.8481 0.8478 0.8475
2725.000000 0.8473 0.8471 0.8468 0.8466 0.8463
2730.000000 0.8461 0.8459 0.8457 0.8454 0.8452
2735.000000 0.8449 0.8447 0.8445 0.8444 0.8442
2740.000000 0.8440 0.8438 0.8437 0.8435 0.8433
2745.000000 0.8431 0.8430 0.8428 0.8425 0.8424
2750.000000 0.8423 0.8421 0.8418 0.8417 0.8416
2755.000000 0.8414 0.8412 0.8409 0.8407 0.8404
2760.000000 0.8401 0.8398 0.8395 0.8392 0.8389
2765.000000 0.8386 0.8383 0.8378 0.8375 0.8373
2770.000000 0.8370 0.8367 0.8364 0.8361 0.8358
2775.000000 0.8355 0.8352 0.8349 0.8346 0.8341
2780.000000 0.8336 0.8331 0.8325 0.8321 0.8316
2785.000000 0.8311 0.8306 0.8301 0.8296 0.8291
2790.000000 0.8286 0.8281 0.8275 0.8268 0.8263
2795.000000 0.8253 0.8243 0.8232 0.8221 0.8212
2800.000000 0.8202 0.8191 0.8181 0.8169 0.8160
2805.000000 0.8150 0.8140 0.8126 0.8114 0.8100
2810.000000 0.8086 0.8071 0.8058 0.8044 0.8031
2815.000000 0.8017 0.8003 0.7982 0.7961 0.7939
2820.000000 0.7915 0.7892 0.7868 0.7846 0.7822
2825.000000 0.7790 0.7758 0.7721 0.7686 0.7549
2830.000000 0.7411 0.7264 0.7115 0.6967 0.6818
2835.000000 0.6671 0.6522 0.6374 0.6226 0.6078
2840.000000 0.5930 0.5826 0.5723 0.5638 0.5553
2845.000000 0.5303 0.5053 0.4716 0.4379 0.4041
2850.000000 0.3704 0.3400 0.3098 0.3099 0.3101
2855.000000 0.3376 0.3652 0.4186 0.4721 0.5255
2860.000000 0.5789 0.6323 0.6857 0.7044 0.7232
2865.000000 0.7284 0.7336 0.7368 0.7401 0.7408
2870.000000 0.7415 0.7414 0.7414 0.7410 0.7451
2875.000000 0.7401 0.7396 0.7389 0.7382 0.7372
2880.000000 0.7365 0.7355 0.7345 0.7328 0.7314
2885.000000 0.7285 0.7257 0.7212 0.7169 0.7143
2890.000000 0.7117 0.7097 0.7076 0.7037 0.6998
2895.000000 0.6925 0.6854 0.6782 0.6711 0.6639
2900.000000 0.6568 0.6496 0.6425 0.6367 0.6309
2905.000000 0.6317 0.6325 0.6341 0.6358 0.6391
2910.000000 0.6424 0.6450 0.6475 0.6482 0.6489
2915.000000 0.6494 0.6499 0.6496 0.6494 0.6491
2920.000000 0.6488 0.6476 0.6465 0.6453 0.6441
2925.000000 0.6421 0.6401 0.6330 0.6258 0.6200
2930.000000 0.6142 0.6107 0.6073 0.6046 0.6019
2935.000000 0.6015 0.6010 0.5975 0.5940 0.5662
2940.000000 0.5387 0.5110 0.4834 0.4557 0.4281
2945.000000 0.4004 0.3728 0.3450 0.3175 0.2898
2950.000000 0.2622 0.2345 0.2069 0.1792 0.1516
2955.000000 0.1512 0.1509 0.1509 0.1490 0.1710
2960.000000 0.1911 0.2238 0.2566 0.2893 0.3221
2965.000000 0.3548 0.3876 0.4203 0.4531 0.4806
2970.000000 0.5082 0.5095 0.5108 0.5114 0.5121
2975.000000 0.5126 0.5124 0.5129 0.5128 0.5123
2980.000000 0.5118 0.5110 0.5104 0.5074 0.5044
2985.000000 0.5002 0.4960 0.4918 0.4877 0.4835
2990.000000 0.4793 0.4751 0.4709 0.4694 0.4679
2995.000000 0.4677 0.4699 0.4681 0.4686 0.4697
3000.000000 0.4709 0.4725 0.4742 0.4760 0.4781
3005.000000 0.4797 0.4814 0.4827 0.4840 0.4853
3010.000000 0.4866 0.4877 0.4888 0.4899 0.4910
3015.000000 0.4921 0.4932 0.4952 0.4972 0.5027
3020.000000 0.5083 0.5141 0.5200 0.5253 0.5307
3025.000000 0.5362 0.5419 0.5532 0.5645 0.5822
3030.000000 0.6000 0.6132 0.6264 0.6388 0.6512
3035.000000 0.6608 0.6703 0.6771 0.6840 0.6924
3040.000000 0.7008 0.7065 0.7121 0.7172 0.7225
3045.000000 0.7260 0.7295 0.7322 0.7351 0.7378
3050.000000 0.7408 0.7433 0.7458 0.7478 0.7497
3055.000000 0.7515 0.7536 0.7547 0.7558 0.7568
3060.000000 0.7580 0.7590 0.7601 0.7611 0.7621
3065.000000 0.7632 0.7643 0.7653 0.7664 0.7674
3070.000000 0.7685 0.7695 0.7706 0.7715 0.7725
3075.000000 0.7736 0.7746 0.7756 0.7767 0.7776
3080.000000 0.7787 0.7797 0.7807 0.7818 0.7828
3085.000000 0.7841 0.7854 0.7865 0.7878 0.7890
3090.000000 0.7903 0.7915 0.7930 0.7943 0.7957
3095.000000 0.7969 0.7983 0.7996 0.8010 0.8022
3100.000000 0.8037 0.8050 0.8062 0.8075 0.8087
3105.000000 0.8098 0.8110 0.8121 0.8133 0.8145
3110.000000 0.8158 0.8169 0.8182 0.8196 0.8211
3115.000000 0.8228 0.8248 0.8266 0.8285 0.8309
3120.000000 0.8334 0.8352 0.8371 0.8384 0.8398
3125.000000 0.8408 0.8418 0.8428 0.8439 0.8446
3130.000000 0.8453 0.8459 0.8465 0.8471 0.8477
3135.000000 0.8483 0.8489 0.8491 0.8493 0.8495
3140.000000 0.8497 0.8499 0.8501 0.8502 0.8503
3145.000000 0.8504 0.8506 0.8507 0.8508 0.8509
3150.000000 0.8511 0.8512 0.8513 0.8514 0.8516
3155.000000 0.8517 0.8518 0.8520 0.8521 0.8523
3160.000000 0.8525 0.8525 0.8528 0.8528 0.8531
3165.000000 0.8532 0.8534 0.8535 0.8537 0.8538
3170.000000 0.8539 0.8540 0.8542 0.8543 0.8545
3175.000000 0.8546 0.8547 0.8548 0.8550 0.8550
3180.000000 0.8551 0.8551 0.8552 0.8552 0.8552
3185.000000 0.8552 0.8552 0.8552 0.8553 0.8553
3190.000000 0.8553 0.8553 0.8554 0.8554 0.8554
3195.000000 0.8554 0.8554 0.8555 0.8556 0.8556
3200.000000 0.8557 0.8558 0.8559 0.8559 0.8560
3205.000000 0.8561 0.8562 0.8562 0.8563 0.8564
3210.000000 0.8565 0.8565 0.8566 0.8567 0.8568
3215.000000 0.8568 0.8568 0.8570 0.8571 0.8571
3220.000000 0.8573 0.8573 0.8584 0.8575 0.8575
3225.000000 0.8575 0.8577 0.8577 0.8578 0.8578
3230.000000 0.8580 0.8580 0.8581 0.8581 0.8582
3235.000000 0.8583 0.8584 0.8584 0.8585 0.8585
3240.000000 0.8586 0.8587 0.8588 0.8588 0.8589
3245.000000 0.8589 0.8590 0.8591 0.8592 0.8593
3250.000000 0.8594 0.8594 0.8595 0.8596 0.8597
3255.000000 0.8598 0.8599 0.8600 0.8601 0.8601
3260.000000 0.8602 0.8603 0.8604 0.8605 0.8606
3265.000000 0.8607 0.8608 0.8608 0.8609 0.8610
3270.000000 0.8611 0.8611 0.8612 0.8613 0.8614
3275.000000 0.8614 0.8615 0.8615 0.8616 0.8617
3280.000000 0.8618 0.8618 0.8618 0.8618 0.8620
3285.000000 0.8621 0.8621 0.8621 0.8623 0.8623
3290.000000 0.8623 0.8621 0.8621 0.8620 0.8620
3295.000000 0.8618 0.8618 0.8618 0.8618 0.8617
3300.000000 0.8617 0.8616 0.8616 0.8615 0.8615
3305.000000 0.8614 0.8614 0.8613 0.8613 0.8612
3310.000000 0.8612 0.8612 0.8612 0.8611 0.8611
3315.000000 0.8611 0.8611 0.8610 0.8610 0.8610
3320.000000 0.8610 0.8609 0.8609 0.8609 0.8609
3325.000000 0.8609 0.8609 0.8609 0.8610 0.8611
3330.000000 0.8612 0.8612 0.8613 0.8613 0.8614
3335.000000 0.8615 0.8616 0.8616 0.8617 0.8618
3340.000000 0.8618 0.8618 0.8618 0.8615 0.8613
3345.000000 0.8609 0.8606 0.8600 0.8594 0.8587
3350.000000 0.8581 0.8573 0.8565 0.8560 0.8555
3355.000000 0.8551 0.8547 0.8543 0.8540 0.8537
3360.000000 0.8534 0.8532 0.8530 0.8528 0.8528
3365.000000 0.8525 0.8525 0.8523 0.8521 0.8520
3370.000000 0.8518 0.8517 0.8516 0.8514 0.8513
3375.000000 0.8512 0.8511 0.8509 0.8508 0.8506
3380.000000 0.8504 0.8501 0.8498 0.8495 0.8492
3385.000000 0.8489 0.8487 0.8484 0.8481 0.8478
3390.000000 0.8475 0.8471 0.8468 0.8465 0.8462
3395.000000 0.8459 0.8456 0.8452 0.8449 0.8445
3400.000000 0.8442 0.8438 0.8434 0.8428 0.8425
3405.000000 0.8420 0.8416 0.8411 0.8407 0.8402
3410.000000 0.8398 0.8393 0.8388 0.8383 0.8378
3415.000000 0.8374 0.8370 0.8366 0.8362 0.8357
3420.000000 0.8353 0.8348 0.8344 0.8339 0.8335
3425.000000 0.8330 0.8325 0.8324 0.8321 0.8320
3430.000000 0.8318 0.8316 0.8315 0.8313 0.8311
3435.000000 0.8309 0.8307 0.8305 0.8303 0.8301
3440.000000 0.8299 0.8297 0.8296 0.8294 0.8293
3445.000000 0.8291 0.8290 0.8289 0.8288 0.8286
3450.000000 0.8285 0.8283 0.8282 0.8281 0.8280
3455.000000 0.8278 0.8278 0.8278 0.8278 0.8278
3460.000000 0.8278 0.8278 0.8278 0.8278 0.8278
3465.000000 0.8278 0.8278 0.8278 0.8278 0.8278
3470.000000 0.8280 0.8281 0.8283 0.8284 0.8285
3475.000000 0.8286 0.8288 0.8289 0.8290 0.8291
3480.000000 0.8292 0.8294 0.8297 0.8300 0.8303
3485.000000 0.8306 0.8309 0.8312 0.8315 0.8318
3490.000000 0.8321 0.8324 0.8328 0.8333 0.8339
3495.000000 0.8344 0.8350 0.8355 0.8361 0.8366
3500.000000 0.8371 0.8377 0.8383 0.8388 0.8394
3505.000000 0.8400 0.8407 0.8413 0.8420 0.8425
3510.000000 0.8433 0.8439 0.8446 0.8452 0.8459
3515.000000 0.8465 0.8471 0.8478 0.8485 0.8491
3520.000000 0.8497 0.8502 0.8508 0.8513 0.8518
3525.000000 0.8525 0.8531 0.8536 0.8542 0.8547
3530.000000 0.8553 0.8558 0.8563 0.8568 0.8573
3535.000000 0.8578 0.8584 0.8589 0.8594 0.8599
3540.000000 0.8604 0.8609 0.8615 0.8620 0.8625
3545.000000 0.8628 0.8633 0.8637 0.8641 0.8644
3550.000000 0.8648 0.8652 0.8656 0.8659 0.8662
3555.000000 0.8662 0.8662 0.8662 0.8662 0.8661
3560.000000 0.8660 0.8659 0.8659 0.8658 0.8657
3565.000000 0.8656 0.8655 0.8653 0.8652 0.8650
3570.000000 0.8648 0.8646 0.8644 0.8642 0.8640
3575.000000 0.8635 0.8630 0.8625 0.8620 0.8598
3580.000000 0.8575 0.8545 0.8514 0.8502 0.8490
3585.000000 0.8486 0.8483 0.8534 0.8586 0.8639
3590.000000 0.8692 0.8699 0.8706 0.8712 0.8718
3595.000000 0.8721 0.8727 0.8730 0.8733 0.8733
3600.000000 0.8733 0.8733 0.8733 0.8732 0.8732
3605.000000 0.8718 0.8706 0.8657 0.8609 0.8608
3610.000000 0.8608 0.8648 0.8688 0.8728 0.8768
3615.000000 0.8768 0.8771 0.8773 0.8775 0.8778
3620.000000 0.8781 0.8782 0.8783 0.8783 0.8784
3625.000000 0.8784 0.8785 0.8785 0.8785 0.8785
3630.000000 0.8786 0.8786 0.8786 0.8785 0.8785
3635.000000 0.8784 0.8784 0.8783 0.8783 0.8783
3640.000000 0.8783 0.8782 0.8782 0.8782 0.8782
3645.000000 0.8782 0.8782 0.8782 0.8782 0.8782
3650.000000 0.8782 0.8782 0.8782 0.8782 0.8782
3655.000000 0.8782 0.8782 0.8781 0.8781 0.8780
3660.000000 0.8780 0.8780 0.8780 0.8778 0.8778
3665.000000 0.8778 0.8778 0.8778 0.8778 0.8778
3670.000000 0.8778 0.8778 0.8778 0.8777 0.8777
3675.000000 0.8777 0.8777 0.8775 0.8775 0.8775
3680.000000 0.8775 0.8775 0.8775 0.8775 0.8775
3685.000000 0.8775 0.8775 0.8777 0.8778 0.8778
3690.000000 0.8780 0.8781 0.8783 0.8784 0.8785
3695.000000 0.8788 0.8792 0.8798 0.8804 0.8809
3700.000000 0.8814 0.8818 0.8808 0.8825 0.8828
3705.000000 0.8830 0.8833 0.8835 0.8838 0.8840
3710.000000 0.8843 0.8845 0.8848 0.8850 0.8852
3715.000000 0.8852 0.8853 0.8853 0.8854 0.8854
3720.000000 0.8855 0.8855 0.8856 0.8856 0.8857
3725.000000 0.8858 0.8858 0.8858 0.8857 0.8856
3730.000000 0.8856 0.8855 0.8854 0.8853 0.8852
3735.000000 0.8851 0.8850 0.8849 0.8848 0.8847
3740.000000 0.8846 0.8844 0.8843 0.8842 0.8841
3745.000000 0.8839 0.8838 0.8837 0.8836 0.8834
3750.000000 0.8833 0.8832 0.8831 0.8828 0.8828
3755.000000 0.8827 0.8825 0.8825 0.8824 0.8823
3760.000000 0.8823 0.8821 0.8821 0.8821 0.8821
3765.000000 0.8820 0.8818 0.8818 0.8818 0.8817
3770.000000 0.8817 0.8816 0.8816 0.8815 0.8815
3775.000000 0.8815 0.8815 0.8815 0.8816 0.8816
3780.000000 0.8817 0.8817 0.8817 0.8817 0.8818
3785.000000 0.8818 0.8818 0.8820 0.8821 0.8823
3790.000000 0.8825 0.8825 0.8827 0.8828 0.8830
3795.000000 0.8831 0.8833 0.8834 0.8835 0.8835
3800.000000 0.8836
##END=
