##TITLE=PHOSPHONIC ACID, DIMETHYL ESTER
$$ VIRGINIA-CAROLINA COMPANY
##JCAMP-DX=4.24
##DATA TYPE=INFRARED SPECTRUM
##CLASS=COBLENTZ
##ORIGIN=TENNESSEE EASTMAN COMPANY, RESEARCH LABORATORIES
##OWNER=COBLENTZ SOCIETY
Collection (C) 2018 copyright by the U.S. Secretary of Commerce
on behalf of the United States of America. All rights reserved.
##DATE=Not specified, most likely prior to 1970
##NAMES=dimethyl phosphonate
##CAS REGISTRY NO=868-85-9
##MOLFORM=C2 H7 O3 P
##SOURCE REFERENCE=COBLENTZ NO. 634
##$NIST SOURCE=COBLENTZ
##$NIST IMAGE=cob634
##SPECTROMETER/DATA SYSTEM=Not specified, most likely a prism, grating, or hybrid spectrometer.
##PATH LENGTH=SMEAR
$$ SPECTRAL CONTAMINATION DUE TO H2O AROUND 3500 CM^-^1
##SAMPLING PROCEDURE=TRANSMISSION
##RESOLUTION=4
##DATA PROCESSING=DIGITIZED BY NIST FROM HARD COPY
##XUNITS=MICROMETERS
##YUNITS=TRANSMITTANCE
##XFACTOR=1.000000
##YFACTOR=1
##DELTAX=000.006682
##FIRSTX=2.071
##LASTX=16.0091
##FIRSTY=0.985
##MAXX=16.0091
##MINX=2.071
##MAXY=0.998
##MINY=0.341
##NPOINTS=2087
##XYDATA=(X++(Y..Y))
2.071000 0.9850 0.9830 0.9810 0.9800 0.9800
2.104424 0.9760 0.9760 0.9760 0.9760 0.9750
2.138000 0.9760 0.9750 0.9750 0.9750 0.9750
2.171424 0.9730 0.9730 0.9730 0.9710 0.9710
2.205000 0.9710 0.9710 0.9710 0.9700 0.9680
2.238424 0.9660 0.9660 0.9660 0.9650 0.9630
2.272000 0.9630 0.9610 0.9580 0.9580 0.9560
2.305424 0.9580 0.9580 0.9600 0.9580 0.9560
2.339000 0.9560 0.9550 0.9550 0.9530 0.9530
2.372424 0.9530 0.9530 0.9530 0.9510 0.9510
2.405000 0.9510 0.9510 0.9510 0.9510 0.9530
2.438424 0.9530 0.9530 0.9530 0.9510 0.9510
2.472000 0.9510 0.9510 0.9510 0.9510 0.9510
2.505424 0.9510 0.9510 0.9500 0.9500 0.9500
2.539000 0.9500 0.9500 0.9500 0.9500 0.9510
2.572424 0.9510 0.9510 0.9510 0.9510 0.9530
2.606000 0.9550 0.9550 0.9560 0.9560 0.9560
2.639424 0.9550 0.9550 0.9550 0.9530 0.9510
2.673000 0.9530 0.9530 0.9550 0.9530 0.9530
2.706424 0.9530 0.9530 0.9530 0.9510 0.9500
2.739000 0.9480 0.9400 0.9380 0.9210 0.9200
2.772424 0.9080 0.9010 0.8880 0.8750 0.8600
2.806000 0.8460 0.8310 0.8160 0.8000 0.7980
2.839424 0.7950 0.7650 0.7480 0.7280 0.7210
2.873000 0.7200 0.7130 0.7110 0.7080 0.7080
2.906424 0.7060 0.7060 0.7060 0.7080 0.7110
2.940000 0.7150 0.7280 0.7360 0.7410 0.7510
2.973424 0.7630 0.7710 0.7810 0.7900 0.7950
3.007000 0.7960 0.7980 0.8210 0.8260 0.8310
3.040424 0.8360 0.8380 0.8400 0.8400 0.8410
3.073000 0.8430 0.8460 0.8480 0.8500 0.8510
3.106424 0.8550 0.8550 0.8560 0.8580 0.8610
3.140000 0.8650 0.8730 0.8750 0.8780 0.8810
3.173424 0.8830 0.8880 0.8910 0.8960 0.8960
3.207000 0.8980 0.8980 0.9000 0.9000 0.9010
3.240424 0.9010 0.9030 0.9050 0.9050 0.9050
3.274000 0.9060 0.9060 0.9060 0.9050 0.9000
3.307424 0.8930 0.8860 0.8800 0.8750 0.8750
3.341000 0.8650 0.8530 0.8530 0.8510 0.8500
3.374424 0.8500 0.8200 0.8060 0.7930 0.7900
3.408000 0.7900 0.8710 0.8830 0.8860 0.8900
3.441424 0.8900 0.8860 0.8850 0.8850 0.8880
3.474000 0.8930 0.8960 0.8930 0.8880 0.8810
3.507424 0.8750 0.8650 0.8650 0.8810 0.8910
3.541000 0.9000 0.9100 0.9200 0.9210 0.9210
3.574424 0.9230 0.9230 0.9250 0.9250 0.9250
3.608000 0.9250 0.9250 0.9260 0.9260 0.9260
3.641424 0.9260 0.9280 0.9280 0.9280 0.9300
3.675000 0.9300 0.9300 0.9300 0.9300 0.9300
3.708424 0.9300 0.9300 0.9300 0.9300 0.9300
3.742000 0.9300 0.9300 0.9300 0.9310 0.9310
3.775424 0.9310 0.9310 0.9310 0.9310 0.9310
3.808000 0.9310 0.9310 0.9310 0.9310 0.9310
3.841424 0.9310 0.9310 0.9310 0.9310 0.9310
3.875000 0.9310 0.9310 0.9310 0.9310 0.9310
3.908424 0.9310 0.9330 0.9310 0.9310 0.9310
3.942000 0.9310 0.9310 0.9310 0.9310 0.9310
3.975424 0.9310 0.9310 0.9310 0.9310 0.9310
4.009000 0.9310 0.9310 0.9300 0.9300 0.9300
4.042424 0.9300 0.9250 0.9250 0.9230 0.9230
4.076000 0.9210 0.9200 0.9130 0.9130 0.9050
4.109424 0.9010 0.9000 0.8880 0.8810 0.8730
4.143000 0.8730 0.8710 0.8700 0.8700 0.8700
4.176424 0.8700 0.8700 0.8700 0.8700 0.8730
4.209000 0.8750 0.8830 0.8910 0.8980 0.9050
4.242424 0.9100 0.9250 0.9400 0.9510 0.9600
4.276000 0.9700 0.9800 0.9850 0.9860 0.9880
4.309424 0.9910 0.9960 0.9960 0.9980 0.9980
4.343000 0.9980 0.9910 0.9900 0.9810 0.9710
4.376424 0.9700 0.9650 0.9550 0.9500 0.9460
4.410000 0.9430 0.9410 0.9410 0.9400 0.9400
4.443424 0.9400 0.9400 0.9380 0.9360 0.9350
4.477000 0.9350 0.9350 0.9350 0.9350 0.9350
4.510424 0.9350 0.9350 0.9350 0.9350 0.9350
4.543000 0.9350 0.9350 0.9350 0.9350 0.9350
4.576424 0.9350 0.9350 0.9350 0.9350 0.9330
4.610000 0.9350 0.9350 0.9330 0.9330 0.9330
4.643424 0.9330 0.9330 0.9330 0.9330 0.9330
4.677000 0.9330 0.9310 0.9310 0.9310 0.9310
4.710424 0.9310 0.9310 0.9310 0.9310 0.9300
4.744000 0.9300 0.9300 0.9300 0.9310 0.9310
4.777424 0.9330 0.9310 0.9310 0.9310 0.9310
4.811000 0.9310 0.9310 0.9310 0.9310 0.9310
4.844424 0.9310 0.9310 0.9310 0.9310 0.9310
4.878000 0.9310 0.9310 0.9310 0.9300 0.9300
4.911424 0.9300 0.9300 0.9300 0.9300 0.9280
4.944000 0.9280 0.9280 0.9280 0.9280 0.9280
4.977424 0.9280 0.9280 0.9280 0.9280 0.9280
5.011000 0.9280 0.9280 0.9300 0.9300 0.9300
5.044424 0.9300 0.9300 0.9300 0.9300 0.9300
5.078000 0.9300 0.9300 0.9300 0.9280 0.9280
5.111424 0.9280 0.9280 0.9280 0.9280 0.9260
5.145000 0.9260 0.9260 0.9260 0.9260 0.9260
5.178424 0.9280 0.9280 0.9280 0.9280 0.9280
5.212000 0.9280 0.9260 0.9260 0.9260 0.9250
5.245424 0.9250 0.9230 0.9230 0.9210 0.9210
5.278000 0.9210 0.9230 0.9230 0.9210 0.9210
5.311424 0.9210 0.9210 0.9210 0.9200 0.9200
5.345000 0.9200 0.9200 0.9210 0.9210 0.9210
5.378424 0.9210 0.9210 0.9210 0.9200 0.9200
5.412000 0.9210 0.9210 0.9210 0.9210 0.9200
5.445424 0.9200 0.9200 0.9200 0.9200 0.9200
5.479000 0.9200 0.9200 0.9200 0.9200 0.9180
5.512424 0.9180 0.9180 0.9200 0.9200 0.9200
5.546000 0.9200 0.9210 0.9210 0.9210 0.9210
5.579424 0.9210 0.9210 0.9230 0.9230 0.9230
5.612000 0.9230 0.9230 0.9230 0.9250 0.9250
5.645424 0.9260 0.9260 0.9250 0.9260 0.9250
5.679000 0.9250 0.9250 0.9250 0.9250 0.9250
5.712424 0.9250 0.9260 0.9250 0.9260 0.9250
5.746000 0.9230 0.9230 0.9230 0.9230 0.9210
5.779424 0.9210 0.9200 0.9200 0.9200 0.9200
5.813000 0.9200 0.9210 0.9210 0.9210 0.9210
5.846424 0.9210 0.9200 0.9200 0.9200 0.9200
5.880000 0.9210 0.9210 0.9230 0.9230 0.9230
5.913424 0.9230 0.9230 0.9210 0.9200 0.9200
5.947000 0.9200 0.9200 0.9200 0.9200 0.9180
5.980424 0.9160 0.9150 0.9130 0.9080 0.9060
6.013000 0.9000 0.8900 0.8810 0.8710 0.8700
6.046424 0.8680 0.8680 0.8680 0.8700 0.8700
6.080000 0.8700 0.8680 0.8680 0.8680 0.8660
6.113424 0.8660 0.8650 0.8650 0.8650 0.8650
6.147000 0.8660 0.8680 0.8680 0.8700 0.8710
6.180424 0.8730 0.8760 0.8780 0.8800 0.8810
6.214000 0.8830 0.8850 0.8860 0.8910 0.8910
6.247424 0.8910 0.8930 0.8930 0.8950 0.8980
6.281000 0.8980 0.9000 0.9010 0.9010 0.9010
6.314424 0.9010 0.9030 0.9030 0.9050 0.9060
6.347000 0.9080 0.9100 0.9110 0.9130 0.9130
6.380424 0.9130 0.9150 0.9160 0.9180 0.9200
6.414000 0.9210 0.9210 0.9210 0.9210 0.9210
6.447424 0.9210 0.9210 0.9210 0.9210 0.9210
6.481000 0.9210 0.9210 0.9210 0.9210 0.9210
6.514424 0.9210 0.9210 0.9210 0.9210 0.9210
6.548000 0.9210 0.9230 0.9230 0.9230 0.9210
6.581424 0.9210 0.9210 0.9210 0.9210 0.9210
6.615000 0.9210 0.9210 0.9210 0.9200 0.9200
6.648424 0.9180 0.9160 0.9160 0.9160 0.9130
6.682000 0.9110 0.9100 0.9080 0.9000 0.9000
6.715424 0.8900 0.8810 0.8680 0.8610 0.8610
6.748000 0.8580 0.8510 0.8510 0.8450 0.8400
6.781424 0.8310 0.8230 0.8130 0.8050 0.8000
6.815000 0.7950 0.7900 0.7880 0.7900 0.7880
6.848424 0.7900 0.7900 0.7900 0.7900 0.7900
6.882000 0.7900 0.7900 0.7900 0.7980 0.8200
6.915424 0.8310 0.8400 0.8450 0.8510 0.8530
6.949000 0.8610 0.8700 0.8800 0.8810 0.8830
6.982424 0.8900 0.8910 0.8980 0.8980 0.9000
7.016000 0.9010 0.9030 0.9060 0.9060 0.9080
7.049424 0.9110 0.9110 0.9130 0.9150 0.9160
7.082000 0.9160 0.9180 0.9180 0.9210 0.9210
7.115424 0.9210 0.9230 0.9230 0.9230 0.9250
7.149000 0.9250 0.9250 0.9250 0.9250 0.9250
7.182424 0.9250 0.9250 0.9250 0.9250 0.9250
7.216000 0.9250 0.9250 0.9250 0.9250 0.9230
7.249424 0.9230 0.9230 0.9230 0.9230 0.9230
7.283000 0.9230 0.9230 0.9230 0.9230 0.9230
7.316424 0.9230 0.9230 0.9230 0.9250 0.9230
7.350000 0.9230 0.9230 0.9230 0.9230 0.9250
7.383424 0.9230 0.9230 0.9230 0.9230 0.9230
7.416000 0.9230 0.9230 0.9230 0.9230 0.9230
7.449424 0.9230 0.9230 0.9250 0.9230 0.9230
7.483000 0.9230 0.9230 0.9230 0.9210 0.9210
7.516424 0.9210 0.9210 0.9200 0.9200 0.9200
7.550000 0.9200 0.9200 0.9180 0.9180 0.9180
7.583424 0.9180 0.9180 0.9160 0.9110 0.9100
7.617000 0.9060 0.9030 0.9000 0.8980 0.8980
7.650424 0.8880 0.8850 0.8800 0.8780 0.8760
7.684000 0.8680 0.8680 0.8600 0.8510 0.8500
7.717424 0.8330 0.8280 0.8230 0.8180 0.8080
7.751000 0.8030 0.7980 0.7780 0.7610 0.7350
7.784424 0.7080 0.6810 0.6550 0.6280 0.6000
7.817000 0.5860 0.5710 0.5500 0.5180 0.5000
7.850424 0.4760 0.4680 0.4510 0.4400 0.4210
7.884000 0.4130 0.4060 0.4000 0.4000 0.3980
7.917424 0.3910 0.3830 0.3800 0.3730 0.3710
7.951000 0.3700 0.3700 0.3700 0.3700 0.3700
7.984424 0.3700 0.3730 0.3780 0.3850 0.3880
8.018000 0.3930 0.4110 0.4200 0.4230 0.4280
8.051424 0.4500 0.4750 0.4810 0.4880 0.4960
8.085000 0.5030 0.5100 0.5110 0.5410 0.5800
8.118424 0.5880 0.5960 0.6300 0.6410 0.6580
8.151000 0.6680 0.6710 0.6830 0.6910 0.7000
8.184424 0.7110 0.7200 0.7260 0.7360 0.7410
8.218000 0.7430 0.7480 0.7480 0.7500 0.7510
8.251424 0.7530 0.7550 0.7550 0.7550 0.7550
8.285000 0.7550 0.7550 0.7500 0.7500 0.7410
8.318424 0.7400 0.7330 0.7280 0.7210 0.7160
8.352000 0.7080 0.7000 0.6880 0.6860 0.6800
8.385424 0.6710 0.6650 0.6560 0.6550 0.6550
8.419000 0.6530 0.6510 0.6510 0.6560 0.6600
8.452424 0.6680 0.6780 0.6900 0.6950 0.7000
8.486000 0.7030 0.7130 0.7230 0.7310 0.7360
8.519424 0.7400 0.7430 0.7480 0.7510 0.7610
8.552000 0.7630 0.7660 0.7680 0.7710 0.7780
8.585424 0.7810 0.7850 0.7880 0.7910 0.7930
8.619000 0.7930 0.7950 0.7950 0.7960 0.7980
8.652424 0.7980 0.7980 0.7980 0.8000 0.8000
8.686000 0.8000 0.8010 0.8030 0.8050 0.8060
8.719424 0.8080 0.8080 0.8080 0.8080 0.8080
8.753000 0.8080 0.8080 0.8080 0.8080 0.8080
8.786424 0.8080 0.8080 0.8080 0.8080 0.8080
8.820000 0.8080 0.8080 0.8060 0.8050 0.8030
8.853424 0.8010 0.7980 0.7960 0.7960 0.7950
8.886000 0.7950 0.7930 0.7900 0.7900 0.7900
8.919424 0.7880 0.7830 0.7830 0.7800 0.7800
8.953000 0.7780 0.7730 0.7710 0.7700 0.7650
8.986424 0.7630 0.7560 0.7550 0.7510 0.7400
9.020000 0.7360 0.7310 0.7280 0.7230 0.7210
9.053424 0.7110 0.7080 0.6930 0.6880 0.6760
9.087000 0.6600 0.6510 0.6480 0.6330 0.6210
9.120424 0.6110 0.6010 0.5910 0.5710 0.5600
9.154000 0.5480 0.5350 0.5310 0.5260 0.5250
9.187424 0.5130 0.5060 0.4980 0.4950 0.4880
9.220000 0.4850 0.4850 0.4850 0.4850 0.4850
9.253424 0.4860 0.4860 0.4860 0.4880 0.4950
9.287000 0.4980 0.4980 0.4980 0.4980 0.4980
9.320424 0.4980 0.4980 0.4960 0.4950 0.4910
9.354000 0.4880 0.4850 0.4760 0.4760 0.4700
9.387424 0.4630 0.4560 0.4480 0.4460 0.4330
9.421000 0.4260 0.4230 0.4150 0.4130 0.4030
9.454424 0.4010 0.4000 0.3960 0.3930 0.3880
9.488000 0.3830 0.3800 0.3730 0.3700 0.3650
9.521424 0.3630 0.3630 0.3610 0.3610 0.3610
9.555000 0.3600 0.3600 0.3600 0.3610 0.3630
9.588424 0.3630 0.3700 0.3730 0.3780 0.3900
9.621000 0.3980 0.4130 0.4210 0.4230 0.4230
9.654424 0.4300 0.4400 0.4510 0.4630 0.4710
9.688000 0.4730 0.4800 0.4830 0.4880 0.4900
9.721424 0.4930 0.4980 0.5010 0.5100 0.5110
9.755000 0.5200 0.5210 0.5230 0.5230 0.5250
9.788424 0.5280 0.5280 0.5300 0.5300 0.5300
9.822000 0.5300 0.5280 0.5280 0.5280 0.5260
9.855424 0.5250 0.5230 0.5210 0.5210 0.5110
9.889000 0.5050 0.5000 0.4950 0.4900 0.4860
9.922424 0.4850 0.4810 0.4780 0.4710 0.4680
9.955000 0.4630 0.4610 0.4600 0.4600 0.4510
9.988424 0.4480 0.4430 0.4380 0.4330 0.4280
10.022000 0.4200 0.4180 0.4160 0.4150 0.4130
10.055424 0.4100 0.4080 0.4000 0.4000 0.3980
10.089000 0.3980 0.3910 0.3860 0.3810 0.3730
10.122424 0.3730 0.3680 0.3680 0.3630 0.3630
10.156000 0.3600 0.3580 0.3530 0.3510 0.3460
10.189424 0.3450 0.3410 0.3410 0.3410 0.3410
10.223000 0.3410 0.3430 0.3450 0.3500 0.3510
10.256424 0.3550 0.3630 0.3730 0.3810 0.3980
10.290000 0.4180 0.4280 0.4330 0.4480 0.4680
10.323424 0.4880 0.5010 0.5160 0.5280 0.5400
10.356000 0.5600 0.5800 0.5860 0.6150 0.6210
10.389424 0.6380 0.6450 0.6550 0.6680 0.6810
10.423000 0.6910 0.7000 0.7100 0.7180 0.7300
10.456424 0.7380 0.7460 0.7480 0.7500 0.7550
10.490000 0.7580 0.7630 0.7680 0.7760 0.7800
10.523424 0.7880 0.7910 0.7950 0.7980 0.8030
10.557000 0.8060 0.8100 0.8110 0.8150 0.8180
10.590424 0.8230 0.8250 0.8280 0.8310 0.8310
10.624000 0.8330 0.8350 0.8350 0.8360 0.8380
10.657424 0.8380 0.8400 0.8410 0.8410 0.8450
10.690000 0.8450 0.8460 0.8460 0.8460 0.8480
10.723424 0.8480 0.8500 0.8500 0.8500 0.8510
10.757000 0.8530 0.8530 0.8530 0.8550 0.8550
10.790424 0.8560 0.8560 0.8560 0.8580 0.8580
10.824000 0.8600 0.8600 0.8600 0.8610 0.8610
10.857424 0.8630 0.8630 0.8630 0.8650 0.8650
10.891000 0.8650 0.8650 0.8660 0.8660 0.8660
10.924424 0.8660 0.8660 0.8680 0.8680 0.8680
10.958000 0.8680 0.8680 0.8680 0.8700 0.8700
10.991424 0.8700 0.8700 0.8700 0.8710 0.8710
11.024000 0.8710 0.8710 0.8710 0.8710 0.8730
11.057424 0.8730 0.8730 0.8730 0.8730 0.8730
11.091000 0.8730 0.8750 0.8750 0.8750 0.8750
11.124424 0.8750 0.8760 0.8760 0.8760 0.8760
11.158000 0.8760 0.8760 0.8760 0.8760 0.8780
11.191424 0.8780 0.8780 0.8780 0.8780 0.8780
11.225000 0.8780 0.8800 0.8800 0.8800 0.8800
11.258424 0.8800 0.8800 0.8800 0.8800 0.8800
11.292000 0.8800 0.8800 0.8810 0.8810 0.8810
11.325424 0.8810 0.8810 0.8810 0.8810 0.8810
11.359000 0.8810 0.8810 0.8810 0.8810 0.8810
11.392424 0.8810 0.8810 0.8810 0.8810 0.8810
11.425000 0.8810 0.8810 0.8810 0.8810 0.8810
11.458424 0.8810 0.8810 0.8810 0.8810 0.8810
11.492000 0.8810 0.8810 0.8810 0.8810 0.8810
11.525424 0.8810 0.8810 0.8810 0.8810 0.8810
11.559000 0.8800 0.8800 0.8800 0.8800 0.8800
11.592424 0.8800 0.8800 0.8800 0.8800 0.8800
11.626000 0.8780 0.8780 0.8760 0.8760 0.8750
11.659424 0.8750 0.8730 0.8710 0.8700 0.8680
11.693000 0.8660 0.8650 0.8630 0.8610 0.8600
11.726424 0.8560 0.8530 0.8510 0.8480 0.8450
11.759000 0.8430 0.8400 0.8360 0.8330 0.8310
11.792424 0.8300 0.8250 0.8180 0.8080 0.8030
11.826000 0.8000 0.7980 0.7960 0.7880 0.7860
11.859424 0.7780 0.7710 0.7660 0.7610 0.7550
11.893000 0.7460 0.7380 0.7310 0.7280 0.7260
11.926424 0.7210 0.7180 0.7100 0.7060 0.6980
11.960000 0.6960 0.6860 0.6810 0.6800 0.6730
11.993424 0.6630 0.6560 0.6510 0.6480 0.6410
12.027000 0.6380 0.6350 0.6310 0.6300 0.6280
12.060424 0.6260 0.6230 0.6210 0.6210 0.6210
12.094000 0.6210 0.6210 0.6210 0.6210 0.6210
12.127424 0.6210 0.6230 0.6230 0.6230 0.6280
12.160000 0.6310 0.6330 0.6360 0.6380 0.6500
12.193424 0.6510 0.6560 0.6580 0.6630 0.6650
12.227000 0.6710 0.6750 0.6800 0.6850 0.6900
12.260424 0.7000 0.7010 0.7010 0.7100 0.7130
12.294000 0.7180 0.7210 0.7280 0.7310 0.7330
12.327424 0.7400 0.7410 0.7460 0.7480 0.7500
12.361000 0.7510 0.7510 0.7560 0.7610 0.7610
12.394424 0.7650 0.7680 0.7700 0.7710 0.7730
12.428000 0.7730 0.7750 0.7750 0.7760 0.7760
12.461424 0.7760 0.7760 0.7760 0.7760 0.7760
12.494000 0.7760 0.7760 0.7760 0.7760 0.7760
12.527424 0.7760 0.7760 0.7760 0.7760 0.7760
12.561000 0.7760 0.7760 0.7750 0.7730 0.7730
12.594424 0.7710 0.7710 0.7660 0.7610 0.7580
12.628000 0.7530 0.7500 0.7480 0.7460 0.7430
12.661424 0.7410 0.7400 0.7380 0.7380 0.7330
12.695000 0.7310 0.7300 0.7250 0.7210 0.7210
12.728424 0.7200 0.7180 0.7130 0.7130 0.7130
12.762000 0.7110 0.7110 0.7110 0.7130 0.7130
12.795424 0.7150 0.7160 0.7160 0.7180 0.7180
12.829000 0.7180 0.7200 0.7200 0.7210 0.7210
12.862424 0.7250 0.7260 0.7260 0.7280 0.7300
12.895000 0.7310 0.7350 0.7350 0.7360 0.7360
12.928424 0.7360 0.7380 0.7380 0.7380 0.7400
12.962000 0.7400 0.7400 0.7400 0.7400 0.7400
12.995424 0.7400 0.7410 0.7410 0.7410 0.7410
13.029000 0.7410 0.7410 0.7410 0.7410 0.7430
13.062424 0.7430 0.7430 0.7430 0.7430 0.7430
13.096000 0.7430 0.7430 0.7450 0.7450 0.7450
13.129424 0.7450 0.7450 0.7460 0.7480 0.7500
13.163000 0.7510 0.7530 0.7560 0.7600 0.7630
13.196424 0.7660 0.7680 0.7710 0.7730 0.7750
13.229000 0.7760 0.7780 0.7800 0.7810 0.7830
13.262424 0.7880 0.7910 0.7930 0.7960 0.7980
13.296000 0.8000 0.8000 0.8010 0.8010 0.8050
13.329424 0.8050 0.8060 0.8100 0.8110 0.8110
13.363000 0.8110 0.8130 0.8130 0.8130 0.8150
13.396424 0.8160 0.8160 0.8160 0.8160 0.8160
13.430000 0.8160 0.8160 0.8160 0.8160 0.8160
13.463424 0.8160 0.8160 0.8160 0.8160 0.8160
13.497000 0.8160 0.8160 0.8160 0.8160 0.8180
13.530424 0.8180 0.8180 0.8180 0.8180 0.8180
13.563000 0.8180 0.8180 0.8180 0.8180 0.8180
13.596424 0.8180 0.8180 0.8180 0.8180 0.8180
13.630000 0.8180 0.8180 0.8180 0.8180 0.8180
13.663424 0.8180 0.8160 0.8160 0.8160 0.8160
13.697000 0.8160 0.8150 0.8130 0.8130 0.8130
13.730424 0.8130 0.8130 0.8130 0.8130 0.8110
13.764000 0.8110 0.8110 0.8100 0.8100 0.8100
13.797424 0.8100 0.8100 0.8100 0.8100 0.8100
13.831000 0.8100 0.8100 0.8080 0.8080 0.8080
13.864424 0.8060 0.8030 0.8030 0.8010 0.8010
13.898000 0.8010 0.8000 0.8000 0.8000 0.7980
13.931424 0.7980 0.7980 0.7980 0.7980 0.7980
13.964000 0.7980 0.7980 0.7980 0.7960 0.7960
13.997424 0.7950 0.7950 0.7930 0.7910 0.7900
14.031000 0.7880 0.7860 0.7850 0.7850 0.7830
14.064424 0.7830 0.7810 0.7800 0.7800 0.7780
14.098000 0.7780 0.7780 0.7760 0.7760 0.7750
14.131424 0.7730 0.7710 0.7710 0.7710 0.7710
14.165000 0.7700 0.7700 0.7680 0.7660 0.7660
14.198424 0.7660 0.7650 0.7630 0.7610 0.7610
14.232000 0.7600 0.7600 0.7600 0.7580 0.7580
14.265424 0.7560 0.7560 0.7530 0.7510 0.7510
14.298000 0.7510 0.7500 0.7480 0.7480 0.7460
14.331424 0.7460 0.7460 0.7460 0.7430 0.7410
14.365000 0.7400 0.7400 0.7400 0.7400 0.7400
14.398424 0.7400 0.7380 0.7380 0.7380 0.7360
14.432000 0.7360 0.7360 0.7350 0.7350 0.7350
14.465424 0.7330 0.7310 0.7310 0.7310 0.7310
14.499000 0.7300 0.7300 0.7280 0.7260 0.7260
14.532424 0.7260 0.7250 0.7260 0.7250 0.7250
14.566000 0.7230 0.7210 0.7210 0.7200 0.7200
14.599424 0.7180 0.7180 0.7160 0.7130 0.7130
14.633000 0.7130 0.7110 0.7110 0.7110 0.7110
14.666424 0.7100 0.7080 0.7080 0.7060 0.7050
14.699000 0.7050 0.7030 0.7030 0.7030 0.7010
14.732424 0.7010 0.7010 0.7000 0.7000 0.7000
14.766000 0.6980 0.6980 0.6980 0.6980 0.6960
14.799424 0.6960 0.6960 0.6950 0.6950 0.6950
14.833000 0.6930 0.6930 0.6910 0.6910 0.6900
14.866424 0.6880 0.6880 0.6860 0.6860 0.6850
14.900000 0.6830 0.6830 0.6810 0.6810 0.6800
14.933424 0.6780 0.6780 0.6780 0.6780 0.6780
14.967000 0.6760 0.6760 0.6760 0.6750 0.6750
15.000424 0.6750 0.6730 0.6730 0.6730 0.6710
15.033000 0.6710 0.6700 0.6700 0.6700 0.6680
15.066424 0.6680 0.6680 0.6660 0.6660 0.6660
15.100000 0.6650 0.6650 0.6630 0.6610 0.6610
15.133424 0.6600 0.6580 0.6580 0.6580 0.6560
15.167000 0.6560 0.6560 0.6550 0.6550 0.6550
15.200424 0.6550 0.6550 0.6550 0.6530 0.6530
15.234000 0.6530 0.6530 0.6530 0.6530 0.6530
15.267424 0.6510 0.6510 0.6510 0.6510 0.6510
15.301000 0.6510 0.6510 0.6510 0.6500 0.6500
15.334424 0.6500 0.6500 0.6500 0.6500 0.6500
15.367000 0.6500 0.6500 0.6480 0.6480 0.6480
15.400424 0.6460 0.6460 0.6460 0.6460 0.6460
15.434000 0.6460 0.6460 0.6480 0.6460 0.6460
15.467424 0.6460 0.6450 0.6450 0.6450 0.6430
15.501000 0.6410 0.6410 0.6410 0.6410 0.6410
15.534424 0.6410 0.6410 0.6410 0.6410 0.6410
15.568000 0.6400 0.6400 0.6400 0.6400 0.6400
15.601424 0.6380 0.6400 0.6400 0.6400 0.6400
15.635000 0.6400 0.6380 0.6380 0.6380 0.6380
15.668424 0.6380 0.6380 0.6380 0.6380 0.6380
15.702000 0.6380 0.6380 0.6380 0.6380 0.6360
15.735424 0.6360 0.6360 0.6360 0.6360 0.6360
15.768000 0.6360 0.6360 0.6360 0.6360 0.6360
15.801424 0.6360 0.6360 0.6360 0.6360 0.6350
15.835000 0.6360 0.6360 0.6360 0.6360 0.6360
15.868424 0.6360 0.6360 0.6360 0.6360 0.6360
15.902000 0.6360 0.6360 0.6360 0.6360 0.6360
15.935424 0.6360 0.6360 0.6360 0.6360 0.6360
15.969000 0.6360 0.6360 0.6360 0.6360 0.6360
16.002424 0.6360 0.6360
##END=
