##TITLE=2,6-XYLIDINE
##JCAMP-DX=4.24
$$ By DXEDIT 1.05 (RS McDonald)
##DATA TYPE=INFRARED SPECTRUM
##CLASS=COBLENTZ III
##ORIGIN=MONSANTO (J. FREEMAN)
##OWNER=COBLENTZ SOC.
Collection (C) 2018 copyright by the U.S. Secretary of Commerce
on behalf of the United States of America. All rights reserved.
##DATE=1958/12/29
##NAMES=2,6-dimethylphenylamine
2,6-dimethylaniline
ANILINE, 2,6-DIMETHYL-
##CAS REGISTRY NO=87-62-7
##MOLFORM=C8 H11 N
##SOURCE REFERENCE=COBLENTZ NO. 08452
##$NIST SOURCE=COBLENTZ
##$NIST IMAGE=cob8452
##SPECTROMETER/DATA SYSTEM=BECKMAN IR-4 (HYBRID PRISM-GRATING)
##INSTRUMENT PARAMETERS=NaCl PRISM
##STATE=LIQUID (NEAT)
##PATH LENGTH=CAPILLARY
##SAMPLING PROCEDURE=TRANSMISSION
##RESOLUTION=2
##DATA PROCESSING=DIGITIZED BY COBLENTZ SOCIETY (BATCH I) FROM HARD COPY (ADJUSTED \0.035-0.03-0)
##XUNITS=1/CM
##YUNITS=TRANSMITTANCE
##XLABEL=Wavenumbers (cm-1)
##YLABEL=Transmittance
##XFACTOR=1
##YFACTOR=1
##DELTAX=0.983044
##FIRSTX=3944.77
##LASTX=627.983
##FIRSTY=0.8908
##MAXX=3944.77
##MINX=627.983
##MAXY=0.951927
##MINY=0.0342645
##NPOINTS=3375
##XYDATA=(X++(Y..Y))
3944.773176 0.8908 0.8909 0.8910 0.8911 0.8912
3939.857956 0.8913 0.8914 0.8915 0.8917 0.8918
3934.942737 0.8918 0.8920 0.8921 0.8923 0.8924
3930.027517 0.8925 0.8927 0.8928 0.8928 0.8930
3925.112297 0.8932 0.8933 0.8934 0.8935 0.8937
3920.197078 0.8938 0.8939 0.8941 0.8942 0.8943
3915.281858 0.8945 0.8946 0.8947 0.8948 0.8950
3910.366639 0.8951 0.8952 0.8953 0.8955 0.8956
3905.451419 0.8957 0.8959 0.8960 0.8961 0.8962
3900.536200 0.8964 0.8965 0.8966 0.8968 0.8969
3895.620980 0.8971 0.8971 0.8973 0.8975 0.8975
3890.705761 0.8976 0.8978 0.8979 0.8981 0.8982
3885.790541 0.8984 0.8985 0.8986 0.8988 0.8989
3880.875322 0.8990 0.8991 0.8993 0.8994 0.8995
3875.960102 0.8997 0.8998 0.9000 0.9002 0.9003
3871.044883 0.9004 0.9006 0.9007 0.9008 0.9010
3866.129663 0.9011 0.9012 0.9013 0.9015 0.9016
3861.214444 0.9017 0.9018 0.9020 0.9020 0.9021
3856.299224 0.9021 0.9021 0.9021 0.9023 0.9023
3851.384005 0.9023 0.9024 0.9024 0.9024 0.9025
3846.468785 0.9025 0.9025 0.9025 0.9025 0.9025
3841.553566 0.9025 0.9025 0.9025 0.9027 0.9027
3836.638346 0.9027 0.9028 0.9028 0.9028 0.9028
3831.723127 0.9028 0.9028 0.9028 0.9030 0.9030
3826.807907 0.9030 0.9031 0.9031 0.9031 0.9032
3821.892688 0.9032 0.9032 0.9033 0.9033 0.9033
3816.977468 0.9034 0.9034 0.9034 0.9035 0.9035
3812.062249 0.9035 0.9036 0.9036 0.9037 0.9037
3807.147029 0.9037 0.9038 0.9038 0.9038 0.9038
3802.231809 0.9038 0.9038 0.9037 0.9037 0.9037
3797.316590 0.9037 0.9037 0.9036 0.9036 0.9036
3792.401370 0.9036 0.9036 0.9036 0.9035 0.9035
3787.486151 0.9035 0.9035 0.9035 0.9035 0.9034
3782.570931 0.9034 0.9034 0.9034 0.9034 0.9034
3777.655712 0.9033 0.9033 0.9033 0.9033 0.9033
3772.740492 0.9033 0.9032 0.9032 0.9032 0.9032
3767.825273 0.9032 0.9032 0.9031 0.9031 0.9031
3762.910053 0.9031 0.9031 0.9031 0.9030 0.9030
3757.994834 0.9030 0.9030 0.9030 0.9028 0.9028
3753.079614 0.9028 0.9028 0.9028 0.9028 0.9028
3748.164395 0.9028 0.9028 0.9028 0.9028 0.9028
3743.249175 0.9027 0.9027 0.9027 0.9027 0.9027
3738.333956 0.9027 0.9025 0.9025 0.9025 0.9025
3733.418736 0.9025 0.9024 0.9024 0.9024 0.9023
3728.503517 0.9023 0.9023 0.9021 0.9021 0.9021
3723.588297 0.9021 0.9020 0.9019 0.9018 0.9018
3718.673078 0.9018 0.9018 0.9018 0.9017 0.9017
3713.757858 0.9017 0.9016 0.9016 0.9016 0.9015
3708.842639 0.9015 0.9015 0.9014 0.9014 0.9014
3703.927419 0.9013 0.9013 0.9013 0.9012 0.9012
3699.012200 0.9011 0.9011 0.9011 0.9010 0.9010
3694.096980 0.9009 0.9009 0.9009 0.9008 0.9008
3689.181761 0.9008 0.9007 0.9007 0.9006 0.9006
3684.266541 0.9006 0.9005 0.9005 0.9004 0.9003
3679.351321 0.9002 0.9002 0.9001 0.9000 0.8999
3674.436102 0.8997 0.8996 0.8995 0.8994 0.8993
3669.520882 0.8993 0.8992 0.8991 0.8990 0.8989
3664.605663 0.8988 0.8986 0.8985 0.8984 0.8983
3659.690443 0.8982 0.8982 0.8981 0.8980 0.8978
3654.775224 0.8978 0.8977 0.8975 0.8975 0.8974
3649.860004 0.8973 0.8971 0.8971 0.8970 0.8968
3644.944785 0.8968 0.8967 0.8966 0.8965 0.8964
3640.029565 0.8963 0.8961 0.8959 0.8957 0.8956
3635.114346 0.8954 0.8952 0.8950 0.8949 0.8947
3630.199126 0.8945 0.8944 0.8942 0.8940 0.8938
3625.283907 0.8936 0.8934 0.8933 0.8931 0.8928
3620.368687 0.8928 0.8925 0.8923 0.8921 0.8920
3615.453468 0.8918 0.8917 0.8914 0.8912 0.8909
3610.538248 0.8907 0.8904 0.8902 0.8899 0.8897
3605.623029 0.8894 0.8892 0.8889 0.8887 0.8884
3600.707809 0.8882 0.8879 0.8876 0.8874 0.8871
3595.792590 0.8869 0.8866 0.8864 0.8861 0.8858
3590.877370 0.8855 0.8852 0.8849 0.8846 0.8842
3585.962151 0.8839 0.8835 0.8831 0.8827 0.8823
3581.046931 0.8820 0.8816 0.8812 0.8809 0.8805
3576.131712 0.8801 0.8797 0.8793 0.8790 0.8786
3571.216492 0.8782 0.8778 0.8775 0.8771 0.8768
3566.301273 0.8764 0.8759 0.8755 0.8751 0.8747
3561.386053 0.8742 0.8737 0.8732 0.8727 0.8722
3556.470834 0.8716 0.8711 0.8706 0.8701 0.8696
3551.555614 0.8691 0.8686 0.8681 0.8676 0.8671
3546.640394 0.8665 0.8660 0.8654 0.8649 0.8644
3541.725175 0.8636 0.8626 0.8616 0.8606 0.8595
3536.809955 0.8585 0.8575 0.8565 0.8555 0.8545
3531.894736 0.8535 0.8525 0.8515 0.8505 0.8495
3526.979516 0.8484 0.8469 0.8457 0.8443 0.8428
3522.064297 0.8415 0.8401 0.8387 0.8373 0.8359
3517.149077 0.8343 0.8321 0.8300 0.8279 0.8257
3512.233858 0.8215 0.8108 0.8001 0.7893 0.7785
3507.318638 0.7680 0.7586 0.7491 0.7396 0.7301
3502.403419 0.7206 0.7112 0.7017 0.6923 0.6827
3497.488199 0.6732 0.6637 0.6541 0.6447 0.6352
3492.572980 0.6256 0.6161 0.6066 0.5970 0.5876
3487.657760 0.5808 0.5803 0.5799 0.5794 0.5789
3482.742541 0.5785 0.5785 0.5784 0.5784 0.5783
3477.827321 0.5784 0.5787 0.5790 0.5793 0.5797
3472.912102 0.5808 0.5827 0.5847 0.5867 0.5886
3467.996882 0.5906 0.5926 0.5946 0.5965 0.5985
3463.081663 0.6005 0.6025 0.6044 0.6064 0.6084
3458.166443 0.6103 0.6123 0.6143 0.6163 0.6182
3453.251224 0.6202 0.6222 0.6242 0.6261 0.6282
3448.336004 0.6301 0.6321 0.6341 0.6361 0.6381
3443.420785 0.6400 0.6420 0.6440 0.6460 0.6473
3438.505565 0.6481 0.6488 0.6496 0.6503 0.6505
3433.590346 0.6504 0.6504 0.6503 0.6502 0.6501
3428.675126 0.6501 0.6501 0.6501 0.6493 0.6470
3423.759906 0.6444 0.6418 0.6391 0.6342 0.6271
3418.844687 0.6194 0.6117 0.6040 0.5963 0.5886
3413.929467 0.5809 0.5732 0.5655 0.5577 0.5500
3409.014248 0.5424 0.5346 0.5269 0.5191 0.5114
3404.099028 0.5036 0.4959 0.4881 0.4804 0.4726
3399.183809 0.4649 0.4570 0.4533 0.4512 0.4491
3394.268589 0.4471 0.4450 0.4449 0.4449 0.4448
3389.353370 0.4448 0.4448 0.4449 0.4450 0.4451
3384.438150 0.4452 0.4468 0.4491 0.4515 0.4538
3379.522931 0.4563 0.4612 0.4660 0.4708 0.4757
3374.607711 0.4806 0.4855 0.4904 0.4953 0.5002
3369.692492 0.5051 0.5100 0.5149 0.5198 0.5247
3364.777272 0.5296 0.5345 0.5395 0.5443 0.5492
3359.862053 0.5542 0.5591 0.5640 0.5690 0.5739
3354.946833 0.5788 0.5838 0.5887 0.5936 0.5986
3350.031614 0.6036 0.6085 0.6135 0.6185 0.6234
3345.116394 0.6284 0.6334 0.6383 0.6432 0.6482
3340.201175 0.6532 0.6582 0.6632 0.6682 0.6731
3335.285955 0.6781 0.6831 0.6882 0.6932 0.6982
3330.370736 0.7033 0.7083 0.7133 0.7184 0.7233
3325.455516 0.7283 0.7333 0.7384 0.7434 0.7484
3320.540297 0.7535 0.7585 0.7636 0.7687 0.7737
3315.625077 0.7787 0.7838 0.7888 0.7938 0.7990
3310.709858 0.8041 0.8092 0.8143 0.8193 0.8243
3305.794638 0.8294 0.8346 0.8392 0.8423 0.8442
3300.879419 0.8461 0.8480 0.8492 0.8495 0.8495
3295.964199 0.8496 0.8497 0.8497 0.8498 0.8498
3291.048979 0.8498 0.8499 0.8499 0.8499 0.8499
3286.133760 0.8498 0.8498 0.8498 0.8498 0.8497
3281.218540 0.8497 0.8497 0.8496 0.8496 0.8495
3276.303321 0.8495 0.8494 0.8494 0.8493 0.8493
3271.388101 0.8492 0.8491 0.8491 0.8489 0.8487
3266.472882 0.8484 0.8481 0.8479 0.8476 0.8473
3261.557662 0.8471 0.8469 0.8466 0.8464 0.8461
3256.642443 0.8459 0.8456 0.8453 0.8450 0.8447
3251.727223 0.8443 0.8440 0.8436 0.8432 0.8429
3246.812004 0.8425 0.8423 0.8420 0.8418 0.8416
3241.896784 0.8414 0.8412 0.8410 0.8409 0.8409
3236.981565 0.8409 0.8409 0.8409 0.8409 0.8410
3232.066345 0.8410 0.8410 0.8412 0.8414 0.8415
3227.151126 0.8417 0.8418 0.8420 0.8421 0.8424
3222.235906 0.8425 0.8427 0.8428 0.8431 0.8435
3217.320687 0.8446 0.8456 0.8468 0.8479 0.8490
3212.405467 0.8501 0.8511 0.8522 0.8533 0.8544
3207.490248 0.8555 0.8565 0.8576 0.8587 0.8598
3202.575028 0.8609 0.8620 0.8631 0.8642 0.8653
3197.659809 0.8664 0.8675 0.8686 0.8697 0.8708
3192.744589 0.8719 0.8730 0.8741 0.8751 0.8762
3187.829370 0.8773 0.8785 0.8796 0.8807 0.8818
3182.914150 0.8830 0.8841 0.8852 0.8863 0.8874
3177.998931 0.8884 0.8891 0.8894 0.8897 0.8900
3173.083711 0.8903 0.8904 0.8906 0.8908 0.8909
3168.168491 0.8911 0.8912 0.8914 0.8915 0.8915
3163.253272 0.8915 0.8915 0.8915 0.8915 0.8915
3158.338052 0.8915 0.8915 0.8915 0.8915 0.8915
3153.422833 0.8915 0.8915 0.8915 0.8915 0.8914
3148.507613 0.8911 0.8908 0.8905 0.8901 0.8897
3143.592394 0.8893 0.8889 0.8885 0.8881 0.8877
3138.677174 0.8873 0.8869 0.8865 0.8860 0.8855
3133.761955 0.8846 0.8832 0.8815 0.8798 0.8780
3128.846735 0.8762 0.8745 0.8727 0.8709 0.8690
3123.931516 0.8672 0.8653 0.8629 0.8595 0.8557
3119.016296 0.8519 0.8482 0.8444 0.8407 0.8370
3114.101077 0.8332 0.8294 0.8257 0.8219 0.8182
3109.185857 0.8145 0.8107 0.8069 0.8031 0.7993
3104.270638 0.7955 0.7917 0.7879 0.7841 0.7803
3099.355418 0.7766 0.7728 0.7689 0.7652 0.7614
3094.440199 0.7576 0.7537 0.7500 0.7462 0.7424
3089.524979 0.7386 0.7348 0.7310 0.7271 0.7232
3084.609760 0.7194 0.7156 0.7117 0.7078 0.7040
3079.694540 0.7003 0.6964 0.6926 0.6887 0.6849
3074.779321 0.6810 0.6772 0.6734 0.6695 0.6656
3069.864101 0.6616 0.6578 0.6540 0.6501 0.6462
3064.948882 0.6424 0.6385 0.6346 0.6307 0.6268
3060.033662 0.6230 0.6191 0.6152 0.6113 0.6074
3055.118443 0.6034 0.5995 0.5956 0.5917 0.5878
3050.203223 0.5839 0.5818 0.5811 0.5806 0.5801
3045.288004 0.5811 0.5828 0.5846 0.5864 0.5898
3040.372784 0.5935 0.5971 0.6008 0.6045 0.6082
3035.457564 0.6119 0.6155 0.6192 0.6229 0.6265
3030.542345 0.6302 0.6339 0.6376 0.6413 0.6449
3025.627125 0.6487 0.6524 0.6561 0.6598 0.6635
3020.711906 0.6671 0.6709 0.6746 0.6783 0.6819
3015.796686 0.6837 0.6849 0.6860 0.6871 0.6871
3010.881467 0.6871 0.6870 0.6853 0.6808 0.6765
3005.966247 0.6718 0.6621 0.6498 0.6378 0.6256
3001.051028 0.6135 0.6012 0.5891 0.5769 0.5647
2996.135808 0.5525 0.5411 0.5354 0.5329 0.5303
2991.220589 0.5280 0.5280 0.5280 0.5281 0.5287
2986.305369 0.5304 0.5320 0.5337 0.5355 0.5374
2981.390150 0.5392 0.5410 0.5429 0.5447 0.5465
2976.474930 0.5484 0.5503 0.5521 0.5540 0.5558
2971.559711 0.5577 0.5595 0.5613 0.5632 0.5650
2966.644491 0.5669 0.5687 0.5705 0.5722 0.5735
2961.729272 0.5734 0.5732 0.5723 0.5689 0.5633
2956.814052 0.5577 0.5514 0.5429 0.5342 0.5256
2951.898833 0.5168 0.5081 0.4994 0.4906 0.4819
2946.983613 0.4619 0.4387 0.4557 0.4471 0.4385
2942.068394 0.4316 0.4296 0.4296 0.4296 0.4296
2937.153174 0.4296 0.4296 0.4302 0.4325 0.4356
2932.237955 0.4387 0.4425 0.4472 0.4518 0.4565
2927.322735 0.4612 0.4659 0.4706 0.4752 0.4799
2922.407516 0.4846 0.4893 0.4940 0.4987 0.5034
2917.492296 0.5081 0.5128 0.5176 0.5223 0.5270
2912.577076 0.5317 0.5365 0.5412 0.5460 0.5507
2907.661857 0.5554 0.5602 0.5649 0.5696 0.5739
2902.746637 0.5779 0.5821 0.5846 0.5850 0.5850
2897.831418 0.5847 0.5834 0.5817 0.5800 0.5780
2892.916198 0.5756 0.5733 0.5709 0.5685 0.5661
2888.000979 0.5638 0.5614 0.5590 0.5567 0.5543
2883.085759 0.5519 0.5496 0.5472 0.5448 0.5424
2878.170540 0.5400 0.5383 0.5373 0.5363 0.5356
2873.255320 0.5355 0.5356 0.5357 0.5358 0.5359
2868.340101 0.5360 0.5361 0.5364 0.5366 0.5429
2863.424881 0.5591 0.5793 0.6001 0.6241 0.6500
2858.509662 0.6758 0.7017 0.7277 0.7536 0.7783
2853.594442 0.8010 0.8230 0.8426 0.8503 0.8516
2848.679223 0.8530 0.8545 0.8559 0.8573 0.8587
2843.764003 0.8601 0.8615 0.8629 0.8643 0.8657
2838.848784 0.8670 0.8684 0.8696 0.8709 0.8721
2833.933564 0.8734 0.8746 0.8759 0.8771 0.8784
2829.018345 0.8797 0.8810 0.8822 0.8835 0.8848
2824.103125 0.8861 0.8874 0.8888 0.8901 0.8914
2819.187906 0.8927 0.8939 0.8951 0.8963 0.8974
2814.272686 0.8985 0.8996 0.9004 0.9009 0.9014
2809.357467 0.9017 0.9020 0.9023 0.9025 0.9027
2804.442247 0.9028 0.9030 0.9030 0.9030 0.9028
2799.527028 0.9028 0.9028 0.9027 0.9024 0.9019
2794.611808 0.9015 0.9009 0.9002 0.8994 0.8987
2789.696589 0.8979 0.8972 0.8963 0.8951 0.8938
2784.781369 0.8925 0.8911 0.8896 0.8882 0.8852
2779.866149 0.8820 0.8789 0.8775 0.8766 0.8758
2774.950930 0.8750 0.8743 0.8735 0.8728 0.8725
2770.035710 0.8723 0.8721 0.8721 0.8721 0.8720
2765.120491 0.8720 0.8718 0.8718 0.8718 0.8718
2760.205271 0.8720 0.8721 0.8721 0.8721 0.8732
2755.290052 0.8742 0.8752 0.8762 0.8773 0.8783
2750.374832 0.8798 0.8813 0.8828 0.8844 0.8859
2745.459613 0.8874 0.8887 0.8898 0.8910 0.8921
2740.544393 0.8934 0.8946 0.8958 0.8969 0.8982
2735.629174 0.8993 0.9003 0.9013 0.9022 0.9033
2730.713954 0.9043 0.9053 0.9063 0.9072 0.9083
2725.798735 0.9092 0.9102 0.9112 0.9122 0.9132
2720.883515 0.9142 0.9152 0.9162 0.9172 0.9182
2715.968296 0.9193 0.9203 0.9212 0.9221 0.9229
2711.053076 0.9239 0.9248 0.9256 0.9265 0.9272
2706.137857 0.9281 0.9289 0.9298 0.9305 0.9309
2701.222637 0.9314 0.9319 0.9322 0.9326 0.9328
2696.307418 0.9328 0.9328 0.9328 0.9328 0.9328
2691.392198 0.9328 0.9328 0.9328 0.9327 0.9325
2686.476979 0.9322 0.9319 0.9315 0.9311 0.9307
2681.561759 0.9302 0.9297 0.9290 0.9283 0.9276
2676.646540 0.9270 0.9263 0.9256 0.9249 0.9242
2671.731320 0.9235 0.9226 0.9219 0.9211 0.9201
2666.816101 0.9191 0.9182 0.9172 0.9163 0.9155
2661.900881 0.9147 0.9139 0.9131 0.9123 0.9116
2656.985661 0.9109 0.9102 0.9096 0.9091 0.9086
2652.070442 0.9083 0.9082 0.9082 0.9082 0.9082
2647.155222 0.9083 0.9085 0.9090 0.9094 0.9100
2642.240003 0.9108 0.9116 0.9126 0.9139 0.9151
2637.324783 0.9163 0.9174 0.9185 0.9194 0.9203
2632.409564 0.9212 0.9221 0.9230 0.9238 0.9241
2627.494344 0.9245 0.9248 0.9252 0.9256 0.9259
2622.579125 0.9263 0.9266 0.9269 0.9271 0.9274
2617.663905 0.9276 0.9277 0.9279 0.9281 0.9284
2612.748686 0.9286 0.9287 0.9289 0.9291 0.9293
2607.833466 0.9296 0.9298 0.9300 0.9302 0.9304
2602.918247 0.9306 0.9308 0.9310 0.9312 0.9314
2598.003027 0.9316 0.9317 0.9318 0.9318 0.9319
2593.087808 0.9320 0.9322 0.9323 0.9324 0.9325
2588.172588 0.9325 0.9326 0.9327 0.9328 0.9329
2583.257369 0.9331 0.9332 0.9334 0.9335 0.9336
2578.342149 0.9337 0.9338 0.9339 0.9340 0.9341
2573.426930 0.9342 0.9344 0.9345 0.9347 0.9348
2568.511710 0.9350 0.9351 0.9352 0.9353 0.9354
2563.596491 0.9356 0.9357 0.9359 0.9360 0.9361
2558.681271 0.9362 0.9364 0.9365 0.9367 0.9369
2553.766052 0.9371 0.9372 0.9374 0.9376 0.9378
2548.850832 0.9379 0.9381 0.9383 0.9384 0.9386
2543.935613 0.9387 0.9389 0.9391 0.9393 0.9394
2539.020393 0.9395 0.9396 0.9397 0.9398 0.9399
2534.105173 0.9401 0.9401 0.9402 0.9403 0.9404
2529.189954 0.9405 0.9407 0.9408 0.9409 0.9409
2524.274734 0.9409 0.9408 0.9407 0.9406 0.9404
2519.359515 0.9402 0.9398 0.9392 0.9385 0.9378
2514.444295 0.9372 0.9367 0.9364 0.9361 0.9358
2509.529076 0.9355 0.9353 0.9350 0.9347 0.9344
2504.613856 0.9341 0.9338 0.9335 0.9332 0.9330
2499.698637 0.9329 0.9327 0.9327 0.9326 0.9325
2494.783417 0.9324 0.9323 0.9323 0.9322 0.9321
2489.868198 0.9320 0.9319 0.9318 0.9318 0.9317
2484.952978 0.9316 0.9315 0.9315 0.9314 0.9313
2480.037759 0.9312 0.9312 0.9311 0.9310 0.9309
2475.122539 0.9308 0.9307 0.9307 0.9307 0.9307
2470.207320 0.9307 0.9308 0.9308 0.9308 0.9308
2465.292100 0.9308 0.9309 0.9309 0.9309 0.9309
2460.376881 0.9309 0.9309 0.9309 0.9309 0.9310
2455.461661 0.9310 0.9310 0.9310 0.9310 0.9310
2450.546442 0.9311 0.9313 0.9314 0.9316 0.9318
2445.631222 0.9320 0.9321 0.9323 0.9325 0.9327
2440.716003 0.9329 0.9331 0.9333 0.9334 0.9336
2435.800783 0.9338 0.9339 0.9341 0.9343 0.9345
2430.885564 0.9346 0.9349 0.9351 0.9353 0.9355
2425.970344 0.9357 0.9360 0.9362 0.9365 0.9367
2421.055125 0.9369 0.9371 0.9374 0.9377 0.9379
2416.139905 0.9382 0.9384 0.9387 0.9389 0.9390
2411.224686 0.9392 0.9393 0.9394 0.9395 0.9397
2406.309466 0.9398 0.9398 0.9400 0.9401 0.9402
2401.394246 0.9403 0.9404 0.9405 0.9406 0.9408
2396.479027 0.9409 0.9410 0.9411 0.9412 0.9413
2391.563807 0.9414 0.9415 0.9416 0.9417 0.9418
2386.648588 0.9420 0.9421 0.9421 0.9423 0.9424
2381.733368 0.9425 0.9427 0.9428 0.9428 0.9430
2376.818149 0.9432 0.9433 0.9434 0.9435 0.9436
2371.902929 0.9436 0.9436 0.9436 0.9436 0.9435
2366.987710 0.9435 0.9434 0.9433 0.9432 0.9432
2362.072490 0.9432 0.9431 0.9430 0.9428 0.9428
2357.157271 0.9428 0.9427 0.9425 0.9425 0.9425
2352.242051 0.9424 0.9423 0.9421 0.9421 0.9420
2347.326832 0.9418 0.9418 0.9417 0.9417 0.9416
2342.411612 0.9415 0.9415 0.9415 0.9416 0.9416
2337.496393 0.9416 0.9416 0.9416 0.9416 0.9416
2332.581173 0.9417 0.9417 0.9417 0.9417 0.9417
2327.665954 0.9417 0.9418 0.9418 0.9418 0.9418
2322.750734 0.9418 0.9418 0.9418 0.9418 0.9418
2317.835515 0.9418 0.9418 0.9420 0.9420 0.9420
2312.920295 0.9420 0.9420 0.9421 0.9421 0.9421
2308.005076 0.9421 0.9421 0.9421 0.9421 0.9421
2303.089856 0.9423 0.9423 0.9424 0.9424 0.9424
2298.174637 0.9425 0.9425 0.9425 0.9425 0.9427
2293.259417 0.9427 0.9428 0.9428 0.9428 0.9427
2288.344198 0.9425 0.9424 0.9423 0.9421 0.9420
2283.428978 0.9418 0.9418 0.9417 0.9416 0.9415
2278.513758 0.9414 0.9413 0.9413 0.9412 0.9412
2273.598539 0.9412 0.9412 0.9411 0.9411 0.9411
2268.683319 0.9411 0.9411 0.9411 0.9411 0.9412
2263.768100 0.9413 0.9413 0.9414 0.9415 0.9416
2258.852880 0.9418 0.9418 0.9420 0.9421 0.9421
2253.937661 0.9423 0.9424 0.9425 0.9425 0.9427
2249.022441 0.9428 0.9430 0.9431 0.9432 0.9433
2244.107222 0.9434 0.9435 0.9436 0.9437 0.9438
2239.192002 0.9439 0.9439 0.9440 0.9441 0.9442
2234.276783 0.9443 0.9444 0.9444 0.9445 0.9446
2229.361563 0.9447 0.9448 0.9449 0.9450 0.9451
2224.446344 0.9451 0.9452 0.9453 0.9454 0.9455
2219.531124 0.9456 0.9456 0.9457 0.9457 0.9458
2214.615905 0.9458 0.9459 0.9459 0.9460 0.9460
2209.700685 0.9461 0.9461 0.9462 0.9462 0.9463
2204.785466 0.9463 0.9464 0.9464 0.9465 0.9465
2199.870246 0.9466 0.9466 0.9467 0.9467 0.9467
2194.955027 0.9467 0.9467 0.9467 0.9467 0.9467
2190.039807 0.9467 0.9467 0.9467 0.9467 0.9467
2185.124588 0.9467 0.9467 0.9467 0.9466 0.9466
2180.209368 0.9465 0.9464 0.9463 0.9463 0.9462
2175.294149 0.9461 0.9460 0.9459 0.9458 0.9457
2170.378929 0.9456 0.9454 0.9452 0.9450 0.9448
2165.463710 0.9446 0.9444 0.9442 0.9440 0.9438
2160.548490 0.9436 0.9434 0.9432 0.9431 0.9428
2155.633271 0.9426 0.9424 0.9423 0.9422 0.9419
2150.718051 0.9418 0.9417 0.9415 0.9415 0.9415
2145.802831 0.9415 0.9416 0.9416 0.9417 0.9417
2140.887612 0.9417 0.9418 0.9418 0.9420 0.9423
2135.972392 0.9426 0.9428 0.9431 0.9434 0.9437
2131.057173 0.9439 0.9442 0.9444 0.9446 0.9447
2126.141953 0.9448 0.9449 0.9449 0.9448 0.9447
2121.226734 0.9444 0.9442 0.9439 0.9437 0.9434
2116.311514 0.9432 0.9429 0.9426 0.9424 0.9422
2111.396295 0.9421 0.9420 0.9420 0.9420 0.9419
2106.481075 0.9418 0.9418 0.9418 0.9418 0.9418
2101.565856 0.9418 0.9418 0.9418 0.9419 0.9421
2096.650636 0.9422 0.9424 0.9426 0.9428 0.9429
2091.735417 0.9431 0.9433 0.9434 0.9436 0.9438
2086.820197 0.9439 0.9440 0.9441 0.9441 0.9440
2081.904978 0.9439 0.9438 0.9437 0.9436 0.9435
2076.989758 0.9433 0.9432 0.9432 0.9431 0.9430
2072.074539 0.9429 0.9427 0.9427 0.9426 0.9425
2067.159319 0.9425 0.9425 0.9425 0.9424 0.9424
2062.244100 0.9424 0.9424 0.9423 0.9423 0.9422
2057.328880 0.9421 0.9421 0.9421 0.9421 0.9420
2052.413661 0.9420 0.9420 0.9420 0.9420 0.9421
2047.498441 0.9421 0.9421 0.9421 0.9421 0.9422
2042.583222 0.9423 0.9424 0.9424 0.9424 0.9425
2037.668002 0.9425 0.9425 0.9425 0.9425 0.9426
2032.752783 0.9428 0.9428 0.9430 0.9432 0.9434
2027.837563 0.9435 0.9436 0.9437 0.9438 0.9439
2022.922343 0.9440 0.9442 0.9443 0.9444 0.9445
2018.007124 0.9447 0.9449 0.9450 0.9451 0.9451
2013.091904 0.9452 0.9452 0.9453 0.9453 0.9453
2008.176685 0.9454 0.9455 0.9455 0.9455 0.9455
2003.261465 0.9456 0.9457 0.9457 0.9457 0.9457
1998.346246 0.9458 0.9458 0.9458 0.9459 0.9460
1993.431026 0.9460 0.9460 0.9460 0.9461 0.9461
1988.515807 0.9461 0.9462 0.9462 0.9461 0.9461
1983.600587 0.9461 0.9460 0.9460 0.9460 0.9459
1978.685368 0.9459 0.9459 0.9458 0.9458 0.9458
1973.770148 0.9458 0.9458 0.9458 0.9458 0.9458
1968.854929 0.9458 0.9458 0.9458 0.9458 0.9458
1963.939709 0.9458 0.9457 0.9456 0.9454 0.9453
1959.024490 0.9452 0.9451 0.9450 0.9449 0.9448
1954.109270 0.9446 0.9443 0.9439 0.9435 0.9431
1949.194051 0.9427 0.9422 0.9417 0.9414 0.9410
1944.278831 0.9405 0.9399 0.9394 0.9389 0.9383
1939.363612 0.9375 0.9366 0.9357 0.9347 0.9336
1934.448392 0.9323 0.9308 0.9293 0.9278 0.9264
1929.533173 0.9253 0.9242 0.9231 0.9221 0.9211
1924.617953 0.9200 0.9190 0.9180 0.9169 0.9160
1919.702734 0.9151 0.9141 0.9130 0.9119 0.9111
1914.787514 0.9101 0.9090 0.9079 0.9068 0.9058
1909.872295 0.9047 0.9038 0.9029 0.9020 0.9014
1904.957075 0.9008 0.9003 0.8998 0.8991 0.8970
1900.041856 0.8992 0.8992 0.8992 0.8993 0.9004
1895.126636 0.9027 0.9051 0.9074 0.9102 0.9130
1890.211416 0.9157 0.9180 0.9198 0.9216 0.9233
1885.296197 0.9250 0.9266 0.9279 0.9293 0.9305
1880.380977 0.9315 0.9321 0.9323 0.9325 0.9327
1875.465758 0.9328 0.9331 0.9334 0.9345 0.9336
1870.550538 0.9334 0.9332 0.9331 0.9325 0.9318
1865.635319 0.9311 0.9304 0.9295 0.9285 0.9273
1860.720099 0.9261 0.9248 0.9236 0.9221 0.9204
1855.804880 0.9186 0.9168 0.9154 0.9143 0.9137
1850.889660 0.9131 0.9125 0.9120 0.9118 0.9116
1845.974441 0.9114 0.9084 0.9109 0.9110 0.9110
1841.059221 0.9110 0.9114 0.9117 0.9120 0.9124
1836.144002 0.9132 0.9145 0.9158 0.9170 0.9184
1831.228782 0.9199 0.9212 0.9226 0.9240 0.9255
1826.313563 0.9269 0.9285 0.9302 0.9319 0.9338
1821.398343 0.9350 0.9361 0.9370 0.9380 0.9385
1816.483124 0.9389 0.9391 0.9400 0.9395 0.9388
1811.567904 0.9379 0.9367 0.9356 0.9343 0.9328
1806.652685 0.9313 0.9297 0.9281 0.9267 0.9255
1801.737465 0.9242 0.9230 0.9217 0.9203 0.9186
1796.822246 0.9170 0.9154 0.9139 0.9126 0.9117
1791.907026 0.9113 0.9112 0.9112 0.9113 0.9074
1786.991807 0.9102 0.9122 0.9134 0.9149 0.9163
1782.076587 0.9177 0.9190 0.9201 0.9211 0.9221
1777.161368 0.9231 0.9242 0.9253 0.9264 0.9275
1772.246148 0.9285 0.9294 0.9303 0.9312 0.9322
1767.330928 0.9332 0.9342 0.9351 0.9361 0.9369
1762.415709 0.9378 0.9386 0.9394 0.9403 0.9411
1757.500489 0.9420 0.9429 0.9436 0.9444 0.9451
1752.585270 0.9459 0.9465 0.9472 0.9479 0.9486
1747.670050 0.9493 0.9499 0.9505 0.9510 0.9512
1742.754831 0.9513 0.9514 0.9516 0.9516 0.9515
1737.839611 0.9513 0.9512 0.9519 0.9518 0.9505
1732.924392 0.9500 0.9496 0.9491 0.9487 0.9481
1728.009172 0.9475 0.9468 0.9462 0.9455 0.9448
1723.093953 0.9443 0.9438 0.9432 0.9426 0.9421
1718.178733 0.9416 0.9409 0.9402 0.9394 0.9386
1713.263514 0.9379 0.9371 0.9364 0.9356 0.9348
1708.348294 0.9338 0.9323 0.9311 0.9298 0.9284
1703.433075 0.9270 0.9256 0.9239 0.9221 0.9203
1698.517855 0.9185 0.9168 0.9150 0.9131 0.9113
1693.602636 0.9094 0.9068 0.9044 0.9020 0.8996
1688.687416 0.8972 0.8947 0.8921 0.8894 0.8867
1683.772197 0.8840 0.8812 0.8783 0.8746 0.8694
1678.856977 0.8632 0.8570 0.8509 0.8446 0.8381
1673.941758 0.8315 0.8241 0.8150 0.8049 0.7963
1669.026538 0.7910 0.7857 0.7804 0.7752 0.7696
1664.111319 0.7636 0.7575 0.7510 0.7426 0.7289
1659.196099 0.7182 0.7084 0.7001 0.6925 0.6786
1654.280880 0.6574 0.6362 0.6150 0.5938 0.5725
1649.365660 0.5512 0.5298 0.5085 0.4871 0.4656
1644.450441 0.4403 0.4152 0.3988 0.3824 0.3661
1639.535221 0.3497 0.3333 0.3169 0.3005 0.2841
1634.620001 0.2676 0.2511 0.2346 0.2181 0.2015
1629.704782 0.1849 0.1684 0.1518 0.1351 0.1185
1624.789562 0.1019 0.0963 0.0947 0.0946 0.0947
1619.874343 0.0949 0.0960 0.0981 0.1024 0.1079
1614.959123 0.1253 0.1607 0.1901 0.2182 0.2462
1610.043904 0.2742 0.3024 0.3306 0.3588 0.3871
1605.128684 0.4153 0.4436 0.4676 0.4857 0.4968
1600.213465 0.5029 0.5117 0.5235 0.5361 0.5488
1595.298245 0.5615 0.5742 0.5869 0.5996 0.6123
1590.383026 0.6251 0.6379 0.6507 0.6634 0.6762
1585.467806 0.6891 0.7020 0.7149 0.7276 0.7406
1580.552587 0.7536 0.7665 0.7795 0.7923 0.8054
1575.637367 0.8184 0.8306 0.8397 0.8460 0.8511
1570.722148 0.8551 0.8583 0.8613 0.8638 0.8656
1565.806928 0.8669 0.8680 0.8686 0.8690 0.8693
1560.891709 0.8696 0.8697 0.8695 0.8708 0.8704
1555.976489 0.8687 0.8684 0.8680 0.8674 0.8665
1551.061270 0.8655 0.8643 0.8632 0.8622 0.8610
1546.146050 0.8597 0.8582 0.8567 0.8552 0.8537
1541.230831 0.8522 0.8508 0.8494 0.8483 0.8471
1536.315611 0.8460 0.8448 0.8436 0.8424 0.8413
1531.400392 0.8402 0.8390 0.8378 0.8366 0.8354
1526.485172 0.8342 0.8330 0.8317 0.8306 0.8294
1521.569953 0.8275 0.8246 0.8216 0.8187 0.8153
1516.654733 0.8101 0.8016 0.7905 0.7789 0.7694
1511.739513 0.7613 0.7546 0.7488 0.7432 0.7379
1506.824294 0.7328 0.7265 0.7125 0.6872 0.6628
1501.909074 0.6374 0.6079 0.5841 0.5526 0.5221
1496.993855 0.4915 0.4609 0.4302 0.3995 0.3688
1492.078635 0.3379 0.3072 0.2764 0.2454 0.2145
1487.163416 0.1835 0.1524 0.1214 0.0903 0.0595
1482.248196 0.0361 0.0346 0.0343 0.0365 0.0351
1477.332977 0.0376 0.0447 0.0707 0.1008 0.1310
1472.417757 0.1613 0.1916 0.2219 0.2523 0.2828
1467.502538 0.3133 0.3438 0.3742 0.4049 0.4355
1462.587318 0.4661 0.4969 0.5268 0.5461 0.5466
1457.672099 0.5454 0.5437 0.5420 0.5390 0.5359
1452.756879 0.5326 0.5175 0.4772 0.4266 0.3761
1447.841660 0.3426 0.3365 0.3371 0.3389 0.3430
1442.926440 0.3547 0.3684 0.3820 0.3957 0.4094
1438.011221 0.4222 0.4291 0.4303 0.4302 0.4301
1433.096001 0.4304 0.4308 0.4436 0.4717 0.5050
1428.180782 0.5385 0.5721 0.6058 0.6394 0.6731
1423.265562 0.7069 0.7410 0.7748 0.7964 0.8097
1418.350343 0.8218 0.8305 0.8365 0.8419 0.8472
1413.435123 0.8522 0.8571 0.8637 0.8701 0.8747
1408.519904 0.8773 0.8788 0.8796 0.8801 0.8802
1403.604684 0.8802 0.8802 0.8798 0.8793 0.8788
1398.689465 0.8783 0.8776 0.8760 0.8745 0.8729
1393.774245 0.8710 0.8674 0.8638 0.8567 0.8309
1388.859025 0.7982 0.7653 0.7325 0.6996 0.6672
1383.943806 0.6433 0.6407 0.6408 0.6427 0.6440
1379.028586 0.6637 0.6871 0.7105 0.7338 0.7572
1374.113367 0.7806 0.8041 0.8277 0.8511 0.8725
1369.198147 0.8871 0.8963 0.9026 0.9073 0.9107
1364.282928 0.9139 0.9164 0.9184 0.9204 0.9223
1359.367708 0.9240 0.9252 0.9264 0.9275 0.9287
1354.452489 0.9295 0.9297 0.9298 0.9298 0.9299
1349.537269 0.9297 0.9293 0.9290 0.9286 0.9283
1344.622050 0.9279 0.9276 0.9267 0.9251 0.9236
1339.706830 0.9221 0.9207 0.9191 0.9173 0.9143
1334.791611 0.9105 0.9067 0.9023 0.8972 0.8919
1329.876391 0.8861 0.8747 0.8602 0.8467 0.8207
1324.961172 0.7806 0.7369 0.6931 0.6533 0.6368
1320.045952 0.6357 0.6401 0.6530 0.6692 0.6855
1315.130733 0.7017 0.7179 0.7342 0.7506 0.7669
1310.215513 0.7833 0.7997 0.8162 0.8320 0.8404
1305.300294 0.8422 0.8423 0.8423 0.8410 0.8376
1300.385074 0.8332 0.8284 0.8198 0.8083 0.7884
1295.469855 0.7757 0.7618 0.7488 0.7365 0.7241
1290.554635 0.6967 0.6530 0.6165 0.5812 0.5456
1285.639416 0.5102 0.4746 0.4390 0.4033 0.3675
1280.724196 0.3318 0.2984 0.2941 0.2933 0.2947
1275.808977 0.2981 0.3039 0.3295 0.3525 0.3753
1270.893757 0.3985 0.4215 0.4447 0.4677 0.4910
1265.978538 0.5141 0.5374 0.5606 0.5839 0.6072
1261.063318 0.6306 0.6539 0.6773 0.7009 0.7244
1256.148098 0.7480 0.7716 0.7952 0.8189 0.8426
1251.232879 0.8652 0.8789 0.8825 0.8848 0.8863
1246.317659 0.8876 0.8887 0.8881 0.8874 0.8866
1241.402440 0.8843 0.8723 0.8381 0.8020 0.7657
1236.487220 0.7296 0.6934 0.6575 0.6378 0.6366
1231.572001 0.6369 0.6391 0.6434 0.6669 0.6947
1226.656781 0.7227 0.7507 0.7787 0.8069 0.8308
1221.741562 0.8404 0.8472 0.8539 0.8600 0.8652
1216.826342 0.8703 0.8754 0.8803 0.8851 0.8898
1211.911123 0.8940 0.8969 0.8995 0.9021 0.9043
1206.995903 0.9057 0.9068 0.9080 0.9092 0.9103
1202.080684 0.9111 0.9116 0.9123 0.9130 0.9137
1197.165464 0.9144 0.9150 0.9154 0.9157 0.9160
1192.250245 0.9163 0.9166 0.9184 0.9183 0.9175
1187.335025 0.9177 0.9176 0.9174 0.9172 0.9171
1182.419806 0.9170 0.9168 0.9165 0.9158 0.9147
1177.504586 0.9135 0.9124 0.9113 0.9101 0.9083
1172.589367 0.9056 0.9027 0.8991 0.8946 0.8898
1167.674147 0.8850 0.8817 0.8805 0.8815 0.8852
1162.758928 0.8898 0.8917 0.8921 0.8921 0.8917
1157.843708 0.8902 0.8871 0.8842 0.8809 0.8771
1152.928489 0.8735 0.8698 0.8664 0.8642 0.8621
1148.013269 0.8598 0.8576 0.8560 0.8547 0.8535
1143.098050 0.8524 0.8481 0.8518 0.8519 0.8536
1138.182830 0.8557 0.8576 0.8608 0.8659 0.8709
1133.267610 0.8756 0.8801 0.8845 0.8873 0.8900
1128.352391 0.8925 0.8944 0.8959 0.8973 0.8987
1123.437171 0.8999 0.9008 0.9017 0.9024 0.9024
1118.521952 0.9019 0.9014 0.8999 0.8979 0.8960
1113.606732 0.8906 0.8836 0.8758 0.8678 0.8600
1108.691513 0.8497 0.8360 0.8221 0.8040 0.7803
1103.776293 0.7548 0.7293 0.7037 0.6780 0.6524
1098.861074 0.6266 0.6008 0.5750 0.5491 0.5231
1093.945854 0.4971 0.4714 0.4556 0.4516 0.4529
1089.030635 0.4698 0.5032 0.5399 0.5768 0.6138
1084.115415 0.6507 0.6860 0.7170 0.7428 0.7679
1079.200196 0.7955 0.8166 0.8306 0.8404 0.8492
1074.284976 0.8566 0.8636 0.8706 0.8772 0.8826
1069.369757 0.8857 0.8888 0.8914 0.8928 0.8943
1064.454537 0.8957 0.8968 0.8979 0.8990 0.9000
1059.539318 0.9007 0.9013 0.9018 0.9033 0.9025
1054.624098 0.9027 0.9028 0.9028 0.9030 0.9024
1049.708879 0.9016 0.9007 0.8998 0.8989 0.8968
1044.793659 0.8945 0.8922 0.8893 0.8842 0.8793
1039.878440 0.8718 0.8612 0.8516 0.8424 0.8308
1034.963220 0.8141 0.7972 0.7805 0.7637 0.7513
1030.048001 0.7478 0.7506 0.7631 0.7786 0.7944
1025.132781 0.8103 0.8261 0.8420 0.8567 0.8631
1020.217562 0.8650 0.8642 0.8619 0.8591 0.8553
1015.302342 0.8486 0.8393 0.8274 0.8094 0.7868
1010.387123 0.7634 0.7400 0.7174 0.7079 0.7089
1005.471903 0.7117 0.7172 0.7243 0.7337 0.7444
1000.556683 0.7548 0.7654 0.7748 0.7808 0.7823
995.641464 0.7819 0.7790 0.7687 0.7540 0.7346
990.726244 0.7130 0.7137 0.7120 0.7148 0.7252
985.811025 0.7542 0.7718 0.7893 0.8069 0.8243
980.895805 0.8400 0.8487 0.8558 0.8612 0.8660
975.980586 0.8689 0.8717 0.8735 0.8745 0.8755
971.065366 0.8759 0.8764 0.8787 0.8769 0.8757
966.150147 0.8748 0.8738 0.8727 0.8714 0.8700
961.234927 0.8684 0.8663 0.8641 0.8618 0.8581
956.319708 0.8538 0.8497 0.8461 0.8428 0.8398
951.404488 0.8380 0.8370 0.8378 0.8398 0.8418
946.489269 0.8442 0.8473 0.8505 0.8540 0.8583
941.574049 0.8628 0.8672 0.8715 0.8755 0.8787
936.658830 0.8808 0.8817 0.8826 0.8835 0.8844
931.743610 0.8849 0.8850 0.8852 0.8854 0.8856
926.828391 0.8858 0.8859 0.8859 0.8860 0.8861
921.913171 0.8862 0.8863 0.8864 0.8863 0.8862
916.997952 0.8860 0.8858 0.8857 0.8853 0.8846
912.082732 0.8838 0.8829 0.8822 0.8810 0.8788
907.167513 0.8765 0.8741 0.8714 0.8681 0.8647
902.252293 0.8609 0.8569 0.8518 0.8462 0.8405
897.337074 0.8348 0.8289 0.8232 0.8179 0.8141
892.421854 0.8107 0.8098 0.8120 0.8178 0.8272
887.506635 0.8358 0.8434 0.8509 0.8571 0.8613
882.591415 0.8641 0.8658 0.8675 0.8691 0.8703
877.676195 0.8715 0.8737 0.8758 0.8729 0.8731
872.760976 0.8730 0.8722 0.8712 0.8701 0.8691
867.845756 0.8683 0.8674 0.8667 0.8658 0.8650
862.930537 0.8641 0.8631 0.8621 0.8612 0.8601
858.015317 0.8590 0.8575 0.8562 0.8547 0.8532
853.100098 0.8518 0.8502 0.8485 0.8469 0.8451
848.184878 0.8419 0.8387 0.8347 0.8296 0.8241
843.269659 0.8190 0.8140 0.8090 0.8046 0.8008
838.354439 0.7973 0.7938 0.7904 0.7874 0.7856
833.439220 0.7848 0.7839 0.7829 0.7821 0.7819
828.524000 0.7820 0.7821 0.7826 0.7837 0.7846
823.608781 0.7856 0.7869 0.7883 0.7898 0.7912
818.693561 0.7921 0.7923 0.7924 0.7925 0.7924
813.778342 0.7917 0.7910 0.7904 0.7897 0.7891
808.863122 0.7882 0.7867 0.7855 0.7842 0.7827
803.947903 0.7810 0.7792 0.7775 0.7758 0.7740
799.032683 0.7722 0.7690 0.7653 0.7615 0.7579
794.117464 0.7531 0.7483 0.7435 0.7371 0.7301
789.202244 0.7229 0.7157 0.7080 0.7000 0.6919
784.287025 0.6832 0.6743 0.6651 0.6555 0.6428
779.371805 0.6284 0.6151 0.6017 0.5799 0.5492
774.456586 0.5151 0.4808 0.4467 0.4157 0.3771
769.541366 0.3318 0.2863 0.2388 0.2013 0.1707
764.626147 0.1463 0.1286 0.1137 0.1017 0.0922
759.710927 0.0875 0.0878 0.0926 0.1028 0.1169
754.795708 0.1352 0.1626 0.2030 0.2368 0.2699
749.880488 0.3033 0.3367 0.3701 0.4026 0.4213
744.965268 0.4231 0.4238 0.4205 0.4128 0.4024
740.050049 0.3840 0.3599 0.3357 0.3114 0.2742
735.134829 0.2716 0.2712 0.2873 0.3193 0.3603
730.219610 0.4058 0.4525 0.4993 0.5462 0.5932
725.304390 0.6402 0.6704 0.6866 0.6952 0.7008
720.389171 0.7052 0.7078 0.7096 0.7103 0.7094
715.473951 0.7072 0.7046 0.7017 0.6984 0.6947
710.558732 0.6909 0.6871 0.6828 0.6777 0.6720
705.643512 0.6643 0.6539 0.6459 0.6434 0.6442
700.728293 0.6448 0.6448 0.6446 0.6437 0.6422
695.813073 0.6407 0.6391 0.6375 0.6355 0.6337
690.897854 0.6318 0.6298 0.6280 0.6261 0.6243
685.982634 0.6237 0.6178 0.6227 0.6221 0.6216
681.067415 0.6210 0.6212 0.6235 0.6267 0.6327
676.152195 0.6391 0.6451 0.6512 0.6572 0.6610
671.236976 0.6557 0.6478 0.6393 0.6306 0.6221
666.321756 0.6177 0.6151 0.6134 0.6122 0.6114
661.406537 0.6112 0.6112 0.6112 0.6112 0.6114
656.491317 0.6117 0.6119 0.6123 0.6127 0.6132
651.576098 0.6136 0.6141 0.6149 0.6154 0.6159
646.660878 0.6164 0.6170 0.6175 0.6179 0.6184
641.745659 0.6190 0.6198 0.6208 0.6217 0.6227
636.830439 0.6236 0.6246 0.6255 0.6261 0.6267
631.915220 0.6271 0.6272 0.6262 0.6253 0.6238
##END=
