##TITLE=9-METHYL-PHENANTHRENE
##JCAMP-DX=4.24
##DATA TYPE=INFRARED SPECTRUM
##CLASS=COBLENTZ
##ORIGIN=CENTRE D'ETUDES NUCLEAIRES DE GRENOBLE
##OWNER=COBLENTZ SOCIETY
Collection (C) 2018 copyright by the U.S. Secretary of Commerce
on behalf of the United States of America. All rights reserved.
##DATE=Not specified, most likely prior to 1970
##NAMES=9-methylphenanthrene
##CAS REGISTRY NO=883-20-5
##MOLFORM=C15 H12
##SOURCE REFERENCE=COBLENTZ NO. 4234
##$NIST SOURCE=COBLENTZ
##$NIST IMAGE=cob4234
##SPECTROMETER/DATA SYSTEM=Not specified, most likely a prism, grating, or hybrid spectrometer.
##STATE=SOLID (1% IN KI)
##PATH LENGTH=
$$PURITY 99.99%
##SAMPLING PROCEDURE=TRANSMISSION
##RESOLUTION=4
$$SPECTRAL CONTAMINATION DUE TO AN UNKNOWN AROUND 3380 AND 2280 CM^-^1
##DATA PROCESSING=DIGITIZED BY NIST FROM HARD COPY
##XUNITS=MICROMETERS
##YUNITS=TRANSMITTANCE
##XFACTOR=1.000000
##YFACTOR=1
##DELTAX=000.006677
##FIRSTX=1.992
##LASTX=15.88
##FIRSTY=0.244
##MAXX=15.88
##MINX=1.992
##MAXY=0.986
##MINY=0.023
##NPOINTS=2081
##XYDATA=(X++(Y..Y))
1.992000 0.2440 0.2460 0.2470 0.2510 0.2520
2.025401 0.2540 0.2540 0.2560 0.2570 0.2570
2.059000 0.2590 0.2610 0.2620 0.2640 0.2660
2.092401 0.2660 0.2680 0.2690 0.2710 0.2710
2.125000 0.2730 0.2740 0.2760 0.2780 0.2790
2.158401 0.2790 0.2810 0.2830 0.2840 0.2840
2.192000 0.2860 0.2880 0.2880 0.2890 0.2910
2.225401 0.2930 0.2940 0.2960 0.2960 0.2980
2.259000 0.2990 0.2990 0.3010 0.3030 0.3030
2.292401 0.3040 0.3060 0.3060 0.3080 0.3090
2.326000 0.3110 0.3130 0.3140 0.3160 0.3180
2.359401 0.3190 0.3210 0.3230 0.3240 0.3260
2.392000 0.3280 0.3310 0.3330 0.3330 0.3350
2.425401 0.3360 0.3360 0.3380 0.3400 0.3400
2.459000 0.3410 0.3410 0.3450 0.3450 0.3460
2.492401 0.3480 0.3480 0.3500 0.3500 0.3510
2.526000 0.3530 0.3550 0.3560 0.3600 0.3610
2.559401 0.3630 0.3650 0.3680 0.3730 0.3780
2.593000 0.3810 0.3850 0.3860 0.3880 0.3880
2.626401 0.3900 0.3910 0.3910 0.3930 0.3930
2.659000 0.3950 0.3950 0.3950 0.3980 0.4050
2.692401 0.4080 0.4250 0.4320 0.4300 0.4220
2.726000 0.4150 0.4130 0.4150 0.4220 0.4250
2.759401 0.4280 0.4280 0.4300 0.4320 0.4320
2.793000 0.4320 0.4300 0.4280 0.4270 0.4230
2.826401 0.4220 0.4170 0.4130 0.4070 0.4030
2.860000 0.3980 0.3950 0.3950 0.3850 0.3810
2.893401 0.3800 0.3760 0.3750 0.3730 0.3680
2.927000 0.3650 0.3600 0.3560 0.3550 0.3530
2.960401 0.3530 0.3550 0.3550 0.3560 0.3560
2.993000 0.3580 0.3610 0.3630 0.3660 0.3680
3.026401 0.3710 0.3780 0.3830 0.3830 0.3860
3.060000 0.3900 0.3910 0.3930 0.3950 0.3960
3.093401 0.3980 0.3980 0.4020 0.4030 0.4050
3.127000 0.4070 0.4080 0.4120 0.4150 0.4170
3.160401 0.4200 0.4220 0.4230 0.4250 0.4250
3.194000 0.4280 0.4320 0.4330 0.4350 0.4370
3.227401 0.4370 0.4370 0.4350 0.4350 0.4330
3.260000 0.4320 0.4270 0.4230 0.4200 0.4050
3.293401 0.3900 0.3580 0.3400 0.3290 0.3290
3.327000 0.3310 0.3430 0.3510 0.3530 0.3530
3.360401 0.3550 0.3630 0.3780 0.3880 0.3950
3.394000 0.4020 0.4000 0.4000 0.3980 0.3960
3.427401 0.3930 0.3910 0.3860 0.3850 0.3850
3.461000 0.3830 0.3830 0.3830 0.3830 0.3850
3.494401 0.3910 0.3930 0.4200 0.4280 0.4330
3.527000 0.4370 0.4400 0.4420 0.4450 0.4470
3.560401 0.4520 0.4600 0.4700 0.4840 0.4890
3.594000 0.4900 0.4940 0.4970 0.4990 0.5020
3.627401 0.5040 0.5070 0.5090 0.5100 0.5140
3.661000 0.5150 0.5190 0.5200 0.5220 0.5220
3.694401 0.5220 0.5240 0.5250 0.5270 0.5270
3.728000 0.5290 0.5300 0.5320 0.5320 0.5340
3.761401 0.5360 0.5370 0.5390 0.5410 0.5420
3.795000 0.5440 0.5440 0.5460 0.5470 0.5490
3.828401 0.5490 0.5510 0.5520 0.5540 0.5560
3.861000 0.5590 0.5590 0.5610 0.5620 0.5660
3.894401 0.5690 0.5690 0.5710 0.5720 0.5740
3.928000 0.5760 0.5760 0.5770 0.5790 0.5810
3.961401 0.5810 0.5820 0.5840 0.5860 0.5860
3.995000 0.5870 0.5890 0.5910 0.5920 0.5920
4.028401 0.5940 0.5960 0.5970 0.5970 0.5990
4.062000 0.6010 0.6010 0.6030 0.6030 0.6040
4.095401 0.6040 0.6060 0.6060 0.6080 0.6080
4.128000 0.6080 0.6090 0.6090 0.6090 0.6110
4.161401 0.6130 0.6140 0.6140 0.6160 0.6180
4.195000 0.6190 0.6210 0.6230 0.6240 0.6240
4.228401 0.6280 0.6290 0.6440 0.6590 0.6640
4.262000 0.6710 0.6760 0.6780 0.6780 0.6810
4.295401 0.6830 0.6830 0.6830 0.6810 0.6810
4.329000 0.6800 0.6780 0.6750 0.6710 0.6680
4.362401 0.6640 0.6590 0.6580 0.6560 0.6540
4.395000 0.6540 0.6560 0.6580 0.6590 0.6610
4.428401 0.6630 0.6640 0.6660 0.6660 0.6680
4.462000 0.6680 0.6700 0.6700 0.6710 0.6710
4.495401 0.6710 0.6730 0.6750 0.6750 0.6760
4.529000 0.6780 0.6780 0.6800 0.6800 0.6810
4.562401 0.6850 0.6860 0.6860 0.6880 0.6880
4.596000 0.6900 0.6900 0.6910 0.6930 0.6930
4.629401 0.6950 0.6960 0.6960 0.6960 0.6980
4.663000 0.6980 0.6980 0.7000 0.7000 0.7010
4.696401 0.7030 0.7030 0.7050 0.7050 0.7060
4.729000 0.7060 0.7080 0.7080 0.7080 0.7100
4.762401 0.7100 0.7100 0.7110 0.7110 0.7130
4.796000 0.7130 0.7130 0.7150 0.7150 0.7150
4.829401 0.7160 0.7160 0.7160 0.7180 0.7180
4.863000 0.7180 0.7180 0.7200 0.7210 0.7230
4.896401 0.7260 0.7300 0.7330 0.7350 0.7350
4.930000 0.7370 0.7370 0.7370 0.7370 0.7380
4.963401 0.7380 0.7400 0.7430 0.7430 0.7450
4.996000 0.7470 0.7470 0.7480 0.7480 0.7480
5.029401 0.7500 0.7520 0.7530 0.7550 0.7570
5.063000 0.7580 0.7580 0.7570 0.7570 0.7570
5.096401 0.7550 0.7530 0.7520 0.7470 0.7470
5.130000 0.7260 0.7210 0.7150 0.7060 0.7030
5.163401 0.6980 0.6930 0.6900 0.6930 0.6960
5.197000 0.7010 0.7010 0.7010 0.7000 0.7000
5.230401 0.6960 0.6910 0.6810 0.6610 0.6610
5.263000 0.6750 0.7100 0.7250 0.7380 0.7420
5.296401 0.7420 0.7380 0.7150 0.7130 0.7160
5.330000 0.7310 0.7430 0.7500 0.7550 0.7600
5.363401 0.7650 0.7720 0.7820 0.7830 0.7820
5.397000 0.7800 0.7720 0.7670 0.7650 0.7670
5.430401 0.7700 0.7770 0.7780 0.7780 0.7720
5.464000 0.7570 0.7520 0.7480 0.7430 0.7420
5.497401 0.7420 0.7430 0.7430 0.7430 0.7430
5.531000 0.7450 0.7480 0.7520 0.7520 0.7530
5.564401 0.7530 0.7530 0.7530 0.7520 0.7500
5.597000 0.7480 0.7470 0.7480 0.7530 0.7600
5.630401 0.7670 0.7680 0.7680 0.7670 0.7580
5.664000 0.7550 0.7470 0.7350 0.7230 0.7160
5.697401 0.7130 0.7130 0.7370 0.7570 0.7630
5.731000 0.7720 0.7800 0.7830 0.7880 0.7900
5.764401 0.7900 0.7900 0.7880 0.7830 0.7750
5.798000 0.7680 0.7650 0.7630 0.7670 0.7800
5.831401 0.7870 0.7920 0.7970 0.7970 0.7950
5.864000 0.7880 0.7820 0.7730 0.7720 0.7750
5.897401 0.7800 0.7850 0.7900 0.7950 0.7970
5.931000 0.7930 0.7780 0.7680 0.7680 0.7800
5.964401 0.8020 0.8070 0.8140 0.8150 0.8190
5.998000 0.8190 0.8190 0.8190 0.8170 0.8170
6.031401 0.8170 0.8170 0.8170 0.8170 0.8170
6.065000 0.8190 0.8190 0.8190 0.8170 0.8170
6.098401 0.8140 0.8020 0.7930 0.7870 0.7830
6.131000 0.7770 0.7730 0.7700 0.7650 0.7530
6.164401 0.7250 0.7110 0.6960 0.6680 0.6440
6.198000 0.6430 0.6440 0.6530 0.6750 0.6750
6.231401 0.6710 0.6530 0.6410 0.6080 0.5670
6.265000 0.5340 0.5000 0.4990 0.5000 0.5340
6.298401 0.5570 0.6110 0.6260 0.6480 0.6700
6.332000 0.6850 0.6980 0.7210 0.7330 0.7480
6.365401 0.7630 0.7830 0.7880 0.7930 0.7950
6.399000 0.7980 0.7980 0.8020 0.8040 0.8050
6.432401 0.8090 0.8120 0.8170 0.8200 0.8220
6.465000 0.8240 0.8240 0.8250 0.8250 0.8240
6.498401 0.8240 0.8240 0.8220 0.8200 0.8190
6.532000 0.8170 0.8170 0.8150 0.8140 0.8120
6.565401 0.8120 0.8100 0.8090 0.8090 0.8090
6.599000 0.8090 0.8090 0.8090 0.8100 0.8100
6.632401 0.8120 0.8120 0.8150 0.8150 0.8140
6.666000 0.8140 0.8020 0.7950 0.7870 0.7630
6.699401 0.7200 0.6810 0.6430 0.5920 0.5460
6.732000 0.4350 0.4330 0.4350 0.4690 0.5240
6.765401 0.5710 0.6080 0.6390 0.6590 0.6780
6.799000 0.6950 0.7520 0.7750 0.7770 0.7770
6.832401 0.7750 0.7600 0.7520 0.7380 0.7160
6.866000 0.7000 0.6980 0.6960 0.7150 0.7310
6.899401 0.7480 0.7480 0.7450 0.7200 0.6930
6.933000 0.6390 0.4030 0.3930 0.3810 0.3550
6.966401 0.3280 0.3030 0.3030 0.3110 0.3190
6.999000 0.3260 0.3360 0.3400 0.3360 0.2960
7.032401 0.2940 0.2960 0.3410 0.4990 0.5390
7.066000 0.5820 0.6090 0.6260 0.6310 0.6330
7.099401 0.6340 0.6440 0.6660 0.7110 0.7300
7.133000 0.7400 0.7450 0.7480 0.7530 0.7580
7.166401 0.7670 0.7770 0.7850 0.7870 0.7900
7.200000 0.7900 0.7830 0.7720 0.7470 0.7150
7.233401 0.6950 0.6750 0.6340 0.5940 0.5610
7.267000 0.5590 0.5620 0.6230 0.6430 0.6560
7.300401 0.6680 0.6760 0.6850 0.6950 0.7260
7.333000 0.7480 0.7670 0.7820 0.7920 0.7980
7.366401 0.8040 0.8070 0.8100 0.8140 0.8170
7.400000 0.8200 0.8200 0.8220 0.8220 0.8200
7.433401 0.8200 0.8170 0.8170 0.8150 0.8170
7.467000 0.8220 0.8250 0.8320 0.8350 0.8390
7.500401 0.8350 0.8340 0.8150 0.7980 0.7970
7.534000 0.7980 0.8000 0.8040 0.8090 0.8150
7.567401 0.8220 0.8290 0.8350 0.8400 0.8440
7.600000 0.8450 0.8470 0.8500 0.8500 0.8490
7.633401 0.8470 0.8420 0.8250 0.7750 0.7280
7.667000 0.7250 0.7260 0.7700 0.7750 0.7930
7.700401 0.8070 0.8170 0.8250 0.8320 0.8350
7.734000 0.8390 0.8420 0.8420 0.8440 0.8440
7.767401 0.8440 0.8420 0.8370 0.8300 0.8240
7.801000 0.8140 0.8040 0.8020 0.8040 0.8090
7.834401 0.8170 0.8270 0.8320 0.8350 0.8400
7.867000 0.8440 0.8470 0.8500 0.8540 0.8570
7.900401 0.8590 0.8600 0.8600 0.8620 0.8620
7.934000 0.8600 0.8600 0.8590 0.8570 0.8550
7.967401 0.8540 0.8500 0.8470 0.8450 0.8170
8.001000 0.7850 0.7530 0.7130 0.6960 0.6800
8.034401 0.5670 0.4740 0.4720 0.4740 0.5250
8.068000 0.5990 0.6580 0.7380 0.7630 0.7800
8.101401 0.7930 0.8000 0.8050 0.8090 0.8120
8.135000 0.8140 0.8150 0.8170 0.8190 0.8170
8.168401 0.8150 0.8070 0.8050 0.7680 0.7500
8.201000 0.7150 0.6830 0.6490 0.5860 0.5840
8.234401 0.5860 0.6190 0.6750 0.6980 0.7430
8.268000 0.7580 0.7580 0.7210 0.7060 0.6900
8.301401 0.6560 0.6560 0.6850 0.7450 0.7720
8.335000 0.8290 0.8350 0.8390 0.8390 0.8390
8.368401 0.8370 0.8340 0.8320 0.8300 0.8290
8.402000 0.8290 0.8290 0.8300 0.8340 0.8370
8.435401 0.8440 0.8500 0.8590 0.8670 0.8760
8.468000 0.8840 0.8920 0.8990 0.9060 0.9090
8.501401 0.9110 0.9190 0.9210 0.9190 0.9170
8.535000 0.9120 0.9070 0.9020 0.8970 0.8870
8.568401 0.8720 0.8450 0.8070 0.7850 0.7830
8.602000 0.7850 0.7980 0.8070 0.8070 0.7930
8.635401 0.7780 0.7730 0.7620 0.7570 0.7620
8.669000 0.7650 0.7730 0.7830 0.7920 0.7950
8.702401 0.7130 0.6810 0.6490 0.6330 0.6110
8.735000 0.6130 0.6540 0.7520 0.7870 0.8140
8.768401 0.8350 0.8520 0.8640 0.8720 0.8810
8.802000 0.8860 0.8920 0.8990 0.9020 0.9040
8.835401 0.9060 0.9070 0.9110 0.9140 0.9170
8.869000 0.9190 0.9210 0.9220 0.9220 0.9240
8.902401 0.9240 0.9260 0.9260 0.9270 0.9270
8.936000 0.9270 0.9290 0.9290 0.9290 0.9290
8.969401 0.9310 0.9310 0.9290 0.9290 0.9270
9.003000 0.9270 0.9270 0.9270 0.9260 0.9260
9.036401 0.9240 0.9210 0.9170 0.9110 0.9090
9.069000 0.9020 0.8920 0.8890 0.8890 0.8940
9.102401 0.9060 0.9070 0.9120 0.9160 0.9220
9.136000 0.9260 0.9310 0.9310 0.9320 0.9340
9.169401 0.9340 0.9340 0.9340 0.9340 0.9340
9.203000 0.9320 0.9320 0.9320 0.9310 0.9310
9.236401 0.9290 0.9290 0.9270 0.9270 0.9260
9.270000 0.9260 0.9260 0.9270 0.9270 0.9270
9.303401 0.9270 0.9270 0.9270 0.9270 0.9310
9.336000 0.9310 0.9310 0.9320 0.9320 0.9320
9.369401 0.9320 0.9340 0.9340 0.9380 0.9380
9.403000 0.9390 0.9390 0.9390 0.9390 0.9390
9.436401 0.9390 0.9390 0.9390 0.9390 0.9390
9.470000 0.9390 0.9380 0.9380 0.9380 0.9360
9.503401 0.9360 0.9320 0.9310 0.9290 0.9270
9.537000 0.9260 0.9190 0.9110 0.8970 0.8840
9.570401 0.8710 0.8470 0.8200 0.7310 0.7050
9.603000 0.6760 0.6510 0.6390 0.6330 0.6290
9.636401 0.6280 0.6290 0.6340 0.6430 0.6580
9.670000 0.6750 0.6780 0.7280 0.7500 0.7720
9.703401 0.7920 0.8090 0.8220 0.8320 0.8390
9.737000 0.8490 0.8620 0.8710 0.8770 0.8820
9.770401 0.8820 0.8840 0.8860 0.8860 0.8860
9.804000 0.8860 0.8870 0.8870 0.8870 0.8870
9.837401 0.8890 0.8910 0.8910 0.8910 0.8920
9.871000 0.8940 0.8960 0.8990 0.9020 0.9060
9.904401 0.9120 0.9120 0.9240 0.9260 0.9260
9.937000 0.9240 0.9120 0.8990 0.8790 0.8620
9.970401 0.8320 0.7870 0.7420 0.7400 0.7430
10.004000 0.7670 0.7780 0.7900 0.7980 0.7980
10.037401 0.7820 0.7620 0.7600 0.7630 0.7820
10.071000 0.7900 0.8170 0.8270 0.8440 0.8590
10.104401 0.8690 0.8770 0.8840 0.8890 0.8910
10.138000 0.8910 0.8940 0.8960 0.8970 0.8990
10.171401 0.9010 0.9020 0.9040 0.9060 0.9070
10.204000 0.9090 0.9090 0.9110 0.9120 0.9140
10.237401 0.9160 0.9160 0.9160 0.9120 0.9110
10.271000 0.9090 0.9010 0.8960 0.8940 0.8910
10.304401 0.8890 0.8910 0.8960 0.9070 0.9210
10.338000 0.9260 0.9310 0.9340 0.9380 0.9410
10.371401 0.9440 0.9480 0.9510 0.9530 0.9540
10.405000 0.9560 0.9590 0.9610 0.9610 0.9610
10.438401 0.9610 0.9610 0.9590 0.9590 0.9540
10.471000 0.9360 0.9010 0.8370 0.7010 0.6730
10.504401 0.6440 0.5790 0.5300 0.5270 0.5290
10.538000 0.5640 0.6140 0.6590 0.7380 0.7700
10.571401 0.8000 0.8270 0.8500 0.8710 0.8870
10.605000 0.9020 0.9160 0.9270 0.9380 0.9440
10.638401 0.9510 0.9530 0.9560 0.9590 0.9610
10.672000 0.9640 0.9690 0.9740 0.9760 0.9780
10.705401 0.9790 0.9810 0.9810 0.9830 0.9830
10.739000 0.9840 0.9840 0.9860 0.9860 0.9840
10.772401 0.9830 0.9830 0.9790 0.9790 0.9790
10.805000 0.9810 0.9810 0.9790 0.9790 0.9790
10.838401 0.9780 0.9760 0.9740 0.9730 0.9710
10.872000 0.9690 0.9660 0.9590 0.9510 0.9440
10.905401 0.9360 0.9290 0.9210 0.9120 0.9090
10.939000 0.9070 0.9070 0.9110 0.9210 0.9240
10.972401 0.9270 0.9340 0.9410 0.9510 0.9510
11.006000 0.9560 0.9580 0.9590 0.9610 0.9630
11.039401 0.9630 0.9630 0.9630 0.9630 0.9630
11.072000 0.9610 0.9590 0.9590 0.9580 0.9580
11.105401 0.9580 0.9560 0.9540 0.9490 0.9440
11.139000 0.9410 0.9360 0.9320 0.9260 0.9160
11.172401 0.9060 0.8960 0.8790 0.8570 0.8240
11.206000 0.7880 0.7280 0.6900 0.6490 0.5640
11.239401 0.4770 0.4370 0.3950 0.3290 0.2860
11.273000 0.2730 0.2560 0.2420 0.2390 0.2120
11.306401 0.1840 0.1800 0.1820 0.2470 0.3010
11.339000 0.3500 0.4720 0.5360 0.5990 0.6580
11.372401 0.7500 0.7800 0.7930 0.8140 0.8300
11.406000 0.8440 0.8550 0.8650 0.8720 0.8790
11.439401 0.8820 0.8860 0.8870 0.8870 0.8860
11.473000 0.8810 0.8670 0.8520 0.8350 0.8070
11.506401 0.7980 0.7820 0.7720 0.7700 0.7720
11.540000 0.7830 0.8040 0.8120 0.8340 0.8490
11.573401 0.8620 0.8740 0.8840 0.8920 0.8990
11.607000 0.9040 0.9070 0.9090 0.9110 0.9110
11.640401 0.9110 0.9090 0.8870 0.8470 0.8250
11.673000 0.7920 0.7450 0.7180 0.6900 0.6510
11.706401 0.6280 0.6260 0.6290 0.6700 0.6950
11.740000 0.7330 0.7370 0.7370 0.7350 0.7350
11.773401 0.7370 0.7580 0.7730 0.7920 0.8120
11.807000 0.8270 0.8450 0.8690 0.8870 0.9010
11.840401 0.9020 0.9120 0.9210 0.9260 0.9290
11.874000 0.9310 0.9310 0.9340 0.9340 0.9360
11.907401 0.9360 0.9360 0.9360 0.9380 0.9380
11.940000 0.9390 0.9430 0.9440 0.9440 0.9440
11.973401 0.9440 0.9430 0.9430 0.9410 0.9410
12.007000 0.9410 0.9410 0.9430 0.9430 0.9460
12.040401 0.9480 0.9510 0.9530 0.9530 0.9530
12.074000 0.9530 0.9530 0.9530 0.9510 0.9490
12.107401 0.9480 0.9480 0.9460 0.9460 0.9440
12.141000 0.9430 0.9430 0.9410 0.9390 0.9380
12.174401 0.9380 0.9360 0.9360 0.9360 0.9360
12.207000 0.9360 0.9340 0.9340 0.9320 0.9310
12.240401 0.9270 0.9270 0.9260 0.9260 0.9260
12.274000 0.9260 0.9260 0.9270 0.9290 0.9290
12.307401 0.9290 0.9290 0.9290 0.9290 0.9310
12.341000 0.9310 0.9320 0.9340 0.9360 0.9360
12.374401 0.9360 0.9360 0.9340 0.9340 0.9340
12.408000 0.9320 0.9320 0.9310 0.9290 0.9270
12.441401 0.9260 0.9260 0.9270 0.9270 0.9310
12.475000 0.9310 0.9310 0.9270 0.9260 0.9260
12.508401 0.9260 0.9260 0.9240 0.9240 0.9220
12.541000 0.9220 0.9220 0.9210 0.9170 0.9160
12.574401 0.9120 0.9070 0.9020 0.8970 0.8890
12.608000 0.8770 0.8690 0.8550 0.8470 0.8370
12.641401 0.8270 0.8090 0.8040 0.7920 0.7900
12.675000 0.7880 0.7900 0.7920 0.8020 0.8040
12.708401 0.8050 0.8120 0.8190 0.8250 0.8320
12.742000 0.8370 0.8400 0.8470 0.8590 0.8600
12.775401 0.8600 0.8570 0.8520 0.8440 0.8350
12.808000 0.8240 0.8150 0.8050 0.7980 0.7850
12.841401 0.7830 0.7850 0.7870 0.7900 0.8040
12.875000 0.8090 0.8170 0.8200 0.8220 0.8220
12.908401 0.8220 0.8220 0.8200 0.8170 0.8100
12.942000 0.8040 0.7930 0.7820 0.7650 0.7450
12.975401 0.7180 0.7030 0.6880 0.6490 0.6030
13.009000 0.5490 0.5150 0.4690 0.4170 0.3880
13.042401 0.3600 0.3030 0.2470 0.2190 0.1990
13.076000 0.1850 0.1750 0.1740 0.1750 0.1800
13.109401 0.1940 0.2010 0.2040 0.2070 0.2120
13.142000 0.2220 0.2370 0.2610 0.2960 0.3190
13.175401 0.3550 0.3880 0.4550 0.4690 0.4790
13.209000 0.4920 0.4940 0.5000 0.4940 0.4800
13.242401 0.4550 0.4380 0.4170 0.4030 0.3900
13.276000 0.3610 0.3290 0.2940 0.2570 0.2160
13.309401 0.1720 0.1450 0.1270 0.1070 0.1000
13.343000 0.0930 0.0750 0.0610 0.0510 0.0430
13.376401 0.0430 0.0380 0.0350 0.0310 0.0300
13.409000 0.0280 0.0260 0.0250 0.0230 0.0230
13.442401 0.0230 0.0250 0.0260 0.0300 0.0350
13.476000 0.0380 0.0460 0.0600 0.0770 0.1250
13.509401 0.1520 0.1800 0.2120 0.2420 0.2730
13.543000 0.3010 0.3180 0.3360 0.3580 0.3810
13.576401 0.4300 0.4550 0.4870 0.4990 0.5040
13.610000 0.5120 0.5270 0.5410 0.5520 0.5660
13.643401 0.5770 0.5870 0.5990 0.6090 0.6190
13.676000 0.6290 0.6390 0.6480 0.6510 0.6560
13.709401 0.6630 0.6710 0.6750 0.6760 0.6760
13.743000 0.6610 0.6440 0.6210 0.5910 0.5520
13.776401 0.5090 0.4580 0.4020 0.3710 0.3400
13.810000 0.2730 0.2260 0.1820 0.1420 0.1150
13.843401 0.1070 0.0970 0.0750 0.0650 0.0560
13.877000 0.0550 0.0550 0.0580 0.0770 0.0950
13.910401 0.1570 0.1970 0.2410 0.2860 0.3280
13.944000 0.3680 0.4330 0.4550 0.4740 0.4900
13.977401 0.5070 0.5270 0.5520 0.5860 0.5960
14.010000 0.6010 0.6060 0.6090 0.6210 0.6240
14.043401 0.6260 0.6310 0.6330 0.6360 0.6360
14.077000 0.6330 0.6260 0.6090 0.6030 0.5970
14.110401 0.5910 0.5840 0.5820 0.5840 0.5970
14.144000 0.6130 0.6290 0.6440 0.6560 0.6680
14.177401 0.6780 0.6880 0.6950 0.7030 0.7060
14.211000 0.7150 0.7200 0.7210 0.7230 0.7280
14.244401 0.7350 0.7400 0.7400 0.7420 0.7430
14.277000 0.7430 0.7450 0.7470 0.7480 0.7500
14.310401 0.7520 0.7530 0.7570 0.7580 0.7600
14.344000 0.7600 0.7620 0.7620 0.7650 0.7670
14.377401 0.7680 0.7700 0.7700 0.7720 0.7720
14.411000 0.7730 0.7730 0.7750 0.7750 0.7750
14.444401 0.7770 0.7770 0.7770 0.7770 0.7780
14.478000 0.7780 0.7780 0.7780 0.7780 0.7800
14.511401 0.7820 0.7820 0.7820 0.7820 0.7820
14.544000 0.7830 0.7830 0.7830 0.7830 0.7830
14.577401 0.7820 0.7820 0.7820 0.7820 0.7820
14.611000 0.7800 0.7800 0.7800 0.7800 0.7800
14.644401 0.7800 0.7800 0.7820 0.7820 0.7830
14.678000 0.7830 0.7830 0.7850 0.7850 0.7850
14.711401 0.7850 0.7850 0.7850 0.7870 0.7870
14.745000 0.7870 0.7870 0.7870 0.7880 0.7880
14.778401 0.7880 0.7870 0.7870 0.7850 0.7850
14.812000 0.7850 0.7850 0.7870 0.7870 0.7880
14.845401 0.7880 0.7900 0.7900 0.7900 0.7880
14.878000 0.7880 0.7880 0.7870 0.7870 0.7850
14.911401 0.7850 0.7850 0.7850 0.7850 0.7870
14.945000 0.7870 0.7880 0.7900 0.7900 0.7900
14.978401 0.7880 0.7880 0.7850 0.7820 0.7780
15.012000 0.7770 0.7770 0.7770 0.7780 0.7780
15.045401 0.7780 0.7800 0.7800 0.7800 0.7830
15.079000 0.7830 0.7850 0.7850 0.7870 0.7870
15.112401 0.7870 0.7870 0.7870 0.7880 0.7880
15.145000 0.7880 0.7900 0.7900 0.7900 0.7920
15.178401 0.7920 0.7920 0.7920 0.7920 0.7900
15.212000 0.7900 0.7880 0.7870 0.7870 0.7870
15.245401 0.7870 0.7870 0.7880 0.7880 0.7880
15.279000 0.7900 0.7900 0.7920 0.7920 0.7920
15.312401 0.7920 0.7920 0.7900 0.7900 0.7880
15.346000 0.7880 0.7880 0.7870 0.7870 0.7850
15.379401 0.7850 0.7830 0.7820 0.7780 0.7770
15.412000 0.7750 0.7750 0.7750 0.7730 0.7700
15.445401 0.7670 0.7630 0.7570 0.7520 0.7470
15.479000 0.7430 0.7400 0.7370 0.7330 0.7260
15.512401 0.7250 0.7250 0.7250 0.7260 0.7280
15.546000 0.7330 0.7350 0.7350 0.7370 0.7380
15.579401 0.7400 0.7470 0.7500 0.7530 0.7550
15.613000 0.7580 0.7600 0.7620 0.7650 0.7680
15.646401 0.7720 0.7730 0.7750 0.7770 0.7780
15.680000 0.7780 0.7780 0.7780 0.7780 0.7770
15.713401 0.7770 0.7770 0.7770 0.7770 0.7770
15.746000 0.7780 0.7800 0.7820 0.7820 0.7820
15.779401 0.7820 0.7820 0.7800 0.7800 0.7780
15.813000 0.7780 0.7770 0.7770 0.7770 0.7780
15.846401 0.7780 0.7800 0.7800 0.7800 0.7800
15.880000 0.7800
##END=
