##TITLE=BENZOTHIAZOLE, 2-PHENYL-
##JCAMP-DX=4.24
$$ By DXEDIT 1.05 (RS McDonald)
##DATA TYPE=INFRARED SPECTRUM
##CLASS=COBLENTZ II
##ORIGIN=PERKIN-ELMER CORP. (R. HANNAH)
##OWNER=COBLENTZ SOC.
Collection (C) 2018 copyright by the U.S. Secretary of Commerce
on behalf of the United States of America. All rights reserved.
##DATE=1969/01/28
##NAMES=2-phenyl-1,3-benzothiazole
##CAS REGISTRY NO=883-93-2
##MOLFORM=C13 H9 N S
##MP=114 C
##SOURCE REFERENCE=COBLENTZ NO. 06018
##$NIST SOURCE=COBLENTZ
##$NIST IMAGE=cob6018
##SPECTROMETER/DATA SYSTEM=PERKIN-ELMER 621 (GRATING)
##INSTRUMENT PARAMETERS=GRATING CHANGE AT 623; ORDER CHANGE AT 2000. FILTERS AT 3146, 2494, 2000, 1146, 698, 497 CM^-^1
##STATE=SOLID (0.4% IN 390 mg KBr DISC)
##SAMPLING PROCEDURE=TRANSMISSION
##RESOLUTION=2
##DATA PROCESSING=DIGITIZED BY COBLENTZ SOCIETY (BATCH I) FROM HARD COPY
##XUNITS=1/CM
##YUNITS=TRANSMITTANCE
##XLABEL=Wavenumbers (cm-1)
##YLABEL=Transmittance
##XFACTOR=1
##YFACTOR=1
##DELTAX=1
##FIRSTX=4000
##LASTX=356
##FIRSTY=0.6408
##MAXX=4000
##MINX=356
##MAXY=0.9717
##MINY=0.1528
##NPOINTS=3645
##XYDATA=(X++(Y..Y))
4000.000000 0.6408 0.6408 0.6410 0.6410 0.6411
3995.000000 0.6411 0.6412 0.6412 0.6414 0.6415
3990.000000 0.6415 0.6415 0.6417 0.6418 0.6418
3985.000000 0.6418 0.6419 0.6421 0.6421 0.6421
3980.000000 0.6421 0.6419 0.6419 0.6418 0.6418
3975.000000 0.6418 0.6418 0.6417 0.6417 0.6415
3970.000000 0.6415 0.6415 0.6415 0.6415 0.6415
3965.000000 0.6415 0.6417 0.6418 0.6418 0.6419
3960.000000 0.6421 0.6421 0.6422 0.6422 0.6424
3955.000000 0.6424 0.6425 0.6425 0.6425 0.6425
3950.000000 0.6425 0.6425 0.6425 0.6425 0.6426
3945.000000 0.6426 0.6426 0.6426 0.6428 0.6428
3940.000000 0.6428 0.6428 0.6428 0.6428 0.6428
3935.000000 0.6428 0.6430 0.6430 0.6430 0.6430
3930.000000 0.6431 0.6431 0.6432 0.6433 0.6434
3925.000000 0.6434 0.6435 0.6435 0.6436 0.6436
3920.000000 0.6437 0.6438 0.6439 0.6439 0.6440
3915.000000 0.6440 0.6441 0.6442 0.6443 0.6443
3910.000000 0.6444 0.6444 0.6445 0.6446 0.6447
3905.000000 0.6447 0.6448 0.6448 0.6449 0.6450
3900.000000 0.6451 0.6451 0.6451 0.6453 0.6454
3895.000000 0.6455 0.6456 0.6456 0.6457 0.6458
3890.000000 0.6458 0.6460 0.6461 0.6461 0.6461
3885.000000 0.6462 0.6464 0.6465 0.6465 0.6467
3880.000000 0.6468 0.6468 0.6468 0.6469 0.6471
3875.000000 0.6471 0.6472 0.6472 0.6474 0.6475
3870.000000 0.6475 0.6476 0.6478 0.6478 0.6478
3865.000000 0.6480 0.6481 0.6481 0.6482 0.6482
3860.000000 0.6483 0.6483 0.6484 0.6484 0.6484
3855.000000 0.6484 0.6485 0.6485 0.6486 0.6486
3850.000000 0.6487 0.6487 0.6488 0.6488 0.6489
3845.000000 0.6489 0.6489 0.6489 0.6490 0.6490
3840.000000 0.6491 0.6491 0.6492 0.6492 0.6493
3835.000000 0.6493 0.6494 0.6494 0.6494 0.6494
3830.000000 0.6495 0.6495 0.6496 0.6496 0.6497
3825.000000 0.6497 0.6497 0.6497 0.6498 0.6498
3820.000000 0.6498 0.6498 0.6498 0.6498 0.6499
3815.000000 0.6499 0.6499 0.6499 0.6500 0.6500
3810.000000 0.6500 0.6500 0.6500 0.6500 0.6501
3805.000000 0.6501 0.6501 0.6501 0.6501 0.6501
3800.000000 0.6501 0.6501 0.6501 0.6501 0.6503
3795.000000 0.6503 0.6503 0.6503 0.6504 0.6504
3790.000000 0.6504 0.6504 0.6504 0.6504 0.6505
3785.000000 0.6505 0.6505 0.6505 0.6506 0.6506
3780.000000 0.6506 0.6506 0.6506 0.6506 0.6507
3775.000000 0.6507 0.6507 0.6507 0.6508 0.6508
3770.000000 0.6508 0.6508 0.6508 0.6508 0.6510
3765.000000 0.6510 0.6511 0.6511 0.6511 0.6512
3760.000000 0.6514 0.6514 0.6515 0.6515 0.6517
3755.000000 0.6517 0.6518 0.6518 0.6518 0.6519
3750.000000 0.6521 0.6521 0.6521 0.6521 0.6522
3745.000000 0.6524 0.6525 0.6525 0.6525 0.6525
3740.000000 0.6526 0.6528 0.6528 0.6528 0.6530
3735.000000 0.6530 0.6531 0.6532 0.6533 0.6533
3730.000000 0.6534 0.6534 0.6535 0.6536 0.6537
3725.000000 0.6537 0.6538 0.6538 0.6539 0.6540
3720.000000 0.6541 0.6541 0.6542 0.6542 0.6543
3715.000000 0.6544 0.6545 0.6545 0.6546 0.6546
3710.000000 0.6547 0.6548 0.6549 0.6549 0.6549
3705.000000 0.6549 0.6549 0.6549 0.6549 0.6549
3700.000000 0.6550 0.6550 0.6550 0.6550 0.6550
3695.000000 0.6550 0.6550 0.6550 0.6550 0.6550
3690.000000 0.6551 0.6551 0.6551 0.6551 0.6551
3685.000000 0.6551 0.6551 0.6551 0.6551 0.6551
3680.000000 0.6551 0.6551 0.6551 0.6551 0.6551
3675.000000 0.6551 0.6551 0.6551 0.6551 0.6551
3670.000000 0.6553 0.6553 0.6553 0.6553 0.6553
3665.000000 0.6553 0.6553 0.6553 0.6553 0.6553
3660.000000 0.6554 0.6554 0.6554 0.6554 0.6554
3655.000000 0.6554 0.6554 0.6554 0.6555 0.6555
3650.000000 0.6555 0.6555 0.6555 0.6555 0.6555
3645.000000 0.6555 0.6555 0.6555 0.6556 0.6556
3640.000000 0.6556 0.6556 0.6556 0.6556 0.6556
3635.000000 0.6556 0.6556 0.6556 0.6556 0.6556
3630.000000 0.6557 0.6557 0.6557 0.6557 0.6557
3625.000000 0.6557 0.6557 0.6557 0.6557 0.6557
3620.000000 0.6557 0.6557 0.6557 0.6557 0.6558
3615.000000 0.6558 0.6558 0.6558 0.6558 0.6558
3610.000000 0.6558 0.6558 0.6558 0.6558 0.6558
3605.000000 0.6558 0.6558 0.6558 0.6558 0.6558
3600.000000 0.6558 0.6558 0.6558 0.6558 0.6558
3595.000000 0.6558 0.6558 0.6558 0.6558 0.6558
3590.000000 0.6560 0.6560 0.6560 0.6560 0.6560
3585.000000 0.6560 0.6560 0.6561 0.6561 0.6561
3580.000000 0.6562 0.6562 0.6564 0.6565 0.6565
3575.000000 0.6565 0.6567 0.6567 0.6568 0.6568
3570.000000 0.6568 0.6569 0.6571 0.6571 0.6571
3565.000000 0.6571 0.6572 0.6572 0.6574 0.6575
3560.000000 0.6575 0.6575 0.6576 0.6576 0.6578
3555.000000 0.6578 0.6580 0.6580 0.6581 0.6581
3550.000000 0.6582 0.6582 0.6583 0.6584 0.6585
3545.000000 0.6585 0.6586 0.6586 0.6587 0.6587
3540.000000 0.6588 0.6589 0.6590 0.6590 0.6591
3535.000000 0.6591 0.6592 0.6593 0.6594 0.6594
3530.000000 0.6595 0.6595 0.6596 0.6596 0.6597
3525.000000 0.6598 0.6599 0.6599 0.6600 0.6600
3520.000000 0.6601 0.6601 0.6601 0.6601 0.6603
3515.000000 0.6604 0.6605 0.6605 0.6606 0.6606
3510.000000 0.6607 0.6607 0.6608 0.6608 0.6608
3505.000000 0.6608 0.6610 0.6611 0.6611 0.6611
3500.000000 0.6612 0.6612 0.6614 0.6614 0.6615
3495.000000 0.6615 0.6615 0.6617 0.6618 0.6618
3490.000000 0.6618 0.6618 0.6619 0.6619 0.6621
3485.000000 0.6621 0.6621 0.6622 0.6624 0.6624
3480.000000 0.6625 0.6625 0.6625 0.6625 0.6626
3475.000000 0.6626 0.6628 0.6628 0.6628 0.6628
3470.000000 0.6630 0.6630 0.6631 0.6631 0.6631
3465.000000 0.6631 0.6631 0.6631 0.6632 0.6632
3460.000000 0.6632 0.6632 0.6633 0.6633 0.6633
3455.000000 0.6633 0.6633 0.6633 0.6634 0.6634
3450.000000 0.6634 0.6634 0.6634 0.6634 0.6635
3445.000000 0.6635 0.6635 0.6635 0.6636 0.6636
3440.000000 0.6636 0.6636 0.6636 0.6636 0.6636
3435.000000 0.6636 0.6636 0.6636 0.6636 0.6636
3430.000000 0.6636 0.6636 0.6636 0.6636 0.6636
3425.000000 0.6636 0.6636 0.6636 0.6636 0.6636
3420.000000 0.6636 0.6636 0.6636 0.6636 0.6636
3415.000000 0.6636 0.6636 0.6636 0.6636 0.6636
3410.000000 0.6636 0.6636 0.6636 0.6636 0.6636
3405.000000 0.6636 0.6637 0.6637 0.6637 0.6637
3400.000000 0.6637 0.6637 0.6637 0.6637 0.6637
3395.000000 0.6636 0.6636 0.6634 0.6633 0.6631
3390.000000 0.6630 0.6628 0.6628 0.6625 0.6625
3385.000000 0.6622 0.6621 0.6619 0.6618 0.6618
3380.000000 0.6617 0.6615 0.6614 0.6611 0.6611
3375.000000 0.6610 0.6608 0.6607 0.6606 0.6604
3370.000000 0.6603 0.6601 0.6600 0.6599 0.6598
3365.000000 0.6597 0.6596 0.6595 0.6594 0.6593
3360.000000 0.6592 0.6591 0.6590 0.6589 0.6588
3355.000000 0.6587 0.6587 0.6586 0.6585 0.6584
3350.000000 0.6583 0.6582 0.6581 0.6580 0.6578
3345.000000 0.6578 0.6576 0.6575 0.6575 0.6575
3340.000000 0.6576 0.6576 0.6576 0.6576 0.6578
3335.000000 0.6578 0.6578 0.6578 0.6578 0.6578
3330.000000 0.6578 0.6578 0.6580 0.6580 0.6580
3325.000000 0.6580 0.6581 0.6581 0.6581 0.6581
3320.000000 0.6582 0.6582 0.6582 0.6582 0.6583
3315.000000 0.6583 0.6583 0.6583 0.6584 0.6584
3310.000000 0.6584 0.6584 0.6584 0.6585 0.6586
3305.000000 0.6586 0.6587 0.6588 0.6589 0.6590
3300.000000 0.6591 0.6591 0.6592 0.6593 0.6594
3295.000000 0.6595 0.6596 0.6596 0.6597 0.6598
3290.000000 0.6599 0.6600 0.6601 0.6601 0.6603
3285.000000 0.6603 0.6604 0.6605 0.6606 0.6607
3280.000000 0.6608 0.6608 0.6608 0.6610 0.6611
3275.000000 0.6611 0.6612 0.6612 0.6614 0.6615
3270.000000 0.6615 0.6617 0.6618 0.6618 0.6621
3265.000000 0.6621 0.6622 0.6624 0.6625 0.6625
3260.000000 0.6626 0.6628 0.6630 0.6631 0.6632
3255.000000 0.6633 0.6634 0.6635 0.6636 0.6637
3250.000000 0.6638 0.6639 0.6641 0.6642 0.6643
3245.000000 0.6644 0.6645 0.6646 0.6647 0.6648
3240.000000 0.6649 0.6650 0.6651 0.6653 0.6654
3235.000000 0.6655 0.6657 0.6658 0.6660 0.6661
3230.000000 0.6662 0.6664 0.6665 0.6667 0.6668
3225.000000 0.6671 0.6672 0.6674 0.6675 0.6676
3220.000000 0.6678 0.6680 0.6682 0.6683 0.6685
3215.000000 0.6686 0.6688 0.6689 0.6691 0.6692
3210.000000 0.6694 0.6695 0.6697 0.6698 0.6700
3205.000000 0.6701 0.6703 0.6705 0.6707 0.6708
3200.000000 0.6710 0.6711 0.6712 0.6714 0.6715
3195.000000 0.6717 0.6718 0.6721 0.6722 0.6724
3190.000000 0.6725 0.6728 0.6730 0.6731 0.6733
3185.000000 0.6735 0.6737 0.6738 0.6740 0.6742
3180.000000 0.6744 0.6745 0.6747 0.6749 0.6751
3175.000000 0.6751 0.6754 0.6756 0.6758 0.6758
3170.000000 0.6761 0.6762 0.6765 0.6765 0.6768
3165.000000 0.6769 0.6771 0.6772 0.6774 0.6774
3160.000000 0.6775 0.6775 0.6776 0.6776 0.6778
3155.000000 0.6778 0.6778 0.6780 0.6781 0.6781
3150.000000 0.6782 0.6783 0.6784 0.6784 0.6785
3145.000000 0.6785 0.6786 0.6787 0.6788 0.6788
3140.000000 0.6789 0.6790 0.6791 0.6791 0.6792
3135.000000 0.6792 0.6793 0.6794 0.6796 0.6797
3130.000000 0.6799 0.6800 0.6801 0.6801 0.6803
3125.000000 0.6804 0.6806 0.6807 0.6808 0.6808
3120.000000 0.6810 0.6811 0.6812 0.6812 0.6814
3115.000000 0.6814 0.6814 0.6814 0.6814 0.6814
3110.000000 0.6814 0.6814 0.6815 0.6815 0.6815
3105.000000 0.6815 0.6817 0.6817 0.6817 0.6817
3100.000000 0.6817 0.6817 0.6817 0.6815 0.6815
3095.000000 0.6815 0.6814 0.6811 0.6811 0.6808
3090.000000 0.6826 0.6806 0.6805 0.6803 0.6801
3085.000000 0.6799 0.6798 0.6782 0.6767 0.6747
3080.000000 0.6728 0.6706 0.6684 0.6661 0.6638
3075.000000 0.6614 0.6590 0.6561 0.6535 0.6506
3070.000000 0.6478 0.6428 0.6381 0.6243 0.6106
3065.000000 0.6083 0.6060 0.6037 0.6015 0.6005
3060.000000 0.5969 0.5991 0.5987 0.5999 0.6010
3055.000000 0.6028 0.6046 0.6082 0.6119 0.6143
3050.000000 0.6167 0.6191 0.6215 0.6240 0.6266
3045.000000 0.6316 0.6367 0.6396 0.6425 0.6444
3040.000000 0.6462 0.6478 0.6494 0.6500 0.6506
3035.000000 0.6511 0.6515 0.6519 0.6524 0.6525
3030.000000 0.6528 0.6531 0.6533 0.6534 0.6535
3025.000000 0.6535 0.6535 0.6532 0.6530 0.6514
3020.000000 0.6499 0.6465 0.6434 0.6415 0.6398
3015.000000 0.6396 0.6395 0.6399 0.6404 0.6408
3010.000000 0.6415 0.6421 0.6430 0.6445 0.6460
3005.000000 0.6475 0.6490 0.6497 0.6505 0.6508
3000.000000 0.6512 0.6517 0.6521 0.6525 0.6528
2995.000000 0.6533 0.6537 0.6541 0.6545 0.6549
2990.000000 0.6553 0.6557 0.6561 0.6567 0.6572
2985.000000 0.6578 0.6583 0.6588 0.6594 0.6599
2980.000000 0.6605 0.6611 0.6618 0.6624 0.6631
2975.000000 0.6638 0.6645 0.6650 0.6655 0.6658
2970.000000 0.6662 0.6665 0.6669 0.6672 0.6676
2965.000000 0.6680 0.6683 0.6685 0.6688 0.6690
2960.000000 0.6692 0.6692 0.6693 0.6693 0.6693
2955.000000 0.6693 0.6694 0.6694 0.6695 0.6695
2950.000000 0.6695 0.6695 0.6696 0.6696 0.6697
2945.000000 0.6697 0.6698 0.6698 0.6698 0.6698
2940.000000 0.6699 0.6699 0.6700 0.6700 0.6701
2935.000000 0.6701 0.6701 0.6701 0.6701 0.6701
2930.000000 0.6703 0.6704 0.6705 0.6705 0.6706
2925.000000 0.6706 0.6707 0.6708 0.6708 0.6708
2920.000000 0.6710 0.6711 0.6711 0.6711 0.6712
2915.000000 0.6714 0.6715 0.6715 0.6715 0.6717
2910.000000 0.6718 0.6718 0.6718 0.6719 0.6721
2905.000000 0.6721 0.6721 0.6724 0.6725 0.6728
2900.000000 0.6730 0.6732 0.6734 0.6735 0.6737
2895.000000 0.6739 0.6741 0.6743 0.6745 0.6747
2890.000000 0.6749 0.6750 0.6751 0.6753 0.6755
2885.000000 0.6757 0.6758 0.6760 0.6761 0.6762
2880.000000 0.6765 0.6767 0.6768 0.6769 0.6771
2875.000000 0.6772 0.6775 0.6775 0.6775 0.6776
2870.000000 0.6778 0.6778 0.6778 0.6778 0.6780
2865.000000 0.6780 0.6781 0.6782 0.6783 0.6783
2860.000000 0.6784 0.6784 0.6785 0.6787 0.6789
2855.000000 0.6791 0.6794 0.6796 0.6799 0.6801
2850.000000 0.6804 0.6806 0.6808 0.6811 0.6814
2845.000000 0.6818 0.6824 0.6828 0.6835 0.6840
2840.000000 0.6846 0.6851 0.6856 0.6861 0.6867
2835.000000 0.6871 0.6878 0.6882 0.6887 0.6889
2830.000000 0.6891 0.6893 0.6895 0.6897 0.6900
2825.000000 0.6901 0.6904 0.6906 0.6908 0.6910
2820.000000 0.6912 0.6915 0.6917 0.6918 0.6921
2815.000000 0.6921 0.6922 0.6924 0.6925 0.6926
2810.000000 0.6928 0.6928 0.6931 0.6932 0.6933
2805.000000 0.6934 0.6935 0.6936 0.6938 0.6939
2800.000000 0.6940 0.6941 0.6942 0.6943 0.6944
2795.000000 0.6945 0.6947 0.6951 0.6955 0.6958
2790.000000 0.6961 0.6965 0.6969 0.6972 0.6976
2785.000000 0.6980 0.6984 0.6988 0.6992 0.6995
2780.000000 0.6999 0.7003 0.7007 0.7010 0.7014
2775.000000 0.7015 0.7017 0.7017 0.7017 0.7017
2770.000000 0.7018 0.7018 0.7018 0.7018 0.7018
2765.000000 0.7018 0.7018 0.7018 0.7018 0.7018
2760.000000 0.7019 0.7019 0.7019 0.7019 0.7021
2755.000000 0.7021 0.7021 0.7021 0.7021 0.7021
2750.000000 0.7021 0.7021 0.7021 0.7021 0.7021
2745.000000 0.7021 0.7021 0.7021 0.7021 0.7021
2740.000000 0.7021 0.7021 0.7021 0.7019 0.7019
2735.000000 0.7019 0.7019 0.7018 0.7018 0.7018
2730.000000 0.7018 0.7018 0.7018 0.7018 0.7018
2725.000000 0.7018 0.7019 0.7021 0.7021 0.7022
2720.000000 0.7024 0.7025 0.7026 0.7028 0.7028
2715.000000 0.7030 0.7031 0.7032 0.7034 0.7035
2710.000000 0.7036 0.7037 0.7038 0.7039 0.7041
2705.000000 0.7042 0.7043 0.7044 0.7045 0.7046
2700.000000 0.7048 0.7049 0.7050 0.7051 0.7051
2695.000000 0.7053 0.7055 0.7056 0.7057 0.7058
2690.000000 0.7060 0.7061 0.7062 0.7065 0.7067
2685.000000 0.7068 0.7071 0.7072 0.7075 0.7076
2680.000000 0.7078 0.7080 0.7082 0.7084 0.7086
2675.000000 0.7088 0.7090 0.7092 0.7094 0.7096
2670.000000 0.7098 0.7100 0.7101 0.7103 0.7104
2665.000000 0.7105 0.7107 0.7108 0.7110 0.7111
2660.000000 0.7112 0.7114 0.7115 0.7117 0.7118
2655.000000 0.7119 0.7121 0.7122 0.7125 0.7125
2650.000000 0.7128 0.7128 0.7131 0.7132 0.7134
2645.000000 0.7135 0.7137 0.7138 0.7140 0.7141
2640.000000 0.7143 0.7144 0.7146 0.7146 0.7147
2635.000000 0.7147 0.7147 0.7147 0.7147 0.7147
2630.000000 0.7147 0.7147 0.7147 0.7147 0.7147
2625.000000 0.7147 0.7148 0.7148 0.7149 0.7150
2620.000000 0.7151 0.7151 0.7151 0.7151 0.7153
2615.000000 0.7153 0.7154 0.7154 0.7155 0.7155
2610.000000 0.7156 0.7156 0.7157 0.7157 0.7158
2605.000000 0.7158 0.7158 0.7158 0.7160 0.7160
2600.000000 0.7161 0.7161 0.7161 0.7161 0.7162
2595.000000 0.7164 0.7165 0.7165 0.7168 0.7168
2590.000000 0.7171 0.7171 0.7174 0.7175 0.7176
2585.000000 0.7178 0.7180 0.7181 0.7183 0.7184
2580.000000 0.7186 0.7187 0.7189 0.7190 0.7192
2575.000000 0.7193 0.7195 0.7196 0.7198 0.7199
2570.000000 0.7201 0.7201 0.7204 0.7205 0.7207
2565.000000 0.7208 0.7210 0.7211 0.7212 0.7214
2560.000000 0.7215 0.7217 0.7218 0.7218 0.7219
2555.000000 0.7221 0.7221 0.7222 0.7224 0.7225
2550.000000 0.7226 0.7228 0.7228 0.7230 0.7231
2545.000000 0.7232 0.7233 0.7234 0.7235 0.7236
2540.000000 0.7237 0.7238 0.7240 0.7241 0.7242
2535.000000 0.7243 0.7244 0.7245 0.7246 0.7247
2530.000000 0.7248 0.7249 0.7251 0.7251 0.7253
2525.000000 0.7254 0.7255 0.7256 0.7257 0.7258
2520.000000 0.7258 0.7260 0.7261 0.7262 0.7264
2515.000000 0.7265 0.7265 0.7267 0.7268 0.7269
2510.000000 0.7271 0.7274 0.7275 0.7276 0.7278
2505.000000 0.7281 0.7283 0.7284 0.7286 0.7288
2500.000000 0.7290 0.7291 0.7293 0.7295 0.7297
2495.000000 0.7299 0.7301 0.7301 0.7304 0.7306
2490.000000 0.7308 0.7308 0.7311 0.7312 0.7315
2485.000000 0.7315 0.7318 0.7319 0.7321 0.7322
2480.000000 0.7325 0.7326 0.7328 0.7330 0.7332
2475.000000 0.7334 0.7336 0.7337 0.7339 0.7341
2470.000000 0.7343 0.7345 0.7348 0.7350 0.7353
2465.000000 0.7355 0.7357 0.7358 0.7361 0.7364
2460.000000 0.7367 0.7368 0.7371 0.7372 0.7375
2455.000000 0.7378 0.7381 0.7383 0.7385 0.7387
2450.000000 0.7390 0.7392 0.7395 0.7397 0.7399
2445.000000 0.7401 0.7404 0.7406 0.7408 0.7411
2440.000000 0.7412 0.7415 0.7417 0.7418 0.7419
2435.000000 0.7421 0.7424 0.7425 0.7428 0.7430
2430.000000 0.7432 0.7433 0.7435 0.7437 0.7439
2425.000000 0.7441 0.7443 0.7445 0.7447 0.7448
2420.000000 0.7450 0.7451 0.7454 0.7456 0.7458
2415.000000 0.7458 0.7461 0.7462 0.7465 0.7467
2410.000000 0.7468 0.7471 0.7472 0.7474 0.7475
2405.000000 0.7478 0.7480 0.7482 0.7484 0.7485
2400.000000 0.7487 0.7488 0.7489 0.7490 0.7491
2395.000000 0.7492 0.7493 0.7494 0.7495 0.7496
2390.000000 0.7497 0.7498 0.7499 0.7500 0.7501
2385.000000 0.7501 0.7503 0.7504 0.7505 0.7506
2380.000000 0.7507 0.7508 0.7508 0.7510 0.7511
2375.000000 0.7511 0.7512 0.7514 0.7515 0.7515
2370.000000 0.7517 0.7518 0.7518 0.7519 0.7521
2365.000000 0.7521 0.7524 0.7525 0.7525 0.7526
2360.000000 0.7528 0.7528 0.7530 0.7531 0.7532
2355.000000 0.7533 0.7534 0.7535 0.7536 0.7537
2350.000000 0.7538 0.7539 0.7540 0.7541 0.7542
2345.000000 0.7543 0.7544 0.7545 0.7546 0.7547
2340.000000 0.7548 0.7549 0.7550 0.7551 0.7551
2335.000000 0.7553 0.7554 0.7554 0.7555 0.7555
2330.000000 0.7556 0.7556 0.7556 0.7556 0.7557
2325.000000 0.7557 0.7557 0.7557 0.7557 0.7557
2320.000000 0.7558 0.7558 0.7558 0.7558 0.7558
2315.000000 0.7558 0.7558 0.7558 0.7558 0.7558
2310.000000 0.7560 0.7560 0.7560 0.7560 0.7561
2305.000000 0.7562 0.7565 0.7567 0.7568 0.7571
2300.000000 0.7574 0.7575 0.7578 0.7581 0.7583
2295.000000 0.7585 0.7588 0.7590 0.7592 0.7594
2290.000000 0.7597 0.7599 0.7601 0.7601 0.7604
2285.000000 0.7605 0.7606 0.7607 0.7608 0.7608
2280.000000 0.7611 0.7611 0.7614 0.7615 0.7617
2275.000000 0.7618 0.7619 0.7621 0.7622 0.7624
2270.000000 0.7625 0.7626 0.7628 0.7630 0.7632
2265.000000 0.7633 0.7635 0.7636 0.7638 0.7640
2260.000000 0.7643 0.7646 0.7649 0.7651 0.7655
2255.000000 0.7657 0.7660 0.7662 0.7665 0.7668
2250.000000 0.7671 0.7675 0.7678 0.7681 0.7684
2245.000000 0.7687 0.7690 0.7693 0.7696 0.7699
2240.000000 0.7701 0.7705 0.7708 0.7711 0.7714
2235.000000 0.7715 0.7718 0.7719 0.7722 0.7725
2230.000000 0.7726 0.7728 0.7731 0.7733 0.7736
2225.000000 0.7738 0.7740 0.7742 0.7745 0.7747
2220.000000 0.7749 0.7751 0.7754 0.7756 0.7758
2215.000000 0.7760 0.7762 0.7765 0.7767 0.7768
2210.000000 0.7771 0.7772 0.7775 0.7778 0.7780
2205.000000 0.7782 0.7785 0.7787 0.7789 0.7791
2200.000000 0.7793 0.7794 0.7795 0.7796 0.7798
2195.000000 0.7799 0.7800 0.7801 0.7803 0.7804
2190.000000 0.7806 0.7807 0.7808 0.7808 0.7811
2185.000000 0.7811 0.7814 0.7815 0.7815 0.7817
2180.000000 0.7818 0.7819 0.7821 0.7822 0.7824
2175.000000 0.7825 0.7826 0.7828 0.7828 0.7830
2170.000000 0.7832 0.7833 0.7835 0.7836 0.7838
2165.000000 0.7839 0.7841 0.7843 0.7845 0.7847
2160.000000 0.7849 0.7850 0.7851 0.7854 0.7856
2155.000000 0.7858 0.7860 0.7861 0.7862 0.7865
2150.000000 0.7867 0.7868 0.7871 0.7871 0.7874
2145.000000 0.7875 0.7878 0.7878 0.7881 0.7883
2140.000000 0.7885 0.7887 0.7889 0.7890 0.7892
2135.000000 0.7894 0.7896 0.7898 0.7900 0.7901
2130.000000 0.7903 0.7905 0.7907 0.7908 0.7911
2125.000000 0.7914 0.7915 0.7918 0.7919 0.7921
2120.000000 0.7924 0.7925 0.7928 0.7930 0.7932
2115.000000 0.7934 0.7936 0.7938 0.7940 0.7942
2110.000000 0.7944 0.7946 0.7948 0.7950 0.7953
2105.000000 0.7955 0.7957 0.7958 0.7961 0.7962
2100.000000 0.7965 0.7967 0.7968 0.7971 0.7972
2095.000000 0.7975 0.7976 0.7978 0.7981 0.7983
2090.000000 0.7985 0.7987 0.7989 0.7991 0.7993
2085.000000 0.7995 0.7997 0.7999 0.8001 0.8003
2080.000000 0.8005 0.8007 0.8008 0.8011 0.8012
2075.000000 0.8015 0.8017 0.8018 0.8021 0.8022
2070.000000 0.8025 0.8026 0.8028 0.8031 0.8033
2065.000000 0.8035 0.8037 0.8038 0.8040 0.8042
2060.000000 0.8044 0.8046 0.8048 0.8050 0.8051
2055.000000 0.8054 0.8056 0.8058 0.8060 0.8061
2050.000000 0.8064 0.8065 0.8068 0.8069 0.8071
2045.000000 0.8074 0.8075 0.8078 0.8080 0.8082
2040.000000 0.8084 0.8086 0.8088 0.8090 0.8092
2035.000000 0.8094 0.8096 0.8098 0.8100 0.8101
2030.000000 0.8105 0.8107 0.8110 0.8111 0.8115
2025.000000 0.8117 0.8119 0.8121 0.8125 0.8126
2020.000000 0.8128 0.8131 0.8134 0.8136 0.8139
2015.000000 0.8141 0.8144 0.8146 0.8149 0.8151
2010.000000 0.8154 0.8154 0.8155 0.8156 0.8157
2005.000000 0.8157 0.8158 0.8158 0.8158 0.8160
2000.000000 0.8161 0.8162 0.8164 0.8165 0.8165
1995.000000 0.8165 0.8165 0.8165 0.8167 0.8167
1990.000000 0.8165 0.8162 0.8160 0.8158 0.8156
1985.000000 0.8154 0.8151 0.8145 0.8135 0.8124
1980.000000 0.8112 0.8101 0.8092 0.8081 0.8069
1975.000000 0.8061 0.8051 0.8044 0.8035 0.8034
1970.000000 0.8033 0.8032 0.8031 0.8030 0.8028
1965.000000 0.8028 0.8026 0.8025 0.8025 0.8025
1960.000000 0.8025 0.8025 0.8025 0.8025 0.8025
1955.000000 0.8025 0.8026 0.8028 0.8030 0.8031
1950.000000 0.8032 0.8038 0.8046 0.8054 0.8061
1945.000000 0.8071 0.8081 0.8091 0.8101 0.8111
1940.000000 0.8118 0.8124 0.8128 0.8133 0.8135
1935.000000 0.8136 0.8138 0.8139 0.8141 0.8142
1930.000000 0.8144 0.8145 0.8146 0.8146 0.8145
1925.000000 0.8145 0.8145 0.8145 0.8144 0.8140
1920.000000 0.8137 0.8133 0.8130 0.8125 0.8122
1915.000000 0.8103 0.8083 0.8080 0.8078 0.8075
1910.000000 0.8074 0.8071 0.8071 0.8069 0.8071
1905.000000 0.8075 0.8078 0.8082 0.8086 0.8089
1900.000000 0.8092 0.8095 0.8098 0.8098 0.8095
1895.000000 0.8093 0.8091 0.8089 0.8087 0.8085
1890.000000 0.8078 0.8068 0.8057 0.8058 0.8058
1885.000000 0.8061 0.8065 0.8072 0.8082 0.8091
1880.000000 0.8100 0.8108 0.8117 0.8125 0.8135
1875.000000 0.8144 0.8153 0.8161 0.8169 0.8178
1870.000000 0.8188 0.8198 0.8211 0.8224 0.8237
1865.000000 0.8250 0.8262 0.8267 0.8271 0.8275
1860.000000 0.8278 0.8284 0.8287 0.8289 0.8291
1855.000000 0.8293 0.8294 0.8294 0.8295 0.8292
1850.000000 0.8288 0.8284 0.8281 0.8277 0.8274
1845.000000 0.8270 0.8267 0.8263 0.8259 0.8256
1840.000000 0.8252 0.8249 0.8245 0.8245 0.8246
1835.000000 0.8246 0.8247 0.8247 0.8248 0.8248
1830.000000 0.8248 0.8249 0.8249 0.8250 0.8250
1825.000000 0.8251 0.8251 0.8252 0.8252 0.8253
1820.000000 0.8253 0.8254 0.8254 0.8255 0.8255
1815.000000 0.8256 0.8256 0.8256 0.8254 0.8252
1810.000000 0.8249 0.8247 0.8244 0.8242 0.8233
1805.000000 0.8221 0.8210 0.8201 0.8199 0.8197
1800.000000 0.8194 0.8192 0.8190 0.8189 0.8188
1795.000000 0.8189 0.8194 0.8199 0.8204 0.8209
1790.000000 0.8221 0.8235 0.8249 0.8263 0.8271
1785.000000 0.8277 0.8282 0.8287 0.8292 0.8298
1780.000000 0.8303 0.8308 0.8314 0.8317 0.8318
1775.000000 0.8321 0.8325 0.8327 0.8328 0.8331
1770.000000 0.8332 0.8334 0.8335 0.8337 0.8338
1765.000000 0.8338 0.8336 0.8320 0.8305 0.8289
1760.000000 0.8273 0.8258 0.8244 0.8230 0.8230
1755.000000 0.8231 0.8234 0.8237 0.8240 0.8243
1750.000000 0.8247 0.8250 0.8254 0.8259 0.8264
1745.000000 0.8268 0.8273 0.8277 0.8282 0.8287
1740.000000 0.8289 0.8290 0.8291 0.8292 0.8293
1735.000000 0.8294 0.8295 0.8296 0.8297 0.8298
1730.000000 0.8299 0.8300 0.8301 0.8303 0.8305
1725.000000 0.8308 0.8310 0.8312 0.8308 0.8302
1720.000000 0.8297 0.8292 0.8289 0.8285 0.8281
1715.000000 0.8278 0.8274 0.8270 0.8267 0.8263
1710.000000 0.8259 0.8255 0.8252 0.8248 0.8244
1705.000000 0.8241 0.8240 0.8240 0.8239 0.8238
1700.000000 0.8237 0.8237 0.8236 0.8235 0.8235
1695.000000 0.8234 0.8233 0.8233 0.8235 0.8238
1690.000000 0.8242 0.8245 0.8248 0.8251 0.8254
1685.000000 0.8257 0.8260 0.8263 0.8267 0.8270
1680.000000 0.8273 0.8275 0.8278 0.8284 0.8288
1675.000000 0.8293 0.8297 0.8302 0.8306 0.8311
1670.000000 0.8315 0.8318 0.8324 0.8328 0.8332
1665.000000 0.8336 0.8341 0.8345 0.8353 0.8363
1660.000000 0.8371 0.8382 0.8391 0.8401 0.8410
1655.000000 0.8418 0.8428 0.8438 0.8447 0.8457
1650.000000 0.8468 0.8480 0.8491 0.8502 0.8513
1645.000000 0.8521 0.8525 0.8528 0.8528 0.8528
1640.000000 0.8525 0.8523 0.8521 0.8518 0.8515
1635.000000 0.8513 0.8513 0.8514 0.8514 0.8514
1630.000000 0.8514 0.8515 0.8515 0.8515 0.8515
1625.000000 0.8517 0.8518 0.8521 0.8524 0.8525
1620.000000 0.8528 0.8532 0.8536 0.8541 0.8545
1615.000000 0.8549 0.8553 0.8558 0.8562 0.8567
1610.000000 0.8546 0.8575 0.8578 0.8580 0.8583
1605.000000 0.8585 0.8589 0.8594 0.8599 0.8599
1600.000000 0.8597 0.8596 0.8594 0.8592 0.8585
1595.000000 0.8577 0.8568 0.8558 0.8412 0.8366
1590.000000 0.8349 0.8339 0.8337 0.8331 0.8341
1585.000000 0.8351 0.8392 0.8507 0.8537 0.8549
1580.000000 0.8558 0.8559 0.8560 0.8561 0.8566
1575.000000 0.8575 0.8586 0.8600 0.8621 0.8654
1570.000000 0.8689 0.8696 0.8693 0.8660 0.8612
1565.000000 0.8600 0.8600 0.8600 0.8603 0.8593
1560.000000 0.8378 0.8165 0.7951 0.7737 0.7574
1555.000000 0.7557 0.7578 0.7693 0.7817 0.7942
1550.000000 0.8067 0.8192 0.8317 0.8404 0.8457
1545.000000 0.8500 0.8543 0.8587 0.8627 0.8637
1540.000000 0.8645 0.8651 0.8658 0.8664 0.8670
1535.000000 0.8675 0.8677 0.8678 0.8678 0.8683
1530.000000 0.8688 0.8693 0.8698 0.8706 0.8716
1525.000000 0.8725 0.8735 0.8741 0.8744 0.8747
1520.000000 0.8762 0.8753 0.8689 0.8232 0.7775
1515.000000 0.7318 0.6861 0.6406 0.6046 0.6142
1510.000000 0.6461 0.6783 0.7104 0.7425 0.7607
1505.000000 0.7626 0.7638 0.7625 0.7575 0.7538
1500.000000 0.7510 0.7575 0.7719 0.7864 0.8008
1495.000000 0.8151 0.8296 0.8441 0.8585 0.8728
1490.000000 0.8873 0.9017 0.9134 0.9125 0.9139
1485.000000 0.7545 0.6455 0.5365 0.4275 0.3184
1480.000000 0.2095 0.1528 0.1785 0.2411 0.3034
1475.000000 0.3659 0.4284 0.4909 0.5591 0.6036
1470.000000 0.6286 0.6381 0.6475 0.6601 0.6725
1465.000000 0.6851 0.6975 0.7101 0.7225 0.7325
1460.000000 0.7351 0.6961 0.6467 0.5973 0.5479
1455.000000 0.4984 0.4530 0.4567 0.5771 0.7010
1450.000000 0.7283 0.7295 0.6828 0.6407 0.5986
1445.000000 0.5753 0.5752 0.5971 0.6301 0.6631
1440.000000 0.6961 0.7278 0.7232 0.5939 0.4627
1435.000000 0.3314 0.2476 0.2463 0.2672 0.3339
1430.000000 0.4005 0.4672 0.5338 0.5530 0.5701
1425.000000 0.5872 0.6534 0.6637 0.6712 0.6799
1420.000000 0.6868 0.6907 0.6941 0.6948 0.6948
1415.000000 0.6949 0.6950 0.6953 0.6988 0.7036
1410.000000 0.7090 0.7144 0.7187 0.7224 0.7260
1405.000000 0.7292 0.7318 0.7344 0.7378 0.7417
1400.000000 0.7457 0.7496 0.7536 0.7565 0.7587
1395.000000 0.7597 0.7606 0.7651 0.7665 0.7671
1390.000000 0.7680 0.7705 0.7731 0.7757 0.7783
1385.000000 0.7807 0.7822 0.7839 0.7856 0.7871
1380.000000 0.7888 0.7903 0.7918 0.7934 0.7949
1375.000000 0.7964 0.7978 0.7994 0.8008 0.8024
1370.000000 0.8038 0.8053 0.8067 0.8082 0.8096
1365.000000 0.8111 0.8126 0.8144 0.8161 0.8178
1360.000000 0.8195 0.8212 0.8228 0.8242 0.8255
1355.000000 0.8267 0.8278 0.8292 0.8305 0.8318
1350.000000 0.8330 0.8343 0.8356 0.8368 0.8381
1345.000000 0.8394 0.8408 0.8421 0.8427 0.8418
1340.000000 0.8399 0.8307 0.8187 0.8065 0.7940
1335.000000 0.7960 0.7980 0.8033 0.8086 0.8138
1330.000000 0.8191 0.8244 0.8297 0.8323 0.8294
1325.000000 0.8247 0.8189 0.8128 0.8060 0.7538
1320.000000 0.6854 0.6171 0.5487 0.4804 0.4450
1315.000000 0.4482 0.4744 0.5005 0.5267 0.5529
1310.000000 0.5790 0.6052 0.6314 0.6575 0.6868
1305.000000 0.7088 0.7351 0.7501 0.7583 0.7657
1300.000000 0.7708 0.7732 0.7717 0.7705 0.7678
1295.000000 0.7618 0.7548 0.7468 0.7342 0.7328
1290.000000 0.7314 0.7301 0.7249 0.7186 0.7121
1285.000000 0.7051 0.7005 0.6998 0.7000 0.7054
1280.000000 0.7619 0.7732 0.7821 0.7884 0.7942
1275.000000 0.7982 0.8022 0.8071 0.8121 0.8165
1270.000000 0.8200 0.8228 0.8259 0.8288 0.8310
1265.000000 0.8320 0.8330 0.8339 0.8356 0.8345
1260.000000 0.8345 0.8307 0.8126 0.7688 0.7045
1255.000000 0.6403 0.6105 0.6123 0.6355 0.6586
1250.000000 0.6818 0.6995 0.6990 0.7164 0.7319
1245.000000 0.7475 0.7632 0.7788 0.7824 0.7836
1240.000000 0.7854 0.7871 0.7887 0.7897 0.7943
1235.000000 0.7883 0.7839 0.7519 0.7365 0.6851
1230.000000 0.6246 0.5640 0.5034 0.4428 0.4262
1225.000000 0.4260 0.4479 0.4812 0.5145 0.5478
1220.000000 0.5810 0.6144 0.6746 0.6868 0.7010
1215.000000 0.7180 0.7322 0.7440 0.7518 0.7596
1210.000000 0.7665 0.7719 0.7765 0.7796 0.7824
1205.000000 0.7848 0.7872 0.7897 0.7918 0.7939
1200.000000 0.7960 0.7981 0.8001 0.8022 0.8044
1195.000000 0.8065 0.8085 0.8105 0.8125 0.8145
1190.000000 0.8165 0.8182 0.8197 0.8210 0.8175
1185.000000 0.8034 0.7981 0.7968 0.7967 0.7967
1180.000000 0.7965 0.7965 0.7980 0.7993 0.8037
1175.000000 0.8084 0.8128 0.8165 0.8194 0.8209
1170.000000 0.8223 0.8225 0.8196 0.8086 0.7801
1165.000000 0.7504 0.7207 0.6908 0.6611 0.6571
1160.000000 0.6558 0.6587 0.6640 0.6772 0.6905
1155.000000 0.7126 0.7262 0.7387 0.7525 0.7656
1150.000000 0.7768 0.7865 0.7939 0.7989 0.8035
1145.000000 0.8081 0.8130 0.8174 0.8212 0.8244
1140.000000 0.8273 0.8290 0.8296 0.8300 0.8304
1135.000000 0.8324 0.8312 0.8286 0.8202 0.8172
1130.000000 0.8145 0.8125 0.8108 0.8084 0.8060
1125.000000 0.8012 0.7946 0.7925 0.7938 0.8015
1120.000000 0.8074 0.8118 0.8161 0.8193 0.8225
1115.000000 0.8247 0.8262 0.8275 0.8291 0.8306
1110.000000 0.8320 0.8331 0.8336 0.8337 0.8333
1105.000000 0.8328 0.8311 0.8249 0.8178 0.8143
1100.000000 0.8110 0.8135 0.8135 0.8210 0.8257
1095.000000 0.8299 0.8323 0.8346 0.8370 0.8393
1090.000000 0.8418 0.8460 0.8497 0.8532 0.8562
1085.000000 0.8588 0.8605 0.8606 0.8607 0.8627
1080.000000 0.8578 0.8492 0.8040 0.7711 0.7384
1075.000000 0.7056 0.6728 0.6400 0.6072 0.5904
1070.000000 0.5949 0.6455 0.6961 0.7468 0.7608
1065.000000 0.7687 0.7746 0.7804 0.7862 0.7926
1060.000000 0.7993 0.8125 0.8196 0.8247 0.8285
1055.000000 0.8323 0.8361 0.8398 0.8431 0.8460
1050.000000 0.8488 0.8515 0.8536 0.8558 0.8580
1045.000000 0.8602 0.8627 0.8651 0.8674 0.8693
1040.000000 0.8711 0.8721 0.8727 0.8731 0.8732
1035.000000 0.8732 0.8723 0.8375 0.7906 0.7436
1030.000000 0.7078 0.7089 0.7460 0.7738 0.8015
1025.000000 0.8199 0.8250 0.8306 0.8387 0.8546
1020.000000 0.8614 0.8634 0.8646 0.8649 0.8637
1015.000000 0.8533 0.8334 0.8135 0.7936 0.7784
1010.000000 0.7830 0.7956 0.8081 0.8207 0.8321
1005.000000 0.8313 0.8278 0.7689 0.7100 0.6615
1000.000000 0.6621 0.6821 0.7290 0.7758 0.8228
995.000000 0.8660 0.8690 0.8711 0.8748 0.8696
990.000000 0.8650 0.8532 0.8464 0.8464 0.8499
985.000000 0.8588 0.8625 0.8667 0.8645 0.8639
980.000000 0.8609 0.8341 0.8171 0.7967 0.7825
975.000000 0.7810 0.7804 0.7799 0.7793 0.7787
970.000000 0.7264 0.6461 0.5658 0.4854 0.4050
965.000000 0.3247 0.2562 0.2553 0.2539 0.2769
960.000000 0.3675 0.4581 0.5487 0.6854 0.6921
955.000000 0.6989 0.7148 0.7245 0.7311 0.7369
950.000000 0.7411 0.7418 0.7401 0.7311 0.7222
945.000000 0.7175 0.7282 0.7326 0.7303 0.7271
940.000000 0.7240 0.7228 0.7306 0.7411 0.7517
935.000000 0.7622 0.7728 0.7834 0.7939 0.8045
930.000000 0.8150 0.8220 0.8280 0.8268 0.8267
925.000000 0.8223 0.8022 0.7824 0.7624 0.7425
920.000000 0.7225 0.7128 0.7143 0.7386 0.7680
915.000000 0.7974 0.8119 0.8241 0.8353 0.8414
910.000000 0.8474 0.8521 0.8562 0.8602 0.8634
905.000000 0.8651 0.8667 0.8683 0.8700 0.8716
900.000000 0.8732 0.8743 0.8755 0.8767 0.8778
895.000000 0.8790 0.8802 0.8814 0.8827 0.8840
890.000000 0.8853 0.8866 0.8875 0.8883 0.8890
885.000000 0.8898 0.8904 0.8909 0.8914 0.8920
880.000000 0.8925 0.8930 0.8933 0.8936 0.8939
875.000000 0.8942 0.8945 0.8945 0.8953 0.8955
870.000000 0.8949 0.8925 0.8886 0.8847 0.8834
865.000000 0.8831 0.8827 0.8824 0.8821 0.8818
860.000000 0.8815 0.8805 0.8795 0.8760 0.8667
855.000000 0.8574 0.8504 0.8504 0.8582 0.8675
850.000000 0.8768 0.8863 0.8923 0.8945 0.8967
845.000000 0.8989 0.9011 0.9033 0.9053 0.9070
840.000000 0.9088 0.9106 0.9118 0.9128 0.9137
835.000000 0.9145 0.9154 0.9163 0.9171 0.9180
830.000000 0.9189 0.9200 0.9211 0.9221 0.9233
825.000000 0.9244 0.9255 0.9266 0.9277 0.9288
820.000000 0.9299 0.9311 0.9325 0.9341 0.9356
815.000000 0.9371 0.9386 0.9401 0.9416 0.9432
810.000000 0.9448 0.9463 0.9478 0.9494 0.9509
805.000000 0.9521 0.9535 0.9548 0.9560 0.9573
800.000000 0.9586 0.9598 0.9607 0.9615 0.9623
795.000000 0.9633 0.9645 0.9657 0.9670 0.9682
790.000000 0.9694 0.9700 0.9706 0.9711 0.9717
785.000000 0.9717 0.9716 0.9708 0.9698 0.9686
780.000000 0.9651 0.9536 0.9415 0.8623 0.7938
775.000000 0.7251 0.6567 0.5882 0.5197 0.4510
770.000000 0.3826 0.3141 0.2456 0.1770 0.1645
765.000000 0.1735 0.1974 0.2211 0.2401 0.2401
760.000000 0.2365 0.2162 0.1798 0.1783 0.1779
755.000000 0.2538 0.3330 0.4122 0.4912 0.6530
750.000000 0.6821 0.7025 0.7146 0.7306 0.7480
745.000000 0.7635 0.7790 0.7944 0.8099 0.8254
740.000000 0.8409 0.8563 0.8628 0.8654 0.7705
735.000000 0.6651 0.5598 0.4545 0.4212 0.4169
730.000000 0.4060 0.4023 0.4012 0.4040 0.5137
725.000000 0.6233 0.7488 0.7630 0.7728 0.7828
720.000000 0.7934 0.8028 0.8099 0.8169 0.8243
715.000000 0.8287 0.8334 0.8373 0.8394 0.8390
710.000000 0.8387 0.8401 0.8428 0.8480 0.8480
705.000000 0.8481 0.8480 0.8477 0.6875 0.5143
700.000000 0.4401 0.4421 0.4698 0.4975 0.5251
695.000000 0.5528 0.5710 0.5682 0.5217 0.4727
690.000000 0.4237 0.3747 0.3257 0.2767 0.2483
685.000000 0.2494 0.3329 0.4176 0.5022 0.5758
680.000000 0.6351 0.6532 0.6619 0.6705 0.6767
675.000000 0.6861 0.6949 0.7037 0.7124 0.7211
670.000000 0.7308 0.7305 0.7217 0.6843 0.6288
665.000000 0.6268 0.6914 0.7540 0.7628 0.7706
660.000000 0.7750 0.7793 0.7836 0.7878 0.7911
655.000000 0.7945 0.7978 0.8011 0.8044 0.8074
650.000000 0.8105 0.8135 0.8165 0.8194 0.8221
645.000000 0.8250 0.8275 0.8299 0.8321 0.8344
640.000000 0.8364 0.8383 0.8403 0.8428 0.8454
635.000000 0.8480 0.8506 0.8523 0.8533 0.8544
630.000000 0.8556 0.8540 0.8478 0.7710 0.6940
625.000000 0.6170 0.5401 0.4631 0.4298 0.4316
620.000000 0.7776 0.7808 0.7838 0.7868 0.7907
615.000000 0.7953 0.8000 0.8047 0.8094 0.8141
610.000000 0.8202 0.8271 0.8308 0.8351 0.8394
605.000000 0.8425 0.8455 0.8485 0.8512 0.8530
600.000000 0.8548 0.8566 0.8573 0.8580 0.8588
595.000000 0.8595 0.8602 0.8608 0.8612 0.8617
590.000000 0.8621 0.8625 0.8630 0.8635 0.8639
585.000000 0.8645 0.8652 0.8658 0.8665 0.8671
580.000000 0.8678 0.8687 0.8695 0.8703 0.8711
575.000000 0.8723 0.8736 0.8755 0.8778 0.8788
570.000000 0.8799 0.8803 0.8781 0.8790 0.8762
565.000000 0.8709 0.8704 0.8704 0.8716 0.8733
560.000000 0.8751 0.8768 0.8784 0.8791 0.8696
555.000000 0.8327 0.7958 0.7588 0.7251 0.7242
550.000000 0.7376 0.7730 0.8082 0.8370 0.8474
545.000000 0.8543 0.8596 0.8639 0.8658 0.8678
540.000000 0.8695 0.8706 0.8717 0.8728 0.8740
535.000000 0.8752 0.8763 0.8774 0.8783 0.8787
530.000000 0.8792 0.8796 0.8801 0.8805 0.8810
525.000000 0.8815 0.8818 0.8824 0.8828 0.8833
520.000000 0.8836 0.8840 0.8843 0.8847 0.8850
515.000000 0.8854 0.8857 0.8861 0.8864 0.8867
510.000000 0.8871 0.8874 0.8877 0.8881 0.8884
505.000000 0.8887 0.8891 0.8894 0.8898 0.8903
500.000000 0.8909 0.8914 0.8920 0.8925 0.8931
495.000000 0.8936 0.8942 0.8947 0.8951 0.8956
490.000000 0.8960 0.8964 0.8968 0.8968 0.8970
485.000000 0.8971 0.8973 0.8974 0.8975 0.8978
480.000000 0.8989 0.8987 0.8986 0.8985 0.8971
475.000000 0.8957 0.8706 0.8439 0.8171 0.7905
470.000000 0.7638 0.7369 0.7105 0.7121 0.7121
465.000000 0.7345 0.7568 0.7792 0.8015 0.8094
460.000000 0.8158 0.8221 0.8309 0.8393 0.8463
455.000000 0.8524 0.8575 0.8628 0.8699 0.8763
450.000000 0.8811 0.8831 0.8850 0.8868 0.8889
445.000000 0.8903 0.8916 0.8930 0.8943 0.8960
440.000000 0.8968 0.8973 0.8952 0.8801 0.8585
435.000000 0.8368 0.8153 0.8006 0.8004 0.7987
430.000000 0.7999 0.8036 0.8122 0.8328 0.8437
425.000000 0.8566 0.8703 0.8762 0.8818 0.8868
420.000000 0.8916 0.8953 0.8991 0.9028 0.9041
415.000000 0.9053 0.9066 0.9073 0.9078 0.9083
410.000000 0.9088 0.9093 0.9098 0.9103 0.9108
405.000000 0.9113 0.9118 0.9137 0.9165 0.9198
400.000000 0.9232 0.9247 0.9249 0.9252 0.9254
395.000000 0.9257 0.9259 0.9262 0.9263 0.9264
390.000000 0.9264 0.9265 0.9265 0.9266 0.9266
385.000000 0.9267 0.9267 0.9268 0.9268 0.9270
380.000000 0.9271 0.9274 0.9275 0.9278 0.9278
375.000000 0.9281 0.9283 0.9285 0.9287 0.9289
370.000000 0.9291 0.9293 0.9298 0.9303 0.9308
365.000000 0.9313 0.9318 0.9323 0.9328 0.9333
360.000000 0.9342 0.9351 0.9360 0.9368 0.9377
##END=
