##TITLE=1-Ethyl-2-pyrrolidone-4-carboxamide
##JCAMP-DX=4.24
##DATA TYPE=INFRARED SPECTRUM
##ORIGIN=EPA-IR VAPOR PHASE LIBRARY
##OWNER=SRD/NIST
Collection (C) 2018 copyright by the U.S. Secretary of Commerce
on behalf of the United States of America. All rights reserved.
##CAS REGISTRY NO=89852-01-7
##MOLFORM=C 7 H 12 N 2 O 2
##$NIST SOURCE=MSDC-IR
##STATE=gas
##XUNITS=1/CM
##YUNITS=ABSORBANCE
##XFACTOR=1.
##YFACTOR=0.001
##DELTAX=1.92898
##FIRSTX=549.8
##LASTX=4000.7
##FIRSTY=4.772
##MAXX=4000.7
##MINX=549.759
##MAXY=0.171062
##MINY=0
##NPOINTS=1790
##XYDATA=(X++(Y..Y))
549.759 4.772 4.722 4.242 4.012 3.702 3.382 3.252 3.152 3.252 3.372
569.049 3.422 3.162 3.022 2.792 2.612 2.602 2.652 2.742 2.522 2.342
588.339 2.402 2.572 2.482 2.322 2.432 2.572 2.672 3.062 3.362 3.392
607.628 3.462 3.642 3.772 3.872 4.012 4.072 3.952 4.042 4.132 4.072
626.918 4.152 4.172 4.312 4.422 4.492 4.462 4.602 4.752 4.672 4.822
646.208 4.962 4.922 4.732 4.362 4.212 4.212 4.142 4.012 3.602 3.352
665.498 3.202 3.032 3.052 2.862 2.812 2.832 2.702 2.582 2.442 2.352
684.787 2.342 2.362 2.222 2.182 2.232 2.202 2.152 2.152 2.252 2.302
704.077 2.282 2.382 2.432 2.352 2.322 2.342 2.462 2.462 2.402 2.562
723.367 2.672 2.632 2.732 2.952 3.152 3.172 3.042 3.152 3.332 3.482
742.657 3.702 3.612 3.642 3.932 4.012 4.072 4.022 4.032 4.122 4.172
761.947 4.232 4.252 4.312 4.342 4.352 4.412 4.502 4.522 4.582 4.652
781.236 4.662 4.802 4.822 4.862 5.072 5.212 5.142 4.922 4.712 4.602
800.526 4.572 4.442 4.322 4.162 4.032 3.962 3.812 3.852 3.792 3.452
819.816 3.432 3.552 3.462 3.472 3.592 3.672 3.562 3.362 3.352 3.362
839.106 3.232 3.302 3.422 3.352 3.262 3.202 3.182 3.162 3.022 2.742
858.395 2.682 2.632 2.682 2.832 2.732 2.612 2.472 2.422 2.522 2.492
877.685 2.402 2.452 2.552 2.512 2.532 2.532 2.432 2.482 2.532 2.492
896.975 2.562 2.802 2.872 2.832 2.912 2.802 2.592 2.732 2.892 2.842
916.265 2.832 2.892 2.972 3.012 3.122 3.212 3.232 3.402 3.482 3.492
935.555 3.442 3.442 3.442 3.282 3.212 3.122 2.862 2.692 2.592 2.512
954.844 2.442 2.452 2.542 2.452 2.472 2.472 2.442 2.402 2.372 2.382
974.134 2.322 2.292 2.242 2.242 2.332 2.192 2.152 2.222 2.252 2.182
993.424 1.972 1.982 2.172 2.172 2.122 2.202 2.292 2.172 2.112 2.302
1012.714 2.112 2.092 2.352 2.462 2.602 2.722 2.672 2.692 2.772 2.822
1032.003 2.892 2.782 2.712 2.782 2.962 2.952 2.772 2.682 2.622 2.582
1051.293 2.662 2.782 2.802 2.882 2.962 3.072 3.292 3.122 3.042 3.212
1070.583 3.192 3.212 3.552 3.422 2.972 3.192 3.312 3.392 3.322 3.072
1089.873 3.072 2.952 2.632 2.662 2.772 2.462 2.432 2.832 2.962 2.702
1109.163 2.362 2.642 3.202 3.362 3.242 2.942 2.892 3.212 3.392 3.082
1128.452 2.972 3.352 3.662 3.472 3.402 3.432 3.292 3.022 2.802 2.952
1147.742 2.992 3.032 2.982 2.742 2.812 2.782 2.752 2.832 2.682 2.732
1167.032 2.952 3.052 3.042 3.082 3.122 3.432 3.652 3.762 3.992 3.882
1186.322 4.222 4.612 4.642 5.022 5.112 5.162 5.522 5.902 6.532 6.722
1205.611 7.012 7.542 7.722 8.122 8.482 8.942 9.812 10.772 11.752 12.512
1224.901 12.942 13.812 14.992 16.202 17.562 18.662 19.772 20.672 21.482 22.632
1244.191 23.432 23.982 24.572 25.172 25.652 25.992 26.222 26.562 26.792 26.942
1263.481 27.132 27.182 27.512 27.902 28.162 28.412 28.592 28.672 28.722 28.882
1282.771 28.912 28.882 28.862 28.552 28.092 27.522 26.562 25.392 24.172 22.802
1302.060 21.422 19.942 18.542 17.402 16.442 15.712 15.192 14.782 14.442 14.132
1321.350 13.832 13.532 13.202 12.862 12.452 12.052 11.682 11.292 10.942 10.732
1340.640 10.662 10.652 10.762 10.932 11.182 11.432 11.602 11.812 12.012 12.162
1359.930 12.262 12.412 12.622 12.862 13.102 13.312 13.552 13.912 14.292 14.632
1379.219 14.912 15.122 15.232 15.182 15.032 14.792 14.542 14.202 13.862 13.702
1398.509 13.712 13.912 14.312 14.882 15.682 16.702 17.882 19.212 20.472 21.582
1417.799 22.542 23.232 23.542 23.482 23.012 22.102 20.822 19.252 17.532 15.802
1437.089 14.122 12.582 11.242 10.192 9.392 8.812 8.382 8.082 7.842 7.572
1456.378 7.292 7.092 6.832 6.482 6.152 5.832 5.492 5.132 4.862 4.672
1475.668 4.552 4.562 4.742 5.172 5.672 6.282 6.902 7.262 7.452 7.482
1494.958 7.272 6.962 6.532 5.982 5.342 4.532 3.762 3.252 2.842 2.542
1514.248 2.372 2.232 2.132 2.042 1.992 1.912 1.852 1.872 1.902 1.912
1533.538 1.912 1.952 1.952 2.002 2.112 2.192 2.352 2.522 2.622 2.762
1552.827 3.002 3.332 3.642 3.972 4.392 4.852 5.382 5.992 6.722 7.642
1572.117 8.702 9.962 11.552 13.402 15.372 17.362 19.142 20.512 21.382 21.842
1591.407 21.792 21.172 19.982 18.432 16.502 14.452 12.652 11.022 9.662 8.532
1610.697 7.582 6.752 6.162 5.662 5.202 4.822 4.442 4.112 3.882 3.732
1629.986 3.562 3.422 3.322 3.192 3.092 3.012 3.012 3.032 3.062 3.122
1649.276 3.192 3.252 3.272 3.432 3.602 3.752 3.972 4.272 4.582 4.872
1668.566 5.262 5.662 6.112 6.682 7.352 8.062 8.882 9.772 10.772 11.812
1687.856 12.872 14.172 15.522 16.882 18.472 20.322 22.482 25.162 28.232 32.032
1707.146 36.732 42.592 49.872 58.912 69.982 83.392 99.472 116.552 133.582 148.802
1726.435 160.422 167.652 170.962 171.062 167.582 159.102 144.492 125.012 105.082 87.052
1745.725 72.062 59.872 50.062 42.162 35.932 30.962 26.802 23.362 20.342 17.752
1765.015 15.562 13.592 11.892 10.392 9.132 8.122 7.252 6.462 5.722 5.132
1784.305 4.622 4.172 3.882 3.582 3.252 2.962 2.762 2.572 2.382 2.252
1803.594 2.182 2.092 1.962 1.832 1.782 1.752 1.702 1.652 1.632 1.612
1822.884 1.542 1.542 1.542 1.482 1.452 1.402 1.382 1.382 1.352 1.322
1842.174 1.282 1.252 1.242 1.222 1.222 1.222 1.212 1.182 1.152 1.112
1861.464 1.112 1.112 1.092 1.0546 0.9721 0.9225 0.9292 0.9776 0.9522 0.9025
1880.754 0.9114 0.8965 0.8985 0.8997 0.8183 0.7836 0.8229 0.8164 0.7983 0.7963
1900.043 0.7571 0.6771 0.5946 0.616 0.6818 0.6834 0.6657 0.6475 0.6406 0.6066
1919.333 0.5828 0.5917 0.5794 0.6114 0.6412 0.648 0.6266 0.581 0.5455 0.5649
1938.623 0.5885 0.5739 0.5758 0.5615 0.5924 0.5757 0.5733 0.6374 0.6397 0.616
1957.913 0.6199 0.6067 0.6016 0.6379 0.6433 0.6094 0.5928 0.5748 0.5885 0.5855
1977.202 0.5948 0.6547 0.6533 0.6135 0.6059 0.6659 0.6533 0.5994 0.6015 0.5907
1996.492 0.5533 0.5416 0.5848 0.6098 0.577 0.5816 0.6087 0.6037 0.6459 0.6801
2015.782 0.6629 0.6206 0.5737 0.6331 0.6944 0.6768 0.5804 0.5278 0.5355 0.5075
2035.072 0.5362 0.5922 0.5842 0.5251 0.5011 0.5192 0.5236 0.5247 0.5218 0.5503
2054.362 0.5335 0.4786 0.4938 0.5056 0.5052 0.4858 0.4839 0.5285 0.5494 0.5464
2073.651 0.4935 0.4395 0.4667 0.4938 0.4984 0.453 0.416 0.4494 0.4562 0.4731
2092.941 0.4796 0.4398 0.4313 0.4504 0.4897 0.5236 0.5198 0.4793 0.4337 0.4102
2112.231 0.4424 0.4008 0.3982 0.4085 0.3732 0.4369 0.4512 0.4536 0.4539 0.4591
2131.521 0.4745 0.4501 0.4063 0.3691 0.4476 0.5087 0.4628 0.4255 0.3729 0.4294
2150.810 0.4896 0.4626 0.4326 0.4596 0.5523 0.5371 0.4575 0.4388 0.4623 0.4627
2170.100 0.4672 0.4787 0.5176 0.5642 0.5496 0.4993 0.5159 0.5308 0.5289 0.5217
2189.390 0.4887 0.4661 0.4596 0.4512 0.4584 0.5027 0.4881 0.4831 0.5127 0.4604
2208.680 0.4518 0.4775 0.4266 0.4139 0.4371 0.4211 0.4328 0.4649 0.451 0.4497
2227.970 0.462 0.4557 0.417 0.4017 0.3703 0.3933 0.4284 0.4446 0.4844 0.4719
2247.259 0.4753 0.5075 0.5347 0.4781 0.4246 0.384 0.3936 0.4582 0.4596 0.4011
2266.549 0.3957 0.4188 0.4139 0.4044 0.349 0.3243 0.3571 0.3955 0.3499 0.2652
2285.839 0.2865 0.3702 0.4249 0.3757 0.3319 0.389 0.4338 0.388 0.3883 0.4156
2305.129 0.4086 0.3938 0.387 0.4384 0.4146 0.4211 0.4384 0.3901 0.3921 0.4121
2324.418 0.4606 0.4291 0.3662 0.3625 0.3619 0.4421 0.4555 0.3955 0.4307 0.4457
2343.708 0.4437 0.4898 0.5225 0.4919 0.4577 0.4155 0.4049 0.4045 0.3533 0.4103
2362.998 0.4368 0.383 0.3592 0.3413 0.3841 0.4614 0.4672 0.4526 0.4358 0.4675
2382.288 0.4874 0.3867 0.4251 0.5075 0.4921 0.4841 0.5062 0.5099 0.4708 0.4221
2401.578 0.3642 0.403 0.4511 0.4306 0.4172 0.402 0.2986 0.2562 0.3428 0.3402
2420.867 0.3038 0.2757 0.2868 0.3286 0.3614 0.3894 0.3493 0.3702 0.4524 0.4079
2440.157 0.4237 0.4948 0.4993 0.4929 0.449 0.4418 0.4403 0.4654 0.5041 0.4297
2459.447 0.4229 0.4666 0.5058 0.5705 0.4967 0.443 0.4924 0.5146 0.4667 0.4233
2478.737 0.4825 0.5329 0.5049 0.4992 0.5309 0.6061 0.5823 0.5462 0.5399 0.4993
2498.026 0.4206 0.4083 0.4094 0.4282 0.4303 0.3642 0.4443 0.4976 0.4538 0.3829
2517.316 0.3708 0.3838 0.3536 0.3367 0.3256 0.345 0.3661 0.3719 0.3461 0.3603
2536.606 0.4743 0.4359 0.4008 0.4279 0.3553 0.3552 0.374 0.319 0.3331 0.3924
2555.896 0.3435 0.3138 0.3437 0.2643 0.2913 0.3634 0.2751 0.2807 0.3639 0.3393
2575.186 0.2926 0.2881 0.3088 0.3412 0.279 0.2857 0.3204 0.2993 0.3269 0.3096
2594.475 0.3361 0.2769 0.2254 0.2592 0.3225 0.3619 0.3755 0.3571 0.3441 0.3611
2613.765 0.3538 0.3786 0.3144 0.2782 0.3043 0.3527 0.388 0.3974 0.3615 0.4022
2633.055 0.4578 0.4106 0.4194 0.4622 0.4553 0.4142 0.389 0.392 0.3654 0.2916
2652.345 0.3742 0.4493 0.4336 0.4249 0.4062 0.4541 0.4507 0.4849 0.5985 0.6185
2671.634 0.4957 0.4565 0.4737 0.4424 0.4818 0.4542 0.4374 0.5331 0.5309 0.5154
2690.924 0.5238 0.4431 0.4674 0.5094 0.5213 0.5718 0.6155 0.6241 0.5675 0.6012
2710.214 0.5722 0.5133 0.5798 0.5885 0.5879 0.5861 0.5856 0.6138 0.5524 0.5767
2729.504 0.6852 0.6279 0.546 0.5288 0.5372 0.5412 0.5483 0.6207 0.7288 0.7406
2748.794 0.7696 0.7711 0.8117 0.8586 0.7668 0.7234 0.7009 0.6836 0.6747 0.6864
2768.083 0.7667 0.7303 0.7217 0.7526 0.7829 0.8693 0.8164 0.8078 0.9796 1.122
2787.373 1.0487 1.0202 1.0649 1.152 1.222 1.232 1.242 1.262 1.392 1.482
2806.663 1.592 1.812 1.902 1.912 1.992 2.092 2.182 2.282 2.342 2.452
2825.953 2.542 2.632 2.742 2.852 3.042 3.292 3.382 3.452 3.622 3.822
2845.242 4.102 4.272 4.472 4.782 5.102 5.492 5.902 6.322 6.762 7.202
2864.532 7.662 8.112 8.622 9.142 9.542 9.882 10.242 10.482 10.542 10.522
2883.822 10.442 10.322 10.162 9.902 9.622 9.422 9.232 9.052 8.872 8.672
2903.112 8.572 8.542 8.682 8.852 8.952 9.142 9.412 9.702 10.122 10.602
2922.401 10.972 11.322 11.862 12.512 13.072 13.492 13.872 14.212 14.452 14.552
2941.691 14.432 13.982 13.522 12.972 12.212 11.442 10.622 9.792 9.132 8.692
2960.981 8.442 8.382 8.632 9.192 10.032 11.102 12.302 13.442 14.272 14.892
2980.271 15.242 15.292 15.092 14.452 13.382 12.002 10.612 9.412 8.312 7.292
2999.561 6.442 5.642 4.812 4.182 3.672 3.162 2.852 2.622 2.312 2.042
3018.850 1.952 1.842 1.742 1.672 1.592 1.542 1.432 1.372 1.422 1.362
3038.140 1.212 1.102 1.102 1.0618 0.9213 0.8628 0.8472 0.8971 0.8871 0.7387
3057.430 0.7457 0.7304 0.6214 0.628 0.7109 0.7186 0.6537 0.5924 0.5838 0.5765
3076.720 0.5195 0.6186 0.7038 0.6893 0.6181 0.5706 0.5416 0.4748 0.5469 0.5726
3096.009 0.5212 0.5331 0.6068 0.6423 0.6447 0.6291 0.5769 0.5507 0.6163 0.6863
3115.299 0.716 0.7158 0.6673 0.667 0.5246 0.507 0.612 0.6052 0.5548 0.5179
3134.589 0.5599 0.587 0.5998 0.6636 0.6885 0.5723 0.6316 0.631 0.6397 0.7641
3153.879 0.7498 0.7032 0.6964 0.7636 0.7511 0.7244 0.6471 0.4883 0.4831 0.5474
3173.169 0.4954 0.4576 0.5451 0.5589 0.5547 0.622 0.5588 0.4358 0.4066 0.5029
3192.458 0.5241 0.4936 0.5941 0.6123 0.4252 0.2525 0.3451 0.4655 0.4541 0.3813
3211.748 0.3056 0.322 0.3203 0.2675 0.2641 0.3148 0.383 0.3252 0.2889 0.3774
3231.038 0.3789 0.4455 0.4213 0.3306 0.3817 0.3638 0.3886 0.4484 0.3592 0.1902
3250.328 0.1841 0.2498 0.2444 0.3113 0.3271 0.2474 0.2673 0.342 0.3012 0.2638
3269.617 0.2512 0.3428 0.3104 0.3278 0.4215 0.3353 0.3163 0.3935 0.3944 0.306
3288.907 0.4063 0.3811 0.3496 0.3825 0.3314 0.3866 0.4212 0.4156 0.4442 0.4371
3308.197 0.3637 0.305 0.4196 0.4539 0.4078 0.3992 0.3769 0.3752 0.2814 0.2205
3327.487 0.2056 0.2343 0.361 0.3441 0.3131 0.4621 0.4984 0.4565 0.4758 0.426
3346.777 0.3587 0.4147 0.4337 0.4545 0.5377 0.4198 0.4369 0.484 0.4155 0.4817
3366.066 0.5101 0.5587 0.6207 0.6463 0.777 0.8747 0.8592 0.8307 0.7539 0.7944
3385.356 0.9983 1.192 1.322 1.422 1.622 1.772 1.762 1.982 2.282 2.432
3404.646 2.612 2.942 3.212 3.412 3.772 4.142 4.482 4.712 4.892 5.192
3423.936 5.472 5.772 6.082 6.312 6.512 6.672 6.822 6.812 6.572 6.372
3443.225 6.102 5.702 5.252 4.722 4.232 3.612 3.132 2.752 2.422 2.312
3462.515 2.152 1.882 1.742 1.762 1.662 1.532 1.452 1.372 1.432 1.312
3481.805 1.292 1.402 1.372 1.342 1.322 1.422 1.512 1.512 1.482 1.592
3501.095 1.682 1.752 1.842 1.952 2.122 2.292 2.502 2.662 2.672 2.802
3520.385 3.162 3.452 3.512 3.682 3.972 4.112 4.202 4.352 4.422 4.462
3539.674 4.482 4.502 4.592 4.672 4.772 4.912 5.012 5.072 5.032 4.892
3558.964 4.732 4.502 4.162 3.692 3.232 2.802 2.372 2.012 1.742 1.452
3578.254 1.262 1.102 0.9434 0.893 0.869 0.8233 0.7261 0.5731 0.4414 0.4404
3597.544 0.4754 0.5873 0.5814 0.51 0.3291 0.13104 0.2508 0.333 0.2438 0.3106
3616.833 0.284 0.17467 0.2297 0.2809 0.2954 0.1853 0.15985 0.2751 0.2898 0.2695
3636.123 0.3616 0.3115 0.1977 0.2421 0.2821 0.2267 0.2326 0.3439 0.2747 0.2307
3655.413 0.3094 0.3789 0.2903 0.2066 0.321 0.3385 0.2701 0.2597 0.283 0.17548
3674.703 0 0.0558 0.15258 0.2331 0.2886 0.274 0.1963 0.0825233 0.11298 0.1939
3693.993 0.2515 0.1687 0.17312 0.2966 0.246 0.2352 0.3286 0.294 0.2855 0.2582
3713.282 0.2103 0.12233 0.07447 0.11302 0.073 0.13582 0.2413 0.2872 0.2172 0.2347
3732.572 0.183 0.12419 0.2386 0.16482 0.2153 0.2771 0.2209 0.2226 0.17462 0.2057
3751.862 0.2687 0.227 0.3075 0.3664 0.2871 0.3439 0.3444 0.3356 0.3236 0.1916
3771.152 0.2604 0.3076 0.2775 0.3084 0.2556 0.2657 0.2163 0.1824 0.247 0.2757
3790.441 0.1708 0.13841 0.2624 0.2985 0.3134 0.2146 0.14831 0.242 0.3586 0.3236
3809.731 0.3277 0.3049 0.15061 0.14285 0.17713 0.2169 0.2559 0.1822 0.07655 0.086541
3829.021 0.1999 0.2693 0.259 0.2268 0.10861 0.16537 0.3176 0.2685 0.2695 0.3613
3848.311 0.2685 0.2118 0.17262 0.1956 0.3103 0.2756 0.3537 0.2743 0.0634 0.2025
3867.601 0.3351 0.2428 0.14701 0.09686 0.0632 0.0478 0.1428 0.11598 0.17418 0.3635
3886.890 0.212 0.083423 0.2781 0.3316 0.1955 0.218 0.2269 0.2943 0.3549 0.2591
3906.180 0.1852 0.15441 0.2458 0.2625 0.2639 0.3122 0.316 0.3507 0.3309 0.2954
3925.470 0.3172 0.2857 0.2629 0.2602 0.2898 0.3251 0.2667 0.2689 0.3638 0.3841
3944.760 0.26 0.2348 0.3149 0.3585 0.3377 0.3204 0.4112 0.4478 0.3309 0.3736
3964.049 0.4061 0.3175 0.3487 0.4041 0.2939 0.2077 0.2428 0.2485 0.3845 0.4365
3983.339 0.3401 0.2474 0.2623 0.3597 0.3704 0.2841 0.2828 0.3963 0.3724 0.4101
##END=
