##TITLE=BENZALDEHYDE, o-HYDROXY-
##JCAMP-DX=4.24
##DATA TYPE=INFRARED SPECTRUM
##CLASS=COBLENTZ III
##ORIGIN=WESTERN REGIONAL RES. USDA
##OWNER=COBLENTZ SOCIETY
Collection (C) 2018 copyright by the U.S. Secretary of Commerce
on behalf of the United States of America. All rights reserved.
##DATE=1964/05/19
##NAMES=salicylaldehyde
##CAS REGISTRY NO=90-02-8
##MOLFORM=C7 H6 O2
##SOURCE REFERENCE=COBLENTZ NO. 9875
##$NIST SOURCE=COBLENTZ
##$NIST IMAGE=cob9875
##SPECTROMETER/DATA SYSTEM=BECKMAN IR-7 (GRATING)
##INSTRUMENT PARAMETERS=GRATING CHANGES AT 3000, 2200, 1150 CM^-^1
##STATE=SOLUTION (10% IN CCl4 FOR 4000-1350 CM^-^1, 10% IN CS2 FOR 1350-600 CM^-^1)
##PATH LENGTH=0.01 CM, 0.01 CM
##SAMPLING PROCEDURE=TRANSMISSION
##RESOLUTION=4
##DATA PROCESSING=DIGITIZED BY NIST FROM HARD COPY (FROM TWO SEGMENTS)
##XUNITS=1/CM
##YUNITS=TRANSMITTANCE
##XFACTOR=1.000000
##YFACTOR=1
##DELTAX=0.809971
##FIRSTX=600.374
##LASTX=3980.38
##FIRSTY=0.782
##MAXX=3980.38
##MINX=600.374
##MAXY=0.870974
##MINY=0
##NPOINTS=4174
##XYDATA=(X++(Y..Y))
600.374000 0.7820 0.7820 0.7820 0.7820 0.7820
604.423854 0.7820 0.7810 0.7810 0.7810 0.7810
608.473708 0.7810 0.7800 0.7800 0.7800 0.7800
612.523562 0.7800 0.7800 0.7790 0.7790 0.7790
616.573416 0.7780 0.7780 0.7780 0.7770 0.7770
620.623269 0.7770 0.7760 0.7760 0.7760 0.7760
624.673123 0.7750 0.7740 0.7730 0.7720 0.7720
628.722977 0.7710 0.7690 0.7670 0.7650 0.7630
632.772831 0.7590 0.7540 0.7470 0.7400 0.7310
636.822685 0.7210 0.7041 0.6861 0.6681 0.6501
640.872539 0.6320 0.6160 0.6000 0.5860 0.5730
644.922393 0.5620 0.5411 0.5400 0.5400 0.5400
648.972247 0.5470 0.5510 0.5560 0.5620 0.5660
653.022101 0.5670 0.5660 0.5620 0.5560 0.5480
657.071954 0.5380 0.4810 0.4540 0.4251 0.3961
661.121808 0.3093 0.1854 0.1601 0.1351 0.1121
665.171662 0.1110 0.1120 0.1330 0.1540 0.1750
669.221516 0.1940 0.2738 0.3527 0.4058 0.4299
673.271370 0.4400 0.4520 0.4530 0.4570 0.4610
677.321224 0.4650 0.4690 0.4730 0.4760 0.4760
681.371078 0.4750 0.4720 0.4640 0.4510 0.4410
685.420932 0.4310 0.4210 0.4130 0.4030 0.3921
689.470785 0.3790 0.3650 0.3470 0.3280 0.3030
693.520639 0.2830 0.2631 0.2421 0.2221 0.2011
697.570493 0.1810 0.1610 0.1430 0.1250 0.0941
701.620347 0.0810 0.0690 0.0600 0.0520 0.0470
705.670201 0.0450 0.0430 0.0420 0.0420 0.0410
709.720055 0.0400 0.0400 0.0390 0.0390 0.0400
713.769909 0.0420 0.0420 0.0470 0.0740 0.0990
717.819763 0.1120 0.1240 0.1479 0.1719 0.1959
721.869617 0.2210 0.2470 0.2740 0.3010 0.3310
725.919470 0.3619 0.3959 0.4339 0.4380 0.4380
729.969324 0.4340 0.4240 0.3341 0.2911 0.2171
734.019178 0.1601 0.1141 0.1120 0.1020 0.1010
738.069032 0.1010 0.1010 0.1010 0.1050 0.1080
742.118886 0.1110 0.1140 0.1180 0.1190 0.1190
746.168740 0.1180 0.0950 0.0870 0.0800 0.0700
750.218594 0.0520 0.0340 0.0041 0.0030 0.0020
754.268448 0.0030 0.0080 0.0120 0.0290 0.0500
758.318302 0.0710 0.0899 0.0920 0.0920 0.0681
762.368155 0.0540 0.0410 0.0410 0.0500 0.0919
766.418009 0.0990 0.1010 0.1040 0.1150 0.1687
770.467863 0.2431 0.2930 0.3400 0.3820 0.4210
774.517717 0.4559 0.4889 0.5040 0.5180 0.5449
778.567571 0.5690 0.5900 0.6090 0.6260 0.6410
782.617425 0.6540 0.6660 0.6750 0.6840 0.6910
786.667279 0.6980 0.7040 0.7090 0.7140 0.7190
790.717133 0.7230 0.7280 0.7330 0.7380 0.7440
794.766986 0.7510 0.7580 0.7610 0.7640 0.7670
798.816840 0.7710 0.7740 0.7770 0.7800 0.7830
802.866694 0.7860 0.7890 0.7910 0.7930 0.7940
806.916548 0.7950 0.7960 0.7980 0.7990 0.8000
810.966402 0.8010 0.8010 0.8010 0.8020 0.8030
815.016256 0.8030 0.8040 0.8050 0.8050 0.8060
819.066110 0.8060 0.8060 0.8060 0.8070 0.8070
823.115964 0.8070 0.8080 0.8080 0.8080 0.8080
827.165818 0.8080 0.8070 0.8070 0.8060 0.8060
831.215671 0.8050 0.8050 0.8040 0.8020 0.8010
835.265525 0.7990 0.7980 0.7970 0.7960 0.7930
839.315379 0.7910 0.7890 0.7860 0.7820 0.7780
843.365233 0.7730 0.7670 0.7630 0.7560 0.7490
847.415087 0.7410 0.7320 0.7220 0.7120 0.7001
851.464941 0.6870 0.6710 0.6490 0.6340 0.6240
855.514795 0.6120 0.5950 0.5681 0.5242 0.4981
859.564649 0.4990 0.5140 0.5280 0.5440 0.5750
863.614503 0.5930 0.6040 0.6110 0.6210 0.6359
867.664356 0.6440 0.6500 0.6520 0.6540 0.6540
871.714210 0.6550 0.6560 0.6560 0.6550 0.6540
875.764064 0.6520 0.6370 0.6210 0.6130 0.3802
879.813918 0.0315 0.0290 0.0310 0.0589 0.0879
883.863772 0.1020 0.1160 0.1450 0.1730 0.2299
887.913626 0.2989 0.3329 0.4566 0.5018 0.5468
891.963480 0.5900 0.6210 0.6470 0.6690 0.6870
896.013334 0.7020 0.7150 0.7250 0.7340 0.7420
900.063188 0.7480 0.7550 0.7610 0.7660 0.7700
904.113041 0.7740 0.7780 0.7820 0.7860 0.7900
908.162895 0.7930 0.7970 0.8000 0.8020 0.8050
912.212749 0.8080 0.8100 0.8110 0.8130 0.8140
916.262603 0.8150 0.8170 0.8170 0.8190 0.8190
920.312457 0.8190 0.8200 0.8200 0.8200 0.8200
924.362311 0.8190 0.8190 0.8180 0.8180 0.8180
928.412165 0.8180 0.8170 0.8160 0.8150 0.8140
932.462019 0.8100 0.8080 0.8060 0.8040 0.8010
936.511872 0.7980 0.7940 0.7870 0.7780 0.7670
940.561726 0.7510 0.7330 0.7090 0.6580 0.6490
944.611580 0.6490 0.6500 0.6909 0.7219 0.7439
948.661434 0.7590 0.7690 0.7760 0.7810 0.7860
952.711288 0.7950 0.8010 0.8030 0.8040 0.8050
956.761142 0.8050 0.8050 0.8050 0.8050 0.8050
960.810996 0.8050 0.8040 0.8040 0.8040 0.8030
964.860850 0.8020 0.8010 0.8010 0.8010 0.8000
968.910704 0.7970 0.7970 0.7950 0.7940 0.7930
972.960557 0.7910 0.7890 0.7870 0.7840 0.7840
977.010411 0.7830 0.7820 0.7810 0.7810 0.7800
981.060265 0.7800 0.7800 0.7800 0.7800 0.7810
985.110119 0.7820 0.7870 0.7920 0.7960 0.7990
989.159973 0.8030 0.8040 0.8050 0.8050 0.8050
993.209827 0.8050 0.8060 0.8070 0.8070 0.8060
997.259681 0.8050 0.8050 0.8050 0.8030 0.8030
1001.309535 0.8020 0.8010 0.7980 0.7950 0.7930
1005.359389 0.7870 0.7770 0.7670 0.7580 0.7480
1009.409242 0.7340 0.7330 0.7340 0.7430 0.7500
1013.459096 0.7590 0.7690 0.7800 0.7860 0.7880
1017.508950 0.7860 0.7850 0.7820 0.7800 0.7750
1021.558804 0.7650 0.7560 0.7470 0.7110 0.6820
1025.608658 0.6541 0.6251 0.4894 0.2977 0.2960
1029.658512 0.2970 0.3221 0.4220 0.4500 0.4980
1033.708366 0.5460 0.6199 0.6759 0.7169 0.7449
1037.758220 0.7630 0.7730 0.7800 0.7860 0.7930
1041.808074 0.8040 0.8050 0.8060 0.8100 0.8130
1045.857927 0.8160 0.8170 0.8180 0.8180 0.8180
1049.907781 0.8190 0.8190 0.8190 0.8190 0.8190
1053.957635 0.8190 0.8190 0.8200 0.8200 0.8210
1058.007489 0.8220 0.8220 0.8220 0.8220 0.8220
1062.057343 0.8220 0.8230 0.8230 0.8230 0.8230
1066.107197 0.8220 0.8220 0.8210 0.8210 0.8190
1070.157051 0.8180 0.8170 0.8150 0.8140 0.8140
1074.206905 0.8140 0.8130 0.8120 0.8120 0.8120
1078.256758 0.8130 0.8140 0.8150 0.8160 0.8180
1082.306612 0.8190 0.8220 0.8240 0.8260 0.8280
1086.356466 0.8290 0.8300 0.8300 0.8300 0.8300
1090.406320 0.8300 0.8290 0.8270 0.8270 0.8260
1094.456174 0.8250 0.8240 0.8230 0.8230 0.8220
1098.506028 0.8220 0.8210 0.8190 0.8170 0.8140
1102.555882 0.8100 0.8050 0.7990 0.7920 0.7830
1106.605736 0.7720 0.7610 0.7470 0.7151 0.6313
1110.655590 0.4889 0.4190 0.4190 0.4340 0.4480
1114.705443 0.4770 0.4930 0.5070 0.5359 0.5659
1118.755297 0.5950 0.6250 0.6680 0.6860 0.7040
1122.805151 0.7200 0.7290 0.7340 0.7350 0.7350
1126.855005 0.7350 0.7350 0.7350 0.7350 0.7340
1130.904859 0.7340 0.7290 0.7210 0.7170 0.7130
1134.954713 0.7110 0.7070 0.7000 0.6900 0.6740
1139.004567 0.6500 0.6200 0.5811 0.5401 0.5330
1143.054421 0.4528 0.3378 0.1939 0.0220 0.0210
1147.104275 0.0210 0.0809 0.1329 0.1839 0.1980
1151.154128 0.1981 0.2710 0.3080 0.3150 0.3759
1155.203982 0.4549 0.5009 0.5449 0.5590 0.5720
1159.253836 0.5840 0.5950 0.6060 0.6160 0.6240
1163.303690 0.6280 0.6290 0.6290 0.6280 0.6270
1167.353544 0.6250 0.6150 0.5839 0.4860 0.4310
1171.403398 0.3791 0.3381 0.3121 0.2940 0.2701
1175.453252 0.2470 0.2230 0.2000 0.1770 0.1750
1179.503106 0.1760 0.1880 0.2060 0.2210 0.2359
1183.552959 0.2431 0.2690 0.2880 0.3080 0.3420
1187.602813 0.3430 0.3430 0.3420 0.3320 0.3150
1191.652667 0.3098 0.2028 0.0750 0.0400 0.0140
1195.702521 0.0120 0.0120 0.0130 0.0150 0.0459
1199.752375 0.0760 0.0920 0.1060 0.1370 0.1670
1203.802229 0.1980 0.2160 0.2739 0.3099 0.3309
1207.852083 0.3420 0.3510 0.3630 0.3830 0.3980
1211.901937 0.4000 0.4000 0.3880 0.3750 0.3541
1215.951791 0.3330 0.3189 0.2779 0.2300 0.2100
1220.001644 0.1850 0.1600 0.1360 0.0971 0.0850
1224.051498 0.0840 0.0840 0.0840 0.0930 0.1010
1228.101352 0.1599 0.1720 0.2069 0.2569 0.3019
1232.151206 0.3451 0.3850 0.4220 0.4580 0.4900
1236.201060 0.5060 0.5200 0.5479 0.5729 0.5949
1240.250914 0.6160 0.6340 0.6500 0.6640 0.6750
1244.300768 0.6830 0.6850 0.6870 0.6880 0.6890
1248.350622 0.6900 0.6900 0.6880 0.6860 0.6790
1252.400476 0.6740 0.6720 0.6690 0.6550 0.6391
1256.450329 0.6200 0.5960 0.5700 0.5420 0.4790
1260.500183 0.4460 0.4111 0.3751 0.3391 0.3031
1264.550037 0.2679 0.2329 0.1990 0.1660 0.1350
1268.599891 0.0800 0.0570 0.0360 0.0310 0.0250
1272.649745 0.0200 0.0140 0.0080 0.0010 0.0000
1276.699599 0.0000 0.0000 0.0000 0.0000 0.0000
1280.749453 0.0000 0.0010 0.0030 0.0130 0.0240
1284.799307 0.0330 0.0440 0.0540 0.0769 0.0989
1288.849161 0.1090 0.1190 0.1380 0.1560 0.1720
1292.899014 0.1900 0.2070 0.2250 0.2440 0.2640
1296.948868 0.2851 0.3080 0.3340 0.3620 0.3930
1300.998722 0.4270 0.4650 0.4959 0.5100 0.5230
1305.048576 0.5310 0.5310 0.5330 0.5340 0.5350
1309.098430 0.5340 0.5260 0.5170 0.4981 0.4890
1313.148284 0.4509 0.4190 0.4070 0.3930 0.3790
1317.198138 0.3650 0.3500 0.3370 0.3220 0.3080
1321.247992 0.2950 0.2950 0.2990 0.3360 0.3810
1325.297845 0.4130 0.4300 0.4490 0.4729 0.4820
1329.347699 0.4820 0.4740 0.4690 0.4600 0.4510
1333.397553 0.4320 0.4130 0.4090 0.4000 0.3920
1337.447407 0.3830 0.3830 0.3830 0.3890 0.3950
1341.497261 0.4000 0.4100 0.4200 0.4220 0.4260
1345.547115 0.4300 0.4380 0.4470 0.4540 0.4630
1349.596969 0.4700 0.4760 0.4820 0.4880 0.4930
1353.646823 0.4980 0.5010 0.5020 0.5070 0.5110
1357.696677 0.5150 0.5180 0.5220 0.5250 0.5280
1361.746530 0.5310 0.5330 0.5350 0.5360 0.5360
1365.796384 0.5350 0.5350 0.5350 0.5340 0.5290
1369.846238 0.5159 0.4850 0.4700 0.4560 0.4450
1373.896092 0.4360 0.4270 0.3791 0.3491 0.3191
1377.945946 0.2889 0.2367 0.0590 0.0580 0.0590
1381.995800 0.0800 0.0950 0.1100 0.1399 0.1699
1386.045654 0.2001 0.2300 0.2600 0.2900 0.3190
1390.095508 0.3480 0.3770 0.4379 0.4589 0.4829
1394.145362 0.4840 0.4850 0.4850 0.4850 0.4850
1398.195215 0.4840 0.4800 0.4660 0.4540 0.4430
1402.245069 0.4320 0.4220 0.4150 0.4080 0.4020
1406.294923 0.3960 0.3940 0.3930 0.3920 0.3910
1410.344777 0.3910 0.3900 0.3890 0.3890 0.3890
1414.394631 0.3890 0.3900 0.3900 0.3940 0.3980
1418.444485 0.4030 0.4080 0.4130 0.4170 0.4230
1422.494339 0.4270 0.4320 0.4350 0.4420 0.4470
1426.544193 0.4530 0.4590 0.4640 0.4700 0.4750
1430.594046 0.4790 0.4830 0.4860 0.4890 0.4900
1434.643900 0.4900 0.4890 0.4880 0.4850 0.4840
1438.693754 0.4830 0.4810 0.4810 0.4800 0.4800
1442.743608 0.4810 0.4810 0.4810 0.4820 0.4820
1446.793462 0.4810 0.4810 0.4740 0.4550 0.4121
1450.843316 0.3839 0.3650 0.3440 0.3159 0.2709
1454.893170 0.0620 0.0460 0.0130 0.0120 0.0120
1458.943024 0.0130 0.0160 0.0390 0.0630 0.0860
1462.992878 0.0970 0.1090 0.1320 0.1559 0.1779
1467.042731 0.2020 0.2191 0.2550 0.2780 0.2930
1471.092585 0.3050 0.3200 0.3410 0.3410 0.3410
1475.142439 0.3409 0.3080 0.2949 0.2629 0.2190
1479.192293 0.1690 0.0800 0.0530 0.0460 0.0161
1483.242147 0.0150 0.0150 0.0160 0.0200 0.0550
1487.292001 0.0880 0.1050 0.1200 0.1509 0.1789
1491.341855 0.2061 0.2330 0.2580 0.2830 0.3080
1495.391709 0.3310 0.3540 0.3780 0.4009 0.4259
1499.441563 0.4491 0.4650 0.4720 0.4760 0.4950
1503.491416 0.5050 0.5140 0.5240 0.5340 0.5410
1507.541270 0.5420 0.5420 0.5410 0.5350 0.5310
1511.591124 0.5250 0.5200 0.5140 0.4980 0.4880
1515.640978 0.4750 0.4680 0.4610 0.4600 0.4640
1519.690832 0.4720 0.4810 0.4910 0.4960 0.5010
1523.740686 0.5100 0.5180 0.5230 0.5230 0.5240
1527.790540 0.5230 0.5190 0.5160 0.5130 0.5100
1531.840394 0.5060 0.5030 0.4980 0.4940 0.4910
1535.890248 0.4860 0.4820 0.4720 0.4610 0.4590
1539.940101 0.4550 0.4420 0.4300 0.4260 0.4220
1543.989955 0.4190 0.4140 0.4110 0.4080 0.4050
1548.039809 0.4020 0.4030 0.4030 0.4030 0.4040
1552.089663 0.4060 0.4070 0.4090 0.4120 0.4130
1556.139517 0.4130 0.4130 0.4130 0.4130 0.4130
1560.189371 0.4130 0.4130 0.4130 0.4120 0.4120
1564.239225 0.4100 0.4090 0.4080 0.4060 0.4050
1568.289079 0.4020 0.4000 0.3960 0.3920 0.3711
1572.338932 0.3379 0.2979 0.2519 0.2059 0.1619
1576.388786 0.0990 0.0870 0.0590 0.0300 0.0290
1580.438640 0.0301 0.0611 0.0800 0.1001 0.1330
1584.488494 0.1610 0.1860 0.2070 0.2250 0.2400
1588.538348 0.2720 0.2730 0.2710 0.2590 0.2500
1592.588202 0.2490 0.2510 0.2630 0.2750 0.2780
1596.638056 0.2800 0.2861 0.3151 0.3520 0.3670
1600.687910 0.3820 0.3950 0.4030 0.4190 0.4180
1604.737764 0.4110 0.4029 0.3850 0.3660 0.3460
1608.787617 0.3250 0.3040 0.2820 0.2600 0.2370
1612.837471 0.2139 0.1909 0.1680 0.1439 0.0990
1616.887325 0.0770 0.0550 0.0330 0.0140 0.0120
1620.937179 0.0130 0.0220 0.0341 0.0710 0.1050
1624.987033 0.1390 0.1840 0.2100 0.2260 0.2370
1629.036887 0.2531 0.2781 0.2990 0.2990 0.3000
1633.086741 0.2900 0.2780 0.2660 0.2440 0.2011
1637.136595 0.1508 0.0830 0.0650 0.0480 0.0300
1641.186449 0.0210 0.0080 0.0000 0.0000 0.0000
1645.236302 0.0000 0.0050 0.0150 0.0240 0.0330
1649.286156 0.0420 0.0520 0.0610 0.0740 0.0750
1653.336010 0.0760 0.0760 0.0730 0.0630 0.0480
1657.385864 0.0320 0.0160 0.0060 0.0000 0.0000
1661.435718 0.0000 0.0000 0.0000 0.0000 0.0000
1665.485572 0.0000 0.0000 0.0000 0.0000 0.0000
1669.535426 0.0000 0.0000 0.0020 0.0040 0.0080
1673.585280 0.0160 0.0280 0.0440 0.0630 0.0850
1677.635133 0.0970 0.1091 0.1351 0.1641 0.1920
1681.684987 0.2210 0.2510 0.2800 0.3080 0.3350
1685.734841 0.3611 0.3831 0.4050 0.4180 0.4290
1689.784695 0.4430 0.4690 0.4910 0.5020 0.5110
1693.834549 0.5301 0.5470 0.5630 0.5770 0.5900
1697.884403 0.6010 0.6110 0.6210 0.6290 0.6370
1701.934257 0.6440 0.6490 0.6540 0.6580 0.6620
1705.984111 0.6650 0.6660 0.6660 0.6650 0.6650
1710.033965 0.6640 0.6630 0.6610 0.6580 0.6570
1714.083818 0.6550 0.6540 0.6530 0.6520 0.6510
1718.133672 0.6500 0.6490 0.6490 0.6500 0.6540
1722.183526 0.6570 0.6610 0.6660 0.6720 0.6790
1726.233380 0.6850 0.6920 0.7000 0.7080 0.7170
1730.283234 0.7250 0.7340 0.7410 0.7470 0.7540
1734.333088 0.7600 0.7660 0.7710 0.7760 0.7800
1738.382942 0.7840 0.7890 0.7930 0.7960 0.7990
1742.432796 0.8020 0.8050 0.8080 0.8110 0.8140
1746.482650 0.8160 0.8180 0.8210 0.8230 0.8260
1750.532503 0.8280 0.8310 0.8330 0.8350 0.8350
1754.582357 0.8350 0.8350 0.8350 0.8340 0.8340
1758.632211 0.8330 0.8320 0.8310 0.8310 0.8300
1762.682065 0.8300 0.8290 0.8270 0.8260 0.8220
1766.731919 0.8180 0.8150 0.8110 0.8060 0.7990
1770.781773 0.7920 0.7910 0.7920 0.7980 0.8030
1774.831627 0.8110 0.8160 0.8200 0.8230 0.8260
1778.881481 0.8270 0.8280 0.8300 0.8310 0.8330
1782.931335 0.8340 0.8350 0.8340 0.8340 0.8330
1786.981188 0.8320 0.8310 0.8280 0.8250 0.8210
1791.031042 0.8170 0.8130 0.8080 0.8030 0.7980
1795.080896 0.7930 0.7880 0.7840 0.7790 0.7750
1799.130750 0.7710 0.7670 0.7610 0.7600 0.7620
1803.180604 0.7670 0.7750 0.7830 0.7930 0.8040
1807.230458 0.8130 0.8180 0.8190 0.8210 0.8240
1811.280312 0.8280 0.8300 0.8310 0.8330 0.8330
1815.330166 0.8350 0.8350 0.8350 0.8350 0.8350
1819.380019 0.8350 0.8360 0.8360 0.8370 0.8380
1823.429873 0.8390 0.8390 0.8390 0.8390 0.8390
1827.479727 0.8390 0.8370 0.8350 0.8340 0.8310
1831.529581 0.8290 0.8270 0.8250 0.8220 0.8190
1835.579435 0.8180 0.8150 0.8130 0.8110 0.8090
1839.629289 0.8080 0.8080 0.8090 0.8090 0.8120
1843.679143 0.8140 0.8180 0.8200 0.8230 0.8260
1847.728997 0.8270 0.8290 0.8310 0.8320 0.8340
1851.778851 0.8350 0.8360 0.8380 0.8390 0.8390
1855.828704 0.8390 0.8390 0.8390 0.8390 0.8390
1859.878558 0.8390 0.8390 0.8380 0.8380 0.8380
1863.928412 0.8370 0.8370 0.8360 0.8350 0.8350
1867.978266 0.8350 0.8340 0.8340 0.8330 0.8330
1872.028120 0.8320 0.8320 0.8310 0.8310 0.8300
1876.077974 0.8300 0.8290 0.8280 0.8270 0.8250
1880.127828 0.8210 0.8150 0.8100 0.8040 0.7990
1884.177682 0.7960 0.7930 0.7930 0.7930 0.7980
1888.227536 0.8050 0.8100 0.8140 0.8180 0.8220
1892.277389 0.8260 0.8280 0.8310 0.8330 0.8350
1896.327243 0.8360 0.8380 0.8390 0.8410 0.8430
1900.377097 0.8450 0.8470 0.8480 0.8510 0.8520
1904.426951 0.8530 0.8540 0.8550 0.8550 0.8550
1908.476805 0.8530 0.8480 0.8440 0.8400 0.8360
1912.526659 0.8340 0.8310 0.8280 0.8260 0.8230
1916.576513 0.8210 0.8180 0.8150 0.8110 0.8070
1920.626367 0.8030 0.7970 0.7950 0.7940 0.7960
1924.676221 0.7990 0.8030 0.8090 0.8140 0.8180
1928.726074 0.8220 0.8270 0.8300 0.8330 0.8350
1932.775928 0.8380 0.8400 0.8420 0.8440 0.8460
1936.825782 0.8480 0.8490 0.8500 0.8520 0.8530
1940.875636 0.8540 0.8540 0.8530 0.8520 0.8520
1944.925490 0.8500 0.8480 0.8480 0.8460 0.8440
1948.975344 0.8430 0.8430 0.8380 0.8280 0.8200
1953.025198 0.8140 0.8090 0.8040 0.8000 0.7960
1957.075052 0.7900 0.7830 0.7820 0.7840 0.7930
1961.124905 0.8000 0.8060 0.8130 0.8180 0.8230
1965.174759 0.8270 0.8310 0.8340 0.8360 0.8370
1969.224613 0.8400 0.8430 0.8450 0.8470 0.8480
1973.274467 0.8500 0.8510 0.8520 0.8520 0.8510
1977.324321 0.8520 0.8520 0.8520 0.8520 0.8520
1981.374175 0.8530 0.8540 0.8550 0.8550 0.8540
1985.424029 0.8540 0.8530 0.8530 0.8520 0.8520
1989.473883 0.8520 0.8520 0.8510 0.8500 0.8490
1993.523737 0.8490 0.8490 0.8480 0.8480 0.8490
1997.573590 0.8500 0.8500 0.8510 0.8520 0.8525
2001.623444 0.8530 0.8535 0.8540 0.8543 0.8545
2005.673298 0.8548 0.8550 0.8553 0.8555 0.8558
2009.723152 0.8560 0.8560 0.8560 0.8560 0.8560
2013.773006 0.8560 0.8560 0.8560 0.8559 0.8557
2017.822860 0.8554 0.8552 0.8549 0.8547 0.8544
2021.872714 0.8542 0.8539 0.8537 0.8534 0.8532
2025.922568 0.8529 0.8527 0.8524 0.8522 0.8517
2029.972422 0.8509 0.8502 0.8494 0.8487 0.8482
2034.022275 0.8477 0.8472 0.8465 0.8454 0.8444
2038.072129 0.8434 0.8424 0.8414 0.8404 0.8394
2042.121983 0.8390 0.8390 0.8390 0.8390 0.8390
2046.171837 0.8390 0.8390 0.8390 0.8399 0.8412
2050.221691 0.8424 0.8437 0.8450 0.8462 0.8475
2054.271545 0.8487 0.8498 0.8508 0.8518 0.8528
2058.321399 0.8536 0.8544 0.8552 0.8559 0.8567
2062.371253 0.8575 0.8582 0.8590 0.8593 0.8595
2066.421106 0.8598 0.8600 0.8603 0.8605 0.8608
2070.470960 0.8610 0.8607 0.8605 0.8602 0.8600
2074.520814 0.8600 0.8600 0.8600 0.8598 0.8588
2078.570668 0.8578 0.8568 0.8558 0.8548 0.8538
2082.620522 0.8528 0.8519 0.8517 0.8514 0.8512
2086.670376 0.8510 0.8510 0.8510 0.8510 0.8510
2090.720230 0.8510 0.8510 0.8510 0.8511 0.8514
2094.770084 0.8516 0.8519 0.8522 0.8527 0.8533
2098.819938 0.8538 0.8547 0.8559 0.8572 0.8585
2102.869791 0.8593 0.8598 0.8603 0.8608 0.8613
2106.919645 0.8618 0.8623 0.8628 0.8632 0.8634
2110.969499 0.8637 0.8639 0.8644 0.8649 0.8654
2115.019353 0.8659 0.8664 0.8669 0.8674 0.8679
2119.069207 0.8682 0.8685 0.8687 0.8690 0.8690
2123.119061 0.8690 0.8690 0.8690 0.8690 0.8690
2127.168915 0.8690 0.8690 0.8692 0.8695 0.8698
2131.218769 0.8700 0.8700 0.8700 0.8700 0.8700
2135.268623 0.8703 0.8705 0.8708 0.8710 0.8707
2139.318476 0.8705 0.8702 0.8700 0.8697 0.8695
2143.368330 0.8692 0.8690 0.8687 0.8684 0.8682
2147.418184 0.8679 0.8674 0.8669 0.8664 0.8659
2151.468038 0.8654 0.8649 0.8643 0.8639 0.8637
2155.517892 0.8634 0.8632 0.8628 0.8623 0.8618
2159.567746 0.8613 0.8609 0.8606 0.8604 0.8601
2163.617600 0.8597 0.8592 0.8587 0.8582 0.8580
2167.667454 0.8580 0.8580 0.8580 0.8581 0.8584
2171.717308 0.8587 0.8589 0.8592 0.8594 0.8597
2175.767161 0.8599 0.8603 0.8608 0.8614 0.8619
2179.817015 0.8622 0.8624 0.8627 0.8629 0.8632
2183.866869 0.8634 0.8637 0.8640 0.8646 0.8654
2187.916723 0.8661 0.8669 0.8670 0.8670 0.8670
2191.966577 0.8670 0.8675 0.8680 0.8685 0.8690
2196.016431 0.8690 0.8690 0.8690 0.8690 0.8690
2200.066285 0.8690 0.8690 0.8690 0.8687 0.8685
2204.116139 0.8682 0.8679 0.8669 0.8658 0.8648
2208.165992 0.8640 0.8637 0.8635 0.8632 0.8629
2212.215846 0.8624 0.8619 0.8614 0.8609 0.8607
2216.265700 0.8604 0.8602 0.8598 0.8590 0.8583
2220.315554 0.8575 0.8566 0.8553 0.8540 0.8527
2224.365408 0.8511 0.8491 0.8470 0.8450 0.8431
2228.415262 0.8414 0.8396 0.8378 0.8369 0.8366
2232.465116 0.8364 0.8361 0.8361 0.8364 0.8367
2236.514970 0.8369 0.8389 0.8419 0.8450 0.8480
2240.564824 0.8497 0.8507 0.8517 0.8527 0.8543
2244.614677 0.8560 0.8578 0.8596 0.8600 0.8600
2248.664531 0.8600 0.8600 0.8596 0.8591 0.8586
2252.714385 0.8581 0.8576 0.8571 0.8565 0.8560
2256.764239 0.8558 0.8555 0.8553 0.8550 0.8540
2260.814093 0.8530 0.8520 0.8510 0.8494 0.8479
2264.863947 0.8464 0.8449 0.8442 0.8434 0.8427
2268.913801 0.8420 0.8417 0.8415 0.8412 0.8410
2272.963655 0.8413 0.8415 0.8418 0.8422 0.8429
2277.013509 0.8437 0.8444 0.8451 0.8453 0.8456
2281.063362 0.8458 0.8460 0.8460 0.8460 0.8460
2285.113216 0.8461 0.8463 0.8466 0.8469 0.8470
2289.163070 0.8470 0.8470 0.8470 0.8470 0.8470
2293.212924 0.8470 0.8470 0.8471 0.8474 0.8476
2297.262778 0.8479 0.8480 0.8480 0.8480 0.8480
2301.312632 0.8478 0.8476 0.8473 0.8471 0.8470
2305.362486 0.8470 0.8470 0.8470 0.8468 0.8466
2309.412340 0.8463 0.8461 0.8460 0.8460 0.8460
2313.462193 0.8460 0.8460 0.8460 0.8460 0.8460
2317.512047 0.8460 0.8460 0.8460 0.8460 0.8458
2321.561901 0.8455 0.8453 0.8450 0.8450 0.8450
2325.611755 0.8450 0.8450 0.8450 0.8450 0.8450
2329.661609 0.8450 0.8447 0.8445 0.8442 0.8440
2333.711463 0.8437 0.8435 0.8432 0.8429 0.8424
2337.761317 0.8419 0.8414 0.8409 0.8404 0.8399
2341.811171 0.8394 0.8389 0.8387 0.8384 0.8382
2345.861025 0.8379 0.8374 0.8369 0.8363 0.8358
2349.910878 0.8353 0.8348 0.8343 0.8338 0.8333
2353.960732 0.8328 0.8323 0.8321 0.8324 0.8326
2358.010586 0.8329 0.8335 0.8345 0.8355 0.8365
2362.060440 0.8374 0.8382 0.8389 0.8397 0.8401
2366.110294 0.8404 0.8407 0.8409 0.8410 0.8410
2370.160148 0.8410 0.8410 0.8408 0.8406 0.8403
2374.210002 0.8401 0.8400 0.8400 0.8400 0.8400
2378.259856 0.8398 0.8396 0.8393 0.8390 0.8384
2382.309710 0.8376 0.8368 0.8361 0.8355 0.8350
2386.359563 0.8345 0.8340 0.8340 0.8340 0.8340
2390.409417 0.8340 0.8343 0.8345 0.8348 0.8351
2394.459271 0.8366 0.8381 0.8396 0.8411 0.8426
2398.509125 0.8442 0.8457 0.8471 0.8476 0.8481
2402.558979 0.8486 0.8491 0.8496 0.8501 0.8506
2406.608833 0.8511 0.8516 0.8521 0.8526 0.8531
2410.658687 0.8536 0.8541 0.8546 0.8554 0.8567
2414.708541 0.8580 0.8592 0.8600 0.8600 0.8600
2418.758395 0.8600 0.8601 0.8604 0.8606 0.8609
2422.808248 0.8610 0.8610 0.8610 0.8610 0.8597
2426.858102 0.8571 0.8546 0.8521 0.8509 0.8506
2430.907956 0.8503 0.8501 0.8500 0.8500 0.8500
2434.957810 0.8500 0.8500 0.8500 0.8500 0.8500
2439.007664 0.8504 0.8509 0.8514 0.8519 0.8535
2443.057518 0.8555 0.8576 0.8596 0.8604 0.8609
2447.107372 0.8614 0.8619 0.8620 0.8620 0.8620
2451.157226 0.8620 0.8622 0.8625 0.8627 0.8630
2455.207079 0.8628 0.8625 0.8622 0.8620 0.8620
2459.256933 0.8620 0.8620 0.8620 0.8615 0.8610
2463.306787 0.8604 0.8600 0.8600 0.8600 0.8600
2467.356641 0.8600 0.8597 0.8595 0.8592 0.8590
2471.406495 0.8587 0.8584 0.8582 0.8579 0.8577
2475.456349 0.8574 0.8572 0.8569 0.8567 0.8564
2479.506203 0.8562 0.8556 0.8546 0.8536 0.8526
2483.556057 0.8516 0.8506 0.8495 0.8485 0.8479
2487.605911 0.8476 0.8474 0.8471 0.8467 0.8462
2491.655764 0.8457 0.8452 0.8446 0.8438 0.8431
2495.705618 0.8423 0.8411 0.8396 0.8381 0.8365
2499.755472 0.8345 0.8323 0.8300 0.8277 0.8256
2503.805326 0.8236 0.8216 0.8195 0.8188 0.8186
2507.855180 0.8183 0.8181 0.8184 0.8189 0.8194
2511.905034 0.8199 0.8209 0.8219 0.8229 0.8239
2515.954888 0.8263 0.8289 0.8314 0.8339 0.8367
2520.004742 0.8395 0.8423 0.8450 0.8463 0.8475
2524.054596 0.8488 0.8500 0.8505 0.8510 0.8515
2528.104449 0.8520 0.8520 0.8520 0.8520 0.8519
2532.154303 0.8514 0.8509 0.8504 0.8499 0.8491
2536.204157 0.8483 0.8476 0.8468 0.8458 0.8448
2540.254011 0.8437 0.8428 0.8420 0.8413 0.8405
2544.303865 0.8395 0.8383 0.8370 0.8357 0.8346
2548.353719 0.8336 0.8326 0.8315 0.8288 0.8240
2552.403573 0.8192 0.8144 0.8119 0.8116 0.8114
2556.453427 0.8111 0.8111 0.8114 0.8116 0.8119
2560.503280 0.8129 0.8144 0.8159 0.8174 0.8188
2564.553134 0.8201 0.8213 0.8226 0.8237 0.8247
2568.602988 0.8257 0.8267 0.8277 0.8287 0.8297
2572.652842 0.8308 0.8314 0.8319 0.8324 0.8329
2576.702696 0.8332 0.8335 0.8337 0.8340 0.8338
2580.752550 0.8335 0.8333 0.8330 0.8328 0.8325
2584.802404 0.8323 0.8320 0.8317 0.8315 0.8312
2588.852258 0.8310 0.8305 0.8300 0.8295 0.8290
2592.902112 0.8285 0.8279 0.8274 0.8269 0.8261
2596.951965 0.8254 0.8246 0.8239 0.8234 0.8229
2601.001819 0.8224 0.8219 0.8214 0.8209 0.8204
2605.051673 0.8197 0.8184 0.8171 0.8158 0.8149
2609.101527 0.8147 0.8144 0.8142 0.8141 0.8144
2613.151381 0.8146 0.8149 0.8152 0.8157 0.8162
2617.201235 0.8167 0.8171 0.8174 0.8176 0.8179
2621.251089 0.8183 0.8188 0.8193 0.8198 0.8200
2625.300943 0.8200 0.8200 0.8200 0.8195 0.8188
2629.350797 0.8180 0.8173 0.8165 0.8157 0.8150
2633.400650 0.8142 0.8138 0.8136 0.8133 0.8131
2637.450504 0.8130 0.8130 0.8130 0.8130 0.8126
2641.500358 0.8121 0.8116 0.8111 0.8105 0.8100
2645.550212 0.8095 0.8090 0.8088 0.8085 0.8083
2649.600066 0.8080 0.8078 0.8075 0.8072 0.8070
2653.649920 0.8070 0.8070 0.8070 0.8070 0.8067
2657.699774 0.8065 0.8062 0.8060 0.8057 0.8055
2661.749628 0.8052 0.8050 0.8050 0.8050 0.8050
2665.799482 0.8050 0.8047 0.8044 0.8042 0.8039
2669.849335 0.8037 0.8034 0.8032 0.8030 0.8030
2673.899189 0.8030 0.8030 0.8029 0.8026 0.8024
2677.949043 0.8021 0.8020 0.8020 0.8020 0.8020
2681.998897 0.8019 0.8016 0.8014 0.8011 0.8010
2686.048751 0.8010 0.8010 0.8010 0.8009 0.8006
2690.098605 0.8004 0.8001 0.8000 0.8000 0.8000
2694.148459 0.8000 0.7998 0.7996 0.7993 0.7991
2698.198313 0.7990 0.7990 0.7990 0.7990 0.7988
2702.248166 0.7986 0.7983 0.7980 0.7978 0.7975
2706.298020 0.7973 0.7970 0.7970 0.7970 0.7970
2710.347874 0.7970 0.7965 0.7960 0.7955 0.7950
2714.397728 0.7945 0.7940 0.7935 0.7930 0.7925
2718.447582 0.7920 0.7915 0.7908 0.7875 0.7843
2722.497436 0.7810 0.7776 0.7739 0.7701 0.7663
2726.547290 0.7624 0.7581 0.7538 0.7495 0.7453
2730.597144 0.7412 0.7372 0.7331 0.7259 0.7074
2734.646998 0.6889 0.6704 0.6554 0.6476 0.6398
2738.696851 0.6319 0.6240 0.6159 0.6078 0.5997
2742.746705 0.5919 0.5843 0.5767 0.5691 0.5614
2746.796559 0.5536 0.5457 0.5379 0.5262 0.5105
2750.846413 0.4948 0.4791 0.4720 0.4720 0.4720
2754.896267 0.4720 0.4813 0.4973 0.5132 0.5291
2758.946121 0.5447 0.5601 0.5755 0.5909 0.6171
2762.995975 0.6484 0.6797 0.7111 0.7217 0.7240
2767.045829 0.7263 0.7286 0.7296 0.7304 0.7311
2771.095683 0.7319 0.7329 0.7339 0.7349 0.7359
2775.145536 0.7378 0.7399 0.7419 0.7439 0.7442
2779.195390 0.7445 0.7447 0.7450 0.7447 0.7445
2783.245244 0.7442 0.7440 0.7437 0.7435 0.7432
2787.295098 0.7430 0.7425 0.7419 0.7414 0.7407
2791.344952 0.7379 0.7351 0.7323 0.7289 0.7223
2795.394806 0.7158 0.7092 0.7027 0.6966 0.6904
2799.444660 0.6842 0.6784 0.6734 0.6683 0.6632
2803.494514 0.6583 0.6535 0.6487 0.6439 0.6393
2807.544368 0.6350 0.6307 0.6264 0.6220 0.6174
2811.594221 0.6129 0.6083 0.6035 0.5985 0.5934
2815.644075 0.5884 0.5832 0.5779 0.5726 0.5673
2819.693929 0.5614 0.5551 0.5488 0.5424 0.5299
2823.743783 0.5135 0.4971 0.4806 0.4625 0.4436
2827.793637 0.4246 0.4057 0.3887 0.3725 0.3563
2831.843491 0.3401 0.3311 0.3238 0.3164 0.3091
2835.893345 0.3007 0.2921 0.2835 0.2749 0.2738
2839.943199 0.2735 0.2733 0.2730 0.2728 0.2725
2843.993052 0.2723 0.2720 0.2722 0.2725 0.2728
2848.042906 0.2730 0.2745 0.2761 0.2776 0.2791
2852.092760 0.2812 0.2832 0.2852 0.2887 0.3049
2856.142614 0.3211 0.3372 0.3554 0.3850 0.4146
2860.192468 0.4441 0.4702 0.4815 0.4928 0.5041
2864.242322 0.5153 0.5264 0.5376 0.5487 0.5604
2868.292176 0.5733 0.5862 0.5991 0.6095 0.6161
2872.342030 0.6227 0.6292 0.6347 0.6388 0.6428
2876.391884 0.6469 0.6515 0.6568 0.6621 0.6674
2880.441737 0.6751 0.6849 0.6948 0.7046 0.7104
2884.491591 0.7129 0.7155 0.7180 0.7204 0.7226
2888.541445 0.7249 0.7272 0.7291 0.7309 0.7327
2892.591299 0.7344 0.7361 0.7376 0.7391 0.7407
2896.641153 0.7420 0.7433 0.7445 0.7458 0.7471
2900.691007 0.7483 0.7496 0.7508 0.7517 0.7524
2904.740861 0.7532 0.7539 0.7547 0.7555 0.7562
2908.790715 0.7570 0.7575 0.7580 0.7585 0.7590
2912.840569 0.7595 0.7600 0.7605 0.7610 0.7615
2916.890422 0.7620 0.7625 0.7630 0.7633 0.7635
2920.940276 0.7638 0.7640 0.7643 0.7645 0.7648
2924.990130 0.7651 0.7656 0.7661 0.7666 0.7671
2929.039984 0.7673 0.7676 0.7678 0.7681 0.7683
2933.089838 0.7686 0.7688 0.7691 0.7693 0.7696
2937.139692 0.7699 0.7700 0.7700 0.7700 0.7700
2941.189546 0.7700 0.7700 0.7700 0.7700 0.7700
2945.239400 0.7700 0.7700 0.7700 0.7699 0.7696
2949.289253 0.7694 0.7691 0.7690 0.7690 0.7690
2953.339107 0.7690 0.7688 0.7686 0.7683 0.7681
2957.388961 0.7680 0.7680 0.7680 0.7680 0.7678
2961.438815 0.7676 0.7673 0.7670 0.7670 0.7670
2965.488669 0.7670 0.7670 0.7668 0.7665 0.7663
2969.538523 0.7660 0.7655 0.7650 0.7645 0.7640
2973.588377 0.7638 0.7635 0.7633 0.7630 0.7625
2977.638231 0.7620 0.7615 0.7610 0.7600 0.7589
2981.688085 0.7579 0.7569 0.7556 0.7544 0.7531
2985.737938 0.7519 0.7514 0.7509 0.7504 0.7497
2989.787792 0.7476 0.7456 0.7435 0.7417 0.7407
2993.837646 0.7397 0.7387 0.7370 0.7337 0.7304
2997.887500 0.7271 0.7238 0.7206 0.7173 0.7140
3001.937354 0.7118 0.7113 0.7108 0.7103 0.7096
3005.987208 0.7085 0.7075 0.7065 0.7051 0.7034
3010.037062 0.7016 0.6998 0.6975 0.6948 0.6920
3014.086916 0.6892 0.6860 0.6825 0.6789 0.6754
3018.136770 0.6717 0.6679 0.6641 0.6603 0.6566
3022.186623 0.6531 0.6495 0.6459 0.6425 0.6392
3026.236477 0.6359 0.6326 0.6302 0.6279 0.6256
3030.286331 0.6233 0.6177 0.6113 0.6050 0.5987
3034.336185 0.5971 0.5961 0.5951 0.5941 0.5931
3038.386039 0.5920 0.5910 0.5900 0.5875 0.5850
3042.435893 0.5825 0.5800 0.5779 0.5759 0.5739
3046.485747 0.5719 0.5701 0.5684 0.5666 0.5646
3050.535601 0.5611 0.5576 0.5540 0.5504 0.5466
3054.585455 0.5427 0.5389 0.5350 0.5312 0.5275
3058.635308 0.5237 0.5205 0.5187 0.5169 0.5152
3062.685162 0.5137 0.5126 0.5116 0.5106 0.5082
3066.735016 0.5034 0.4986 0.4938 0.4890 0.4842
3070.784870 0.4794 0.4746 0.4719 0.4716 0.4714
3074.834724 0.4711 0.4711 0.4714 0.4716 0.4719
3078.884578 0.4738 0.4771 0.4804 0.4837 0.4874
3082.934432 0.4915 0.4955 0.4995 0.5033 0.5069
3086.984286 0.5105 0.5141 0.5184 0.5229 0.5275
3091.034139 0.5320 0.5332 0.5335 0.5337 0.5340
3095.083993 0.5340 0.5340 0.5340 0.5340 0.5289
3099.133847 0.5231 0.5173 0.5115 0.5108 0.5105
3103.183701 0.5103 0.5100 0.5122 0.5145 0.5167
3107.233555 0.5190 0.5190 0.5190 0.5190 0.5190
3111.283409 0.5179 0.5169 0.5159 0.5149 0.5142
3115.333263 0.5134 0.5127 0.5119 0.5114 0.5109
3119.383117 0.5104 0.5090 0.5047 0.5004 0.4961
3123.432971 0.4925 0.4907 0.4890 0.4872 0.4856
3127.482824 0.4843 0.4831 0.4818 0.4810 0.4810
3131.532678 0.4810 0.4810 0.4810 0.4810 0.4810
3135.582532 0.4810 0.4810 0.4810 0.4810 0.4810
3139.632386 0.4813 0.4818 0.4823 0.4828 0.4833
3143.682240 0.4838 0.4843 0.4848 0.4851 0.4854
3147.732094 0.4857 0.4859 0.4863 0.4868 0.4873
3151.781948 0.4879 0.4882 0.4884 0.4887 0.4889
3155.831802 0.4896 0.4903 0.4911 0.4919 0.4922
3159.881656 0.4925 0.4927 0.4930 0.4923 0.4916
3163.931509 0.4908 0.4901 0.4893 0.4886 0.4878
3167.981363 0.4870 0.4858 0.4845 0.4833 0.4820
3172.031217 0.4785 0.4750 0.4714 0.4679 0.4638
3176.081071 0.4598 0.4557 0.4520 0.4517 0.4515
3180.130925 0.4512 0.4510 0.4510 0.4510 0.4510
3184.180779 0.4510 0.4510 0.4510 0.4510 0.4515
3188.230633 0.4536 0.4556 0.4576 0.4599 0.4630
3192.280487 0.4660 0.4690 0.4716 0.4734 0.4752
3196.330340 0.4769 0.4790 0.4815 0.4841 0.4866
3200.380194 0.4889 0.4909 0.4929 0.4949 0.4966
3204.430048 0.4979 0.4991 0.5004 0.5015 0.5025
3208.479902 0.5036 0.5046 0.5063 0.5086 0.5108
3212.529756 0.5131 0.5154 0.5177 0.5200 0.5223
3216.579610 0.5244 0.5265 0.5285 0.5305 0.5327
3220.629464 0.5350 0.5373 0.5395 0.5418 0.5441
3224.679318 0.5464 0.5486 0.5509 0.5532 0.5555
3228.729172 0.5577 0.5602 0.5628 0.5653 0.5678
3232.779025 0.5704 0.5729 0.5754 0.5779 0.5807
3236.828879 0.5835 0.5863 0.5890 0.5916 0.5941
3240.878733 0.5966 0.5991 0.6009 0.6026 0.6044
3244.928587 0.6060 0.6063 0.6065 0.6068 0.6071
3248.978441 0.6076 0.6081 0.6086 0.6091 0.6093
3253.028295 0.6096 0.6098 0.6102 0.6110 0.6117
3257.078149 0.6125 0.6131 0.6133 0.6136 0.6138
3261.128003 0.6140 0.6140 0.6140 0.6140 0.6141
3265.177857 0.6144 0.6146 0.6149 0.6150 0.6150
3269.227710 0.6150 0.6150 0.6149 0.6146 0.6144
3273.277564 0.6141 0.6137 0.6132 0.6127 0.6122
3277.327418 0.6120 0.6120 0.6120 0.6120 0.6118
3281.377272 0.6116 0.6113 0.6111 0.6110 0.6110
3285.427126 0.6110 0.6110 0.6112 0.6115 0.6117
3289.476980 0.6120 0.6124 0.6129 0.6134 0.6139
3293.526834 0.6149 0.6159 0.6169 0.6179 0.6187
3297.576688 0.6195 0.6202 0.6210 0.6217 0.6225
3301.626542 0.6232 0.6240 0.6240 0.6240 0.6240
3305.676395 0.6240 0.6243 0.6245 0.6248 0.6250
3309.726249 0.6253 0.6255 0.6258 0.6261 0.6266
3313.776103 0.6271 0.6276 0.6280 0.6280 0.6280
3317.825957 0.6280 0.6282 0.6290 0.6297 0.6305
3321.875811 0.6312 0.6317 0.6322 0.6327 0.6333
3325.925665 0.6340 0.6348 0.6355 0.6361 0.6364
3329.975519 0.6366 0.6369 0.6378 0.6396 0.6413
3334.025373 0.6431 0.6449 0.6466 0.6484 0.6502
3338.075226 0.6519 0.6537 0.6555 0.6573 0.6589
3342.125080 0.6604 0.6620 0.6635 0.6650 0.6666
3346.174934 0.6681 0.6696 0.6709 0.6722 0.6734
3350.224788 0.6747 0.6762 0.6777 0.6792 0.6807
3354.274642 0.6820 0.6833 0.6846 0.6858 0.6871
3358.324496 0.6883 0.6896 0.6909 0.6921 0.6934
3362.374350 0.6947 0.6959 0.6970 0.6980 0.6990
3366.424204 0.7000 0.7007 0.7015 0.7023 0.7030
3370.474058 0.7040 0.7050 0.7061 0.7071 0.7078
3374.523911 0.7086 0.7094 0.7101 0.7109 0.7117
3378.573765 0.7124 0.7132 0.7139 0.7147 0.7154
3382.623619 0.7161 0.7166 0.7171 0.7176 0.7182
3386.673473 0.7190 0.7197 0.7205 0.7211 0.7213
3390.723327 0.7216 0.7218 0.7224 0.7234 0.7244
3394.773181 0.7254 0.7264 0.7275 0.7285 0.7295
3398.823035 0.7305 0.7315 0.7325 0.7335 0.7345
3402.872889 0.7355 0.7365 0.7376 0.7386 0.7396
3406.922743 0.7406 0.7417 0.7427 0.7437 0.7447
3410.972596 0.7457 0.7467 0.7477 0.7487 0.7498
3415.022450 0.7508 0.7518 0.7528 0.7538 0.7546
3419.072304 0.7554 0.7561 0.7569 0.7579 0.7589
3423.122158 0.7599 0.7609 0.7617 0.7624 0.7632
3427.172012 0.7639 0.7649 0.7659 0.7670 0.7680
3431.221866 0.7690 0.7700 0.7710 0.7720 0.7730
3435.271720 0.7740 0.7750 0.7760 0.7768 0.7776
3439.321574 0.7784 0.7791 0.7799 0.7806 0.7814
3443.371427 0.7822 0.7829 0.7837 0.7844 0.7853
3447.421281 0.7863 0.7873 0.7883 0.7891 0.7897
3451.471135 0.7902 0.7907 0.7913 0.7920 0.7928
3455.520989 0.7935 0.7943 0.7950 0.7958 0.7966
3459.570843 0.7973 0.7981 0.7988 0.7996 0.8002
3463.620697 0.8007 0.8012 0.8017 0.8024 0.8031
3467.670551 0.8039 0.8047 0.8053 0.8058 0.8063
3471.720405 0.8068 0.8075 0.8083 0.8090 0.8098
3475.770259 0.8104 0.8109 0.8114 0.8119 0.8124
3479.820112 0.8129 0.8134 0.8139 0.8144 0.8149
3483.869966 0.8154 0.8159 0.8164 0.8169 0.8174
3487.919820 0.8179 0.8180 0.8180 0.8180 0.8180
3491.969674 0.8187 0.8194 0.8202 0.8210 0.8212
3496.019528 0.8215 0.8217 0.8220 0.8225 0.8230
3500.069382 0.8235 0.8240 0.8243 0.8245 0.8248
3504.119236 0.8251 0.8256 0.8261 0.8266 0.8270
3508.169090 0.8273 0.8276 0.8278 0.8281 0.8283
3512.218944 0.8286 0.8288 0.8291 0.8293 0.8296
3516.268797 0.8298 0.8301 0.8303 0.8306 0.8308
3520.318651 0.8310 0.8310 0.8310 0.8310 0.8311
3524.368505 0.8314 0.8316 0.8319 0.8320 0.8320
3528.418359 0.8320 0.8320 0.8321 0.8324 0.8326
3532.468213 0.8329 0.8333 0.8338 0.8343 0.8348
3536.518067 0.8350 0.8350 0.8350 0.8350 0.8350
3540.567921 0.8350 0.8350 0.8350 0.8352 0.8354
3544.617775 0.8357 0.8359 0.8360 0.8360 0.8360
3548.667629 0.8360 0.8362 0.8365 0.8367 0.8370
3552.717482 0.8374 0.8379 0.8384 0.8389 0.8392
3556.767336 0.8395 0.8397 0.8400 0.8400 0.8400
3560.817190 0.8400 0.8400 0.8402 0.8405 0.8408
3564.867044 0.8410 0.8410 0.8410 0.8410 0.8410
3568.916898 0.8413 0.8415 0.8418 0.8420 0.8420
3572.966752 0.8420 0.8420 0.8421 0.8423 0.8426
3577.016606 0.8428 0.8431 0.8433 0.8436 0.8438
3581.066460 0.8442 0.8447 0.8452 0.8457 0.8461
3585.116313 0.8463 0.8466 0.8468 0.8471 0.8474
3589.166167 0.8476 0.8479 0.8480 0.8480 0.8480
3593.216021 0.8480 0.8480 0.8480 0.8480 0.8480
3597.265875 0.8480 0.8480 0.8480 0.8480 0.8480
3601.315729 0.8480 0.8480 0.8480 0.8480 0.8480
3605.365583 0.8480 0.8480 0.8482 0.8484 0.8487
3609.415437 0.8489 0.8490 0.8490 0.8490 0.8490
3613.465291 0.8494 0.8499 0.8504 0.8509 0.8510
3617.515145 0.8510 0.8510 0.8510 0.8512 0.8515
3621.564998 0.8517 0.8520 0.8520 0.8520 0.8520
3625.614852 0.8520 0.8527 0.8535 0.8542 0.8550
3629.664706 0.8553 0.8555 0.8558 0.8560 0.8563
3633.714560 0.8565 0.8568 0.8570 0.8573 0.8575
3637.764414 0.8578 0.8580 0.8580 0.8580 0.8580
3641.814268 0.8581 0.8583 0.8586 0.8588 0.8591
3645.864122 0.8593 0.8596 0.8598 0.8600 0.8600
3649.913976 0.8600 0.8600 0.8600 0.8600 0.8600
3653.963830 0.8600 0.8600 0.8600 0.8600 0.8600
3658.013683 0.8600 0.8600 0.8600 0.8600 0.8599
3662.063537 0.8596 0.8594 0.8591 0.8588 0.8586
3666.113391 0.8583 0.8581 0.8578 0.8576 0.8573
3670.163245 0.8571 0.8568 0.8566 0.8563 0.8561
3674.213099 0.8560 0.8560 0.8560 0.8560 0.8558
3678.262953 0.8555 0.8553 0.8550 0.8548 0.8545
3682.312807 0.8543 0.8540 0.8540 0.8540 0.8540
3686.362661 0.8540 0.8540 0.8540 0.8540 0.8540
3690.412515 0.8540 0.8540 0.8540 0.8540 0.8543
3694.462368 0.8545 0.8548 0.8550 0.8550 0.8550
3698.512222 0.8550 0.8550 0.8553 0.8555 0.8558
3702.562076 0.8560 0.8563 0.8566 0.8568 0.8571
3706.611930 0.8576 0.8581 0.8586 0.8590 0.8590
3710.661784 0.8590 0.8590 0.8591 0.8593 0.8596
3714.711638 0.8598 0.8600 0.8600 0.8600 0.8600
3718.761492 0.8600 0.8600 0.8600 0.8600 0.8600
3722.811346 0.8600 0.8600 0.8600 0.8601 0.8604
3726.861199 0.8606 0.8609 0.8610 0.8610 0.8610
3730.911053 0.8610 0.8610 0.8610 0.8610 0.8610
3734.960907 0.8612 0.8614 0.8617 0.8619 0.8620
3739.010761 0.8620 0.8620 0.8620 0.8622 0.8624
3743.060615 0.8627 0.8630 0.8630 0.8630 0.8630
3747.110469 0.8630 0.8632 0.8635 0.8637 0.8640
3751.160323 0.8640 0.8640 0.8640 0.8640 0.8640
3755.210177 0.8640 0.8640 0.8640 0.8640 0.8640
3759.260031 0.8640 0.8640 0.8643 0.8645 0.8648
3763.309884 0.8650 0.8650 0.8650 0.8650 0.8651
3767.359738 0.8656 0.8661 0.8666 0.8671 0.8673
3771.409592 0.8676 0.8678 0.8680 0.8680 0.8680
3775.459446 0.8680 0.8681 0.8683 0.8686 0.8688
3779.509300 0.8690 0.8690 0.8690 0.8690 0.8690
3783.559154 0.8690 0.8690 0.8690 0.8689 0.8686
3787.609008 0.8684 0.8681 0.8680 0.8680 0.8680
3791.658862 0.8680 0.8679 0.8676 0.8673 0.8671
3795.708716 0.8668 0.8666 0.8663 0.8661 0.8660
3799.758569 0.8660 0.8660 0.8660 0.8658 0.8656
3803.808423 0.8653 0.8651 0.8650 0.8650 0.8650
3807.858277 0.8650 0.8650 0.8650 0.8650 0.8650
3811.908131 0.8650 0.8650 0.8650 0.8650 0.8652
3815.957985 0.8655 0.8657 0.8660 0.8662 0.8665
3820.007839 0.8667 0.8670 0.8672 0.8675 0.8678
3824.057693 0.8680 0.8683 0.8685 0.8688 0.8690
3828.107547 0.8690 0.8690 0.8690 0.8690 0.8690
3832.157400 0.8690 0.8690 0.8690 0.8690 0.8690
3836.207254 0.8690 0.8690 0.8690 0.8690 0.8690
3840.257108 0.8690 0.8690 0.8690 0.8690 0.8690
3844.306962 0.8690 0.8690 0.8690 0.8690 0.8690
3848.356816 0.8690 0.8690 0.8690 0.8690 0.8690
3852.406670 0.8690 0.8690 0.8690 0.8690 0.8690
3856.456524 0.8690 0.8690 0.8690 0.8690 0.8688
3860.506378 0.8686 0.8683 0.8681 0.8680 0.8680
3864.556232 0.8680 0.8680 0.8678 0.8676 0.8673
3868.606085 0.8671 0.8670 0.8670 0.8670 0.8670
3872.655939 0.8666 0.8661 0.8656 0.8651 0.8646
3876.705793 0.8641 0.8636 0.8631 0.8623 0.8616
3880.755647 0.8608 0.8601 0.8593 0.8586 0.8578
3884.805501 0.8570 0.8568 0.8565 0.8562 0.8560
3888.855355 0.8557 0.8555 0.8552 0.8550 0.8550
3892.905209 0.8550 0.8550 0.8550 0.8553 0.8555
3896.955063 0.8558 0.8561 0.8566 0.8571 0.8576
3901.004917 0.8580 0.8580 0.8580 0.8580 0.8581
3905.054770 0.8583 0.8586 0.8588 0.8591 0.8593
3909.104624 0.8596 0.8598 0.8600 0.8600 0.8600
3913.154478 0.8600 0.8599 0.8596 0.8594 0.8591
3917.204332 0.8590 0.8590 0.8590 0.8590 0.8589
3921.254186 0.8586 0.8584 0.8581 0.8579 0.8576
3925.304040 0.8573 0.8571 0.8567 0.8562 0.8557
3929.353894 0.8552 0.8545 0.8537 0.8530 0.8522
3933.403748 0.8516 0.8511 0.8506 0.8501 0.8498
3937.453602 0.8496 0.8493 0.8490 0.8490 0.8490
3941.503455 0.8490 0.8490 0.8492 0.8495 0.8497
3945.553309 0.8500 0.8511 0.8524 0.8537 0.8549
3949.603163 0.8557 0.8565 0.8573 0.8580 0.8583
3953.653017 0.8585 0.8588 0.8590 0.8593 0.8595
3957.702871 0.8598 0.8600 0.8600 0.8600 0.8600
3961.752725 0.8600 0.8600 0.8600 0.8600 0.8601
3965.802579 0.8603 0.8606 0.8608 0.8610 0.8610
3969.852433 0.8610 0.8610 0.8610 0.8610 0.8610
3973.902286 0.8610 0.8611 0.8613 0.8616 0.8618
3977.952140 0.8620 0.8620 0.8620 0.8620
##END=
