##TITLE=NAPHTHALENE, 1-METHYL-
##JCAMP-DX=4.24
##DATA TYPE=INFRARED SPECTRUM
##CLASS=COBLENTZ III
##ORIGIN=DOW CORNING CORP.
##OWNER=COBLENTZ SOCIETY
Collection (C) 2018 copyright by the U.S. Secretary of Commerce
on behalf of the United States of America. All rights reserved.
##DATE=1966/08/18
##NAMES=1-methylnaphthalene
##CAS REGISTRY NO=90-12-0
##MOLFORM=C11 H10
##SOURCE REFERENCE=COBLENTZ NO. 4777
##$NIST SOURCE=COBLENTZ
##$NIST IMAGE=cob4777
##SPECTROMETER/DATA SYSTEM=PERKIN-ELMER 521 (GRATING)
##INSTRUMENT PARAMETERS=FILTERS AT 3150, 2500, 2000, 1150, 700, 410; GRATING CHANGES AT 2000, 630 CM^-^1
##STATE=SOLUTION (10% IN CCl4 FOR 3800-1300, 10% IN CS2 FOR 1300-650, AND 10% CCl4 FOR 650-240 CM^-^1) VERSUS SOLVENT
##PATH LENGTH=0.011, 0.010, AND 0.010 CM (CsBr CELL)
$$ 100% PURE
##SAMPLING PROCEDURE=TRANSMISSION
##RESOLUTION=4
##DATA PROCESSING=DIGITIZED BY NIST FROM HARD COPY (FROM TWO SEGMENTS)
##XUNITS=1/CM
##YUNITS=TRANSMITTANCE
##XFACTOR=1.000000
##YFACTOR=1
##DELTAX=1.280234
##FIRSTX=234.566
##LASTX=3794.9
##FIRSTY=0.821
##MAXX=3794.9
##MINX=234.566
##MAXY=0.931
##MINY=0
##NPOINTS=2782
##XYDATA=(X++(Y..Y))
234.566000 0.8210 0.8210 0.8210 0.8210 0.8180
240.967169 0.8180 0.8180 0.8180 0.8180 0.8160
247.368338 0.8160 0.8160 0.8150 0.8150 0.8150
253.769507 0.8150 0.8150 0.8150 0.8150 0.8130
260.170676 0.8130 0.8150 0.8150 0.8150 0.8150
266.571845 0.8150 0.8150 0.8150 0.8150 0.8150
272.973014 0.8150 0.8150 0.8160 0.8160 0.8160
279.374183 0.8180 0.8180 0.8200 0.8210 0.8230
285.775352 0.8250 0.8250 0.8270 0.8280 0.8300
292.176521 0.8320 0.8340 0.8340 0.8340 0.8350
298.577690 0.8370 0.8370 0.8390 0.8410 0.8410
304.978859 0.8410 0.8410 0.8410 0.8410 0.8420
311.380028 0.8420 0.8420 0.8440 0.8440 0.8440
317.781197 0.8440 0.8440 0.8420 0.8420 0.8440
324.182366 0.8440 0.8420 0.8440 0.8440 0.8440
330.583535 0.8440 0.8460 0.8460 0.8460 0.8460
336.984704 0.8460 0.8460 0.8460 0.8480 0.8480
343.385873 0.8480 0.8480 0.8510 0.8510 0.8510
349.787042 0.8510 0.8510 0.8530 0.8530 0.8530
356.188211 0.8530 0.8530 0.8530 0.8530 0.8530
362.589380 0.8530 0.8510 0.8510 0.8510 0.8510
368.990549 0.8530 0.8530 0.8530 0.8530 0.8530
375.391718 0.8530 0.8530 0.8530 0.8530 0.8530
381.792887 0.8530 0.8530 0.8530 0.8530 0.8530
388.194056 0.8530 0.8530 0.8530 0.8530 0.8510
394.595225 0.8510 0.8490 0.8480 0.8460 0.8410
400.996394 0.8350 0.8340 0.8300 0.8230 0.8160
407.397563 0.7991 0.7870 0.7452 0.6923 0.6105
413.798732 0.5370 0.4570 0.4570 0.5339 0.7266
420.199901 0.7798 0.8159 0.8349 0.8370 0.8390
426.601070 0.8410 0.8410 0.8410 0.8390 0.8390
433.002239 0.8350 0.8340 0.8320 0.8280 0.8210
439.403408 0.8060 0.7950 0.7570 0.7570 0.8338
445.804577 0.8350 0.8410 0.8460 0.8510 0.8550
452.205746 0.8580 0.8580 0.8600 0.8600 0.8620
458.606915 0.8620 0.8620 0.8620 0.8620 0.8620
465.008084 0.8620 0.8630 0.8650 0.8650 0.8670
471.409253 0.8670 0.8670 0.8650 0.8620 0.8580
477.810422 0.8550 0.8490 0.8080 0.8080 0.8180
484.211591 0.8350 0.8440 0.8669 0.8760 0.8770
490.612760 0.8810 0.8830 0.8840 0.8840 0.8840
497.013929 0.8840 0.8840 0.8830 0.8830 0.8810
503.415098 0.8810 0.8810 0.8790 0.8790 0.8770
509.816267 0.8770 0.8760 0.8740 0.8650 0.8620
516.217436 0.8620 0.8650 0.8690 0.8700 0.8700
522.618605 0.8690 0.8670 0.8620 0.8550 0.8530
529.019774 0.8390 0.8230 0.7870 0.7320 0.6232
535.420943 0.5073 0.4242 0.4270 0.5415 0.6773
541.822112 0.7801 0.8560 0.8670 0.8700 0.8720
548.223281 0.8740 0.8760 0.8760 0.8770 0.8790
554.624450 0.8790 0.8790 0.8770 0.8740 0.8650
561.025619 0.8620 0.8580 0.8550 0.8441 0.8271
567.426788 0.7950 0.7620 0.7620 0.8230 0.8420
573.827957 0.8630 0.8670 0.8720 0.8740 0.8760
580.229126 0.8770 0.8770 0.8770 0.8770 0.8770
586.630295 0.8790 0.8790 0.8810 0.8830 0.8840
593.031464 0.8840 0.8860 0.8860 0.8860 0.8880
599.432633 0.8880 0.8900 0.8880 0.8880 0.8880
605.833802 0.8860 0.8840 0.8840 0.8810 0.8810
612.234971 0.8790 0.8790 0.8790 0.8790 0.8790
618.636140 0.8790 0.8810 0.8830 0.8880 0.8980
625.037309 0.9070 0.9070 0.9090 0.9100 0.9120
631.438478 0.9120 0.9140 0.9160 0.9160 0.9170
637.839647 0.9170 0.9160 0.9160 0.9140 0.9140
644.240816 0.9140 0.9120 0.9120 0.9090 0.9050
650.641985 0.9020 0.9000 0.8980 0.8980 0.8970
657.043154 0.8970 0.8970 0.8980 0.8980 0.9020
663.444323 0.9020 0.9050 0.9070 0.9090 0.9090
669.845492 0.9090 0.9100 0.9120 0.9160 0.9170
676.246661 0.9190 0.9190 0.9190 0.9190 0.9190
682.647830 0.9170 0.9140 0.9100 0.9090 0.9070
689.048999 0.9000 0.8880 0.8810 0.8810 0.8830
695.450168 0.8830 0.8860 0.8860 0.8830 0.8770
701.851337 0.8690 0.8421 0.7852 0.7223 0.7220
708.252506 0.7732 0.8880 0.9040 0.9100 0.9140
714.653675 0.9160 0.9170 0.9160 0.9120 0.9090
721.054844 0.9020 0.8950 0.8930 0.8830 0.8760
727.456013 0.8670 0.8152 0.7552 0.7192 0.6822
733.857182 0.6449 0.6090 0.5720 0.5720 0.7008
740.258351 0.8228 0.8439 0.8649 0.8720 0.8790
746.659520 0.8840 0.8840 0.8830 0.8770 0.8670
753.060689 0.8530 0.8410 0.8270 0.8200 0.8180
759.461858 0.8160 0.8060 0.7800 0.7780 0.7730
765.863027 0.7460 0.7131 0.6851 0.5913 0.4934
772.264196 0.4857 0.3237 0.0000 0.0000 0.0499
778.665365 0.0660 0.1737 0.2796 0.3686 0.4596
785.066534 0.6350 0.6308 0.4970 0.4550 0.1952
791.467703 0.0972 0.0501 0.0291 0.0001 0.0000
797.868872 0.0333 0.1462 0.2601 0.4310 0.5159
804.270041 0.5649 0.6329 0.6609 0.6660 0.6570
810.671210 0.6640 0.6780 0.6940 0.7290 0.7530
817.072379 0.7969 0.8150 0.8349 0.8629 0.8789
823.473548 0.8830 0.8880 0.8900 0.8910 0.8910
829.874717 0.8930 0.8930 0.8930 0.8930 0.8910
836.275886 0.8910 0.8900 0.8900 0.8880 0.8880
842.677055 0.8860 0.8830 0.8830 0.8810 0.8790
849.078224 0.8760 0.8720 0.8580 0.8370 0.8180
855.479393 0.7940 0.7710 0.7461 0.7460 0.7809
861.880562 0.8420 0.8580 0.8620 0.8690 0.8830
868.281731 0.8930 0.8930 0.8950 0.8970 0.8970
874.682900 0.8970 0.8970 0.8980 0.9000 0.9000
881.084069 0.9000 0.8980 0.8980 0.8980 0.8980
887.485238 0.8970 0.8970 0.8950 0.8930 0.8930
893.886407 0.8900 0.8880 0.8880 0.8880 0.8900
900.287576 0.8910 0.8930 0.8950 0.8970 0.8980
906.688745 0.9000 0.9020 0.9020 0.9040 0.9040
913.089914 0.9040 0.9050 0.9050 0.9070 0.9090
919.491083 0.9090 0.9090 0.9090 0.9090 0.9090
925.892252 0.9090 0.9070 0.9070 0.9070 0.9050
932.293421 0.9040 0.9000 0.8980 0.8930 0.8930
938.694590 0.8900 0.8860 0.8810 0.8760 0.8740
945.095759 0.8690 0.8630 0.8580 0.8460 0.8111
951.496928 0.7670 0.7641 0.8150 0.8600 0.8630
957.898097 0.8600 0.8580 0.8420 0.8300 0.8200
964.299266 0.8089 0.7799 0.7190 0.7170 0.7620
970.700435 0.7870 0.8110 0.8369 0.8370 0.8320
977.101604 0.8210 0.8110 0.8060 0.7950 0.8080
983.502773 0.8340 0.8560 0.8740 0.8810 0.8840
989.903942 0.8840 0.8880 0.8930 0.8970 0.8980
996.305111 0.8980 0.9020 0.9050 0.9070 0.9070
1002.706280 0.9070 0.9040 0.9020 0.9000 0.8970
1009.107449 0.8880 0.8810 0.8770 0.8720 0.8620
1015.508618 0.8530 0.8420 0.8340 0.8150 0.7500
1021.909787 0.6980 0.6421 0.5861 0.5302 0.5300
1028.310956 0.6074 0.7340 0.7521 0.8020 0.8130
1034.712125 0.8150 0.8130 0.8080 0.7452 0.7460
1041.113294 0.8092 0.8830 0.8860 0.8950 0.9050
1047.514463 0.9070 0.9070 0.9070 0.9070 0.9050
1053.915632 0.9050 0.9040 0.9020 0.9000 0.8980
1060.316801 0.8950 0.8930 0.8830 0.8740 0.8720
1066.717970 0.8720 0.8720 0.8720 0.8690 0.8650
1073.119139 0.8600 0.8530 0.8410 0.8230 0.7921
1079.520308 0.7028 0.6560 0.6561 0.7262 0.8720
1085.921477 0.8840 0.8880 0.8930 0.8950 0.8970
1092.322646 0.9040 0.9120 0.9140 0.9160 0.9160
1098.723815 0.9170 0.9190 0.9190 0.9190 0.9170
1105.124984 0.9170 0.9160 0.9160 0.9140 0.9120
1111.526153 0.9120 0.9120 0.9140 0.9160 0.9160
1117.927322 0.9160 0.9160 0.9160 0.9140 0.9120
1124.328491 0.9100 0.9090 0.9090 0.9090 0.9070
1130.729660 0.9040 0.9000 0.8970 0.8930 0.8740
1137.130829 0.8630 0.8600 0.8580 0.8560 0.8530
1143.531998 0.8460 0.8420 0.8410 0.8440 0.8510
1149.933167 0.8550 0.8550 0.8510 0.8480 0.8390
1156.334336 0.8340 0.8280 0.8250 0.8180 0.7990
1162.735505 0.7830 0.7600 0.7320 0.7200 0.7100
1169.136674 0.5960 0.5963 0.7122 0.8250 0.8280
1175.537843 0.8630 0.8740 0.8770 0.8790 0.8810
1181.939012 0.8910 0.8950 0.8970 0.8970 0.8980
1188.340181 0.8980 0.8980 0.8970 0.8950 0.8910
1194.741350 0.8910 0.8900 0.8900 0.8900 0.8900
1201.142519 0.8880 0.8880 0.8880 0.8860 0.8840
1207.543688 0.8810 0.8760 0.8740 0.8580 0.8490
1213.944857 0.8270 0.8010 0.7760 0.7760 0.7939
1220.346026 0.8041 0.8421 0.8810 0.8900 0.8910
1226.747195 0.8910 0.8930 0.8950 0.8950 0.8970
1233.148364 0.8970 0.8970 0.8970 0.8970 0.8970
1239.549533 0.8970 0.8950 0.8950 0.8950 0.8950
1245.950702 0.8950 0.8930 0.8930 0.8910 0.8880
1252.351871 0.8830 0.8760 0.8700 0.8580 0.8510
1258.753040 0.8389 0.8230 0.8130 0.8090 0.8090
1265.154209 0.8110 0.8080 0.7970 0.7780 0.7012
1271.555378 0.7012 0.7532 0.8111 0.8511 0.8860
1277.956547 0.8930 0.9000 0.9040 0.9050 0.9090
1284.357716 0.9100 0.9100 0.9120 0.9120 0.9140
1290.758885 0.9140 0.9140 0.9140 0.9160 0.9160
1297.160054 0.9160 0.9160 0.9160 0.9160 0.9160
1303.561223 0.9160 0.9160 0.9160 0.9140 0.9140
1309.962392 0.9140 0.9140 0.9120 0.9100 0.9100
1316.363561 0.9090 0.9090 0.9070 0.9070 0.9070
1322.764730 0.9070 0.9070 0.9070 0.9070 0.9070
1329.165899 0.9070 0.9070 0.9070 0.9070 0.9070
1335.567068 0.9050 0.9020 0.8970 0.8950 0.8950
1341.968237 0.8910 0.8840 0.8740 0.8630 0.8550
1348.369406 0.8510 0.8550 0.8630 0.8760 0.8810
1354.770575 0.8810 0.8830 0.8830 0.8840 0.8860
1361.171744 0.8880 0.8900 0.8910 0.8910 0.8910
1367.572913 0.8880 0.8830 0.8770 0.8720 0.8700
1373.974082 0.8630 0.8600 0.8509 0.8270 0.8130
1380.375251 0.7990 0.7640 0.6521 0.6171 0.5881
1386.776420 0.5885 0.7122 0.7571 0.7780 0.7800
1393.177589 0.7760 0.7620 0.7500 0.7360 0.6751
1399.578758 0.5203 0.3654 0.2120 0.2125 0.4182
1405.979927 0.5471 0.6750 0.8249 0.8280 0.8270
1412.381096 0.8250 0.8210 0.8200 0.8180 0.8150
1418.782265 0.8150 0.8200 0.8230 0.8340 0.8250
1425.183434 0.8109 0.7969 0.7799 0.7600 0.7390
1431.584603 0.7190 0.7080 0.6840 0.6640 0.6610
1437.985772 0.6610 0.6590 0.6499 0.6309 0.5909
1444.386941 0.5140 0.5140 0.5420 0.5470 0.5929
1450.788110 0.6713 0.7322 0.7711 0.8010 0.8080
1457.189279 0.8110 0.8110 0.8060 0.7730 0.7600
1463.590448 0.7498 0.7029 0.6629 0.6170 0.6020
1469.991617 0.6020 0.6170 0.6420 0.7029 0.7948
1476.392786 0.8150 0.8250 0.8340 0.8440 0.8550
1482.793955 0.8560 0.8600 0.8620 0.8630 0.8630
1489.195124 0.8650 0.8650 0.8670 0.8670 0.8670
1495.596293 0.8650 0.8650 0.8620 0.8580 0.8440
1501.997462 0.8319 0.8180 0.8090 0.7989 0.7780
1508.398631 0.7590 0.7460 0.7100 0.6490 0.5212
1514.799800 0.4237 0.3540 0.3545 0.5131 0.5611
1521.200969 0.6311 0.7080 0.7870 0.8110 0.8320
1527.602138 0.8390 0.8490 0.8580 0.8600 0.8630
1534.003307 0.8650 0.8670 0.8700 0.8740 0.8760
1540.404476 0.8810 0.8880 0.8930 0.8950 0.8970
1546.805645 0.8980 0.8980 0.8980 0.8980 0.8980
1553.206814 0.8980 0.8980 0.8950 0.8910 0.8900
1559.607983 0.8880 0.8880 0.8860 0.8860 0.8860
1566.009152 0.8840 0.8830 0.8770 0.8720 0.8720
1572.410321 0.8630 0.8630 0.8620 0.8620 0.8620
1578.811490 0.8580 0.8559 0.8270 0.8200 0.8090
1585.212659 0.7970 0.7950 0.7950 0.7950 0.7940
1591.613828 0.7920 0.7880 0.7809 0.7659 0.7479
1598.014997 0.7270 0.7169 0.6540 0.5680 0.4671
1604.416166 0.3570 0.3576 0.5145 0.6594 0.7991
1610.817335 0.8300 0.8650 0.8770 0.8810 0.8830
1617.218504 0.8860 0.8860 0.8840 0.8830 0.8760
1623.619673 0.8760 0.8740 0.8720 0.8720 0.8720
1630.020842 0.8720 0.8740 0.8740 0.8760 0.8770
1636.422011 0.8790 0.8810 0.8830 0.8840 0.8840
1642.823180 0.8840 0.8830 0.8830 0.8840 0.8840
1649.224349 0.8860 0.8880 0.8880 0.8910 0.8910
1655.625518 0.8910 0.8910 0.8910 0.8910 0.8910
1662.026687 0.8910 0.8910 0.8880 0.8880 0.8860
1668.427856 0.8860 0.8840 0.8840 0.8840 0.8830
1674.829025 0.8830 0.8830 0.8810 0.8760 0.8700
1681.230194 0.8690 0.8650 0.8620 0.8600 0.8580
1687.631363 0.8560 0.8550 0.8530 0.8510 0.8490
1694.032532 0.8460 0.8460 0.8440 0.8440 0.8460
1700.433701 0.8510 0.8510 0.8720 0.8770 0.8860
1706.834870 0.8880 0.8900 0.8910 0.8910 0.8910
1713.236039 0.8910 0.8900 0.8880 0.8860 0.8830
1719.637208 0.8790 0.8760 0.8740 0.8720 0.8720
1726.038377 0.8720 0.8770 0.8810 0.8840 0.8860
1732.439546 0.8860 0.8840 0.8840 0.8830 0.8790
1738.840715 0.8720 0.8650 0.8620 0.8580 0.8550
1745.241884 0.8510 0.8460 0.8440 0.8420 0.8420
1751.643053 0.8440 0.8460 0.8490 0.8530 0.8550
1758.044222 0.8601 0.8700 0.8760 0.8770 0.8830
1764.445391 0.8840 0.8860 0.8880 0.8900 0.8900
1770.846560 0.8930 0.8950 0.8950 0.8930 0.8930
1777.247729 0.8950 0.8950 0.8950 0.8930 0.8930
1783.648898 0.8910 0.8910 0.8910 0.8840 0.8810
1790.050067 0.8770 0.8630 0.8550 0.8510 0.8490
1796.451236 0.8480 0.8480 0.8440 0.8420 0.8410
1802.852405 0.8320 0.8270 0.8250 0.8270 0.8350
1809.253574 0.8441 0.8561 0.8720 0.8790 0.8860
1815.654743 0.8900 0.8900 0.8880 0.8880 0.8860
1822.055912 0.8830 0.8810 0.8790 0.8760 0.8690
1828.457081 0.8580 0.8530 0.8510 0.8510 0.8530
1834.858250 0.8560 0.8620 0.8670 0.8740 0.8830
1841.259419 0.8900 0.8910 0.8970 0.9000 0.9000
1847.660588 0.9020 0.9020 0.9000 0.8970 0.8930
1854.061757 0.8910 0.8860 0.8830 0.8740 0.8700
1860.462926 0.8600 0.8550 0.8490 0.8440 0.8390
1866.864095 0.8370 0.8390 0.8460 0.8560 0.8670
1873.265264 0.8791 0.8930 0.9000 0.9040 0.9040
1879.666433 0.9020 0.9020 0.9020 0.9020 0.8980
1886.067602 0.8980 0.8970 0.8970 0.8950 0.8930
1892.468771 0.8910 0.8910 0.8860 0.8840 0.8840
1898.869940 0.8830 0.8830 0.8810 0.8810 0.8810
1905.271109 0.8830 0.8830 0.8830 0.8810 0.8790
1911.672278 0.8699 0.8600 0.8580 0.8529 0.8200
1918.073447 0.8160 0.8150 0.8130 0.8130 0.8130
1924.474616 0.8150 0.8150 0.8150 0.8150 0.8160
1930.875785 0.8160 0.8160 0.8160 0.8180 0.8200
1937.276954 0.8231 0.8320 0.8390 0.8420 0.8440
1943.678123 0.8440 0.8420 0.8410 0.8410 0.8410
1950.079292 0.8390 0.8390 0.8410 0.8440 0.8460
1956.480461 0.8510 0.8550 0.8650 0.8760 0.8910
1962.881630 0.8970 0.9040 0.9040 0.9070 0.9090
1969.282799 0.9100 0.9100 0.9120 0.9120 0.9120
1975.683968 0.9140 0.9140 0.9140 0.9140 0.9140
1982.085137 0.9140 0.9140 0.9140 0.9140 0.9140
1988.486306 0.9140 0.9140 0.9140 0.9140 0.9140
1994.887475 0.9140 0.9140 0.9120 0.9120 0.9120
2001.288644 0.9120 0.9120 0.9130 0.9140 0.9150
2007.689813 0.9160 0.9160 0.9160 0.9160 0.9160
2014.090982 0.9160 0.9160 0.9160 0.9160 0.9150
2020.492151 0.9140 0.9140 0.9140 0.9140 0.9140
2026.893320 0.9140 0.9140 0.9140 0.9140 0.9140
2033.294489 0.9140 0.9140 0.9139 0.9129 0.9120
2039.695658 0.9120 0.9120 0.9120 0.9120 0.9120
2046.096827 0.9120 0.9120 0.9120 0.9120 0.9120
2052.497996 0.9120 0.9120 0.9120 0.9120 0.9120
2058.899165 0.9119 0.9109 0.9100 0.9100 0.9100
2065.300334 0.9100 0.9100 0.9100 0.9100 0.9100
2071.701503 0.9100 0.9100 0.9100 0.9100 0.9102
2078.102672 0.9112 0.9120 0.9120 0.9120 0.9120
2084.503841 0.9120 0.9120 0.9120 0.9120 0.9120
2090.905010 0.9120 0.9120 0.9120 0.9120 0.9120
2097.306179 0.9120 0.9120 0.9120 0.9120 0.9120
2103.707348 0.9120 0.9120 0.9120 0.9120 0.9120
2110.108517 0.9120 0.9120 0.9120 0.9120 0.9120
2116.509686 0.9120 0.9120 0.9120 0.9120 0.9120
2122.910855 0.9120 0.9120 0.9120 0.9120 0.9120
2129.312024 0.9120 0.9120 0.9120 0.9117 0.9107
2135.713193 0.9100 0.9100 0.9103 0.9113 0.9120
2142.114362 0.9120 0.9123 0.9133 0.9140 0.9140
2148.515531 0.9140 0.9140 0.9140 0.9140 0.9140
2154.916700 0.9140 0.9136 0.9126 0.9120 0.9120
2161.317869 0.9120 0.9120 0.9120 0.9120 0.9120
2167.719038 0.9120 0.9120 0.9120 0.9120 0.9120
2174.120207 0.9120 0.9120 0.9120 0.9120 0.9120
2180.521376 0.9120 0.9120 0.9120 0.9120 0.9120
2186.922545 0.9124 0.9134 0.9140 0.9140 0.9140
2193.323714 0.9140 0.9140 0.9140 0.9140 0.9140
2199.724883 0.9136 0.9126 0.9120 0.9120 0.9120
2206.126052 0.9120 0.9120 0.9120 0.9120 0.9120
2212.527221 0.9120 0.9120 0.9115 0.9105 0.9100
2218.928390 0.9100 0.9100 0.9100 0.9100 0.9100
2225.329559 0.9098 0.9093 0.9090 0.9090 0.9090
2231.730728 0.9090 0.9085 0.9075 0.9070 0.9070
2238.131897 0.9070 0.9070 0.9070 0.9070 0.9070
2244.533066 0.9070 0.9070 0.9070 0.9070 0.9070
2250.934235 0.9070 0.9070 0.9070 0.9070 0.9070
2257.335404 0.9070 0.9070 0.9070 0.9070 0.9070
2263.736573 0.9070 0.9070 0.9079 0.9094 0.9100
2270.137742 0.9100 0.9100 0.9100 0.9100 0.9100
2276.538911 0.9097 0.9092 0.9090 0.9090 0.9090
2282.940080 0.9090 0.9084 0.9074 0.9070 0.9070
2289.341249 0.9070 0.9070 0.9070 0.9070 0.9070
2295.742418 0.9070 0.9070 0.9070 0.9070 0.9070
2302.143587 0.9080 0.9095 0.9100 0.9100 0.9100
2308.544756 0.9100 0.9100 0.9100 0.9100 0.9100
2314.945925 0.9100 0.9100 0.9100 0.9100 0.9096
2321.347094 0.9091 0.9090 0.9090 0.9090 0.9090
2327.748263 0.9090 0.9090 0.9090 0.9090 0.9090
2334.149432 0.9090 0.9090 0.9090 0.9094 0.9099
2340.550600 0.9100 0.9100 0.9108 0.9118 0.9120
2346.951769 0.9120 0.9128 0.9138 0.9132 0.9122
2353.352938 0.9120 0.9120 0.9120 0.9120 0.9112
2359.754107 0.9102 0.9100 0.9100 0.9100 0.9100
2366.155276 0.9100 0.9100 0.9100 0.9100 0.9096
2372.556445 0.9091 0.9090 0.9090 0.9090 0.9090
2378.957614 0.9082 0.9072 0.9070 0.9070 0.9061
2385.358783 0.9051 0.9050 0.9050 0.9050 0.9050
2391.759952 0.9050 0.9050 0.9050 0.9050 0.9050
2398.161121 0.9050 0.9046 0.9041 0.9040 0.9040
2404.562290 0.9031 0.9021 0.9011 0.9001 0.8991
2410.963459 0.8981 0.8980 0.8980 0.8980 0.8980
2417.364628 0.8980 0.8980 0.8980 0.8980 0.8989
2423.765797 0.8999 0.9009 0.9019 0.9029 0.9039
2430.166966 0.9045 0.9050 0.9050 0.9050 0.9050
2436.568135 0.9050 0.9050 0.9050 0.9050 0.9050
2442.969304 0.9060 0.9070 0.9070 0.9070 0.9070
2449.370473 0.9070 0.9080 0.9090 0.9090 0.9090
2455.771642 0.9090 0.9090 0.9090 0.9090 0.9095
2462.172811 0.9100 0.9084 0.9070 0.9070 0.9070
2468.573980 0.9080 0.9090 0.9090 0.9090 0.9090
2474.975149 0.9090 0.9095 0.9100 0.9100 0.9099
2481.376318 0.9084 0.9070 0.9070 0.9071 0.9081
2487.777487 0.9090 0.9090 0.9090 0.9090 0.9090
2494.178656 0.9090 0.9090 0.9090 0.9090 0.9090
2500.579825 0.9091 0.9096 0.9100 0.9100 0.9100
2506.980994 0.9100 0.9100 0.9100 0.9100 0.9100
2513.382163 0.9100 0.9100 0.9100 0.9100 0.9100
2519.783332 0.9100 0.9100 0.9100 0.9099 0.9094
2526.184501 0.9090 0.9090 0.9090 0.9090 0.9090
2532.585670 0.9090 0.9090 0.9090 0.9090 0.9090
2538.986839 0.9088 0.9078 0.9073 0.9088 0.9100
2545.388008 0.9100 0.9099 0.9094 0.9090 0.9090
2551.789177 0.9091 0.9096 0.9100 0.9100 0.9102
2558.190346 0.9112 0.9120 0.9120 0.9117 0.9107
2564.591515 0.9100 0.9100 0.9100 0.9100 0.9100
2570.992684 0.9100 0.9100 0.9100 0.9100 0.9100
2577.393853 0.9100 0.9100 0.9100 0.9100 0.9100
2583.795022 0.9100 0.9100 0.9100 0.9100 0.9100
2590.196191 0.9100 0.9100 0.9100 0.9100 0.9100
2596.597360 0.9100 0.9100 0.9100 0.9100 0.9100
2602.998529 0.9100 0.9100 0.9100 0.9100 0.9103
2609.399698 0.9113 0.9120 0.9120 0.9116 0.9106
2615.800867 0.9100 0.9100 0.9100 0.9100 0.9094
2622.202036 0.9079 0.9070 0.9070 0.9074 0.9084
2628.603205 0.9090 0.9090 0.9090 0.9090 0.9090
2635.004374 0.9090 0.9086 0.9076 0.9070 0.9070
2641.405543 0.9070 0.9070 0.9070 0.9070 0.9070
2647.806712 0.9070 0.9070 0.9070 0.9074 0.9084
2654.207881 0.9092 0.9097 0.9100 0.9100 0.9100
2660.609050 0.9100 0.9100 0.9100 0.9100 0.9100
2667.010219 0.9100 0.9100 0.9105 0.9115 0.9120
2673.411388 0.9120 0.9120 0.9120 0.9120 0.9120
2679.812557 0.9120 0.9120 0.9120 0.9120 0.9120
2686.213726 0.9120 0.9120 0.9120 0.9120 0.9120
2692.614895 0.9120 0.9120 0.9115 0.9105 0.9100
2699.016064 0.9100 0.9097 0.9092 0.9090 0.9090
2705.417233 0.9084 0.9074 0.9070 0.9070 0.9062
2711.818402 0.9047 0.9028 0.9008 0.9000 0.9000
2718.219571 0.8994 0.8984 0.8965 0.8940 0.8924
2724.620740 0.8914 0.8901 0.8886 0.8865 0.8840
2731.021909 0.8818 0.8798 0.8790 0.8790 0.8806
2737.423078 0.8831 0.8846 0.8856 0.8867 0.8877
2743.824247 0.8890 0.8905 0.8930 0.8960 0.8987
2750.225416 0.9012 0.9027 0.9037 0.9043 0.9048
2756.626585 0.9050 0.9050 0.9047 0.9042 0.9040
2763.027754 0.9040 0.9040 0.9040 0.9040 0.9040
2769.428923 0.9033 0.9023 0.9020 0.9020 0.9020
2775.830092 0.9020 0.9013 0.9003 0.9000 0.9000
2782.231261 0.8993 0.8983 0.8976 0.8971 0.8970
2788.632430 0.8970 0.8955 0.8935 0.8930 0.8930
2795.033599 0.8922 0.8912 0.8910 0.8910 0.8910
2801.434768 0.8910 0.8906 0.8901 0.8892 0.8882
2807.835937 0.8880 0.8880 0.8872 0.8862 0.8860
2814.237106 0.8860 0.8860 0.8860 0.8852 0.8842
2820.638275 0.8828 0.8813 0.8793 0.8773 0.8770
2827.039444 0.8770 0.8766 0.8761 0.8752 0.8742
2833.440613 0.8732 0.8722 0.8712 0.8702 0.8700
2839.841782 0.8700 0.8648 0.8587 0.8567 0.8552
2846.242951 0.8541 0.8531 0.8512 0.8492 0.8423
2852.644120 0.8348 0.8282 0.8217 0.8093 0.7963
2859.045289 0.7936 0.7921 0.7699 0.7453 0.7131
2865.446458 0.6800 0.6770 0.6770 0.6836 0.6906
2871.847627 0.6934 0.6959 0.7102 0.7252 0.7350
2878.248796 0.7445 0.7588 0.7733 0.7783 0.7828
2884.649965 0.7883 0.7938 0.7940 0.7940 0.7786
2891.051134 0.7626 0.7551 0.7480 0.7435 0.7390
2897.452303 0.7325 0.7260 0.7145 0.7030 0.6914
2903.853472 0.6800 0.6750 0.6699 0.6634 0.6569
2910.254641 0.6464 0.6358 0.6258 0.6158 0.6053
2916.655810 0.5950 0.5950 0.5957 0.6087 0.6225
2923.056979 0.6495 0.6750 0.6750 0.6746 0.6686
2929.458148 0.6627 0.6582 0.6527 0.6326 0.6125
2935.859317 0.5915 0.5720 0.5720 0.5724 0.5774
2942.260486 0.5820 0.5815 0.5803 0.5738 0.5676
2948.661655 0.5641 0.5602 0.5532 0.5457 0.5347
2955.062824 0.5250 0.5250 0.5272 0.5453 0.5637
2961.463993 0.5847 0.6040 0.6120 0.6193 0.6213
2967.865162 0.6229 0.6218 0.6187 0.6047 0.5897
2974.266331 0.5702 0.5540 0.5540 0.5566 0.5716
2980.667500 0.5844 0.5869 0.5892 0.5902 0.5912
2987.068669 0.5922 0.5989 0.6304 0.6618 0.6923
2993.469838 0.7175 0.7200 0.7220 0.7220 0.7217
2999.871007 0.7202 0.7180 0.7135 0.7081 0.7001
3006.272176 0.6926 0.6866 0.6801 0.6721 0.6641
3012.673345 0.6561 0.6482 0.6407 0.6350 0.6350
3019.074514 0.6363 0.6413 0.6482 0.6597 0.6677
3025.475683 0.6667 0.6637 0.6557 0.6480 0.6410
3031.876852 0.6300 0.6095 0.5885 0.5665 0.5464
3038.278021 0.5309 0.5149 0.4979 0.4810 0.4645
3044.679190 0.4496 0.4384 0.4310 0.4310 0.4315
3051.080359 0.4330 0.4337 0.4327 0.4299 0.4239
3057.481528 0.4200 0.4200 0.4209 0.4234 0.4257
3063.882697 0.4277 0.4295 0.4310 0.4320 0.4320
3070.283866 0.4311 0.4285 0.4173 0.3928 0.3780
3076.685035 0.3780 0.3850 0.4025 0.4144 0.4179
3083.086204 0.4232 0.4313 0.4844 0.6031 0.6841
3089.487373 0.7112 0.7293 0.7348 0.7397 0.7437
3095.888542 0.7464 0.7474 0.7480 0.7480 0.7464
3102.289711 0.7429 0.7410 0.7410 0.7451 0.7542
3108.690880 0.7715 0.7985 0.8211 0.8387 0.8529
3115.092049 0.8634 0.8714 0.8764 0.8818 0.8879
3121.493218 0.8932 0.8977 0.9005 0.9015 0.9025
3127.894387 0.9035 0.9040 0.9040 0.9040 0.9040
3134.295556 0.9043 0.9048 0.9050 0.9050 0.9055
3140.696725 0.9065 0.9075 0.9085 0.9093 0.9098
3147.097894 0.9100 0.9100 0.9100 0.9100 0.9106
3153.499063 0.9116 0.9120 0.9120 0.9126 0.9136
3159.900232 0.9140 0.9140 0.9140 0.9140 0.9140
3166.301401 0.9140 0.9146 0.9156 0.9154 0.9144
3172.702570 0.9146 0.9156 0.9160 0.9160 0.9148
3179.103739 0.9127 0.9120 0.9120 0.9133 0.9153
3185.504908 0.9160 0.9160 0.9163 0.9168 0.9176
3191.906077 0.9186 0.9190 0.9190 0.9190 0.9190
3198.307246 0.9190 0.9190 0.9197 0.9207 0.9203
3204.708415 0.9193 0.9190 0.9190 0.9190 0.9190
3211.109584 0.9183 0.9173 0.9170 0.9170 0.9170
3217.510753 0.9170 0.9170 0.9170 0.9177 0.9187
3223.911922 0.9190 0.9190 0.9190 0.9190 0.9197
3230.313091 0.9207 0.9210 0.9210 0.9217 0.9227
3236.714260 0.9230 0.9230 0.9230 0.9230 0.9222
3243.115429 0.9212 0.9210 0.9210 0.9210 0.9210
3249.516598 0.9210 0.9210 0.9210 0.9210 0.9210
3255.917767 0.9210 0.9210 0.9210 0.9210 0.9210
3262.318936 0.9210 0.9210 0.9210 0.9210 0.9210
3268.720105 0.9210 0.9202 0.9192 0.9190 0.9190
3275.121274 0.9198 0.9208 0.9210 0.9210 0.9210
3281.522443 0.9210 0.9201 0.9191 0.9190 0.9190
3287.923612 0.9190 0.9190 0.9190 0.9190 0.9190
3294.324781 0.9190 0.9190 0.9190 0.9199 0.9209
3300.725950 0.9210 0.9210 0.9192 0.9172 0.9165
3307.127119 0.9160 0.9151 0.9141 0.9140 0.9140
3313.528288 0.9131 0.9121 0.9120 0.9120 0.9120
3319.929457 0.9120 0.9111 0.9101 0.9100 0.9100
3326.330626 0.9100 0.9100 0.9100 0.9100 0.9100
3332.731795 0.9100 0.9100 0.9100 0.9095 0.9090
3339.132964 0.9090 0.9090 0.9090 0.9090 0.9090
3345.534133 0.9090 0.9090 0.9090 0.9090 0.9090
3351.935302 0.9090 0.9090 0.9080 0.9070 0.9080
3358.336471 0.9090 0.9069 0.9050 0.9050 0.9050
3364.737640 0.9050 0.9050 0.9050 0.9050 0.9050
3371.138809 0.9050 0.9045 0.9040 0.9040 0.9040
3377.539978 0.9040 0.9040 0.9040 0.9040 0.9040
3383.941147 0.9040 0.9040 0.9040 0.9045 0.9050
3390.342316 0.9050 0.9050 0.9050 0.9050 0.9050
3396.743485 0.9050 0.9050 0.9050 0.9050 0.9049
3403.144654 0.9044 0.9040 0.9040 0.9040 0.9040
3409.545823 0.9040 0.9040 0.9040 0.9040 0.9042
3415.946992 0.9057 0.9070 0.9070 0.9072 0.9082
3422.348161 0.9090 0.9090 0.9090 0.9090 0.9090
3428.749330 0.9090 0.9090 0.9090 0.9090 0.9090
3435.150499 0.9090 0.9090 0.9090 0.9090 0.9091
3441.551668 0.9096 0.9100 0.9100 0.9100 0.9100
3447.952837 0.9100 0.9100 0.9100 0.9100 0.9100
3454.354006 0.9100 0.9099 0.9094 0.9090 0.9090
3460.755175 0.9091 0.9096 0.9103 0.9113 0.9120
3467.156344 0.9120 0.9120 0.9120 0.9120 0.9120
3473.557513 0.9117 0.9107 0.9100 0.9100 0.9100
3479.958682 0.9100 0.9100 0.9100 0.9100 0.9100
3486.359851 0.9100 0.9100 0.9103 0.9113 0.9120
3492.761020 0.9120 0.9120 0.9120 0.9120 0.9120
3499.162189 0.9120 0.9120 0.9123 0.9133 0.9140
3505.563358 0.9140 0.9140 0.9140 0.9140 0.9140
3511.964527 0.9140 0.9140 0.9140 0.9140 0.9140
3518.365696 0.9140 0.9140 0.9140 0.9140 0.9140
3524.766865 0.9140 0.9140 0.9140 0.9140 0.9140
3531.168034 0.9140 0.9144 0.9154 0.9160 0.9160
3537.569203 0.9160 0.9160 0.9162 0.9167 0.9170
3543.970372 0.9170 0.9170 0.9170 0.9170 0.9170
3550.371541 0.9170 0.9170 0.9170 0.9170 0.9174
3556.772710 0.9185 0.9190 0.9190 0.9190 0.9190
3563.173879 0.9190 0.9190 0.9190 0.9190 0.9190
3569.575048 0.9190 0.9190 0.9190 0.9190 0.9190
3575.976217 0.9190 0.9190 0.9190 0.9190 0.9195
3582.377386 0.9205 0.9210 0.9210 0.9210 0.9210
3588.778555 0.9210 0.9210 0.9210 0.9210 0.9210
3595.179724 0.9210 0.9210 0.9210 0.9215 0.9225
3601.580893 0.9233 0.9238 0.9240 0.9240 0.9240
3607.982062 0.9240 0.9240 0.9240 0.9240 0.9240
3614.383231 0.9246 0.9256 0.9260 0.9260 0.9260
3620.784400 0.9260 0.9260 0.9260 0.9260 0.9260
3627.185569 0.9260 0.9260 0.9260 0.9260 0.9266
3633.586738 0.9276 0.9280 0.9280 0.9280 0.9280
3639.987907 0.9280 0.9280 0.9280 0.9280 0.9280
3646.389076 0.9280 0.9280 0.9280 0.9280 0.9280
3652.790245 0.9287 0.9297 0.9300 0.9300 0.9300
3659.191414 0.9300 0.9300 0.9300 0.9304 0.9309
3665.592583 0.9310 0.9310 0.9310 0.9310 0.9310
3671.993752 0.9310 0.9306 0.9301 0.9300 0.9300
3678.394921 0.9300 0.9300 0.9300 0.9300 0.9300
3684.796090 0.9300 0.9300 0.9300 0.9300 0.9300
3691.197259 0.9300 0.9300 0.9300 0.9300 0.9304
3697.598428 0.9309 0.9310 0.9310 0.9310 0.9310
3703.999597 0.9310 0.9310 0.9310 0.9310 0.9310
3710.400766 0.9310 0.9310 0.9310 0.9310 0.9310
3716.801935 0.9310 0.9310 0.9310 0.9310 0.9310
3723.203104 0.9310 0.9310 0.9310 0.9306 0.9301
3729.604273 0.9300 0.9300 0.9300 0.9300 0.9300
3736.005442 0.9300 0.9300 0.9300 0.9300 0.9300
3742.406611 0.9291 0.9281 0.9271 0.9261 0.9260
3748.807780 0.9260 0.9260 0.9260 0.9260 0.9260
3755.208949 0.9260 0.9260 0.9260 0.9260 0.9260
3761.610118 0.9260 0.9260 0.9260 0.9260 0.9260
3768.011287 0.9260 0.9260 0.9260 0.9260 0.9260
3774.412456 0.9260 0.9251 0.9241 0.9240 0.9240
3780.813625 0.9235 0.9230 0.9230 0.9230 0.9230
3787.214794 0.9230 0.9220 0.9210 0.9210 0.9210
3793.615963 0.9210 0.9210
##END=
