##TITLE=NAPHTHALENE, 1-CHLORO-
##JCAMP-DX=4.24
##DATA TYPE=INFRARED SPECTRUM
##CLASS=COBLENTZ III
##ORIGIN=DOW CHEMICAL COMPANY
##OWNER=COBLENTZ SOCIETY
Collection (C) 2018 copyright by the U.S. Secretary of Commerce
on behalf of the United States of America. All rights reserved.
##DATE=1961/12/19
##NAMES=1-chloronaphthalene
##CAS REGISTRY NO=90-13-1
##MOLFORM=C10 H7 Cl
##SOURCE REFERENCE=COBLENTZ NO. 10060
##$NIST SOURCE=COBLENTZ
##$NIST IMAGE=cob10060
##SPECTROMETER/DATA SYSTEM=DOW KBr FOREPRISM-GRATING
##INSTRUMENT PARAMETERS=BLAZED AT 3.5, 12.0, 20.0 MICRON, CHANGED AT 5.0, 7.5, 14.9 MICRON
##STATE=SOLUTION (10% IN CCl4 FOR 3800-1333 AND 10% IN CS2 FOR 1333-450 CM^-^1)
##PATH LENGTH=0.011, 0.011 CM
$$SPECTRAL CONTAMINATION DUE TO CCl4 AROUND 1550 CM^-^1
##SAMPLING PROCEDURE=TRANSMISSION
##RESOLUTION=4
##DATA PROCESSING=DIGITIZED BY NIST FROM HARD COPY (FROM TWO SEGMENTS)
##XUNITS=1/CM
##YUNITS=TRANSMITTANCE
##XFACTOR=1.000000
##YFACTOR=1
##DELTAX=0.869095
##FIRSTX=446.062
##LASTX=3794.68
##FIRSTY=0.914
##MAXX=3794.68
##MINX=446.062
##MAXY=1.047
##MINY=0.005
##NPOINTS=3854
##XYDATA=(X++(Y..Y))
446.062000 0.9140 0.9140 0.9140 0.9140 0.9140
450.407474 0.9140 0.9140 0.9130 0.9130 0.9110
454.752949 0.9110 0.9070 0.9050 0.9030 0.9000
459.098423 0.8980 0.8920 0.8880 0.8860 0.8810
463.443897 0.8770 0.8730 0.8640 0.8540 0.8480
467.789372 0.8330 0.8260 0.8240 0.8260 0.8718
472.134846 0.9240 0.9570 0.9810 0.9910 0.9970
476.480321 0.9980 0.9970 1.0040 1.0050 1.0050
480.825795 1.0060 1.0060 1.0060 1.0080 1.0080
485.171269 1.0080 1.0090 1.0090 1.0090 1.0100
489.516744 1.0120 1.0120 1.0120 1.0130 1.0130
493.862218 1.0130 1.0130 1.0130 1.0130 1.0140
498.207692 1.0140 1.0140 1.0140 1.0140 1.0140
502.553167 1.0140 1.0140 1.0140 1.0140 1.0140
506.898641 1.0140 1.0140 1.0140 1.0140 1.0120
511.244116 1.0100 1.0100 1.0100 1.0100 1.0100
515.589590 1.0090 1.0090 1.0090 1.0090 1.0080
519.935064 1.0060 1.0060 1.0040 1.0040 1.0020
524.280539 1.0020 1.0010 1.0010 1.0000 0.9940
528.626013 0.9930 0.9890 0.9790 0.9641 0.9560
532.971487 0.9370 0.9020 0.8620 0.7841 0.6243
537.316962 0.5083 0.3893 0.2704 0.2700 0.3974
541.662436 0.4391 0.6620 0.8989 0.9559 0.9760
546.007910 0.9860 1.0020 1.0050 1.0090 1.0120
550.353385 1.0130 1.0130 1.0160 1.0210 1.0230
554.698859 1.0230 1.0240 1.0240 1.0240 1.0240
559.044334 1.0250 1.0250 1.0250 1.0250 1.0250
563.389808 1.0250 1.0250 1.0250 1.0250 1.0240
567.735282 1.0240 1.0230 1.0230 1.0240 1.0240
572.080757 1.0240 1.0230 1.0230 1.0230 1.0230
576.426231 1.0200 1.0200 1.0200 1.0180 1.0170
580.771705 1.0170 1.0160 1.0160 1.0160 1.0160
585.117180 1.0140 1.0140 1.0120 1.0080 1.0010
589.462654 1.0010 1.0020 1.0020 1.0020 1.0020
593.808128 1.0020 1.0020 1.0010 1.0010 1.0000
598.153603 0.9970 0.9890 0.9671 0.9063 0.8572
602.499077 0.8610 0.9620 1.0040 1.0080 1.0090
606.844552 1.0080 1.0080 1.0060 1.0050 1.0040
611.190026 1.0020 1.0020 1.0020 1.0050 1.0050
615.535500 1.0050 1.0050 1.0050 1.0050 0.9950
619.880975 0.9860 0.9860 0.9870 0.9910 1.0010
624.226449 1.0010 0.9980 0.9950 0.9950 0.9950
628.571923 0.9950 0.9940 0.9900 0.9890 0.9870
632.917398 0.9850 0.9820 0.9810 0.9780 0.9710
637.262872 0.9660 0.9510 0.9370 0.9370 0.9490
641.608347 0.9490 0.9480 0.9470 0.9430 0.9410
645.953821 0.9380 0.9370 0.9360 0.9330 0.9300
650.299295 0.9220 0.9170 0.9110 0.9020 0.8980
654.644770 0.8940 0.8910 0.8770 0.8650 0.8540
658.990244 0.8500 0.8330 0.8011 0.7352 0.6673
663.335718 0.3729 0.2340 0.2340 0.5837 0.6769
667.681193 0.7688 0.8797 0.8940 0.9050 0.9319
672.026667 0.9380 0.9450 0.9490 0.9550 0.9600
676.372141 0.9670 0.9710 0.9720 0.9760 0.9780
680.717616 0.9780 0.9780 0.9740 0.9700 0.9710
685.063090 0.9760 0.9780 0.9810 0.9830 0.9830
689.408565 0.9860 0.9890 0.9890 0.9860 0.9860
693.754039 0.9860 0.9860 0.9860 0.9860 0.9860
698.099513 0.9870 0.9870 0.9860 0.9850 0.9850
702.444988 0.9830 0.9850 0.9830 0.9820 0.9820
706.790462 0.9810 0.9810 0.9790 0.9790 0.9790
711.135936 0.9780 0.9760 0.9760 0.9750 0.9740
715.481411 0.9710 0.9700 0.9680 0.9640 0.9620
719.826885 0.9570 0.9550 0.9490 0.9440 0.9380
724.172360 0.9360 0.9240 0.9140 0.8980 0.8870
728.517834 0.8860 0.8960 0.9020 0.9020 0.8980
732.863308 0.8940 0.8910 0.8830 0.8720 0.8600
737.208783 0.8420 0.7782 0.7252 0.7001 0.6104
741.554257 0.6101 0.7960 0.8120 0.8290 0.8410
745.899731 0.8829 0.8840 0.8840 0.8830 0.8790
750.245206 0.8730 0.8670 0.8580 0.8500 0.8300
754.590680 0.7931 0.7611 0.7201 0.6432 0.6241
758.936154 0.6049 0.5628 0.3630 0.2720 0.1811
763.281629 0.1041 0.0252 0.0060 0.0050 0.0050
767.627103 0.0063 0.2181 0.3670 0.4650 0.6628
771.972578 0.7349 0.7619 0.7700 0.7720 0.7720
776.318052 0.7660 0.7590 0.7470 0.7380 0.7090
780.663526 0.6661 0.6391 0.6141 0.5871 0.5611
785.009001 0.5139 0.3899 0.2230 0.1610 0.1091
789.354475 0.0561 0.0081 0.0060 0.0080 0.0130
793.699949 0.0313 0.2891 0.4040 0.4660 0.5419
798.045424 0.6318 0.6869 0.7428 0.7460 0.7440
802.390898 0.7420 0.7280 0.7100 0.6680 0.6131
806.736373 0.5611 0.4263 0.4260 0.5625 0.5680
811.081847 0.6101 0.6820 0.7950 0.8160 0.8330
815.427321 0.8460 0.8500 0.8520 0.8520 0.8500
819.772796 0.8450 0.8390 0.8300 0.8220 0.8000
824.118270 0.7810 0.7501 0.7191 0.6682 0.5694
828.463744 0.4130 0.4130 0.4550 0.7038 0.7619
832.809219 0.8518 0.8749 0.8870 0.8910 0.8910
837.154693 0.8870 0.8840 0.8810 0.8730 0.8640
841.500167 0.8530 0.8390 0.8260 0.8121 0.7921
845.845642 0.7630 0.7200 0.6750 0.5831 0.5111
850.191116 0.3922 0.3920 0.5475 0.5879 0.6467
854.536591 0.6290 0.6290 0.6160 0.6160 0.6659
858.882065 0.7209 0.7629 0.7770 0.7929 0.7990
863.227539 0.8110 0.8150 0.8200 0.8260 0.8330
867.573014 0.8370 0.8420 0.8430 0.8430 0.8430
871.918488 0.8420 0.8420 0.8390 0.8340 0.8260
876.263962 0.8180 0.8080 0.7741 0.7610 0.7421
880.609437 0.7421 0.8230 0.8580 0.8770 0.8940
884.954911 0.9110 0.9140 0.9180 0.9210 0.9240
889.300385 0.9250 0.9250 0.9250 0.9260 0.9260
893.645860 0.9260 0.9320 0.9340 0.9380 0.9410
897.991334 0.9470 0.9510 0.9550 0.9560 0.9590
902.336809 0.9630 0.9640 0.9670 0.9670 0.9680
906.682283 0.9700 0.9700 0.9700 0.9700 0.9700
911.027757 0.9710 0.9710 0.9720 0.9720 0.9720
915.373232 0.9720 0.9720 0.9710 0.9710 0.9680
919.718706 0.9680 0.9660 0.9660 0.9640 0.9630
924.064180 0.9620 0.9590 0.9560 0.9550 0.9490
928.409655 0.9450 0.9440 0.9440 0.9470 0.9450
932.755129 0.9440 0.9430 0.9410 0.9360 0.9330
937.100604 0.9250 0.9150 0.9110 0.8921 0.8751
941.446078 0.7730 0.7630 0.7630 0.8720 0.8810
945.791552 0.8810 0.8770 0.8521 0.8301 0.8300
950.137027 0.8610 0.8640 0.8640 0.8600 0.8500
954.482501 0.8330 0.8230 0.8150 0.8010 0.7801
958.827975 0.7650 0.7290 0.7050 0.5971 0.5690
963.173450 0.5610 0.5341 0.4851 0.3813 0.2445
967.518924 0.0990 0.0780 0.0560 0.0560 0.3277
971.864398 0.5446 0.6298 0.6858 0.8076 0.8518
976.209873 0.8720 0.8840 0.8980 0.9000 0.9150
980.555347 0.9150 0.9070 0.8920 0.8920 0.9249
984.900822 0.9280 0.9440 0.9570 0.9620 0.9660
989.246296 0.9670 0.9670 0.9670 0.9670 0.9670
993.591770 0.9660 0.9640 0.9620 0.9590 0.9550
997.937245 0.9530 0.9530 0.9560 0.9590 0.9600
1002.282719 0.9600 0.9600 0.9600 0.9600 0.9590
1006.628193 0.9570 0.9570 0.9570 0.9570 0.9570
1010.973668 0.9570 0.9560 0.9510 0.9470 0.9410
1015.319142 0.9340 0.9170 0.8950 0.8731 0.8242
1019.664617 0.7497 0.6100 0.6100 0.6700 0.8329
1024.010091 0.9059 0.9220 0.9290 0.9340 0.9400
1028.355565 0.9450 0.9530 0.9560 0.9590 0.9640
1032.701040 0.9680 0.9720 0.9780 0.9790 0.9790
1037.046514 0.9810 0.9810 0.9810 0.9810 0.9810
1041.391988 0.9790 0.9790 0.9780 0.9780 0.9760
1045.737463 0.9740 0.9710 0.9680 0.9640 0.9640
1050.082937 0.9600 0.9560 0.9450 0.9370 0.9260
1054.428411 0.9070 0.8770 0.8490 0.8290 0.8140
1058.773886 0.7960 0.7421 0.7240 0.7250 0.7549
1063.119360 0.8041 0.8860 0.9220 0.9450 0.9480
1067.464835 0.9470 0.9440 0.9370 0.9300 0.9111
1071.810309 0.8809 0.8429 0.7759 0.6390 0.6390
1076.155783 0.6770 0.8916 0.9369 0.9530 0.9590
1080.501258 0.9700 0.9760 0.9810 0.9850 0.9860
1084.846732 0.9870 0.9870 0.9870 0.9870 0.9870
1089.192206 0.9890 0.9900 0.9930 0.9970 1.0010
1093.537681 1.0010 1.0010 1.0010 1.0010 1.0010
1097.883155 1.0020 1.0020 1.0020 1.0020 1.0020
1102.228629 1.0020 1.0020 1.0020 1.0040 1.0050
1106.574104 1.0060 1.0080 1.0080 1.0080 1.0060
1110.919578 1.0050 1.0050 1.0040 1.0040 1.0040
1115.265053 1.0040 1.0020 1.0020 1.0010 1.0000
1119.610527 0.9970 0.9950 0.9950 0.9910 0.9820
1123.956001 0.9780 0.9670 0.9550 0.9360 0.8670
1128.301476 0.8580 0.8580 0.8620 0.8640 0.8580
1132.646950 0.8450 0.8310 0.8120 0.7910 0.7580
1136.992424 0.7320 0.7310 0.7320 0.7350 0.7161
1141.337899 0.6930 0.6941 0.7361 0.8160 0.8580
1145.683373 0.8760 0.8910 0.8990 0.9020 0.9030
1150.028848 0.9030 0.9020 0.9020 0.9020 0.9030
1154.374322 0.9060 0.9070 0.9060 0.9050 0.8960
1158.719796 0.8830 0.8720 0.8730 0.8940 0.9150
1163.065271 0.9250 0.9360 0.9440 0.9480 0.9510
1167.410745 0.9510 0.9510 0.9510 0.9520 0.9550
1171.756219 0.9550 0.9560 0.9560 0.9550 0.9550
1176.101694 0.9510 0.9490 0.9430 0.9360 0.9340
1180.447168 0.9330 0.9320 0.9260 0.9250 0.9250
1184.792642 0.9240 0.9170 0.9070 0.8960 0.8860
1189.138117 0.8680 0.8191 0.7931 0.7800 0.7770
1193.483591 0.7620 0.7390 0.7170 0.6970 0.6700
1197.829066 0.6290 0.5721 0.5251 0.4572 0.3693
1202.174540 0.3692 0.4782 0.6450 0.6820 0.8119
1206.520014 0.8520 0.8760 0.8830 0.8830 0.8800
1210.865489 0.8619 0.8270 0.8240 0.8520 0.8560
1215.210963 0.8600 0.8760 0.8950 0.9179 0.9359
1219.556437 0.9440 0.9470 0.9510 0.9550 0.9550
1223.901912 0.9560 0.9570 0.9600 0.9630 0.9660
1228.247386 0.9660 0.9670 0.9670 0.9630 0.9630
1232.592861 0.9660 0.9700 0.9710 0.9740 0.9760
1236.938335 0.9780 0.9760 0.9750 0.9740 0.9700
1241.283809 0.9640 0.9550 0.9470 0.9330 0.9170
1245.629284 0.8949 0.8749 0.8499 0.7770 0.7279
1249.974758 0.5820 0.5760 0.6259 0.6450 0.6600
1254.320232 0.6620 0.6630 0.6741 0.7511 0.8120
1258.665707 0.8350 0.8460 0.8500 0.8500 0.8520
1263.011181 0.8520 0.8520 0.8530 0.8540 0.8600
1267.356655 0.8690 0.8750 0.8910 0.9140 0.9369
1271.702130 0.9560 0.9620 0.9700 0.9710 0.9720
1276.047604 0.9720 0.9720 0.9720 0.9720 0.9720
1280.393079 0.9760 0.9780 0.9810 0.9850 0.9860
1284.738553 0.9870 0.9890 0.9900 0.9910 0.9910
1289.084027 0.9910 0.9910 0.9910 0.9910 0.9910
1293.429502 0.9910 0.9900 0.9890 0.9870 0.9870
1297.774976 0.9860 0.9850 0.9830 0.9810 0.9760
1302.120450 0.9760 0.9750 0.9760 0.9760 0.9780
1306.465925 0.9780 0.9790 0.9790 0.9790 0.9790
1310.811399 0.9780 0.9780 0.9740 0.9710 0.9700
1315.156874 0.9680 0.9680 0.9680 0.9680 0.9680
1319.502348 0.9680 0.9670 0.9660 0.9660 0.9630
1323.847822 0.9590 0.9560 0.9490 0.9430 0.9340
1328.193297 0.9330 0.9330 0.9320 0.9300 0.9300
1332.538771 0.9290 0.9260 0.9240 0.9190 0.9150
1336.884245 0.9000 0.8900 0.8461 0.8121 0.8120
1341.229720 0.8451 0.8830 0.8990 0.9030 0.9060
1345.575194 0.9070 0.9130 0.9150 0.9250 0.9330
1349.920668 0.9340 0.9340 0.9290 0.9190 0.9140
1354.266143 0.9030 0.8910 0.8730 0.8640 0.8620
1358.611617 0.8640 0.8690 0.8840 0.8980 0.9030
1362.957092 0.9030 0.9000 0.8990 0.8920 0.8800
1367.302566 0.8690 0.8570 0.8480 0.8330 0.8050
1371.648040 0.7700 0.7510 0.7270 0.6242 0.5791
1375.993515 0.5489 0.5018 0.4357 0.2820 0.2460
1380.338989 0.2460 0.2750 0.3469 0.4508 0.4779
1384.684463 0.4890 0.4930 0.5030 0.5261 0.5720
1389.029938 0.6180 0.6780 0.8049 0.8719 0.8840
1393.375412 0.8840 0.8830 0.8830 0.8810 0.8810
1397.720886 0.8830 0.8860 0.8960 0.9130 0.9359
1402.066361 0.9510 0.9620 0.9720 0.9760 0.9780
1406.411835 0.9790 0.9780 0.9750 0.9740 0.9720
1410.757310 0.9680 0.9670 0.9640 0.9600 0.9570
1415.102784 0.9570 0.9600 0.9640 0.9660 0.9670
1419.448258 0.9670 0.9660 0.9640 0.9590 0.9550
1423.793733 0.9450 0.9430 0.9410 0.9430 0.9440
1428.139207 0.9490 0.9510 0.9520 0.9520 0.9450
1432.484681 0.9430 0.9380 0.9340 0.9330 0.9300
1436.830156 0.9280 0.9280 0.9290 0.9320 0.9320
1441.175630 0.9330 0.9330 0.9330 0.9330 0.9330
1445.521105 0.9340 0.9340 0.9330 0.9280 0.9260
1449.866579 0.9190 0.9130 0.9030 0.8950 0.8920
1454.212053 0.8870 0.8750 0.8500 0.8180 0.7920
1458.557528 0.7780 0.7610 0.7570 0.7780 0.8448
1462.903002 0.8571 0.8911 0.9370 0.9450 0.9480
1467.248476 0.9480 0.9490 0.9490 0.9490 0.9490
1471.593951 0.9480 0.9480 0.9470 0.9450 0.9440
1475.939425 0.9410 0.9370 0.9340 0.9330 0.9320
1480.284899 0.9250 0.9140 0.9050 0.9000 0.8940
1484.630374 0.8910 0.8840 0.8790 0.8730 0.8670
1488.975848 0.8640 0.8610 0.8520 0.8420 0.8370
1493.321323 0.8330 0.8240 0.8160 0.8070 0.7850
1497.666797 0.7510 0.7429 0.7059 0.6659 0.6240
1502.012271 0.5780 0.5420 0.4960 0.3392 0.1883
1506.357746 0.1882 0.2514 0.4112 0.5191 0.6031
1510.703220 0.6600 0.6910 0.6960 0.6980 0.6970
1515.048694 0.6940 0.6910 0.6870 0.6850 0.6820
1519.394169 0.6790 0.6710 0.6620 0.6620 0.6630
1523.739643 0.6660 0.6670 0.6680 0.6680 0.6670
1528.085118 0.6640 0.6620 0.6600 0.6590 0.6450
1532.430592 0.6360 0.6280 0.6160 0.6070 0.6030
1536.776066 0.5910 0.5830 0.5730 0.5630 0.5381
1541.121541 0.5350 0.5310 0.5260 0.5230 0.5150
1545.467015 0.5120 0.5070 0.5030 0.5020 0.5020
1549.812489 0.5000 0.4990 0.4930 0.4920 0.4910
1554.157964 0.4890 0.4810 0.4780 0.4730 0.4660
1558.503438 0.4550 0.4490 0.4470 0.4460 0.4460
1562.848912 0.4400 0.4350 0.4210 0.4160 0.4070
1567.194387 0.3970 0.3809 0.3480 0.3480 0.3880
1571.539861 0.4320 0.4530 0.5349 0.5859 0.6010
1575.885336 0.6020 0.6020 0.6010 0.5970 0.5950
1580.230810 0.5880 0.5780 0.5670 0.5630 0.5500
1584.576284 0.5480 0.5440 0.5410 0.5370 0.5220
1588.921759 0.5120 0.5030 0.4920 0.4840 0.4840
1593.267233 0.5000 0.5180 0.5300 0.5400 0.5420
1597.612707 0.5500 0.5590 0.6099 0.6599 0.7119
1601.958182 0.7391 0.7801 0.7991 0.8220 0.8450
1606.303656 0.8600 0.8730 0.8870 0.8950 0.9030
1610.649130 0.9090 0.9150 0.9180 0.9220 0.9240
1614.994605 0.9250 0.9240 0.9220 0.9210 0.9170
1619.340079 0.9150 0.9130 0.9050 0.9020 0.8980
1623.685554 0.8950 0.8940 0.8910 0.8910 0.8810
1628.031028 0.8690 0.8620 0.8570 0.8581 0.9170
1632.376502 0.9520 0.9620 0.9700 0.9780 0.9790
1636.721977 0.9810 0.9860 0.9900 1.0020 1.0060
1641.067451 1.0090 1.0090 1.0090 1.0080 1.0060
1645.412925 1.0040 1.0020 1.0010 0.9980 0.9950
1649.758400 0.9950 0.9870 0.9870 0.9850 0.9830
1654.103874 0.9810 0.9790 0.9780 0.9760 0.9760
1658.449349 0.9740 0.9740 0.9750 0.9750 0.9760
1662.794823 0.9760 0.9780 0.9780 0.9780 0.9810
1667.140297 0.9860 0.9870 0.9870 0.9860 0.9850
1671.485772 0.9830 0.9820 0.9790 0.9780 0.9760
1675.831246 0.9680 0.9670 0.9640 0.9600 0.9570
1680.176720 0.9550 0.9530 0.9490 0.9440 0.9380
1684.522195 0.9340 0.9330 0.9320 0.9280 0.9240
1688.867669 0.9180 0.9140 0.9130 0.9110 0.9110
1693.213143 0.9130 0.9170 0.9320 0.9430 0.9470
1697.558618 0.9490 0.9550 0.9570 0.9640 0.9680
1701.904092 0.9700 0.9700 0.9710 0.9720 0.9720
1706.249567 0.9720 0.9720 0.9710 0.9700 0.9680
1710.595041 0.9660 0.9630 0.9600 0.9570 0.9550
1714.940515 0.9490 0.9450 0.9440 0.9450 0.9470
1719.285990 0.9480 0.9510 0.9530 0.9590 0.9630
1723.631464 0.9670 0.9700 0.9720 0.9740 0.9740
1727.976938 0.9740 0.9740 0.9720 0.9700 0.9680
1732.322413 0.9670 0.9670 0.9660 0.9640 0.9630
1736.667887 0.9620 0.9620 0.9600 0.9570 0.9560
1741.013362 0.9550 0.9530 0.9530 0.9520 0.9490
1745.358836 0.9480 0.9480 0.9470 0.9470 0.9450
1749.704310 0.9450 0.9410 0.9360 0.9330 0.9290
1754.049785 0.9280 0.9290 0.9300 0.9330 0.9400
1758.395259 0.9430 0.9480 0.9530 0.9550 0.9560
1762.740733 0.9560 0.9560 0.9570 0.9590 0.9600
1767.086208 0.9620 0.9630 0.9630 0.9630 0.9640
1771.431682 0.9670 0.9680 0.9700 0.9710 0.9720
1775.777156 0.9720 0.9720 0.9710 0.9700 0.9680
1780.122631 0.9670 0.9640 0.9630 0.9620 0.9570
1784.468105 0.9530 0.9440 0.9400 0.9330 0.9260
1788.813580 0.9210 0.9140 0.9130 0.9130 0.9140
1793.159054 0.9170 0.9220 0.9250 0.9320 0.9360
1797.504528 0.9410 0.9430 0.9440 0.9440 0.9430
1801.850003 0.9430 0.9400 0.9360 0.9320 0.9320
1806.195477 0.9240 0.9140 0.9060 0.9020 0.9000
1810.540951 0.9020 0.9110 0.9240 0.9300 0.9360
1814.886426 0.9440 0.9530 0.9560 0.9590 0.9620
1819.231900 0.9630 0.9630 0.9620 0.9600 0.9600
1823.577375 0.9590 0.9570 0.9560 0.9530 0.9510
1827.922849 0.9470 0.9440 0.9430 0.9400 0.9370
1832.268323 0.9360 0.9330 0.9280 0.9240 0.9180
1836.613798 0.9140 0.9140 0.9180 0.9240 0.9280
1840.959272 0.9340 0.9430 0.9440 0.9490 0.9490
1845.304746 0.9480 0.9470 0.9440 0.9410 0.9400
1849.650221 0.9400 0.9400 0.9380 0.9380 0.9370
1853.995695 0.9360 0.9340 0.9330 0.9320 0.9250
1858.341169 0.9190 0.9150 0.9110 0.9060 0.9050
1862.686644 0.9060 0.9100 0.9180 0.9260 0.9330
1867.032118 0.9410 0.9470 0.9530 0.9560 0.9590
1871.377593 0.9620 0.9640 0.9640 0.9660 0.9670
1875.723067 0.9670 0.9680 0.9700 0.9710 0.9710
1880.068541 0.9720 0.9740 0.9760 0.9760 0.9760
1884.414016 0.9760 0.9750 0.9750 0.9740 0.9740
1888.759490 0.9720 0.9720 0.9710 0.9710 0.9710
1893.104964 0.9710 0.9710 0.9700 0.9670 0.9630
1897.450439 0.9620 0.9600 0.9570 0.9560 0.9520
1901.795913 0.9490 0.9470 0.9450 0.9470 0.9490
1906.141387 0.9510 0.9490 0.9480 0.9440 0.9430
1910.486862 0.9380 0.9340 0.9260 0.9190 0.9110
1914.832336 0.9000 0.8980 0.8960 0.8990 0.9020
1919.177811 0.9100 0.9110 0.9130 0.9130 0.9110
1923.523285 0.9060 0.9020 0.8940 0.8900 0.8800
1927.868759 0.8770 0.8770 0.8790 0.8840 0.8920
1932.214234 0.9090 0.9170 0.9260 0.9330 0.9380
1936.559708 0.9450 0.9470 0.9480 0.9480 0.9480
1940.905182 0.9470 0.9440 0.9440 0.9430 0.9410
1945.250657 0.9400 0.9370 0.9360 0.9340 0.9330
1949.596131 0.9320 0.9300 0.9260 0.9220 0.9210
1953.941606 0.9180 0.9180 0.9190 0.9210 0.9220
1958.287080 0.9331 0.9550 0.9670 0.9600 0.9600
1962.632554 0.9620 0.9640 0.9640 0.9670 0.9680
1966.978029 0.9710 0.9740 0.9740 0.9760 0.9760
1971.323503 0.9760 0.9740 0.9740 0.9740 0.9740
1975.668977 0.9740 0.9740 0.9760 0.9760 0.9760
1980.014452 0.9760 0.9760 0.9750 0.9750 0.9750
1984.359926 0.9750 0.9750 0.9750 0.9750 0.9750
1988.705400 0.9750 0.9750 0.9750 0.9750 0.9760
1993.050875 0.9821 1.0010 1.0060 1.0060 1.0060
1997.396349 1.0060 1.0080 1.0060 1.0050 1.0045
2001.741824 1.0040 1.0040 1.0040 1.0030 1.0020
2006.087298 1.0020 1.0020 1.0015 1.0010 1.0010
2010.432772 1.0010 1.0010 1.0010 1.0010 1.0010
2014.778247 1.0030 1.0050 1.0050 1.0050 1.0035
2019.123721 1.0020 1.0015 1.0010 0.9995 0.9980
2023.469195 0.9955 0.9930 0.9974 1.0019 1.0020
2027.814670 1.0020 1.0030 1.0040 1.0045 1.0050
2032.160144 1.0050 1.0050 1.0055 1.0060 1.0070
2036.505619 1.0080 1.0090 1.0100 1.0110 1.0120
2040.851093 1.0110 1.0100 1.0095 1.0090 1.0075
2045.196567 1.0060 1.0060 1.0060 1.0041 1.0021
2049.542042 0.9996 0.9971 0.9941 0.9911 0.9992
2053.887516 1.0077 1.0070 1.0060 1.0060 1.0060
2058.232990 1.0055 1.0050 1.0050 1.0050 1.0050
2062.578465 1.0050 1.0045 1.0040 1.0040 1.0040
2066.923939 1.0031 1.0021 1.0015 1.0010 1.0010
2071.269413 1.0010 1.0010 1.0010 1.0010 1.0010
2075.614888 1.0015 1.0020 1.0030 1.0040 1.0045
2079.960362 1.0050 1.0050 1.0050 1.0050 1.0050
2084.305837 1.0050 1.0050 1.0050 1.0050 1.0045
2088.651311 1.0040 1.0040 1.0040 1.0040 1.0040
2092.996785 1.0031 1.0021 1.0020 1.0020 1.0015
2097.342260 1.0010 1.0010 1.0010 1.0005 1.0000
2101.687734 0.9986 0.9971 0.9970 0.9970 0.9975
2106.033208 0.9980 0.9989 0.9999 1.0000 1.0000
2110.378683 1.0005 1.0010 1.0010 1.0010 1.0029
2114.724157 1.0048 1.0050 1.0050 1.0045 1.0040
2119.069631 1.0031 1.0021 1.0015 1.0010 1.0010
2123.415106 1.0010 1.0010 1.0010 1.0010 1.0010
2127.760580 1.0024 1.0039 1.0040 1.0040 1.0031
2132.106055 1.0021 1.0020 1.0020 1.0015 1.0011
2136.451529 1.0010 1.0010 1.0010 1.0010 1.0010
2140.797003 1.0010 1.0010 1.0010 1.0010 1.0010
2145.142478 1.0010 1.0010 1.0010 1.0010 1.0010
2149.487952 1.0010 1.0010 1.0010 1.0010 1.0010
2153.833426 1.0010 1.0010 1.0010 1.0010 1.0010
2158.178901 1.0010 1.0010 1.0010 1.0006 1.0000
2162.524375 1.0000 1.0000 1.0000 1.0000 1.0000
2166.869850 1.0000 0.9991 0.9981 0.9980 0.9980
2171.215324 0.9989 0.9999 1.0000 1.0000 1.0000
2175.560798 1.0000 1.0000 1.0000 0.9991 0.9981
2179.906273 0.9980 0.9980 0.9980 0.9980 0.9989
2184.251747 0.9999 1.0000 1.0000 1.0000 1.0000
2188.597221 0.9991 0.9981 0.9980 0.9980 0.9980
2192.942696 0.9980 0.9989 0.9999 1.0000 1.0000
2197.288170 1.0000 1.0000 1.0000 1.0000 1.0000
2201.633644 1.0000 1.0000 1.0000 1.0000 1.0000
2205.979119 1.0000 1.0000 1.0000 1.0000 1.0000
2210.324593 1.0000 1.0000 1.0000 0.9991 0.9981
2214.670068 0.9980 0.9980 0.9980 0.9980 0.9976
2219.015542 0.9971 0.9961 0.9951 0.9941 0.9931
2223.361016 0.9930 0.9930 0.9930 0.9930 0.9930
2227.706491 0.9930 0.9930 0.9930 0.9930 0.9930
2232.051965 0.9921 0.9911 0.9910 0.9910 0.9910
2236.397439 0.9910 0.9910 0.9910 0.9910 0.9910
2240.742914 0.9906 0.9901 0.9900 0.9900 0.9900
2245.088388 0.9900 0.9900 0.9900 0.9896 0.9891
2249.433863 0.9882 0.9872 0.9866 0.9861 0.9860
2253.779337 0.9860 0.9860 0.9860 0.9864 0.9869
2258.124811 0.9870 0.9870 0.9862 0.9852 0.9837
2262.470286 0.9822 0.9820 0.9820 0.9820 0.9820
2266.815760 0.9820 0.9820 0.9816 0.9811 0.9802
2271.161234 0.9792 0.9778 0.9763 0.9752 0.9742
2275.506709 0.9732 0.9722 0.9716 0.9711 0.9706
2279.852183 0.9701 0.9683 0.9664 0.9648 0.9633
2284.197657 0.9618 0.9603 0.9600 0.9600 0.9588
2288.543132 0.9573 0.9566 0.9561 0.9576 0.9596
2292.888606 0.9632 0.9672 0.9688 0.9698 0.9700
2297.234081 0.9700 0.9700 0.9700 0.9688 0.9673
2301.579555 0.9666 0.9661 0.9644 0.9624 0.9612
2305.925029 0.9602 0.9596 0.9591 0.9594 0.9599
2310.270504 0.9612 0.9627 0.9646 0.9666 0.9714
2314.615978 0.9769 0.9796 0.9816 0.9836 0.9856
2318.961452 0.9864 0.9869 0.9882 0.9897 0.9904
2323.306927 0.9909 0.9918 0.9928 0.9934 0.9939
2327.652401 0.9940 0.9940 0.9944 0.9949 0.9950
2331.997875 0.9950 0.9962 0.9977 0.9988 0.9998
2336.343350 1.0000 1.0000 1.0000 1.0000 1.0000
2340.688824 1.0000 0.9992 0.9982 0.9980 0.9980
2345.034299 0.9980 0.9980 0.9980 0.9980 0.9980
2349.379773 0.9980 0.9976 0.9971 0.9962 0.9952
2353.725247 0.9942 0.9932 0.9922 0.9912 0.9910
2358.070722 0.9910 0.9910 0.9910 0.9906 0.9901
2362.416196 0.9900 0.9900 0.9900 0.9900 0.9900
2366.761670 0.9900 0.9896 0.9891 0.9890 0.9890
2371.107145 0.9882 0.9872 0.9870 0.9870 0.9866
2375.452619 0.9861 0.9856 0.9851 0.9842 0.9832
2379.798094 0.9811 0.9786 0.9780 0.9780 0.9784
2384.143568 0.9789 0.9820 0.9860 0.9878 0.9888
2388.489042 0.9882 0.9872 0.9866 0.9861 0.9856
2392.834517 0.9851 0.9850 0.9850 0.9843 0.9833
2397.179991 0.9830 0.9830 0.9830 0.9830 0.9830
2401.525465 0.9830 0.9826 0.9821 0.9820 0.9820
2405.870940 0.9820 0.9820 0.9809 0.9794 0.9786
2410.216414 0.9781 0.9773 0.9763 0.9760 0.9760
2414.561888 0.9767 0.9777 0.9780 0.9780 0.9784
2418.907363 0.9789 0.9790 0.9790 0.9805 0.9825
2423.252837 0.9841 0.9856 0.9864 0.9869 0.9877
2427.598312 0.9887 0.9890 0.9890 0.9883 0.9873
2431.943786 0.9870 0.9870 0.9870 0.9870 0.9870
2436.289260 0.9870 0.9870 0.9870 0.9870 0.9870
2440.634735 0.9870 0.9870 0.9877 0.9887 0.9894
2444.980209 0.9899 0.9900 0.9900 0.9900 0.9900
2449.325683 0.9900 0.9900 0.9900 0.9900 0.9900
2453.671158 0.9900 0.9900 0.9900 0.9900 0.9900
2458.016632 0.9900 0.9900 0.9900 0.9900 0.9900
2462.362107 0.9900 0.9900 0.9900 0.9900 0.9900
2466.707581 0.9900 0.9900 0.9900 0.9900 0.9900
2471.053055 0.9900 0.9900 0.9900 0.9896 0.9891
2475.398530 0.9883 0.9873 0.9867 0.9862 0.9860
2479.744004 0.9860 0.9860 0.9860 0.9860 0.9860
2484.089478 0.9860 0.9860 0.9863 0.9868 0.9877
2488.434953 0.9887 0.9893 0.9898 0.9900 0.9900
2492.780427 0.9900 0.9900 0.9900 0.9900 0.9900
2497.125901 0.9900 0.9900 0.9900 0.9900 0.9900
2501.471376 0.9900 0.9900 0.9900 0.9900 0.9900
2505.816850 0.9900 0.9900 0.9900 0.9900 0.9900
2510.162325 0.9897 0.9892 0.9883 0.9873 0.9870
2514.507799 0.9870 0.9870 0.9870 0.9870 0.9870
2518.853273 0.9870 0.9870 0.9870 0.9870 0.9877
2523.198748 0.9887 0.9890 0.9890 0.9890 0.9890
2527.544222 0.9893 0.9898 0.9900 0.9900 0.9900
2531.889696 0.9900 0.9900 0.9900 0.9900 0.9900
2536.235171 0.9900 0.9900 0.9903 0.9908 0.9907
2540.580645 0.9902 0.9897 0.9892 0.9890 0.9890
2544.926120 0.9890 0.9890 0.9890 0.9890 0.9890
2549.271594 0.9890 0.9890 0.9890 0.9890 0.9890
2553.617068 0.9890 0.9890 0.9890 0.9890 0.9890
2557.962543 0.9890 0.9883 0.9873 0.9867 0.9862
2562.308017 0.9860 0.9860 0.9860 0.9860 0.9857
2566.653491 0.9852 0.9850 0.9850 0.9850 0.9850
2570.998966 0.9844 0.9834 0.9830 0.9830 0.9830
2575.344440 0.9830 0.9836 0.9846 0.9850 0.9850
2579.689914 0.9850 0.9850 0.9853 0.9858 0.9860
2584.035389 0.9860 0.9863 0.9868 0.9870 0.9870
2588.380863 0.9870 0.9870 0.9867 0.9862 0.9860
2592.726338 0.9860 0.9863 0.9868 0.9870 0.9870
2597.071812 0.9870 0.9870 0.9870 0.9870 0.9870
2601.417286 0.9870 0.9876 0.9886 0.9893 0.9898
2605.762761 0.9900 0.9900 0.9900 0.9900 0.9900
2610.108235 0.9900 0.9900 0.9900 0.9897 0.9892
2614.453709 0.9890 0.9890 0.9890 0.9890 0.9890
2618.799184 0.9890 0.9884 0.9874 0.9870 0.9870
2623.144658 0.9870 0.9870 0.9870 0.9870 0.9870
2627.490132 0.9870 0.9870 0.9870 0.9870 0.9870
2631.835607 0.9870 0.9870 0.9870 0.9870 0.9870
2636.181081 0.9870 0.9870 0.9870 0.9870 0.9870
2640.526556 0.9870 0.9870 0.9870 0.9870 0.9870
2644.872030 0.9870 0.9876 0.9886 0.9890 0.9890
2649.217504 0.9890 0.9890 0.9890 0.9890 0.9893
2653.562979 0.9898 0.9900 0.9900 0.9900 0.9900
2657.908453 0.9900 0.9900 0.9900 0.9900 0.9900
2662.253927 0.9900 0.9900 0.9900 0.9900 0.9900
2666.599402 0.9900 0.9900 0.9900 0.9900 0.9900
2670.944876 0.9900 0.9900 0.9900 0.9900 0.9900
2675.290351 0.9900 0.9900 0.9897 0.9892 0.9890
2679.635825 0.9890 0.9890 0.9890 0.9890 0.9890
2683.981299 0.9890 0.9890 0.9893 0.9898 0.9900
2688.326774 0.9900 0.9900 0.9900 0.9897 0.9892
2692.672248 0.9890 0.9890 0.9890 0.9890 0.9884
2697.017722 0.9874 0.9870 0.9870 0.9870 0.9870
2701.363197 0.9867 0.9862 0.9860 0.9860 0.9857
2705.708671 0.9852 0.9850 0.9850 0.9850 0.9850
2710.054145 0.9845 0.9835 0.9835 0.9846 0.9850
2714.399620 0.9850 0.9856 0.9866 0.9876 0.9886
2718.745094 0.9893 0.9898 0.9900 0.9900 0.9903
2723.090569 0.9908 0.9910 0.9910 0.9910 0.9910
2727.436043 0.9910 0.9910 0.9910 0.9910 0.9910
2731.781517 0.9910 0.9910 0.9910 0.9910 0.9910
2736.126992 0.9910 0.9910 0.9910 0.9910 0.9915
2740.472466 0.9925 0.9930 0.9930 0.9930 0.9930
2744.817940 0.9925 0.9915 0.9907 0.9902 0.9900
2749.163415 0.9900 0.9900 0.9900 0.9900 0.9900
2753.508889 0.9900 0.9900 0.9900 0.9900 0.9900
2757.854364 0.9900 0.9900 0.9900 0.9900 0.9900
2762.199838 0.9900 0.9900 0.9900 0.9900 0.9900
2766.545312 0.9900 0.9903 0.9908 0.9910 0.9910
2770.890787 0.9910 0.9910 0.9910 0.9910 0.9910
2775.236261 0.9910 0.9907 0.9902 0.9900 0.9900
2779.581735 0.9900 0.9900 0.9900 0.9900 0.9908
2783.927210 0.9923 0.9930 0.9930 0.9925 0.9915
2788.272684 0.9910 0.9910 0.9910 0.9910 0.9910
2792.618158 0.9910 0.9910 0.9910 0.9910 0.9910
2796.963633 0.9910 0.9910 0.9908 0.9902 0.9900
2801.309107 0.9900 0.9903 0.9908 0.9910 0.9910
2805.654582 0.9910 0.9910 0.9915 0.9925 0.9930
2810.000056 0.9930 0.9925 0.9915 0.9910 0.9910
2814.345530 0.9910 0.9910 0.9910 0.9910 0.9910
2818.691005 0.9910 0.9910 0.9910 0.9910 0.9910
2823.036479 0.9910 0.9910 0.9910 0.9910 0.9910
2827.381953 0.9910 0.9910 0.9910 0.9910 0.9910
2831.727428 0.9908 0.9903 0.9900 0.9900 0.9900
2836.072902 0.9900 0.9900 0.9900 0.9898 0.9893
2840.418376 0.9883 0.9868 0.9851 0.9831 0.9818
2844.763851 0.9813 0.9805 0.9795 0.9795 0.9805
2849.109325 0.9812 0.9817 0.9822 0.9827 0.9837
2853.454800 0.9852 0.9862 0.9867 0.9875 0.9885
2857.800274 0.9890 0.9890 0.9890 0.9890 0.9890
2862.145748 0.9890 0.9890 0.9890 0.9890 0.9890
2866.491223 0.9890 0.9890 0.9890 0.9890 0.9890
2870.836697 0.9890 0.9890 0.9890 0.9890 0.9890
2875.182171 0.9890 0.9890 0.9890 0.9890 0.9890
2879.527646 0.9890 0.9886 0.9876 0.9870 0.9870
2883.873120 0.9868 0.9863 0.9860 0.9860 0.9860
2888.218595 0.9860 0.9860 0.9860 0.9860 0.9860
2892.564069 0.9860 0.9860 0.9860 0.9860 0.9860
2896.909543 0.9860 0.9860 0.9860 0.9860 0.9860
2901.255018 0.9860 0.9860 0.9858 0.9853 0.9846
2905.600492 0.9836 0.9828 0.9823 0.9818 0.9813
2909.945966 0.9806 0.9796 0.9784 0.9769 0.9758
2914.291441 0.9753 0.9750 0.9750 0.9750 0.9750
2918.636915 0.9750 0.9750 0.9750 0.9750 0.9750
2922.982389 0.9750 0.9752 0.9757 0.9760 0.9760
2927.327864 0.9764 0.9774 0.9780 0.9780 0.9780
2931.673338 0.9780 0.9776 0.9766 0.9760 0.9760
2936.018813 0.9760 0.9760 0.9760 0.9760 0.9758
2940.364287 0.9753 0.9752 0.9757 0.9760 0.9760
2944.709761 0.9756 0.9746 0.9736 0.9726 0.9718
2949.055236 0.9713 0.9708 0.9703 0.9696 0.9686
2953.400710 0.9678 0.9673 0.9670 0.9670 0.9676
2957.746184 0.9691 0.9708 0.9728 0.9744 0.9754
2962.091659 0.9764 0.9774 0.9788 0.9808 0.9820
2966.437133 0.9820 0.9822 0.9827 0.9830 0.9830
2970.782608 0.9830 0.9830 0.9830 0.9830 0.9830
2975.128082 0.9830 0.9834 0.9844 0.9850 0.9850
2979.473556 0.9846 0.9836 0.9826 0.9816 0.9800
2983.819031 0.9775 0.9756 0.9746 0.9736 0.9726
2988.164505 0.9716 0.9706 0.9689 0.9659 0.9630
2992.509979 0.9605 0.9584 0.9569 0.9558 0.9553
2996.855454 0.9542 0.9522 0.9504 0.9489 0.9474
3001.200928 0.9459 0.9441 0.9416 0.9385 0.9345
3005.546402 0.9313 0.9293 0.9262 0.9211 0.9174
3009.891877 0.9159 0.9143 0.9123 0.9110 0.9110
3014.237351 0.9110 0.9110 0.9106 0.9096 0.9085
3018.582826 0.9070 0.9046 0.9006 0.8966 0.8926
3022.928300 0.8884 0.8839 0.8799 0.8769 0.8745
3027.273774 0.8730 0.8718 0.8713 0.8710 0.8710
3031.619249 0.8698 0.8663 0.8615 0.8545 0.8470
3035.964723 0.8385 0.8297 0.8202 0.8135 0.8120
3040.310197 0.8098 0.8063 0.8021 0.7966 0.7907
3044.655672 0.7842 0.7763 0.7658 0.7560 0.7476
3049.001146 0.7354 0.7165 0.6922 0.6577 0.6253
3053.346621 0.5969 0.5751 0.5667 0.5585 0.5510
3057.692095 0.5439 0.5374 0.5317 0.5276 0.5207
3062.037569 0.5082 0.5000 0.5000 0.5042 0.5167
3066.383044 0.5380 0.5770 0.6090 0.6269 0.6505
3070.728518 0.6854 0.7176 0.7441 0.7659 0.7778
3075.073992 0.7865 0.7880 0.7890 0.7890 0.7883
3079.419467 0.7863 0.7843 0.7823 0.7792 0.7737
3083.764941 0.7695 0.7680 0.7675 0.7690 0.7710
3088.110415 0.7739 0.7796 0.7911 0.8023 0.8128
3092.455890 0.8235 0.8350 0.8486 0.8667 0.8877
3096.801364 0.9147 0.9341 0.9376 0.9417 0.9472
3101.146839 0.9519 0.9549 0.9573 0.9583 0.9592
3105.492313 0.9597 0.9605 0.9620 0.9641 0.9675
3109.837787 0.9713 0.9758 0.9802 0.9842 0.9876
3114.183262 0.9896 0.9910 0.9910 0.9913 0.9923
3118.528736 0.9932 0.9937 0.9944 0.9959 0.9971
3122.874210 0.9976 0.9980 0.9980 0.9979 0.9974
3127.219685 0.9966 0.9951 0.9940 0.9940 0.9940
3131.565159 0.9940 0.9940 0.9940 0.9941 0.9946
3135.910633 0.9959 0.9989 1.0010 1.0010 1.0011
3140.256108 1.0016 1.0020 1.0020 1.0020 1.0020
3144.601582 1.0020 1.0020 1.0020 1.0020 1.0019
3148.947057 1.0014 1.0009 1.0004 1.0001 1.0006
3153.292531 1.0010 1.0010 1.0010 1.0010 1.0011
3157.638005 1.0016 1.0020 1.0020 1.0020 1.0020
3161.983480 1.0019 1.0014 1.0011 1.0016 1.0028
3166.328954 1.0058 1.0081 1.0086 1.0091 1.0096
3170.674428 1.0100 1.0100 1.0100 1.0100 1.0100
3175.019903 1.0100 1.0100 1.0100 1.0100 1.0100
3179.365377 1.0100 1.0100 1.0100 1.0100 1.0100
3183.710852 1.0100 1.0100 1.0100 1.0100 1.0100
3188.056326 1.0100 1.0100 1.0104 1.0119 1.0134
3192.401800 1.0149 1.0160 1.0160 1.0160 1.0160
3196.747275 1.0161 1.0166 1.0170 1.0170 1.0169
3201.092749 1.0164 1.0160 1.0160 1.0161 1.0166
3205.438223 1.0169 1.0164 1.0160 1.0160 1.0160
3209.783698 1.0160 1.0160 1.0160 1.0160 1.0160
3214.129172 1.0160 1.0160 1.0160 1.0160 1.0160
3218.474646 1.0160 1.0162 1.0172 1.0184 1.0199
3222.820121 1.0212 1.0222 1.0230 1.0230 1.0230
3227.165595 1.0230 1.0228 1.0218 1.0210 1.0210
3231.511070 1.0210 1.0210 1.0212 1.0222 1.0230
3235.856544 1.0230 1.0230 1.0230 1.0231 1.0236
3240.202018 1.0241 1.0246 1.0250 1.0250 1.0250
3244.547493 1.0250 1.0250 1.0250 1.0250 1.0250
3248.892967 1.0252 1.0262 1.0270 1.0270 1.0270
3253.238441 1.0270 1.0270 1.0270 1.0270 1.0270
3257.583916 1.0270 1.0270 1.0270 1.0270 1.0270
3261.929390 1.0270 1.0270 1.0270 1.0270 1.0270
3266.274865 1.0271 1.0276 1.0280 1.0280 1.0283
3270.620339 1.0298 1.0310 1.0310 1.0311 1.0316
3274.965813 1.0320 1.0320 1.0320 1.0320 1.0320
3279.311288 1.0320 1.0321 1.0326 1.0330 1.0330
3283.656762 1.0330 1.0330 1.0332 1.0342 1.0350
3288.002236 1.0350 1.0350 1.0350 1.0350 1.0350
3292.347711 1.0350 1.0350 1.0351 1.0356 1.0360
3296.693185 1.0360 1.0360 1.0360 1.0361 1.0366
3301.038659 1.0370 1.0370 1.0370 1.0370 1.0370
3305.384134 1.0370 1.0370 1.0370 1.0370 1.0370
3309.729608 1.0370 1.0370 1.0370 1.0370 1.0370
3314.075083 1.0370 1.0370 1.0370 1.0370 1.0370
3318.420557 1.0370 1.0370 1.0370 1.0370 1.0370
3322.766031 1.0370 1.0370 1.0370 1.0370 1.0370
3327.111506 1.0370 1.0370 1.0370 1.0370 1.0370
3331.456980 1.0370 1.0370 1.0370 1.0370 1.0370
3335.802454 1.0370 1.0370 1.0369 1.0364 1.0360
3340.147929 1.0360 1.0360 1.0360 1.0360 1.0360
3344.493403 1.0360 1.0360 1.0360 1.0360 1.0361
3348.838877 1.0366 1.0370 1.0370 1.0370 1.0370
3353.184352 1.0370 1.0370 1.0370 1.0370 1.0372
3357.529826 1.0382 1.0390 1.0390 1.0390 1.0390
3361.875301 1.0391 1.0396 1.0400 1.0400 1.0400
3366.220775 1.0400 1.0400 1.0400 1.0399 1.0394
3370.566249 1.0390 1.0390 1.0390 1.0390 1.0390
3374.911724 1.0390 1.0390 1.0390 1.0391 1.0396
3379.257198 1.0401 1.0411 1.0421 1.0426 1.0431
3383.602672 1.0436 1.0440 1.0440 1.0440 1.0440
3387.948147 1.0442 1.0457 1.0470 1.0470 1.0469
3392.293621 1.0464 1.0460 1.0460 1.0460 1.0460
3396.639096 1.0460 1.0460 1.0460 1.0460 1.0458
3400.984570 1.0443 1.0430 1.0430 1.0430 1.0430
3405.330044 1.0430 1.0430 1.0430 1.0430 1.0430
3409.675519 1.0430 1.0429 1.0424 1.0419 1.0409
3414.020993 1.0400 1.0400 1.0399 1.0394 1.0390
3418.366467 1.0390 1.0390 1.0390 1.0390 1.0390
3422.711942 1.0390 1.0390 1.0389 1.0379 1.0369
3427.057416 1.0364 1.0359 1.0354 1.0350 1.0350
3431.402890 1.0350 1.0350 1.0350 1.0350 1.0350
3435.748365 1.0350 1.0350 1.0350 1.0349 1.0339
3440.093839 1.0330 1.0325 1.0320 1.0320 1.0320
3444.439314 1.0320 1.0320 1.0320 1.0320 1.0320
3448.784788 1.0320 1.0315 1.0309 1.0299 1.0290
3453.130262 1.0285 1.0280 1.0280 1.0280 1.0275
3457.475737 1.0270 1.0270 1.0270 1.0270 1.0270
3461.821211 1.0270 1.0270 1.0270 1.0269 1.0259
3466.166685 1.0250 1.0250 1.0250 1.0250 1.0250
3470.512160 1.0250 1.0250 1.0245 1.0240 1.0240
3474.857634 1.0240 1.0240 1.0240 1.0240 1.0240
3479.203109 1.0240 1.0240 1.0240 1.0240 1.0240
3483.548583 1.0240 1.0235 1.0230 1.0230 1.0230
3487.894057 1.0230 1.0229 1.0219 1.0210 1.0210
3492.239532 1.0210 1.0205 1.0200 1.0200 1.0199
3496.585006 1.0189 1.0180 1.0180 1.0180 1.0180
3500.930480 1.0180 1.0180 1.0180 1.0175 1.0170
3505.275955 1.0165 1.0159 1.0150 1.0140 1.0140
3509.621429 1.0140 1.0151 1.0160 1.0160 1.0160
3513.966903 1.0160 1.0159 1.0149 1.0140 1.0140
3518.312378 1.0140 1.0135 1.0130 1.0130 1.0130
3522.657852 1.0130 1.0130 1.0125 1.0120 1.0120
3527.003327 1.0120 1.0120 1.0120 1.0110 1.0100
3531.348801 1.0100 1.0100 1.0100 1.0100 1.0100
3535.694275 1.0100 1.0100 1.0100 1.0100 1.0100
3540.039750 1.0100 1.0100 1.0100 1.0100 1.0100
3544.385224 1.0100 1.0095 1.0090 1.0090 1.0090
3548.730698 1.0095 1.0100 1.0100 1.0100 1.0090
3553.076173 1.0080 1.0080 1.0080 1.0080 1.0080
3557.421647 1.0080 1.0080 1.0080 1.0080 1.0080
3561.767122 1.0080 1.0085 1.0090 1.0090 1.0089
3566.112596 1.0069 1.0050 1.0050 1.0050 1.0035
3570.458070 1.0020 1.0020 1.0020 1.0020 1.0020
3574.803545 1.0020 1.0020 1.0020 1.0020 1.0030
3579.149019 1.0040 1.0040 1.0040 1.0040 1.0040
3583.494493 1.0040 1.0040 1.0040 1.0040 1.0040
3587.839968 1.0040 1.0030 1.0020 1.0015 1.0010
3592.185442 1.0010 1.0010 1.0010 1.0010 1.0010
3596.530916 1.0010 1.0010 1.0010 1.0005 1.0000
3600.876391 1.0000 1.0000 0.9985 0.9970 0.9960
3605.221865 0.9950 0.9950 0.9950 0.9950 0.9950
3609.567340 0.9950 0.9950 0.9965 0.9980 0.9980
3613.912814 0.9980 0.9990 1.0000 1.0005 1.0010
3618.258288 1.0010 1.0010 1.0010 1.0010 1.0010
3622.603763 1.0010 1.0010 1.0010 1.0010 1.0010
3626.949237 1.0010 1.0010 1.0010 1.0010 1.0010
3631.294711 1.0010 1.0005 1.0000 0.9990 0.9980
3635.640186 0.9980 0.9980 0.9980 0.9980 0.9980
3639.985660 0.9980 0.9995 1.0010 1.0010 1.0010
3644.331134 1.0010 1.0010 1.0010 1.0010 1.0010
3648.676609 1.0010 1.0005 1.0000 0.9990 0.9980
3653.022083 0.9980 0.9980 0.9980 0.9980 0.9980
3657.367558 0.9980 0.9980 0.9980 0.9975 0.9970
3661.713032 0.9970 0.9970 0.9970 0.9970 0.9984
3666.058506 0.9999 1.0000 1.0000 1.0000 1.0000
3670.403981 0.9990 0.9980 0.9990 1.0000 1.0000
3674.749455 1.0000 1.0000 1.0000 1.0000 1.0000
3679.094929 0.9976 0.9951 0.9950 0.9950 0.9964
3683.440404 0.9979 0.9999 1.0019 1.0030 1.0040
3687.785878 1.0040 1.0040 1.0031 1.0020 1.0011
3692.131353 1.0001 1.0000 1.0000 1.0000 1.0000
3696.476827 1.0005 1.0010 1.0015 1.0020 1.0020
3700.822301 1.0020 1.0020 1.0020 1.0020 1.0020
3705.167776 1.0015 1.0010 1.0010 1.0010 1.0005
3709.513250 1.0000 0.9986 0.9971 0.9970 0.9970
3713.858724 0.9975 0.9980 0.9989 0.9999 1.0000
3718.204199 1.0000 1.0005 1.0010 1.0010 1.0010
3722.549673 1.0010 1.0010 1.0010 1.0010 1.0010
3726.895147 1.0010 1.0010 1.0010 1.0010 1.0010
3731.240622 1.0005 1.0000 1.0000 1.0000 1.0005
3735.586096 1.0010 1.0015 1.0020 1.0020 1.0020
3739.931571 1.0020 1.0020 1.0020 1.0020 1.0020
3744.277045 1.0020 1.0020 1.0020 1.0020 1.0020
3748.622519 1.0020 1.0020 1.0020 1.0020 1.0015
3752.967994 1.0011 1.0010 1.0010 1.0010 1.0010
3757.313468 1.0006 1.0000 1.0000 1.0000 0.9991
3761.658942 0.9981 0.9980 0.9980 0.9976 0.9971
3766.004417 0.9970 0.9970 0.9961 0.9951 0.9950
3770.349891 0.9950 0.9946 0.9941 0.9940 0.9940
3774.695366 0.9944 0.9949 0.9950 0.9950 0.9950
3779.040840 0.9950 0.9946 0.9941 0.9940 0.9940
3783.386314 0.9940 0.9940 0.9940 0.9940 0.9940
3787.731789 0.9940 0.9944 0.9949 0.9963 0.9978
3792.077263 0.9980 0.9980 0.9980 0.9980
##END=
