##TITLE=2,6-DIMETHOXY PHENOL
$$ E.K. (W.L.)
##JCAMP-DX=4.24
##DATA TYPE=INFRARED SPECTRUM
##CLASS=COBLENTZ
##ORIGIN=WYANDOTTE CHEMICALS CORP., WYANDOTTE, MICHIGAN, USA
##OWNER=COBLENTZ SOCIETY
Collection (C) 2018 copyright by the U.S. Secretary of Commerce
on behalf of the United States of America. All rights reserved.
##DATE=Not specified, most likely prior to 1970
##NAMES=2,6-dimethoxyphenol
##CAS REGISTRY NO=91-10-1
##MOLFORM=C8 H10 O3
##MP=53.5-55.5 C
##SOURCE REFERENCE=COBLENTZ NO. 258
##$NIST SOURCE=COBLENTZ
##$NIST IMAGE=cob258
##SPECTROMETER/DATA SYSTEM=Not specified, most likely a prism, grating, or hybrid spectrometer.
##STATE=SOLID (MULL)
##SAMPLING PROCEDURE=TRANSMISSION
##RESOLUTION=4
##DATA PROCESSING=DIGITIZED BY NIST FROM HARD COPY
##XUNITS=MICROMETERS
##YUNITS=TRANSMITTANCE
##XFACTOR=1.000000
##YFACTOR=1
##DELTAX=000.006649
##FIRSTX=2.036
##LASTX=15.9852
##FIRSTY=0.489
##MAXX=15.9852
##MINX=2.036
##MAXY=0.975
##MINY=0.026
##NPOINTS=2099
##XYDATA=(X++(Y..Y))
2.036000 0.4890 0.4890 0.4890 0.4890 0.4890
2.069261 0.4890 0.4890 0.4900 0.4920 0.4940
2.102000 0.4920 0.4870 0.4840 0.4790 0.4790
2.135261 0.4750 0.4700 0.4670 0.4620 0.4570
2.169000 0.4540 0.4540 0.4520 0.4520 0.4500
2.202261 0.4490 0.4470 0.4470 0.4470 0.4500
2.235000 0.4520 0.4520 0.4540 0.4570 0.4570
2.268261 0.4570 0.4570 0.4570 0.4550 0.4550
2.302000 0.4550 0.4520 0.4540 0.4540 0.4520
2.335261 0.4520 0.4520 0.4520 0.4500 0.4520
2.368000 0.4520 0.4540 0.4540 0.4600 0.4620
2.401261 0.4650 0.4690 0.4690 0.4690 0.4720
2.435000 0.4740 0.4770 0.4800 0.4800 0.4820
2.468261 0.4850 0.4870 0.4850 0.4870 0.4870
2.501000 0.4870 0.4890 0.4890 0.4900 0.4940
2.534261 0.4950 0.4970 0.4990 0.5000 0.5000
2.568000 0.5020 0.5020 0.5020 0.5020 0.5020
2.601261 0.5040 0.5040 0.5050 0.5090 0.5100
2.634000 0.5120 0.5140 0.5140 0.5170 0.5190
2.667261 0.5200 0.5200 0.5200 0.5220 0.5220
2.701000 0.5240 0.5240 0.5250 0.5250 0.5220
2.734261 0.5190 0.5170 0.5140 0.5050 0.5000
2.767000 0.5000 0.4950 0.4920 0.4850 0.4720
2.800261 0.4490 0.4120 0.3570 0.3390 0.3210
2.834000 0.2840 0.2660 0.2410 0.2240 0.2010
2.867261 0.1990 0.2010 0.2010 0.2090 0.2210
2.900000 0.2320 0.2420 0.2540 0.2660 0.2770
2.933261 0.2910 0.3040 0.3170 0.3270 0.3460
2.967000 0.3540 0.3640 0.3760 0.3860 0.3990
3.000261 0.4090 0.4140 0.4190 0.4240 0.4270
3.033000 0.4270 0.4290 0.4300 0.4320 0.4350
3.066261 0.4370 0.4370 0.4350 0.4340 0.4300
3.100000 0.4270 0.4270 0.4240 0.4250 0.4240
3.133261 0.4190 0.4150 0.4120 0.4050 0.4000
3.166000 0.3970 0.3890 0.3790 0.3710 0.3660
3.199261 0.3570 0.3520 0.3510 0.3490 0.3420
3.233000 0.3360 0.3310 0.3260 0.3070 0.2790
3.266261 0.2320 0.2110 0.1790 0.1460 0.1090
3.299000 0.0780 0.0530 0.0360 0.0280 0.0260
3.332261 0.0260 0.0260 0.0260 0.0260 0.0260
3.366000 0.0260 0.0280 0.0280 0.0290 0.0290
3.399261 0.0310 0.0330 0.0340 0.0380 0.0410
3.432000 0.0410 0.0380 0.0330 0.0310 0.0330
3.465261 0.0340 0.0410 0.0510 0.0680 0.0990
3.499000 0.1390 0.1860 0.2360 0.2860 0.3310
3.532261 0.3970 0.4100 0.4340 0.4540 0.4720
3.565000 0.4850 0.4970 0.5020 0.5070 0.5090
3.598261 0.5090 0.5090 0.5040 0.4990 0.4940
3.632000 0.4900 0.4870 0.4840 0.4840 0.4890
3.665261 0.4950 0.5000 0.5050 0.5100 0.5140
3.698000 0.5170 0.5170 0.5170 0.5140 0.5120
3.731261 0.5140 0.5150 0.5200 0.5250 0.5290
3.765000 0.5300 0.5320 0.5340 0.5340 0.5350
3.798261 0.5370 0.5370 0.5370 0.5370 0.5340
3.831000 0.5340 0.5340 0.5340 0.5340 0.5370
3.864261 0.5420 0.5470 0.5520 0.5590 0.5650
3.898000 0.5720 0.5740 0.5750 0.5750 0.5740
3.931261 0.5720 0.5700 0.5690 0.5650 0.5640
3.964000 0.5640 0.5620 0.5620 0.5670 0.5720
3.997261 0.5750 0.5770 0.5800 0.5840 0.5850
4.031000 0.5870 0.5920 0.5940 0.5940 0.5950
4.064261 0.5970 0.6000 0.6020 0.6030 0.6030
4.097000 0.6070 0.6070 0.6080 0.6120 0.6130
4.130261 0.6130 0.6120 0.6100 0.6080 0.6050
4.164000 0.6030 0.6020 0.6000 0.6000 0.5990
4.197261 0.5990 0.5990 0.5990 0.5990 0.5990
4.230000 0.6020 0.6050 0.6100 0.6120 0.6120
4.263261 0.6130 0.6150 0.6150 0.6150 0.6130
4.297000 0.6150 0.6150 0.6150 0.6180 0.6220
4.330261 0.6250 0.6270 0.6280 0.6300 0.6320
4.363000 0.6370 0.6380 0.6420 0.6450 0.6500
4.396261 0.6550 0.6620 0.6630 0.6650 0.6650
4.430000 0.6670 0.6680 0.6670 0.6680 0.6720
4.463261 0.6750 0.6780 0.6780 0.6800 0.6830
4.496000 0.6880 0.6900 0.6930 0.6920 0.6900
4.529261 0.6880 0.6880 0.6870 0.6870 0.6850
4.563000 0.6830 0.6820 0.6830 0.6820 0.6770
4.596261 0.6720 0.6680 0.6650 0.6570 0.6520
4.629000 0.6500 0.6500 0.6520 0.6620 0.6830
4.662261 0.6870 0.6950 0.7000 0.7020 0.7020
4.695000 0.7000 0.6930 0.6850 0.6770 0.6700
4.728261 0.6630 0.6580 0.6580 0.6600 0.6770
4.762000 0.6870 0.6930 0.6970 0.7000 0.7020
4.795261 0.7070 0.7120 0.7130 0.7150 0.7130
4.828000 0.7120 0.7100 0.7080 0.7030 0.7020
4.861261 0.7020 0.7020 0.7120 0.7130 0.7150
4.895000 0.7130 0.7150 0.7170 0.7200 0.7220
4.928261 0.7230 0.7270 0.7300 0.7350 0.7400
4.961000 0.7430 0.7470 0.7480 0.7500 0.7520
4.994261 0.7550 0.7550 0.7500 0.7500 0.7480
5.028000 0.7470 0.7480 0.7500 0.7530 0.7580
5.061261 0.7620 0.7650 0.7680 0.7720 0.7770
5.094000 0.7800 0.7820 0.7820 0.7830 0.7830
5.127261 0.7850 0.7830 0.7820 0.7800 0.7820
5.161000 0.7820 0.7820 0.7800 0.7770 0.7750
5.194261 0.7670 0.7600 0.7520 0.7470 0.7400
5.227000 0.7370 0.7330 0.7320 0.7330 0.7320
5.260261 0.7270 0.7120 0.7080 0.7020 0.7120
5.294000 0.7380 0.7520 0.7630 0.7730 0.7820
5.327261 0.7900 0.7980 0.8060 0.8130 0.8160
5.360000 0.8210 0.8230 0.8260 0.8260 0.8300
5.393261 0.8300 0.8330 0.8360 0.8380 0.8400
5.427000 0.8430 0.8450 0.8480 0.8480 0.8480
5.460261 0.8500 0.8500 0.8500 0.8500 0.8510
5.493000 0.8480 0.8410 0.8330 0.8250 0.8130
5.526261 0.7950 0.7930 0.7930 0.7930 0.7970
5.560000 0.8160 0.8310 0.8400 0.8430 0.8560
5.593261 0.8660 0.8730 0.8750 0.8760 0.8810
5.626000 0.8900 0.8960 0.8980 0.9000 0.9000
5.659261 0.9010 0.9030 0.9030 0.9030 0.9050
5.693000 0.9060 0.9060 0.9100 0.9100 0.9130
5.726261 0.9200 0.9280 0.9280 0.9260 0.9200
5.759000 0.9130 0.9060 0.9010 0.8930 0.8860
5.792261 0.8760 0.8700 0.8680 0.8660 0.8660
5.826000 0.8680 0.8800 0.8950 0.9110 0.9260
5.859261 0.9380 0.9430 0.9450 0.9480 0.9550
5.892000 0.9600 0.9660 0.9680 0.9700 0.9700
5.925261 0.9710 0.9750 0.9750 0.9730 0.9700
5.959000 0.9660 0.9560 0.9510 0.9480 0.9400
5.992261 0.9210 0.9100 0.9030 0.8960 0.8810
6.025000 0.8550 0.8130 0.7480 0.7020 0.6550
6.058261 0.5420 0.4740 0.4150 0.3940 0.3710
6.092000 0.3420 0.3320 0.3220 0.2920 0.2720
6.125261 0.2490 0.2440 0.2440 0.2810 0.3020
6.158000 0.3110 0.3220 0.3640 0.3860 0.3910
6.191261 0.3940 0.3990 0.4040 0.4050 0.4090
6.225000 0.4350 0.4590 0.4650 0.4740 0.4820
6.258261 0.4920 0.5020 0.5150 0.5270 0.5440
6.291000 0.5720 0.5850 0.5970 0.6050 0.6130
6.324261 0.6170 0.6180 0.6220 0.6270 0.6350
6.358000 0.6430 0.6520 0.6570 0.6580 0.6580
6.391261 0.6550 0.6450 0.6450 0.6420 0.6380
6.424000 0.6350 0.6320 0.6250 0.6200 0.6130
6.457261 0.6050 0.5990 0.5920 0.5850 0.5750
6.491000 0.5590 0.5340 0.5000 0.4540 0.3960
6.524261 0.3590 0.3210 0.2860 0.2440 0.2220
6.557000 0.2170 0.2120 0.2090 0.2060 0.2070
6.590261 0.2090 0.2140 0.2170 0.2210 0.2270
6.624000 0.2320 0.2320 0.2320 0.2310 0.1840
6.657261 0.1460 0.1010 0.0860 0.0690 0.0630
6.690000 0.0610 0.0610 0.0590 0.0560 0.0540
6.723261 0.0530 0.0510 0.0360 0.0310 0.0340
6.757000 0.0390 0.0390 0.0390 0.0390 0.0410
6.790261 0.0430 0.0430 0.0410 0.0310 0.0290
6.823000 0.0310 0.0390 0.0410 0.0430 0.0430
6.856261 0.0410 0.0430 0.0430 0.0440 0.0480
6.890000 0.0540 0.0640 0.0790 0.0990 0.1240
6.923261 0.1560 0.1960 0.2440 0.2990 0.3310
6.956000 0.3720 0.3960 0.4020 0.4250 0.4420
6.989261 0.4590 0.4720 0.4890 0.5070 0.5200
7.023000 0.5290 0.5350 0.5370 0.5400 0.5420
7.056261 0.5470 0.5500 0.5550 0.5570 0.5640
7.089000 0.5670 0.5690 0.5690 0.5670 0.5570
7.122261 0.5450 0.5200 0.5000 0.4620 0.4100
7.156000 0.3520 0.3220 0.2920 0.2360 0.1890
7.189261 0.1580 0.1440 0.1230 0.0940 0.0840
7.222000 0.0760 0.0740 0.0730 0.0710 0.0710
7.255261 0.0660 0.0630 0.0630 0.0640 0.0690
7.289000 0.0760 0.0830 0.0910 0.0990 0.1110
7.322261 0.1240 0.1380 0.1540 0.1730 0.1940
7.355000 0.2170 0.2420 0.2710 0.2960 0.3240
7.388261 0.3640 0.3920 0.4000 0.4090 0.4170
7.422000 0.4290 0.4440 0.4620 0.4840 0.4940
7.455261 0.4990 0.4970 0.4820 0.4700 0.4520
7.488000 0.4340 0.4120 0.3940 0.3770 0.3670
7.521261 0.3660 0.3640 0.3670 0.3820 0.3960
7.555000 0.4090 0.4120 0.4120 0.4120 0.4000
7.588261 0.3710 0.3370 0.3260 0.3120 0.2920
7.621000 0.2710 0.2420 0.1990 0.1710 0.1590
7.654261 0.1410 0.1330 0.1380 0.1480 0.1530
7.688000 0.1590 0.1660 0.1660 0.1630 0.1510
7.721261 0.1330 0.1230 0.1180 0.1090 0.1060
7.754000 0.1080 0.1080 0.1080 0.1080 0.1110
7.787261 0.1330 0.1480 0.1640 0.1830 0.2010
7.820000 0.2220 0.2440 0.2660 0.2890 0.3140
7.853261 0.3490 0.3620 0.3660 0.3710 0.3760
7.887000 0.3760 0.3710 0.3540 0.3370 0.3270
7.920261 0.3170 0.2990 0.2790 0.2570 0.2370
7.953000 0.2160 0.1930 0.1810 0.1690 0.1590
7.986261 0.1480 0.1340 0.1180 0.1080 0.1040
8.020000 0.1030 0.1010 0.1010 0.1030 0.1040
8.053261 0.1090 0.1130 0.1180 0.1190 0.1210
8.086000 0.1230 0.1210 0.1130 0.1040 0.0980
8.119261 0.0890 0.0860 0.0830 0.0810 0.0790
8.153000 0.0790 0.0760 0.0660 0.0630 0.0610
8.186261 0.0590 0.0590 0.0590 0.0610 0.0630
8.219000 0.0630 0.0640 0.0640 0.0640 0.0660
8.252261 0.0680 0.0690 0.0730 0.0760 0.0810
8.286000 0.0860 0.0930 0.0940 0.0980 0.1030
8.319261 0.1080 0.1140 0.1210 0.1290 0.1340
8.352000 0.1360 0.1390 0.1390 0.1390 0.1410
8.385261 0.1410 0.1430 0.1440 0.1460 0.1490
8.419000 0.1540 0.1590 0.1690 0.1790 0.1930
8.452261 0.2060 0.2190 0.2310 0.2410 0.2460
8.485000 0.2490 0.2470 0.2410 0.2360 0.2240
8.518261 0.2220 0.2220 0.2240 0.2460 0.2610
8.552000 0.2790 0.3010 0.3220 0.3610 0.3740
8.585261 0.3890 0.3910 0.3910 0.3890 0.3820
8.618000 0.3710 0.3540 0.3420 0.3420 0.3470
8.651261 0.3570 0.3620 0.3820 0.3890 0.3970
8.685000 0.4050 0.4140 0.4190 0.4220 0.4240
8.718261 0.4220 0.4200 0.4170 0.4120 0.4050
8.751000 0.3990 0.3920 0.3840 0.3760 0.3660
8.784261 0.3560 0.3460 0.3360 0.3310 0.3260
8.818000 0.3160 0.3040 0.2920 0.2860 0.2770
8.851261 0.2710 0.2620 0.2540 0.2460 0.2360
8.884000 0.2260 0.2140 0.2060 0.1980 0.1860
8.917261 0.1730 0.1580 0.1430 0.1230 0.1060
8.951000 0.1030 0.0960 0.0860 0.0830 0.0740
8.984261 0.0730 0.0730 0.0730 0.0730 0.0730
9.017000 0.0730 0.0730 0.0810 0.0810 0.0810
9.050261 0.0810 0.0810 0.0810 0.0830 0.0860
9.084000 0.0940 0.1010 0.1010 0.1010 0.1010
9.117261 0.1010 0.1010 0.1010 0.0990 0.0960
9.150000 0.0940 0.0930 0.0910 0.0880 0.0860
9.183261 0.0860 0.0890 0.0930 0.0990 0.1010
9.217000 0.1010 0.1040 0.1080 0.1110 0.1160
9.250261 0.1210 0.1240 0.1310 0.1360 0.1390
9.283000 0.1440 0.1480 0.1530 0.1560 0.1590
9.316261 0.1660 0.1690 0.1760 0.1810 0.1840
9.350000 0.1860 0.1880 0.1910 0.1940 0.1990
9.383261 0.2020 0.2060 0.2060 0.2120 0.2160
9.416000 0.2190 0.2220 0.2260 0.2290 0.2320
9.449261 0.2360 0.2390 0.2420 0.2440 0.2460
9.483000 0.2460 0.2460 0.2460 0.2440 0.2420
9.516261 0.2420 0.2410 0.2390 0.2370 0.2320
9.549000 0.2310 0.2240 0.2170 0.2090 0.1990
9.582261 0.1880 0.1760 0.1640 0.1530 0.1430
9.616000 0.1330 0.1230 0.1160 0.1080 0.1040
9.649261 0.1010 0.0940 0.0940 0.0940 0.0940
9.682000 0.0940 0.0930 0.0940 0.0910 0.0910
9.715261 0.0890 0.0910 0.0980 0.1010 0.1060
9.749000 0.1110 0.1160 0.1210 0.1260 0.1330
9.782261 0.1390 0.1460 0.1530 0.1590 0.1660
9.815000 0.1730 0.1790 0.1860 0.1930 0.1980
9.848261 0.2020 0.2070 0.2120 0.2170 0.2220
9.882000 0.2260 0.2310 0.2360 0.2390 0.2440
9.915261 0.2470 0.2520 0.2560 0.2590 0.2620
9.948000 0.2660 0.2670 0.2670 0.2710 0.2720
9.981261 0.2760 0.2790 0.2840 0.2870 0.2910
10.015000 0.2940 0.2960 0.2990 0.2990 0.2990
10.048261 0.2990 0.2990 0.2990 0.2990 0.3010
10.081000 0.3020 0.3010 0.3040 0.3060 0.3090
10.114261 0.3090 0.3110 0.3140 0.3160 0.3160
10.148000 0.3170 0.3190 0.3210 0.3210 0.3220
10.181261 0.3210 0.3210 0.3210 0.3210 0.3210
10.214000 0.3210 0.3210 0.3210 0.3220 0.3240
10.247261 0.3290 0.3320 0.3370 0.3390 0.3410
10.281000 0.3410 0.3420 0.3440 0.3440 0.3470
10.314261 0.3470 0.3490 0.3490 0.3490 0.3510
10.347000 0.3510 0.3520 0.3540 0.3540 0.3540
10.380261 0.3560 0.3620 0.3660 0.3670 0.3690
10.414000 0.3690 0.3710 0.3690 0.3710 0.3710
10.447261 0.3720 0.3720 0.3740 0.3770 0.3770
10.480000 0.3790 0.3810 0.3840 0.3820 0.3770
10.513261 0.3740 0.3720 0.3690 0.3660 0.3660
10.547000 0.3620 0.3590 0.3590 0.3560 0.3590
10.580261 0.3620 0.3670 0.3720 0.3790 0.3840
10.613000 0.3910 0.3940 0.3990 0.4000 0.4000
10.646261 0.3990 0.4000 0.4000 0.4000 0.4000
10.680000 0.4020 0.4020 0.4040 0.4050 0.4090
10.713261 0.4120 0.4140 0.4150 0.4190 0.4200
10.746000 0.4220 0.4220 0.4240 0.4250 0.4290
10.779261 0.4320 0.4350 0.4400 0.4400 0.4420
10.813000 0.4440 0.4450 0.4470 0.4490 0.4500
10.846261 0.4500 0.4520 0.4540 0.4540 0.4550
10.879000 0.4570 0.4570 0.4570 0.4550 0.4590
10.912261 0.4600 0.4670 0.4690 0.4700 0.4700
10.945000 0.4720 0.4720 0.4740 0.4750 0.4770
10.978261 0.4770 0.4790 0.4790 0.4790 0.4800
11.012000 0.4820 0.4850 0.4870 0.4870 0.4850
11.045261 0.4840 0.4820 0.4740 0.4670 0.4570
11.078000 0.4500 0.4440 0.4350 0.4250 0.4140
11.111261 0.3990 0.3840 0.3660 0.3440 0.3360
11.145000 0.3320 0.3270 0.3210 0.3120 0.3060
11.178261 0.2970 0.2910 0.2840 0.2820 0.2820
11.211000 0.2860 0.2890 0.2960 0.3040 0.3140
11.244261 0.3240 0.3440 0.3560 0.3640 0.3740
11.278000 0.3810 0.3860 0.3890 0.3920 0.3970
11.311261 0.4000 0.4050 0.4100 0.4170 0.4240
11.344000 0.4300 0.4390 0.4440 0.4490 0.4520
11.377261 0.4570 0.4640 0.4740 0.4850 0.4920
11.411000 0.4950 0.4990 0.5020 0.5040 0.5070
11.444261 0.5100 0.5140 0.5140 0.5150 0.5190
11.477000 0.5200 0.5240 0.5250 0.5290 0.5300
11.510261 0.5300 0.5300 0.5320 0.5340 0.5370
11.544000 0.5420 0.5440 0.5440 0.5450 0.5450
11.577261 0.5470 0.5470 0.5470 0.5450 0.5440
11.610000 0.5440 0.5440 0.5440 0.5400 0.5350
11.643261 0.5300 0.5250 0.5200 0.5150 0.5100
11.677000 0.5040 0.4970 0.4890 0.4790 0.4770
11.710261 0.4740 0.4740 0.4840 0.4970 0.5000
11.743000 0.5050 0.5120 0.5150 0.5270 0.5370
11.776261 0.5440 0.5500 0.5550 0.5600 0.5620
11.810000 0.5640 0.5640 0.5650 0.5670 0.5690
11.843261 0.5720 0.5740 0.5740 0.5740 0.5750
11.876000 0.5740 0.5770 0.5770 0.5800 0.5840
11.909261 0.5840 0.5840 0.5800 0.5800 0.5770
11.943000 0.5740 0.5720 0.5700 0.5720 0.5690
11.976261 0.5650 0.5600 0.5520 0.5420 0.5270
12.009000 0.5150 0.5050 0.4950 0.4840 0.4700
12.042261 0.4550 0.4340 0.4070 0.3760 0.3360
12.076000 0.3220 0.3070 0.2770 0.2540 0.2420
12.109261 0.2320 0.2210 0.2170 0.2140 0.2190
12.142000 0.2340 0.2540 0.2840 0.3020 0.3210
12.175261 0.3610 0.3820 0.4040 0.4250 0.4450
12.209000 0.4640 0.4820 0.4970 0.5100 0.5190
12.242261 0.5240 0.5300 0.5390 0.5470 0.5550
12.275000 0.5650 0.5720 0.5790 0.5800 0.5840
12.308261 0.5870 0.5940 0.5970 0.6000 0.6000
12.342000 0.6020 0.6030 0.6030 0.6030 0.6070
12.375261 0.6080 0.6130 0.6170 0.6180 0.6220
12.408000 0.6230 0.6220 0.6250 0.6280 0.6330
12.441261 0.6350 0.6350 0.6330 0.6330 0.6320
12.475000 0.6320 0.6320 0.6320 0.6330 0.6350
12.508261 0.6370 0.6380 0.6380 0.6400 0.6400
12.541000 0.6400 0.6380 0.6380 0.6380 0.6370
12.574261 0.6370 0.6350 0.6350 0.6330 0.6330
12.608000 0.6330 0.6320 0.6320 0.6300 0.6300
12.641261 0.6280 0.6270 0.6220 0.6170 0.6070
12.674000 0.5990 0.5970 0.5900 0.5840 0.5800
12.707261 0.5790 0.5770 0.5690 0.5590 0.5490
12.741000 0.5350 0.5240 0.5150 0.5070 0.5040
12.774261 0.4900 0.4770 0.4600 0.4440 0.4270
12.807000 0.4090 0.3910 0.3720 0.3540 0.3340
12.840261 0.3240 0.3140 0.2940 0.2760 0.2560
12.874000 0.2370 0.2170 0.1990 0.1810 0.1630
12.907261 0.1460 0.1330 0.1230 0.1140 0.1090
12.940000 0.1030 0.0980 0.0930 0.0890 0.0880
12.973261 0.0880 0.0880 0.0890 0.0890 0.0930
13.007000 0.0940 0.0960 0.0980 0.1040 0.1080
13.040261 0.1130 0.1180 0.1260 0.1360 0.1480
13.073000 0.1580 0.1690 0.1810 0.1940 0.2060
13.106261 0.2190 0.2320 0.2460 0.2590 0.2720
13.140000 0.2870 0.3010 0.3140 0.3290 0.3560
13.173261 0.3670 0.3810 0.3920 0.4050 0.4150
13.206000 0.4270 0.4370 0.4470 0.4550 0.4640
13.239261 0.4720 0.4770 0.4840 0.4890 0.4950
13.273000 0.5000 0.5050 0.5120 0.5170 0.5200
13.306261 0.5250 0.5290 0.5300 0.5320 0.5350
13.339000 0.5420 0.5500 0.5520 0.5550 0.5550
13.372261 0.5550 0.5570 0.5590 0.5600 0.5650
13.406000 0.5690 0.5690 0.5700 0.5700 0.5720
13.439261 0.5720 0.5720 0.5720 0.5740 0.5740
13.472000 0.5740 0.5720 0.5720 0.5650 0.5600
13.505261 0.5600 0.5570 0.5570 0.5550 0.5540
13.539000 0.5520 0.5500 0.5470 0.5400 0.5340
13.572261 0.5290 0.5200 0.5140 0.5070 0.4970
13.605000 0.4870 0.4750 0.4640 0.4520 0.4390
13.638261 0.4240 0.4070 0.3890 0.3690 0.3460
13.672000 0.3320 0.3190 0.3040 0.2890 0.2740
13.705261 0.2570 0.2420 0.2260 0.2090 0.1930
13.738000 0.1760 0.1580 0.1530 0.1510 0.1460
13.771261 0.1440 0.1440 0.1440 0.1460 0.1460
13.805000 0.1490 0.1530 0.1560 0.1610 0.1680
13.838261 0.1740 0.1830 0.1930 0.2040 0.2160
13.871000 0.2290 0.2440 0.2610 0.2710 0.2810
13.904261 0.2910 0.3020 0.3120 0.3220 0.3310
13.938000 0.3470 0.3520 0.3560 0.3610 0.3640
13.971261 0.3670 0.3690 0.3670 0.3660 0.3620
14.004000 0.3570 0.3520 0.3470 0.3440 0.3390
14.037261 0.3340 0.3320 0.3290 0.3220 0.3140
14.070000 0.3070 0.3010 0.2920 0.2860 0.2810
14.103261 0.2740 0.2670 0.2590 0.2490 0.2460
14.137000 0.2420 0.2410 0.2390 0.2360 0.2340
14.170261 0.2320 0.2320 0.2320 0.2320 0.2320
14.203000 0.2360 0.2440 0.2470 0.2520 0.2560
14.236261 0.2620 0.2690 0.2760 0.2840 0.2940
14.270000 0.3040 0.3160 0.3260 0.3440 0.3520
14.303261 0.3610 0.3690 0.3770 0.3840 0.3920
14.336000 0.4000 0.4090 0.4150 0.4240 0.4320
14.369261 0.4400 0.4490 0.4570 0.4670 0.4750
14.403000 0.4840 0.4840 0.4900 0.4940 0.5020
14.436261 0.5070 0.5140 0.5190 0.5250 0.5300
14.469000 0.5320 0.5350 0.5390 0.5420 0.5470
14.502261 0.5500 0.5550 0.5600 0.5640 0.5670
14.536000 0.5690 0.5720 0.5740 0.5770 0.5790
14.569261 0.5820 0.5840 0.5850 0.5890 0.5920
14.602000 0.5950 0.5970 0.6000 0.6030 0.6070
14.635261 0.6120 0.6130 0.6150 0.6180 0.6220
14.669000 0.6230 0.6250 0.6270 0.6280 0.6300
14.702261 0.6320 0.6330 0.6330 0.6320 0.6320
14.735000 0.6330 0.6330 0.6330 0.6330 0.6330
14.768261 0.6350 0.6350 0.6370 0.6370 0.6370
14.802000 0.6380 0.6380 0.6400 0.6430 0.6450
14.835261 0.6470 0.6480 0.6480 0.6480 0.6400
14.868000 0.6400 0.6430 0.6480 0.6520 0.6530
14.901261 0.6520 0.6520 0.6500 0.6480 0.6450
14.935000 0.6430 0.6450 0.6450 0.6450 0.6450
14.968261 0.6450 0.6450 0.6420 0.6400 0.6380
15.001000 0.6330 0.6300 0.6250 0.6200 0.6130
15.034261 0.6120 0.6120 0.6120 0.6130 0.6170
15.068000 0.6170 0.6180 0.6180 0.6200 0.6220
15.101261 0.6220 0.6230 0.6250 0.6300 0.6320
15.134000 0.6330 0.6350 0.6380 0.6380 0.6420
15.167261 0.6420 0.6430 0.6430 0.6430 0.6430
15.201000 0.6430 0.6430 0.6430 0.6430 0.6430
15.234261 0.6430 0.6430 0.6430 0.6430 0.6430
15.267000 0.6430 0.6430 0.6430 0.6430 0.6430
15.300261 0.6430 0.6420 0.6420 0.6400 0.6400
15.334000 0.6400 0.6380 0.6380 0.6350 0.6320
15.367261 0.6320 0.6300 0.6300 0.6320 0.6320
15.400000 0.6320 0.6320 0.6320 0.6300 0.6300
15.433261 0.6280 0.6300 0.6300 0.6280 0.6280
15.467000 0.6280 0.6270 0.6250 0.6220 0.6220
15.500261 0.6200 0.6200 0.6200 0.6200 0.6200
15.533000 0.6200 0.6200 0.6200 0.6200 0.6200
15.566261 0.6200 0.6200 0.6200 0.6200 0.6200
15.600000 0.6180 0.6170 0.6130 0.6100 0.6120
15.633261 0.6120 0.6120 0.6120 0.6100 0.6080
15.666000 0.6050 0.6030 0.6020 0.6020 0.6000
15.699261 0.6000 0.5990 0.5970 0.5970 0.5950
15.733000 0.5940 0.5890 0.5870 0.5820 0.5790
15.766261 0.5750 0.5700 0.5690 0.5690 0.5700
15.799000 0.5750 0.5750 0.5750 0.5750 0.5740
15.832261 0.5740 0.5720 0.5700 0.5700 0.5690
15.866000 0.5670 0.5670 0.5650 0.5640 0.5620
15.899261 0.5620 0.5600 0.5600 0.5600 0.5590
15.932000 0.5550 0.5520 0.5520 0.5520 0.5490
15.965261 0.5490 0.5470 0.5390 0.5470
##END=
