##TITLE=1,2,3,4-Tetrahydroisoquinoline
##JCAMP-DX=4.24
$$ By DXEDIT 1.05 (RS McDonald)
##DATA TYPE=INFRARED SPECTRUM
##CLASS=COBLENTZ III
##ORIGIN=DOW CHEMICAL COMPANY
##OWNER=COPYRIGHT (C) 1988 by COBLENTZ SOCIETY INC.
Collection (C) 2018 copyright by the U.S. Secretary of Commerce
on behalf of the United States of America. All rights reserved.
##DATE=1964/04/06
##CAS REGISTRY NO=91-21-4
##MOLFORM=C9 H11 N
##BP=115 C AT 15 mmHg
##SOURCE REFERENCE=COBLENTZ NO. 06393
##$NIST SOURCE=COBLENTZ
##$NIST IMAGE=cob6393
##SPECTROMETER/DATA SYSTEM=DOW KBr FOREPRISM-GRATING
##INSTRUMENT PARAMETERS=BLAZED AT 3.5, 12.0, 20.0 MICRON AND CHANGED AT 5.0, 7.5, 14.9 MICRON
##STATE=LIQUID (NEAT)
##PATH LENGTH=CAPILLARY
##SAMPLING PROCEDURE=TRANSMISSION
##RESOLUTION=2
##DATA PROCESSING=DIGITIZED BY COBLENTZ SOCIETY (BATCH I) FROM HARD COPY
##XUNITS=1/CM
##YUNITS=TRANSMITTANCE
##XFACTOR=1
##YFACTOR=1
##DELTAX=1
##FIRSTX=3814
##LASTX=384
##FIRSTY=0.8884
##MAXX=3814
##MINX=384
##MAXY=0.9303
##MINY=0.1758
##NPOINTS=3431
##XYDATA=(X++(Y..Y))
3814.000000 0.8884 0.8883 0.8883 0.8882 0.8881
3809.000000 0.8880 0.8880 0.8878 0.8878 0.8877
3804.000000 0.8875 0.8875 0.8875 0.8874 0.8873
3799.000000 0.8871 0.8871 0.8870 0.8870 0.8868
3794.000000 0.8868 0.8867 0.8866 0.8865 0.8865
3789.000000 0.8864 0.8863 0.8862 0.8861 0.8860
3784.000000 0.8860 0.8859 0.8859 0.8859 0.8859
3779.000000 0.8858 0.8858 0.8858 0.8858 0.8857
3774.000000 0.8857 0.8857 0.8857 0.8856 0.8856
3769.000000 0.8856 0.8856 0.8855 0.8855 0.8855
3764.000000 0.8855 0.8854 0.8854 0.8854 0.8854
3759.000000 0.8854 0.8854 0.8853 0.8853 0.8853
3754.000000 0.8853 0.8853 0.8853 0.8853 0.8853
3749.000000 0.8853 0.8853 0.8852 0.8852 0.8852
3744.000000 0.8852 0.8851 0.8851 0.8850 0.8849
3739.000000 0.8848 0.8848 0.8847 0.8846 0.8845
3734.000000 0.8844 0.8843 0.8842 0.8841 0.8841
3729.000000 0.8840 0.8839 0.8838 0.8837 0.8836
3724.000000 0.8835 0.8834 0.8834 0.8833 0.8832
3719.000000 0.8830 0.8828 0.8825 0.8824 0.8821
3714.000000 0.8820 0.8818 0.8816 0.8814 0.8812
3709.000000 0.8810 0.8808 0.8806 0.8804 0.8802
3704.000000 0.8800 0.8798 0.8796 0.8794 0.8792
3699.000000 0.8791 0.8790 0.8789 0.8789 0.8788
3694.000000 0.8788 0.8787 0.8787 0.8786 0.8786
3689.000000 0.8785 0.8785 0.8784 0.8784 0.8783
3684.000000 0.8783 0.8782 0.8782 0.8781 0.8781
3679.000000 0.8780 0.8780 0.8778 0.8778 0.8777
3674.000000 0.8777 0.8777 0.8778 0.8778 0.8778
3669.000000 0.8778 0.8780 0.8781 0.8782 0.8782
3664.000000 0.8783 0.8784 0.8785 0.8785 0.8786
3659.000000 0.8786 0.8787 0.8788 0.8789 0.8789
3654.000000 0.8790 0.8791 0.8792 0.8792 0.8793
3649.000000 0.8793 0.8794 0.8795 0.8796 0.8796
3644.000000 0.8797 0.8797 0.8798 0.8798 0.8799
3639.000000 0.8799 0.8799 0.8799 0.8800 0.8800
3634.000000 0.8801 0.8801 0.8802 0.8802 0.8803
3629.000000 0.8803 0.8804 0.8804 0.8805 0.8805
3624.000000 0.8806 0.8806 0.8806 0.8806 0.8806
3619.000000 0.8806 0.8806 0.8805 0.8804 0.8803
3614.000000 0.8802 0.8801 0.8801 0.8800 0.8799
3609.000000 0.8798 0.8797 0.8796 0.8795 0.8794
3604.000000 0.8793 0.8792 0.8792 0.8791 0.8790
3599.000000 0.8789 0.8788 0.8787 0.8786 0.8785
3594.000000 0.8784 0.8783 0.8783 0.8782 0.8781
3589.000000 0.8780 0.8778 0.8778 0.8777 0.8775
3584.000000 0.8774 0.8773 0.8771 0.8770 0.8768
3579.000000 0.8768 0.8767 0.8766 0.8765 0.8763
3574.000000 0.8762 0.8761 0.8760 0.8758 0.8757
3569.000000 0.8756 0.8755 0.8754 0.8753 0.8751
3564.000000 0.8750 0.8749 0.8748 0.8746 0.8745
3559.000000 0.8743 0.8742 0.8740 0.8738 0.8736
3554.000000 0.8735 0.8733 0.8731 0.8728 0.8727
3549.000000 0.8725 0.8723 0.8721 0.8718 0.8717
3544.000000 0.8715 0.8713 0.8711 0.8709 0.8707
3539.000000 0.8705 0.8703 0.8701 0.8699 0.8697
3534.000000 0.8695 0.8693 0.8691 0.8689 0.8687
3529.000000 0.8685 0.8683 0.8681 0.8678 0.8677
3524.000000 0.8675 0.8674 0.8671 0.8670 0.8668
3519.000000 0.8665 0.8663 0.8661 0.8659 0.8657
3514.000000 0.8655 0.8653 0.8651 0.8649 0.8647
3509.000000 0.8645 0.8643 0.8641 0.8639 0.8637
3504.000000 0.8635 0.8633 0.8631 0.8628 0.8627
3499.000000 0.8625 0.8623 0.8621 0.8618 0.8617
3494.000000 0.8615 0.8613 0.8611 0.8609 0.8607
3489.000000 0.8604 0.8602 0.8600 0.8598 0.8596
3484.000000 0.8594 0.8592 0.8590 0.8587 0.8585
3479.000000 0.8583 0.8581 0.8578 0.8575 0.8574
3474.000000 0.8571 0.8568 0.8567 0.8565 0.8563
3469.000000 0.8561 0.8559 0.8556 0.8554 0.8552
3464.000000 0.8550 0.8547 0.8545 0.8543 0.8541
3459.000000 0.8538 0.8536 0.8534 0.8532 0.8528
3454.000000 0.8527 0.8525 0.8523 0.8521 0.8518
3449.000000 0.8516 0.8514 0.8511 0.8509 0.8507
3444.000000 0.8505 0.8502 0.8500 0.8498 0.8496
3439.000000 0.8493 0.8491 0.8489 0.8487 0.8484
3434.000000 0.8482 0.8480 0.8478 0.8475 0.8473
3429.000000 0.8471 0.8468 0.8467 0.8465 0.8464
3424.000000 0.8464 0.8463 0.8463 0.8463 0.8463
3419.000000 0.8462 0.8462 0.8461 0.8461 0.8460
3414.000000 0.8460 0.8459 0.8459 0.8458 0.8458
3409.000000 0.8458 0.8458 0.8457 0.8457 0.8456
3404.000000 0.8456 0.8454 0.8452 0.8450 0.8449
3399.000000 0.8447 0.8445 0.8443 0.8441 0.8439
3394.000000 0.8438 0.8436 0.8434 0.8432 0.8430
3389.000000 0.8425 0.8421 0.8415 0.8409 0.8403
3384.000000 0.8398 0.8392 0.8386 0.8380 0.8374
3379.000000 0.8367 0.8361 0.8347 0.8334 0.8321
3374.000000 0.8308 0.8295 0.8282 0.8268 0.8255
3369.000000 0.8240 0.8225 0.8206 0.8188 0.8168
3364.000000 0.8151 0.8132 0.8114 0.8095 0.8076
3359.000000 0.8057 0.8037 0.8015 0.7996 0.7976
3354.000000 0.7958 0.7944 0.7928 0.7914 0.7899
3349.000000 0.7893 0.7887 0.7887 0.7887 0.7887
3344.000000 0.7887 0.7886 0.7885 0.7883 0.7882
3339.000000 0.7880 0.7878 0.7874 0.7871 0.7856
3334.000000 0.7841 0.7825 0.7811 0.7796 0.7781
3329.000000 0.7771 0.7761 0.7751 0.7742 0.7732
3324.000000 0.7722 0.7712 0.7704 0.7694 0.7685
3319.000000 0.7675 0.7667 0.7658 0.7649 0.7640
3314.000000 0.7631 0.7621 0.7612 0.7604 0.7595
3309.000000 0.7586 0.7578 0.7568 0.7558 0.7549
3304.000000 0.7540 0.7530 0.7521 0.7511 0.7501
3299.000000 0.7493 0.7485 0.7478 0.7471 0.7464
3294.000000 0.7457 0.7450 0.7443 0.7435 0.7428
3289.000000 0.7421 0.7414 0.7408 0.7401 0.7395
3284.000000 0.7389 0.7383 0.7376 0.7371 0.7367
3279.000000 0.7365 0.7365 0.7365 0.7365 0.7364
3274.000000 0.7365 0.7365 0.7367 0.7368 0.7369
3269.000000 0.7378 0.7386 0.7396 0.7406 0.7415
3264.000000 0.7425 0.7435 0.7445 0.7455 0.7465
3259.000000 0.7478 0.7493 0.7506 0.7519 0.7534
3254.000000 0.7548 0.7561 0.7575 0.7590 0.7604
3249.000000 0.7617 0.7631 0.7645 0.7658 0.7675
3244.000000 0.7693 0.7710 0.7728 0.7745 0.7762
3239.000000 0.7781 0.7799 0.7815 0.7834 0.7851
3234.000000 0.7868 0.7881 0.7893 0.7905 0.7917
3229.000000 0.7928 0.7941 0.7953 0.7965 0.7976
3224.000000 0.7989 0.8001 0.8012 0.8021 0.8031
3219.000000 0.8039 0.8047 0.8054 0.8061 0.8069
3214.000000 0.8078 0.8085 0.8093 0.8101 0.8108
3209.000000 0.8115 0.8124 0.8131 0.8139 0.8147
3204.000000 0.8155 0.8161 0.8169 0.8178 0.8186
3199.000000 0.8193 0.8201 0.8209 0.8217 0.8224
3194.000000 0.8232 0.8239 0.8247 0.8253 0.8259
3189.000000 0.8265 0.8271 0.8278 0.8284 0.8290
3184.000000 0.8297 0.8303 0.8309 0.8315 0.8321
3179.000000 0.8328 0.8334 0.8338 0.8343 0.8348
3174.000000 0.8353 0.8357 0.8362 0.8366 0.8371
3169.000000 0.8375 0.8381 0.8385 0.8390 0.8393
3164.000000 0.8396 0.8399 0.8403 0.8406 0.8410
3159.000000 0.8413 0.8417 0.8420 0.8423 0.8425
3154.000000 0.8430 0.8433 0.8436 0.8438 0.8441
3149.000000 0.8443 0.8445 0.8447 0.8450 0.8452
3144.000000 0.8454 0.8456 0.8459 0.8460 0.8461
3139.000000 0.8462 0.8463 0.8464 0.8464 0.8464
3134.000000 0.8464 0.8463 0.8463 0.8462 0.8462
3129.000000 0.8461 0.8461 0.8458 0.8456 0.8441
3124.000000 0.8427 0.8416 0.8406 0.8395 0.8385
3119.000000 0.8375 0.8365 0.8358 0.8352 0.8346
3114.000000 0.8340 0.8336 0.8332 0.8328 0.8327
3109.000000 0.8324 0.8321 0.8318 0.8315 0.8309
3104.000000 0.8303 0.8296 0.8290 0.8281 0.8273
3099.000000 0.8264 0.8256 0.8247 0.8238 0.8228
3094.000000 0.8220 0.8048 0.7875 0.7854 0.7832
3089.000000 0.7825 0.7821 0.7815 0.7811 0.7807
3084.000000 0.7801 0.7797 0.7792 0.7786 0.7781
3079.000000 0.7774 0.7768 0.7758 0.7749 0.7606
3074.000000 0.7462 0.7351 0.7239 0.7190 0.7141
3069.000000 0.7139 0.7139 0.7138 0.7138 0.7214
3064.000000 0.7290 0.7365 0.7443 0.7519 0.7597
3059.000000 0.7608 0.7628 0.7593 0.7567 0.7541
3054.000000 0.7515 0.7488 0.7461 0.7436 0.7381
3049.000000 0.7400 0.7391 0.7415 0.7439 0.7474
3044.000000 0.7508 0.7505 0.7530 0.7458 0.7415
3039.000000 0.7332 0.7249 0.7165 0.7081 0.6997
3034.000000 0.6914 0.6830 0.6747 0.6662 0.6407
3029.000000 0.6503 0.6425 0.6414 0.6403 0.6598
3024.000000 0.6794 0.6954 0.7114 0.7156 0.7199
3019.000000 0.7233 0.7267 0.7296 0.7325 0.7357
3014.000000 0.7388 0.7412 0.7439 0.7458 0.7476
3009.000000 0.7538 0.7600 0.7650 0.7701 0.7744
3004.000000 0.7787 0.7815 0.7843 0.7858 0.7875
2999.000000 0.7887 0.7899 0.7904 0.7908 0.7911
2994.000000 0.7915 0.7915 0.7915 0.7915 0.7962
2989.000000 0.7911 0.7908 0.7905 0.7901 0.7893
2984.000000 0.7885 0.7872 0.7861 0.7845 0.7830
2979.000000 0.7794 0.7758 0.7711 0.7665 0.7568
2974.000000 0.7469 0.7280 0.7090 0.6965 0.6840
2969.000000 0.6768 0.6699 0.6645 0.6591 0.6540
2964.000000 0.6490 0.6422 0.6356 0.6234 0.6112
2959.000000 0.5929 0.5746 0.5709 0.5673 0.5639
2954.000000 0.5606 0.5587 0.5568 0.5549 0.5531
2949.000000 0.5504 0.5478 0.5422 0.5366 0.5281
2944.000000 0.5196 0.5128 0.5060 0.5001 0.4942
2939.000000 0.4893 0.4844 0.4797 0.4750 0.4703
2934.000000 0.4657 0.4610 0.4562 0.4543 0.4523
2929.000000 0.4516 0.4489 0.4504 0.4500 0.4550
2924.000000 0.4601 0.4660 0.4719 0.4778 0.4838
2919.000000 0.4897 0.4956 0.5012 0.5069 0.5122
2914.000000 0.5175 0.5218 0.5262 0.5301 0.5341
2909.000000 0.5397 0.5454 0.5540 0.5627 0.5708
2904.000000 0.5789 0.5822 0.5856 0.5870 0.5885
2899.000000 0.5896 0.5907 0.5918 0.5929 0.5935
2894.000000 0.5942 0.5948 0.5954 0.5960 0.5967
2889.000000 0.5974 0.5982 0.5990 0.5998 0.6005
2884.000000 0.6012 0.6032 0.6052 0.6112 0.6175
2879.000000 0.6293 0.6411 0.6437 0.6462 0.6480
2874.000000 0.6498 0.6511 0.6524 0.6539 0.6554
2869.000000 0.6590 0.6626 0.6665 0.6704 0.6743
2864.000000 0.6782 0.6819 0.6858 0.6898 0.6937
2859.000000 0.6975 0.7060 0.7028 0.7043 0.7045
2854.000000 0.7047 0.6957 0.6868 0.6608 0.6348
2849.000000 0.6304 0.6260 0.6196 0.6133 0.6066
2844.000000 0.6000 0.5987 0.5974 0.5972 0.5929
2839.000000 0.5969 0.5968 0.6012 0.6056 0.6119
2834.000000 0.6183 0.6246 0.6310 0.6374 0.6438
2829.000000 0.6501 0.6594 0.6569 0.6575 0.6574
2824.000000 0.6572 0.6522 0.6472 0.6414 0.6356
2819.000000 0.6297 0.6239 0.6188 0.6137 0.6123
2814.000000 0.6110 0.6094 0.6079 0.6070 0.6062
2809.000000 0.6060 0.6040 0.6097 0.6137 0.6254
2804.000000 0.6371 0.6424 0.6478 0.6536 0.6594
2799.000000 0.6658 0.6722 0.6794 0.6865 0.6921
2794.000000 0.6978 0.7018 0.7061 0.7101 0.7144
2789.000000 0.7172 0.7203 0.7232 0.7261 0.7291
2784.000000 0.7319 0.7344 0.7368 0.7389 0.7411
2779.000000 0.7432 0.7454 0.7469 0.7487 0.7501
2774.000000 0.7515 0.7528 0.7542 0.7556 0.7569
2769.000000 0.7584 0.7598 0.7611 0.7625 0.7640
2764.000000 0.7654 0.7668 0.7683 0.7699 0.7715
2759.000000 0.7718 0.7722 0.7726 0.7767 0.7735
2754.000000 0.7740 0.7696 0.7653 0.7562 0.7472
2749.000000 0.7383 0.7294 0.7204 0.7114 0.7058
2744.000000 0.6984 0.7001 0.7001 0.7040 0.7078
2739.000000 0.7204 0.7330 0.7455 0.7580 0.7631
2734.000000 0.7682 0.7717 0.7751 0.7765 0.7780
2729.000000 0.7794 0.7808 0.7822 0.7838 0.7851
2724.000000 0.7867 0.7881 0.7896 0.7911 0.7925
2719.000000 0.7946 0.7965 0.7986 0.8006 0.8025
2714.000000 0.8046 0.8062 0.8081 0.8093 0.8106
2709.000000 0.8118 0.8131 0.8143 0.8155 0.8167
2704.000000 0.8180 0.8190 0.8200 0.8201 0.8203
2699.000000 0.8204 0.8206 0.8207 0.8209 0.8210
2694.000000 0.8212 0.8212 0.8212 0.8212 0.8212
2689.000000 0.8212 0.8212 0.8221 0.8232 0.8242
2684.000000 0.8252 0.8262 0.8271 0.8283 0.8295
2679.000000 0.8310 0.8325 0.8340 0.8356 0.8371
2674.000000 0.8386 0.8401 0.8417 0.8430 0.8443
2669.000000 0.8454 0.8466 0.8477 0.8488 0.8499
2664.000000 0.8510 0.8521 0.8533 0.8538 0.8543
2659.000000 0.8546 0.8550 0.8553 0.8556 0.8558
2654.000000 0.8561 0.8562 0.8563 0.8563 0.8564
2649.000000 0.8565 0.8566 0.8561 0.8556 0.8550
2644.000000 0.8545 0.8540 0.8535 0.8528 0.8524
2639.000000 0.8521 0.8518 0.8515 0.8512 0.8509
2634.000000 0.8506 0.8503 0.8501 0.8498 0.8495
2629.000000 0.8492 0.8493 0.8493 0.8497 0.8501
2624.000000 0.8505 0.8509 0.8513 0.8517 0.8521
2619.000000 0.8525 0.8531 0.8537 0.8543 0.8549
2614.000000 0.8556 0.8562 0.8568 0.8574 0.8580
2609.000000 0.8586 0.8592 0.8598 0.8605 0.8611
2604.000000 0.8617 0.8623 0.8628 0.8634 0.8639
2599.000000 0.8642 0.8646 0.8649 0.8652 0.8655
2594.000000 0.8658 0.8661 0.8665 0.8668 0.8671
2589.000000 0.8674 0.8677 0.8680 0.8684 0.8687
2584.000000 0.8690 0.8693 0.8696 0.8698 0.8701
2579.000000 0.8703 0.8705 0.8707 0.8710 0.8712
2574.000000 0.8714 0.8716 0.8718 0.8721 0.8723
2569.000000 0.8725 0.8728 0.8730 0.8732 0.8734
2564.000000 0.8736 0.8738 0.8740 0.8742 0.8744
2559.000000 0.8746 0.8748 0.8750 0.8752 0.8754
2554.000000 0.8756 0.8758 0.8760 0.8761 0.8762
2549.000000 0.8762 0.8763 0.8764 0.8765 0.8765
2544.000000 0.8766 0.8766 0.8767 0.8768 0.8768
2539.000000 0.8768 0.8768 0.8768 0.8768 0.8768
2534.000000 0.8768 0.8767 0.8767 0.8766 0.8766
2529.000000 0.8765 0.8764 0.8763 0.8763 0.8762
2524.000000 0.8762 0.8761 0.8760 0.8759 0.8759
2519.000000 0.8758 0.8758 0.8757 0.8757 0.8756
2514.000000 0.8755 0.8754 0.8754 0.8753 0.8753
2509.000000 0.8752 0.8752 0.8752 0.8752 0.8751
2504.000000 0.8751 0.8750 0.8750 0.8750 0.8750
2499.000000 0.8749 0.8749 0.8749 0.8749 0.8749
2494.000000 0.8750 0.8750 0.8751 0.8751 0.8752
2489.000000 0.8752 0.8753 0.8753 0.8754 0.8755
2484.000000 0.8756 0.8756 0.8757 0.8757 0.8758
2479.000000 0.8758 0.8759 0.8759 0.8760 0.8760
2474.000000 0.8761 0.8761 0.8762 0.8762 0.8763
2469.000000 0.8763 0.8763 0.8763 0.8764 0.8764
2464.000000 0.8765 0.8765 0.8766 0.8766 0.8767
2459.000000 0.8767 0.8768 0.8768 0.8768 0.8768
2454.000000 0.8770 0.8770 0.8771 0.8771 0.8771
2449.000000 0.8771 0.8771 0.8771 0.8771 0.8771
2444.000000 0.8771 0.8771 0.8771 0.8771 0.8771
2439.000000 0.8771 0.8771 0.8771 0.8771 0.8771
2434.000000 0.8771 0.8771 0.8771 0.8770 0.8770
2429.000000 0.8770 0.8770 0.8770 0.8770 0.8770
2424.000000 0.8770 0.8770 0.8770 0.8768 0.8768
2419.000000 0.8768 0.8768 0.8768 0.8768 0.8768
2414.000000 0.8768 0.8768 0.8768 0.8767 0.8766
2409.000000 0.8765 0.8765 0.8764 0.8763 0.8762
2404.000000 0.8762 0.8761 0.8760 0.8759 0.8759
2399.000000 0.8758 0.8758 0.8757 0.8756 0.8755
2394.000000 0.8755 0.8754 0.8753 0.8752 0.8752
2389.000000 0.8751 0.8750 0.8749 0.8749 0.8749
2384.000000 0.8749 0.8749 0.8750 0.8751 0.8752
2379.000000 0.8753 0.8754 0.8754 0.8755 0.8756
2374.000000 0.8757 0.8758 0.8759 0.8759 0.8760
2369.000000 0.8761 0.8762 0.8762 0.8763 0.8764
2364.000000 0.8766 0.8768 0.8770 0.8771 0.8773
2359.000000 0.8774 0.8775 0.8778 0.8780 0.8781
2354.000000 0.8783 0.8784 0.8786 0.8788 0.8790
2349.000000 0.8791 0.8792 0.8792 0.8792 0.8792
2344.000000 0.8793 0.8793 0.8794 0.8794 0.8795
2339.000000 0.8795 0.8796 0.8796 0.8796 0.8796
2334.000000 0.8795 0.8794 0.8793 0.8792 0.8792
2329.000000 0.8791 0.8790 0.8789 0.8789 0.8788
2324.000000 0.8787 0.8786 0.8786 0.8785 0.8784
2319.000000 0.8783 0.8783 0.8782 0.8781 0.8780
2314.000000 0.8778 0.8778 0.8778 0.8777 0.8775
2309.000000 0.8775 0.8775 0.8774 0.8774 0.8773
2304.000000 0.8773 0.8771 0.8771 0.8771 0.8771
2299.000000 0.8770 0.8770 0.8768 0.8768 0.8768
2294.000000 0.8768 0.8767 0.8767 0.8766 0.8766
2289.000000 0.8765 0.8765 0.8764 0.8764 0.8763
2284.000000 0.8763 0.8762 0.8762 0.8761 0.8761
2279.000000 0.8760 0.8759 0.8759 0.8759 0.8758
2274.000000 0.8758 0.8758 0.8758 0.8758 0.8758
2269.000000 0.8758 0.8758 0.8758 0.8758 0.8757
2264.000000 0.8757 0.8757 0.8757 0.8757 0.8757
2259.000000 0.8757 0.8757 0.8757 0.8757 0.8756
2254.000000 0.8756 0.8756 0.8756 0.8756 0.8756
2249.000000 0.8756 0.8756 0.8756 0.8756 0.8755
2244.000000 0.8755 0.8755 0.8755 0.8755 0.8755
2239.000000 0.8755 0.8755 0.8755 0.8755 0.8754
2234.000000 0.8754 0.8754 0.8754 0.8754 0.8754
2229.000000 0.8754 0.8754 0.8754 0.8754 0.8753
2224.000000 0.8753 0.8753 0.8753 0.8753 0.8753
2219.000000 0.8753 0.8754 0.8754 0.8754 0.8754
2214.000000 0.8755 0.8755 0.8756 0.8756 0.8757
2209.000000 0.8757 0.8757 0.8757 0.8758 0.8758
2204.000000 0.8759 0.8759 0.8760 0.8760 0.8760
2199.000000 0.8760 0.8761 0.8761 0.8762 0.8762
2194.000000 0.8763 0.8763 0.8763 0.8763 0.8764
2189.000000 0.8764 0.8765 0.8765 0.8766 0.8766
2184.000000 0.8766 0.8766 0.8767 0.8767 0.8767
2179.000000 0.8767 0.8768 0.8768 0.8768 0.8768
2174.000000 0.8768 0.8768 0.8768 0.8768 0.8768
2169.000000 0.8768 0.8770 0.8770 0.8770 0.8770
2164.000000 0.8770 0.8770 0.8771 0.8771 0.8771
2159.000000 0.8771 0.8771 0.8771 0.8771 0.8771
2154.000000 0.8771 0.8771 0.8771 0.8771 0.8773
2149.000000 0.8773 0.8773 0.8773 0.8774 0.8774
2144.000000 0.8774 0.8774 0.8774 0.8774 0.8774
2139.000000 0.8774 0.8774 0.8774 0.8774 0.8774
2134.000000 0.8774 0.8774 0.8774 0.8774 0.8774
2129.000000 0.8774 0.8774 0.8774 0.8774 0.8774
2124.000000 0.8774 0.8774 0.8774 0.8774 0.8774
2119.000000 0.8774 0.8774 0.8774 0.8774 0.8774
2114.000000 0.8774 0.8774 0.8774 0.8774 0.8774
2109.000000 0.8774 0.8774 0.8774 0.8774 0.8773
2104.000000 0.8773 0.8773 0.8773 0.8771 0.8771
2099.000000 0.8771 0.8771 0.8771 0.8771 0.8771
2094.000000 0.8771 0.8770 0.8770 0.8770 0.8770
2089.000000 0.8768 0.8768 0.8768 0.8768 0.8768
2084.000000 0.8768 0.8768 0.8768 0.8767 0.8767
2079.000000 0.8767 0.8767 0.8766 0.8766 0.8766
2074.000000 0.8766 0.8765 0.8765 0.8765 0.8765
2069.000000 0.8764 0.8764 0.8764 0.8764 0.8764
2064.000000 0.8764 0.8763 0.8763 0.8763 0.8763
2059.000000 0.8762 0.8762 0.8762 0.8762 0.8762
2054.000000 0.8762 0.8762 0.8762 0.8762 0.8763
2049.000000 0.8763 0.8763 0.8763 0.8764 0.8764
2044.000000 0.8764 0.8764 0.8765 0.8765 0.8765
2039.000000 0.8765 0.8766 0.8766 0.8766 0.8766
2034.000000 0.8766 0.8766 0.8766 0.8765 0.8765
2029.000000 0.8764 0.8764 0.8764 0.8764 0.8763
2024.000000 0.8763 0.8763 0.8763 0.8762 0.8762
2019.000000 0.8761 0.8761 0.8761 0.8761 0.8760
2014.000000 0.8760 0.8760 0.8760 0.8759 0.8759
2009.000000 0.8758 0.8758 0.8758 0.8758 0.8757
2004.000000 0.8757 0.8757 0.8757 0.8757 0.8758
1999.000000 0.8760 0.8762 0.8763 0.8765 0.8767
1994.000000 0.8768 0.8771 0.8773 0.8775 0.8777
1989.000000 0.8778 0.8784 0.8790 0.8795 0.8801
1984.000000 0.8806 0.8812 0.8818 0.8823 0.8828
1979.000000 0.8828 0.8827 0.8825 0.8823 0.8821
1974.000000 0.8820 0.8818 0.8816 0.8814 0.8812
1969.000000 0.8810 0.8808 0.8806 0.8804 0.8802
1964.000000 0.8800 0.8798 0.8795 0.8793 0.8791
1959.000000 0.8789 0.8786 0.8784 0.8782 0.8780
1954.000000 0.8778 0.8775 0.8773 0.8771 0.8768
1949.000000 0.8766 0.8759 0.8753 0.8746 0.8740
1944.000000 0.8736 0.8733 0.8731 0.8728 0.8725
1939.000000 0.8725 0.8724 0.8728 0.8731 0.8735
1934.000000 0.8738 0.8742 0.8745 0.8748 0.8752
1929.000000 0.8759 0.8766 0.8774 0.8781 0.8788
1924.000000 0.8792 0.8795 0.8797 0.8799 0.8799
1919.000000 0.8795 0.8790 0.8785 0.8780 0.8774
1914.000000 0.8768 0.8762 0.8755 0.8749 0.8743
1909.000000 0.8736 0.8731 0.8725 0.8718 0.8714
1904.000000 0.8708 0.8709 0.8710 0.8715 0.8720
1899.000000 0.8725 0.8728 0.8734 0.8741 0.8748
1894.000000 0.8755 0.8762 0.8768 0.8777 0.8784
1889.000000 0.8790 0.8795 0.8800 0.8804 0.8809
1884.000000 0.8814 0.8817 0.8821 0.8825 0.8828
1879.000000 0.8833 0.8836 0.8840 0.8844 0.8848
1874.000000 0.8848 0.8846 0.8844 0.8843 0.8841
1869.000000 0.8840 0.8838 0.8836 0.8834 0.8832
1864.000000 0.8830 0.8828 0.8825 0.8824 0.8821
1859.000000 0.8820 0.8842 0.8814 0.8811 0.8808
1854.000000 0.8805 0.8803 0.8800 0.8799 0.8799
1849.000000 0.8800 0.8802 0.8803 0.8804 0.8805
1844.000000 0.8807 0.8808 0.8809 0.8810 0.8812
1839.000000 0.8813 0.8814 0.8815 0.8816 0.8817
1834.000000 0.8818 0.8818 0.8818 0.8820 0.8821
1829.000000 0.8821 0.8823 0.8824 0.8825 0.8827
1824.000000 0.8828 0.8830 0.8832 0.8833 0.8835
1819.000000 0.8836 0.8838 0.8840 0.8841 0.8843
1814.000000 0.8844 0.8846 0.8847 0.8849 0.8850
1809.000000 0.8852 0.8853 0.8854 0.8856 0.8857
1804.000000 0.8859 0.8860 0.8862 0.8863 0.8864
1799.000000 0.8866 0.8867 0.8868 0.8870 0.8871
1794.000000 0.8871 0.8873 0.8874 0.8875 0.8875
1789.000000 0.8877 0.8878 0.8878 0.8878 0.8880
1784.000000 0.8883 0.8886 0.8890 0.8894 0.8898
1779.000000 0.8901 0.8905 0.8909 0.8912 0.8916
1774.000000 0.8923 0.8934 0.8945 0.8957 0.8968
1769.000000 0.8977 0.8981 0.8985 0.8988 0.8988
1764.000000 0.8988 0.8988 0.8988 0.8987 0.8986
1759.000000 0.8984 0.8982 0.8978 0.8975 0.8973
1754.000000 0.8970 0.8967 0.8964 0.8961 0.8958
1749.000000 0.8954 0.8951 0.8948 0.8945 0.8944
1744.000000 0.8943 0.8942 0.8942 0.8941 0.8940
1739.000000 0.8938 0.8937 0.8935 0.8933 0.8932
1734.000000 0.8930 0.8928 0.8927 0.8925 0.8924
1729.000000 0.8923 0.8921 0.8921 0.8920 0.8917
1724.000000 0.8911 0.8904 0.8897 0.8890 0.8883
1719.000000 0.8874 0.8863 0.8851 0.8840 0.8828
1714.000000 0.8818 0.8810 0.8803 0.8797 0.8791
1709.000000 0.8790 0.8790 0.8792 0.8796 0.8805
1704.000000 0.8814 0.8821 0.8825 0.8830 0.8837
1699.000000 0.8925 0.9041 0.9155 0.9268 0.9303
1694.000000 0.9296 0.9277 0.9150 0.9024 0.8897
1689.000000 0.8770 0.8737 0.8734 0.8731 0.8728
1684.000000 0.8725 0.8721 0.8718 0.8713 0.8708
1679.000000 0.8702 0.8697 0.8691 0.8683 0.8675
1674.000000 0.8667 0.8660 0.8654 0.8654 0.8655
1669.000000 0.8655 0.8655 0.8656 0.8656 0.8657
1664.000000 0.8658 0.8659 0.8661 0.8662 0.8664
1659.000000 0.8665 0.8667 0.8668 0.8668 0.8670
1654.000000 0.8671 0.8670 0.8668 0.8667 0.8666
1649.000000 0.8664 0.8662 0.8661 0.8659 0.8658
1644.000000 0.8656 0.8653 0.8648 0.8642 0.8636
1639.000000 0.8630 0.8625 0.8618 0.8613 0.8608
1634.000000 0.8602 0.8593 0.8581 0.8568 0.8550
1629.000000 0.8528 0.8481 0.8413 0.8286 0.8291
1624.000000 0.8289 0.8286 0.8298 0.8313 0.8332
1619.000000 0.8353 0.8374 0.8395 0.8413 0.8427
1614.000000 0.8442 0.8456 0.8524 0.8470 0.8468
1609.000000 0.8440 0.8403 0.8344 0.8287 0.8233
1604.000000 0.8186 0.8154 0.8084 0.8104 0.8093
1599.000000 0.8089 0.8108 0.8151 0.8187 0.8218
1594.000000 0.8248 0.8278 0.8300 0.8321 0.8345
1589.000000 0.8411 0.8367 0.8346 0.8301 0.8254
1584.000000 0.8197 0.8094 0.7999 0.7921 0.7874
1579.000000 0.7825 0.7901 0.7965 0.8036 0.8106
1574.000000 0.8171 0.8231 0.8290 0.8341 0.8375
1569.000000 0.8409 0.8443 0.8477 0.8502 0.8520
1564.000000 0.8537 0.8555 0.8573 0.8586 0.8596
1559.000000 0.8605 0.8615 0.8624 0.8634 0.8644
1554.000000 0.8653 0.8663 0.8671 0.8682 0.8685
1549.000000 0.8687 0.8689 0.8691 0.8694 0.8696
1544.000000 0.8698 0.8700 0.8702 0.8704 0.8706
1539.000000 0.8707 0.8708 0.8709 0.8710 0.8727
1534.000000 0.8713 0.8714 0.8714 0.8714 0.8712
1529.000000 0.8710 0.8708 0.8705 0.8703 0.8701
1524.000000 0.8698 0.8696 0.8690 0.8684 0.8677
1519.000000 0.8670 0.8664 0.8657 0.8651 0.8644
1514.000000 0.8628 0.8612 0.8596 0.8578 0.8563
1509.000000 0.8538 0.8512 0.8485 0.8459 0.8433
1504.000000 0.8407 0.8341 0.8266 0.8181 0.8044
1499.000000 0.7885 0.7583 0.7301 0.6986 0.4860
1494.000000 0.4884 0.5332 0.5779 0.6226 0.6674
1489.000000 0.7038 0.7138 0.7239 0.7325 0.7403
1484.000000 0.7481 0.7560 0.7608 0.7655 0.7701
1479.000000 0.7749 0.7772 0.7793 0.7812 0.7831
1474.000000 0.7890 0.7847 0.7849 0.7851 0.7853
1469.000000 0.7821 0.7764 0.7619 0.7438 0.7346
1464.000000 0.7308 0.7305 0.7300 0.7295 0.7290
1459.000000 0.7238 0.6801 0.6390 0.5978 0.5566
1454.000000 0.5225 0.5236 0.5399 0.5562 0.5725
1449.000000 0.5888 0.6051 0.6214 0.6377 0.6540
1444.000000 0.6661 0.6715 0.6741 0.6797 0.6771
1439.000000 0.6774 0.6776 0.6765 0.6639 0.6387
1434.000000 0.6406 0.6425 0.6444 0.6536 0.6461
1429.000000 0.6458 0.6368 0.6260 0.6330 0.6640
1424.000000 0.7030 0.7286 0.7560 0.7669 0.7778
1419.000000 0.7861 0.7905 0.7948 0.7990 0.8033
1414.000000 0.8075 0.8118 0.8161 0.8197 0.8228
1409.000000 0.8256 0.8274 0.8292 0.8309 0.8327
1404.000000 0.8345 0.8362 0.8380 0.8394 0.8406
1399.000000 0.8418 0.8431 0.8444 0.8456 0.8491
1394.000000 0.8463 0.8457 0.8447 0.8405 0.8355
1389.000000 0.8293 0.8224 0.8130 0.8032 0.7941
1384.000000 0.7883 0.7865 0.7810 0.7885 0.7951
1379.000000 0.7993 0.8034 0.8074 0.8108 0.8135
1374.000000 0.8161 0.8185 0.8228 0.8212 0.8212
1369.000000 0.8212 0.8130 0.7982 0.7806 0.7661
1364.000000 0.7558 0.7488 0.7437 0.7411 0.7481
1359.000000 0.7553 0.7778 0.7892 0.7982 0.8078
1354.000000 0.8154 0.8203 0.8253 0.8278 0.8306
1349.000000 0.8333 0.8360 0.8391 0.8383 0.8361
1344.000000 0.8336 0.8308 0.8262 0.8215 0.8175
1339.000000 0.8157 0.8160 0.8161 0.8165 0.8167
1334.000000 0.8169 0.8171 0.8175 0.8176 0.8180
1329.000000 0.8178 0.8178 0.8176 0.8175 0.8169
1324.000000 0.8164 0.8158 0.8128 0.8096 0.7987
1319.000000 0.7754 0.7218 0.6683 0.6288 0.6309
1314.000000 0.6451 0.6738 0.7025 0.7311 0.7761
1309.000000 0.7845 0.7899 0.7944 0.7988 0.8032
1304.000000 0.8065 0.8098 0.8121 0.8138 0.8154
1299.000000 0.8151 0.8146 0.8141 0.8140 0.8140
1294.000000 0.8153 0.8178 0.8204 0.8230 0.8255
1289.000000 0.8281 0.8300 0.8316 0.8332 0.8348
1284.000000 0.8358 0.8360 0.8361 0.8363 0.8365
1279.000000 0.8367 0.8367 0.8368 0.8367 0.8391
1274.000000 0.8360 0.8356 0.8353 0.8345 0.8334
1269.000000 0.8321 0.8310 0.8289 0.8254 0.8220
1264.000000 0.8175 0.8095 0.7961 0.7783 0.7564
1259.000000 0.7412 0.7315 0.7364 0.7361 0.7401
1254.000000 0.7478 0.7558 0.7642 0.7725 0.7810
1249.000000 0.7894 0.7976 0.8060 0.8143 0.8193
1244.000000 0.8239 0.8285 0.8328 0.8355 0.8381
1239.000000 0.8407 0.8433 0.8455 0.8466 0.8466
1234.000000 0.8466 0.8465 0.8465 0.8465 0.8458
1229.000000 0.8445 0.8430 0.8413 0.8396 0.8378
1224.000000 0.8317 0.8228 0.8171 0.8132 0.8108
1219.000000 0.8078 0.8007 0.8054 0.8074 0.8095
1214.000000 0.8118 0.8108 0.8121 0.8156 0.8184
1209.000000 0.8212 0.8232 0.8237 0.8277 0.8246
1204.000000 0.8245 0.8239 0.8233 0.8227 0.8221
1199.000000 0.8198 0.8161 0.8125 0.8085 0.8040
1194.000000 0.7996 0.7946 0.7886 0.7828 0.7850
1189.000000 0.7861 0.7871 0.7888 0.7921 0.7924
1184.000000 0.7925 0.7928 0.7930 0.7947 0.7978
1179.000000 0.8010 0.8044 0.8078 0.8111 0.8147
1174.000000 0.8181 0.8187 0.8176 0.8167 0.8153
1169.000000 0.8154 0.8165 0.8175 0.8185 0.8197
1164.000000 0.8215 0.8232 0.8249 0.8267 0.8284
1159.000000 0.8302 0.8306 0.8296 0.8286 0.8275
1154.000000 0.8267 0.8256 0.8242 0.8231 0.8234
1149.000000 0.8237 0.8244 0.8252 0.8260 0.8267
1144.000000 0.8275 0.8282 0.8288 0.8288 0.8285
1139.000000 0.8270 0.8251 0.8216 0.8164 0.8089
1134.000000 0.8011 0.7912 0.7812 0.7462 0.7035
1129.000000 0.6868 0.6403 0.6260 0.6147 0.6076
1124.000000 0.6005 0.5931 0.5850 0.5783 0.5752
1119.000000 0.5703 0.5748 0.5764 0.5828 0.5921
1114.000000 0.6133 0.6397 0.6664 0.7045 0.7234
1109.000000 0.7369 0.7457 0.7544 0.7633 0.7724
1104.000000 0.7822 0.7878 0.7921 0.7949 0.7967
1099.000000 0.7986 0.8001 0.8008 0.8018 0.8011
1094.000000 0.8008 0.8007 0.8004 0.7999 0.7990
1089.000000 0.7981 0.7971 0.7961 0.7950 0.7939
1084.000000 0.7932 0.7925 0.7911 0.7917 0.7926
1079.000000 0.7937 0.7949 0.7962 0.7978 0.7995
1074.000000 0.8012 0.8031 0.8048 0.8062 0.8071
1069.000000 0.8076 0.8065 0.8083 0.8081 0.8075
1064.000000 0.8061 0.8047 0.8017 0.7982 0.7946
1059.000000 0.7911 0.7861 0.7708 0.7757 0.7758
1054.000000 0.7850 0.7937 0.8010 0.8084 0.8154
1049.000000 0.8220 0.8278 0.8303 0.8327 0.8345
1044.000000 0.8353 0.8362 0.8370 0.8375 0.8391
1039.000000 0.8368 0.8362 0.8355 0.8337 0.8263
1034.000000 0.7972 0.7597 0.7221 0.7167 0.7176
1029.000000 0.7658 0.8030 0.8132 0.8172 0.8205
1024.000000 0.8231 0.8258 0.8285 0.8305 0.8321
1019.000000 0.8338 0.8353 0.8397 0.8374 0.8384
1014.000000 0.8387 0.8389 0.8371 0.8349 0.8325
1009.000000 0.8307 0.8301 0.8300 0.8299 0.8300
1004.000000 0.8301 0.8313 0.8324 0.8335 0.8346
999.000000 0.8357 0.8368 0.8380 0.8391 0.8401
994.000000 0.8442 0.8414 0.8413 0.8382 0.8321
989.000000 0.8218 0.8112 0.8008 0.7819 0.7819
984.000000 0.7834 0.7919 0.8006 0.8092 0.8178
979.000000 0.8275 0.8328 0.8347 0.8353 0.8358
974.000000 0.8362 0.8406 0.8366 0.8366 0.8366
969.000000 0.8366 0.8365 0.8356 0.8347 0.8338
964.000000 0.8328 0.8295 0.8244 0.8174 0.8085
959.000000 0.7953 0.7726 0.7326 0.7339 0.7335
954.000000 0.7332 0.7378 0.7472 0.7567 0.7684
949.000000 0.7583 0.7480 0.7337 0.7175 0.7008
944.000000 0.6914 0.6818 0.6698 0.6534 0.6475
939.000000 0.6474 0.6472 0.6508 0.6598 0.6925
934.000000 0.7065 0.7168 0.7271 0.7415 0.7558
929.000000 0.7641 0.7714 0.7787 0.7860 0.7932
924.000000 0.8003 0.8075 0.8145 0.8206 0.8267
919.000000 0.8328 0.8392 0.8460 0.8512 0.8552
914.000000 0.8583 0.8608 0.8666 0.8638 0.8638
909.000000 0.8638 0.8623 0.8609 0.8594 0.8578
904.000000 0.8564 0.8549 0.8533 0.8516 0.8500
899.000000 0.8488 0.8489 0.8490 0.8491 0.8492
894.000000 0.8493 0.8494 0.8482 0.8470 0.8458
889.000000 0.8446 0.8431 0.8411 0.8391 0.8371
884.000000 0.8352 0.8333 0.8314 0.8295 0.8275
879.000000 0.8258 0.8239 0.8218 0.8207 0.8236
874.000000 0.8264 0.8287 0.8310 0.8339 0.8349
869.000000 0.8301 0.8208 0.8125 0.8043 0.7965
864.000000 0.7908 0.7854 0.7799 0.7743 0.7715
859.000000 0.7688 0.7661 0.7634 0.7607 0.7580
854.000000 0.7551 0.7521 0.7491 0.7458 0.7454
849.000000 0.7455 0.7455 0.7483 0.7515 0.7526
844.000000 0.7540 0.7514 0.7464 0.7401 0.7338
839.000000 0.7275 0.7207 0.7135 0.7064 0.6992
834.000000 0.6907 0.6818 0.6730 0.6626 0.6524
829.000000 0.6421 0.6324 0.6265 0.6304 0.6304
824.000000 0.6315 0.6330 0.6374 0.6465 0.6571
819.000000 0.6689 0.6787 0.6861 0.6907 0.6946
814.000000 0.6968 0.6991 0.7057 0.7015 0.7010
809.000000 0.6991 0.6957 0.6882 0.6811 0.6745
804.000000 0.6680 0.6615 0.6571 0.6534 0.6498
799.000000 0.6461 0.6435 0.6411 0.6387 0.6368
794.000000 0.6350 0.6332 0.6319 0.6308 0.6315
789.000000 0.6322 0.6330 0.6338 0.6351 0.6369
784.000000 0.6388 0.6406 0.6424 0.6447 0.6472
779.000000 0.6500 0.6526 0.6554 0.6581 0.6608
774.000000 0.6636 0.6664 0.6689 0.6715 0.6734
769.000000 0.6747 0.6761 0.6761 0.6761 0.6744
764.000000 0.6704 0.6658 0.6574 0.6490 0.6316
759.000000 0.6104 0.5879 0.5675 0.5543 0.5441
754.000000 0.5284 0.4943 0.4554 0.4165 0.3775
749.000000 0.3386 0.2996 0.2607 0.2217 0.1828
744.000000 0.1785 0.1758 0.1773 0.1775 0.1925
739.000000 0.2259 0.2757 0.3255 0.3753 0.4251
734.000000 0.4749 0.5472 0.5735 0.5840 0.5928
729.000000 0.6039 0.6162 0.6285 0.6397 0.6508
724.000000 0.6621 0.6756 0.6910 0.7054 0.7186
719.000000 0.7305 0.7397 0.7503 0.7639 0.7787
714.000000 0.7878 0.7956 0.8022 0.8081 0.8121
709.000000 0.8171 0.8220 0.8190 0.8193 0.8172
704.000000 0.8055 0.7807 0.7732 0.7518 0.7555
699.000000 0.7551 0.7565 0.7730 0.7898 0.7972
694.000000 0.8048 0.8083 0.8115 0.8149 0.8181
689.000000 0.8214 0.8246 0.8274 0.8301 0.8328
684.000000 0.8356 0.8383 0.8405 0.8420 0.8434
679.000000 0.8449 0.8464 0.8478 0.8487 0.8497
674.000000 0.8507 0.8516 0.8525 0.8536 0.8546
669.000000 0.8555 0.8561 0.8566 0.8571 0.8577
664.000000 0.8582 0.8587 0.8592 0.8598 0.8603
659.000000 0.8608 0.8610 0.8612 0.8615 0.8617
654.000000 0.8618 0.8621 0.8623 0.8660 0.8618
649.000000 0.8614 0.8610 0.8605 0.8597 0.8581
644.000000 0.8565 0.8528 0.8486 0.8428 0.8340
639.000000 0.8242 0.8108 0.8018 0.7949 0.7919
634.000000 0.7908 0.7889 0.7900 0.7900 0.7941
629.000000 0.7986 0.8026 0.8058 0.8081 0.8104
624.000000 0.8142 0.8138 0.8135 0.8132 0.8121
619.000000 0.8108 0.8084 0.8043 0.8001 0.7958
614.000000 0.7912 0.7868 0.7828 0.7792 0.7758
609.000000 0.7728 0.7701 0.7690 0.7668 0.7672
604.000000 0.7675 0.7676 0.7690 0.7724 0.7758
599.000000 0.7792 0.7817 0.7842 0.7865 0.7891
594.000000 0.7915 0.7940 0.7964 0.7988 0.8008
589.000000 0.8026 0.8047 0.8065 0.8086 0.8105
584.000000 0.8125 0.8144 0.8164 0.8183 0.8206
579.000000 0.8231 0.8256 0.8281 0.8299 0.8317
574.000000 0.8335 0.8352 0.8370 0.8388 0.8402
569.000000 0.8410 0.8417 0.8424 0.8431 0.8438
564.000000 0.8445 0.8452 0.8459 0.8466 0.8466
559.000000 0.8466 0.8465 0.8465 0.8465 0.8464
554.000000 0.8464 0.8463 0.8463 0.8462 0.8462
549.000000 0.8462 0.8461 0.8461 0.8461 0.8460
544.000000 0.8460 0.8459 0.8458 0.8455 0.8453
539.000000 0.8450 0.8448 0.8445 0.8443 0.8440
534.000000 0.8438 0.8435 0.8433 0.8430 0.8428
529.000000 0.8425 0.8420 0.8414 0.8407 0.8401
524.000000 0.8394 0.8388 0.8381 0.8370 0.8356
519.000000 0.8343 0.8330 0.8316 0.8303 0.8290
514.000000 0.8275 0.8268 0.8263 0.8259 0.8254
509.000000 0.8250 0.8245 0.8241 0.8236 0.8233
504.000000 0.8231 0.8230 0.8228 0.8227 0.8225
499.000000 0.8224 0.8221 0.8221 0.8215 0.8209
494.000000 0.8202 0.8195 0.8189 0.8181 0.8169
489.000000 0.8158 0.8146 0.8134 0.8121 0.8110
484.000000 0.8099 0.8087 0.8074 0.8058 0.8043
479.000000 0.8028 0.7995 0.7961 0.7910 0.7833
474.000000 0.7757 0.7682 0.7621 0.7561 0.7501
469.000000 0.7448 0.7418 0.7389 0.7361 0.7340
464.000000 0.7319 0.7299 0.7231 0.7265 0.7264
459.000000 0.7271 0.7306 0.7345 0.7387 0.7430
454.000000 0.7474 0.7517 0.7549 0.7578 0.7596
449.000000 0.7641 0.7601 0.7589 0.7575 0.7560
444.000000 0.7541 0.7511 0.7481 0.7444 0.7405
439.000000 0.7365 0.7328 0.7275 0.7194 0.7111
434.000000 0.6968 0.6788 0.6608 0.6428 0.6248
429.000000 0.6068 0.5888 0.5851 0.5876 0.5890
424.000000 0.6010 0.6133 0.6254 0.6375 0.6497
419.000000 0.6618 0.6714 0.6794 0.6851 0.6894
414.000000 0.6937 0.6972 0.7000 0.7026 0.7050
409.000000 0.7056 0.7061 0.7067 0.7072 0.7071
404.000000 0.7068 0.7058 0.7064 0.7061 0.7055
399.000000 0.7047 0.7039 0.7032 0.7024 0.7018
394.000000 0.7012 0.7008 0.7001 0.6996 0.6991
389.000000 0.6985 0.6980 0.6975 0.6969 0.6965
384.000000 0.6958
##END=
