##TITLE=2-METHYL-1,4-DIPROPIONITRILE PIPERAZINE
##JCAMP-DX=4.24
##DATA TYPE=INFRARED SPECTRUM
##CLASS=COBLENTZ
##ORIGIN=WYANDOTTE CHEMICALS CORP., WYANDOTTE, MICHIGAN, USA
##OWNER=COBLENTZ SOCIETY
Collection (C) 2018 copyright by the U.S. Secretary of Commerce
on behalf of the United States of America. All rights reserved.
##DATE=Not specified, most likely prior to 1970
##CAS REGISTRY NO=91253-07-5
##MOLFORM=C11 H18 N4
##SOURCE REFERENCE=COBLENTZ NO. 3854
##$NIST SOURCE=COBLENTZ
##$NIST IMAGE=cob3854
##SPECTROMETER/DATA SYSTEM=Not specified, most likely a prism, grating, or hybrid spectrometer.
##STATE=SOLID (MINERAL OIL MULL)
##PATH LENGTH=
$$SPECTRAL CONTAMINATION DUE TO OIL AROUND 2900 CM^-^1
##SAMPLING PROCEDURE=TRANSMISSION
##RESOLUTION=4
##DATA PROCESSING=DIGITIZED BY NIST FROM HARD COPY
##XUNITS=MICROMETERS
##YUNITS=TRANSMITTANCE
##XFACTOR=1.000000
##YFACTOR=1
##DELTAX=000.006186
##FIRSTX=2.025
##LASTX=15.9873
##FIRSTY=0.763
##MAXX=15.9873
##MINX=2.025
##MAXY=0.952
##MINY=0.015
##NPOINTS=2258
##XYDATA=(X++(Y..Y))
2.025000 0.7630 0.7640 0.7660 0.7660 0.7670
2.055946 0.7670 0.7640 0.7610 0.7610 0.7660
2.087000 0.7660 0.7670 0.7670 0.7670 0.7670
2.117946 0.7670 0.7670 0.7670 0.7670 0.7640
2.148000 0.7600 0.7550 0.7440 0.7290 0.7160
2.178946 0.7040 0.6930 0.6820 0.6710 0.6650
2.210000 0.6590 0.6570 0.6570 0.6570 0.6530
2.240946 0.6500 0.6480 0.6500 0.6530 0.6540
2.272000 0.6590 0.6600 0.6620 0.6680 0.6650
2.302946 0.6650 0.6640 0.6640 0.6640 0.6600
2.334000 0.6600 0.6600 0.6600 0.6600 0.6600
2.364946 0.6600 0.6600 0.6620 0.6650 0.6730
2.396000 0.6760 0.6810 0.6820 0.6760 0.6760
2.426946 0.6790 0.6810 0.6810 0.6840 0.6850
2.458000 0.6820 0.6820 0.6850 0.6900 0.6950
2.488946 0.6980 0.6990 0.7010 0.7020 0.7040
2.520000 0.7050 0.7080 0.7100 0.7130 0.7160
2.550946 0.7180 0.7210 0.7290 0.7290 0.7320
2.582000 0.7290 0.7240 0.7160 0.7150 0.7160
2.612946 0.7260 0.7300 0.7320 0.7350 0.7390
2.643000 0.7460 0.7490 0.7520 0.7530 0.7550
2.673946 0.7560 0.7560 0.7530 0.7520 0.7500
2.705000 0.7470 0.7410 0.7390 0.7380 0.7350
2.735946 0.7320 0.7300 0.7290 0.7270 0.7240
2.767000 0.7210 0.7190 0.7180 0.7160 0.7160
2.797946 0.7150 0.7150 0.7130 0.7120 0.7120
2.829000 0.7130 0.7160 0.7160 0.7180 0.7180
2.859946 0.7160 0.7150 0.7130 0.7100 0.7080
2.891000 0.7070 0.7040 0.7040 0.7020 0.6990
2.921946 0.6900 0.6900 0.6980 0.6980 0.6910
2.953000 0.6870 0.6850 0.6850 0.6840 0.6840
2.983946 0.6840 0.6810 0.6790 0.6760 0.6740
3.015000 0.6710 0.6680 0.6650 0.6640 0.6600
3.045946 0.6590 0.6560 0.6510 0.6430 0.6330
3.076000 0.6090 0.6000 0.6000 0.6080 0.6140
3.106946 0.6130 0.6110 0.6060 0.6050 0.6000
3.138000 0.5990 0.5970 0.5950 0.5910 0.5950
3.168946 0.5990 0.5990 0.5970 0.5940 0.5910
3.200000 0.5860 0.5800 0.5740 0.5660 0.5570
3.230946 0.5350 0.5100 0.5030 0.4950 0.4860
3.262000 0.4760 0.4670 0.4480 0.4240 0.3850
3.292946 0.3340 0.2660 0.2050 0.1230 0.0580
3.324000 0.0230 0.0200 0.0200 0.0200 0.0210
3.354946 0.0230 0.0260 0.0260 0.0260 0.0270
3.386000 0.0290 0.0290 0.0290 0.0290 0.0290
3.416946 0.0270 0.0260 0.0260 0.0260 0.0240
3.448000 0.0240 0.0240 0.0230 0.0230 0.0210
3.478946 0.0210 0.0210 0.0210 0.0230 0.0230
3.510000 0.0240 0.0260 0.0260 0.0260 0.0270
3.540946 0.0270 0.0290 0.0300 0.0350 0.0400
3.571000 0.0440 0.0510 0.0580 0.0660 0.0720
3.601946 0.0800 0.0860 0.0940 0.0970 0.1020
3.633000 0.1080 0.1170 0.1310 0.1590 0.1760
3.663946 0.1950 0.2050 0.2210 0.2290 0.2460
3.695000 0.2490 0.2580 0.2800 0.3000 0.3340
3.725946 0.3590 0.3800 0.4000 0.4080 0.4100
3.757000 0.4110 0.4160 0.4240 0.4310 0.4340
3.787946 0.4450 0.4620 0.4810 0.5210 0.5370
3.819000 0.5470 0.5510 0.5610 0.5680 0.5690
3.849946 0.5710 0.5710 0.5720 0.5770 0.5830
3.881000 0.5950 0.6140 0.6220 0.6330 0.6400
3.911946 0.6500 0.6540 0.6600 0.6670 0.6780
3.943000 0.6910 0.7050 0.7180 0.7210 0.7270
3.973946 0.7300 0.7320 0.7320 0.7320 0.7330
4.004000 0.7330 0.7350 0.7360 0.7390 0.7410
4.034946 0.7470 0.7530 0.7610 0.7690 0.7730
4.066000 0.7770 0.7770 0.7700 0.7560 0.7500
4.096946 0.7550 0.7610 0.7670 0.7690 0.7700
4.128000 0.7720 0.7720 0.7730 0.7750 0.7770
4.158946 0.7780 0.7810 0.7830 0.7840 0.7860
4.190000 0.7890 0.7970 0.7980 0.7980 0.7970
4.220946 0.7940 0.7890 0.7810 0.7730 0.7670
4.252000 0.7600 0.7580 0.7580 0.7600 0.7640
4.282946 0.7690 0.7730 0.7780 0.7810 0.7840
4.314000 0.7860 0.7870 0.7870 0.7890 0.7920
4.344946 0.7920 0.7940 0.7940 0.7950 0.7970
4.376000 0.7980 0.7980 0.7910 0.7890 0.7910
4.406946 0.8000 0.8080 0.8120 0.8140 0.8090
4.437000 0.8030 0.7980 0.7840 0.7700 0.7440
4.467946 0.6980 0.6560 0.5780 0.5340 0.4870
4.499000 0.3690 0.2460 0.1700 0.1620 0.1810
4.529946 0.2690 0.3350 0.4100 0.4650 0.5990
4.561000 0.6500 0.6760 0.6900 0.6990 0.7120
4.591946 0.7240 0.7330 0.7410 0.7440 0.7470
4.623000 0.7500 0.7560 0.7600 0.7670 0.7700
4.653946 0.7750 0.7780 0.7840 0.7920 0.7940
4.685000 0.7980 0.8040 0.8110 0.8170 0.8200
4.715946 0.8210 0.8260 0.8290 0.8340 0.8390
4.747000 0.8480 0.8540 0.8590 0.8600 0.8600
4.777946 0.8620 0.8630 0.8630 0.8590 0.8590
4.809000 0.8600 0.8600 0.8600 0.8600 0.8600
4.839946 0.8600 0.8600 0.8620 0.8660 0.8690
4.871000 0.8710 0.8730 0.8730 0.8740 0.8760
4.901946 0.8740 0.8710 0.8660 0.8600 0.8630
4.932000 0.8660 0.8630 0.8600 0.8590 0.8560
4.962946 0.8540 0.8540 0.8540 0.8540 0.8590
4.994000 0.8620 0.8680 0.8790 0.8770 0.8770
5.024946 0.8740 0.8680 0.8650 0.8600 0.8630
5.056000 0.8690 0.8770 0.8820 0.8860 0.8940
5.086946 0.8990 0.9070 0.9080 0.9070 0.8960
5.118000 0.8880 0.8830 0.8800 0.8790 0.8740
5.148946 0.8690 0.8680 0.8690 0.8730 0.8790
5.180000 0.8800 0.8820 0.8850 0.8860 0.8860
5.210946 0.8830 0.8850 0.8850 0.8860 0.8880
5.242000 0.8900 0.8910 0.8930 0.8940 0.8970
5.272946 0.9000 0.9020 0.9050 0.9050 0.9070
5.304000 0.9040 0.9020 0.9000 0.8970 0.8990
5.334946 0.8960 0.8940 0.8900 0.8900 0.8900
5.365000 0.8940 0.8960 0.8990 0.9040 0.9070
5.395946 0.9070 0.9020 0.8940 0.8910 0.8790
5.427000 0.8770 0.8790 0.8940 0.9000 0.9050
5.457946 0.9100 0.9100 0.9070 0.8970 0.8960
5.489000 0.8970 0.8990 0.9000 0.9100 0.9040
5.519946 0.9000 0.8990 0.9000 0.9080 0.9140
5.551000 0.9170 0.9160 0.9080 0.9070 0.9070
5.581946 0.9070 0.9130 0.9270 0.9250 0.9240
5.613000 0.9240 0.9210 0.9140 0.9100 0.9040
5.643946 0.9040 0.9140 0.9310 0.9360 0.9360
5.675000 0.9300 0.9280 0.9270 0.9220 0.9160
5.705946 0.9100 0.9100 0.9130 0.9210 0.9220
5.737000 0.9220 0.9100 0.9170 0.9310 0.9310
5.767946 0.9270 0.9220 0.9110 0.8990 0.8970
5.798000 0.9130 0.9130 0.9130 0.9110 0.9070
5.828946 0.9000 0.8970 0.8940 0.8940 0.8990
5.860000 0.9080 0.9130 0.9160 0.9130 0.9080
5.890946 0.9020 0.8880 0.8830 0.8830 0.8850
5.922000 0.8850 0.8910 0.8880 0.8760 0.8630
5.952946 0.8540 0.8520 0.8490 0.8450 0.8400
5.984000 0.8420 0.8510 0.8510 0.8430 0.8430
6.014946 0.8450 0.8480 0.8540 0.8680 0.8820
6.046000 0.8820 0.8790 0.8770 0.8630 0.8660
6.076946 0.8820 0.8860 0.8860 0.8800 0.8770
6.108000 0.8760 0.8690 0.8690 0.8730 0.8760
6.138946 0.8800 0.8820 0.8850 0.8860 0.8970
6.170000 0.9100 0.9100 0.9080 0.9080 0.9020
6.200946 0.8970 0.8960 0.8960 0.9020 0.9000
6.232000 0.9000 0.9000 0.9000 0.9020 0.9020
6.262946 0.9000 0.8960 0.8960 0.8970 0.9070
6.293000 0.9110 0.9110 0.9100 0.9080 0.9040
6.323946 0.8970 0.8900 0.8800 0.8800 0.8820
6.355000 0.8850 0.8930 0.8970 0.9070 0.9110
6.385946 0.9110 0.9070 0.8970 0.8930 0.8860
6.417000 0.8770 0.8740 0.8740 0.8770 0.8830
6.447946 0.8930 0.9020 0.9020 0.9040 0.9040
6.479000 0.8990 0.8910 0.8860 0.8820 0.8790
6.509946 0.8740 0.8690 0.8660 0.8650 0.8600
6.541000 0.8600 0.8520 0.8460 0.8390 0.8280
6.571946 0.8200 0.8180 0.8120 0.8080 0.7920
6.603000 0.7770 0.7670 0.7460 0.7380 0.7300
6.633946 0.7120 0.6950 0.6790 0.6540 0.6390
6.665000 0.6220 0.5880 0.5520 0.5230 0.4930
6.695946 0.4480 0.4020 0.3390 0.2940 0.2470
6.726000 0.2050 0.1780 0.1450 0.0950 0.0690
6.756946 0.0370 0.0180 0.0150 0.0170 0.0260
6.788000 0.0290 0.0340 0.0340 0.0350 0.0350
6.818946 0.0340 0.0270 0.0240 0.0230 0.0230
6.850000 0.0260 0.0270 0.0290 0.0320 0.0320
6.880946 0.0340 0.0340 0.0350 0.0350 0.0370
6.912000 0.0370 0.0380 0.0410 0.0470 0.0490
6.942946 0.0510 0.0510 0.0540 0.0600 0.0680
6.974000 0.0800 0.0970 0.1200 0.1500 0.1870
7.004946 0.2210 0.2520 0.2950 0.3340 0.3630
7.036000 0.3930 0.4040 0.4170 0.4310 0.4470
7.066946 0.4470 0.4450 0.4440 0.4380 0.4330
7.098000 0.4240 0.4080 0.3970 0.3820 0.3630
7.128946 0.3390 0.3060 0.2750 0.2330 0.1900
7.160000 0.1500 0.1200 0.1050 0.0940 0.0750
7.190946 0.0510 0.0290 0.0230 0.0210 0.0210
7.221000 0.0230 0.0230 0.0260 0.0290 0.0350
7.251946 0.0490 0.0600 0.0720 0.0850 0.0940
7.283000 0.1050 0.1140 0.1300 0.1480 0.1650
7.313946 0.1880 0.1980 0.1980 0.1880 0.1450
7.345000 0.1190 0.0920 0.0740 0.0630 0.0600
7.375946 0.0630 0.0690 0.0720 0.0740 0.0720
7.407000 0.0690 0.0630 0.0570 0.0580 0.0720
7.437946 0.0770 0.0690 0.0550 0.0510 0.0510
7.469000 0.0550 0.0780 0.0990 0.1260 0.1670
7.499946 0.2040 0.2240 0.2600 0.2870 0.3090
7.531000 0.3340 0.3480 0.3660 0.3710 0.3770
7.561946 0.3770 0.3680 0.3430 0.3120 0.2690
7.593000 0.2240 0.1840 0.1540 0.1340 0.1250
7.623946 0.1190 0.1190 0.1200 0.1250 0.1390
7.654000 0.1510 0.1680 0.1950 0.2180 0.2490
7.684946 0.2660 0.2750 0.2870 0.2970 0.2920
7.716000 0.2870 0.2770 0.2730 0.2580 0.2470
7.746946 0.2270 0.2040 0.1900 0.1740 0.1540
7.778000 0.1390 0.1050 0.0800 0.0630 0.0460
7.808946 0.0460 0.0470 0.0550 0.0650 0.0890
7.840000 0.1190 0.1540 0.1880 0.2070 0.2290
7.870946 0.2490 0.2520 0.2500 0.2430 0.2320
7.902000 0.1910 0.1710 0.1510 0.1310 0.1110
7.932946 0.0920 0.0720 0.0710 0.0720 0.0770
7.964000 0.0850 0.0940 0.1060 0.1190 0.1310
7.994946 0.1420 0.1510 0.1540 0.1600 0.1710
8.026000 0.1930 0.2290 0.2780 0.3040 0.3510
8.056946 0.3800 0.4100 0.4440 0.4640 0.4860
8.087000 0.4980 0.5340 0.5460 0.5630 0.5740
8.117946 0.5890 0.5950 0.5970 0.6020 0.6050
8.149000 0.6080 0.6130 0.6170 0.6190 0.6200
8.179946 0.6220 0.6260 0.6260 0.6140 0.6060
8.211000 0.5970 0.5950 0.5970 0.5990 0.5990
8.241946 0.5970 0.5970 0.5990 0.6060 0.6110
8.273000 0.6170 0.6250 0.6280 0.6300 0.6300
8.303946 0.6260 0.6220 0.6160 0.6090 0.6060
8.335000 0.6020 0.5990 0.5970 0.5850 0.5710
8.365946 0.5600 0.5540 0.5440 0.5400 0.5210
8.397000 0.4980 0.4730 0.4620 0.4380 0.4100
8.427946 0.3930 0.3650 0.3260 0.2940 0.2530
8.459000 0.2190 0.1930 0.1640 0.1330 0.1110
8.489946 0.0940 0.0830 0.0770 0.0680 0.0600
8.521000 0.0540 0.0510 0.0410 0.0370 0.0350
8.551946 0.0340 0.0320 0.0320 0.0320 0.0320
8.582000 0.0340 0.0340 0.0400 0.0410 0.0410
8.612946 0.0410 0.0440 0.0490 0.0540 0.0630
8.644000 0.0780 0.0880 0.0910 0.0950 0.1000
8.674946 0.1020 0.1020 0.1020 0.1000 0.0970
8.706000 0.0940 0.0890 0.0850 0.0830 0.0740
8.736946 0.0720 0.0600 0.0540 0.0510 0.0490
8.768000 0.0460 0.0440 0.0440 0.0520 0.0600
8.798946 0.0690 0.0750 0.0880 0.0990 0.1190
8.830000 0.1220 0.1250 0.1300 0.1370 0.1470
8.860946 0.1590 0.1760 0.1960 0.2190 0.2460
8.892000 0.2890 0.3090 0.3290 0.3460 0.3630
8.922946 0.3770 0.3860 0.3880 0.3910 0.3910
8.954000 0.3880 0.3650 0.3430 0.3180 0.2840
8.984946 0.2810 0.2830 0.3120 0.3340 0.3570
9.015000 0.3820 0.4070 0.4310 0.4560 0.4780
9.045946 0.4960 0.5260 0.5400 0.5490 0.5690
9.077000 0.5800 0.5880 0.5910 0.5950 0.5970
9.107946 0.5970 0.5950 0.5940 0.5940 0.5910
9.139000 0.5890 0.5860 0.5800 0.5770 0.5740
9.169946 0.5650 0.5520 0.5320 0.5040 0.4900
9.201000 0.4760 0.4500 0.4330 0.4070 0.3790
9.231946 0.3250 0.2890 0.2460 0.2020 0.1740
9.263000 0.1400 0.1080 0.0850 0.0770 0.0690
9.293946 0.0680 0.0680 0.0710 0.0710 0.0780
9.325000 0.0890 0.1060 0.1260 0.1480 0.1710
9.355946 0.1950 0.2150 0.2360 0.2530 0.2610
9.387000 0.2690 0.2810 0.3030 0.3210 0.3370
9.417946 0.3420 0.3420 0.3390 0.3230 0.3000
9.449000 0.2770 0.2360 0.2080 0.1680 0.1340
9.479946 0.1090 0.1000 0.1080 0.1190 0.1400
9.510000 0.1600 0.1790 0.2150 0.2440 0.2640
9.540946 0.3000 0.3200 0.3400 0.3490 0.3560
9.572000 0.3680 0.3740 0.3770 0.3820 0.3880
9.602946 0.3960 0.3970 0.4040 0.4130 0.4210
9.634000 0.4220 0.4190 0.4050 0.3940 0.3650
9.664946 0.3290 0.2940 0.2550 0.2350 0.2120
9.696000 0.1990 0.1990 0.2070 0.2360 0.2690
9.726946 0.2970 0.3230 0.3350 0.3740 0.4000
9.758000 0.4250 0.4480 0.4550 0.4750 0.4900
9.788946 0.5170 0.5300 0.5400 0.5470 0.5540
9.820000 0.5610 0.5710 0.5770 0.5890 0.5940
9.850946 0.5940 0.5920 0.5910 0.5880 0.5780
9.882000 0.5680 0.5490 0.5350 0.5130 0.5010
9.912946 0.4870 0.4580 0.4300 0.4040 0.3830
9.943000 0.3570 0.3420 0.3260 0.3170 0.3140
9.973946 0.3140 0.3200 0.3510 0.3680 0.3900
10.005000 0.4080 0.4210 0.4250 0.4250 0.4250
10.035946 0.4250 0.4250 0.4250 0.4270 0.4300
10.067000 0.4330 0.4590 0.4890 0.5240 0.5430
10.097946 0.5540 0.5690 0.5820 0.5910 0.5970
10.129000 0.6020 0.6110 0.6160 0.6190 0.6200
10.159946 0.6220 0.6280 0.6310 0.6360 0.6360
10.191000 0.6310 0.6280 0.6230 0.6220 0.6200
10.221946 0.6160 0.6110 0.6080 0.6030 0.5940
10.253000 0.5800 0.5750 0.5710 0.5570 0.5490
10.283946 0.5320 0.5130 0.4950 0.4820 0.4450
10.315000 0.4300 0.4160 0.4100 0.4100 0.4110
10.345946 0.4210 0.4380 0.4500 0.4730 0.4900
10.376000 0.5260 0.5300 0.5510 0.5580 0.5750
10.406946 0.5830 0.5880 0.5940 0.5990 0.6030
10.438000 0.6060 0.6130 0.6190 0.6280 0.6340
10.468946 0.6420 0.6450 0.6480 0.6510 0.6540
10.500000 0.6570 0.6600 0.6640 0.6650 0.6670
10.530946 0.6700 0.6730 0.6780 0.6820 0.6900
10.562000 0.6980 0.7010 0.7010 0.6950 0.6930
10.592946 0.6950 0.7010 0.7050 0.7080 0.7100
10.624000 0.7150 0.7150 0.7160 0.7180 0.7180
10.654946 0.7190 0.7190 0.7210 0.7210 0.7210
10.686000 0.7210 0.7190 0.7180 0.7180 0.7180
10.716946 0.7160 0.7120 0.7080 0.7020 0.6960
10.748000 0.6880 0.6820 0.6740 0.6680 0.6600
10.778946 0.6430 0.6190 0.5990 0.5710 0.5380
10.810000 0.5240 0.5040 0.4840 0.4380 0.3880
10.840946 0.3450 0.3030 0.2600 0.2240 0.1900
10.871000 0.1700 0.1600 0.1600 0.1650 0.1740
10.901946 0.1850 0.2080 0.2260 0.2550 0.2730
10.933000 0.2950 0.3090 0.3280 0.3290 0.3370
10.963946 0.3370 0.3280 0.3140 0.3080 0.2870
10.995000 0.2670 0.2520 0.2430 0.2350 0.2330
11.025946 0.2350 0.2440 0.2550 0.2780 0.2950
11.057000 0.3140 0.3390 0.3710 0.3940 0.4340
11.087946 0.4550 0.4820 0.5210 0.5400 0.5490
11.119000 0.5510 0.5580 0.5660 0.5680 0.5680
11.149946 0.5680 0.5580 0.5400 0.5240 0.5070
11.181000 0.5030 0.4950 0.4870 0.4790 0.4810
11.211946 0.4840 0.5000 0.5340 0.5490 0.5750
11.243000 0.6020 0.6170 0.6310 0.6450 0.6590
11.273946 0.6700 0.6850 0.6910 0.6980 0.7130
11.304000 0.7180 0.7270 0.7360 0.7460 0.7500
11.334946 0.7530 0.7580 0.7630 0.7660 0.7670
11.366000 0.7670 0.7700 0.7720 0.7720 0.7700
11.396946 0.7700 0.7670 0.7640 0.7610 0.7530
11.428000 0.7390 0.7300 0.7220 0.7070 0.6840
11.458946 0.6570 0.6260 0.5940 0.5630 0.5320
11.490000 0.5040 0.4980 0.4920 0.4810 0.4790
11.520946 0.4790 0.4820 0.5380 0.5630 0.5850
11.552000 0.6130 0.6230 0.6430 0.6640 0.6730
11.582946 0.6840 0.6980 0.7180 0.7330 0.7390
11.614000 0.7410 0.7490 0.7560 0.7660 0.7690
11.644946 0.7720 0.7730 0.7730 0.7730 0.7750
11.676000 0.7750 0.7770 0.7770 0.7770 0.7780
11.706946 0.7780 0.7780 0.7800 0.7800 0.7810
11.738000 0.7810 0.7840 0.7840 0.7870 0.7890
11.768946 0.7890 0.7870 0.7870 0.7860 0.7860
11.799000 0.7840 0.7830 0.7800 0.7750 0.7700
11.829946 0.7660 0.7640 0.7610 0.7580 0.7530
11.861000 0.7470 0.7390 0.7300 0.7240 0.7120
11.891946 0.7020 0.6910 0.6790 0.6650 0.6510
11.923000 0.6360 0.6200 0.6030 0.5880 0.5710
11.953946 0.5540 0.5350 0.5170 0.5070 0.4980
11.985000 0.4720 0.4590 0.4300 0.4100 0.3990
12.015946 0.3940 0.3860 0.3800 0.3740 0.3730
12.047000 0.3760 0.3830 0.3900 0.4000 0.4140
12.077946 0.4250 0.4380 0.4480 0.4670 0.4820
12.109000 0.4960 0.5240 0.5370 0.5510 0.5650
12.139946 0.5780 0.5880 0.5990 0.6050 0.6190
12.171000 0.6310 0.6430 0.6560 0.6670 0.6760
12.201946 0.6850 0.6930 0.6980 0.7080 0.7120
12.232000 0.7160 0.7210 0.7270 0.7330 0.7350
12.262946 0.7360 0.7410 0.7550 0.7580 0.7600
12.294000 0.7610 0.7610 0.7610 0.7630 0.7630
12.324946 0.7610 0.7610 0.7600 0.7550 0.7490
12.356000 0.7430 0.7380 0.7300 0.7220 0.7220
12.386946 0.7130 0.7020 0.6880 0.6700 0.6600
12.418000 0.6500 0.6310 0.6110 0.5880 0.5660
12.448946 0.5430 0.5230 0.5030 0.4930 0.4840
12.480000 0.4530 0.4280 0.4040 0.3730 0.3520
12.510946 0.3310 0.3080 0.2830 0.2600 0.2380
12.542000 0.2180 0.1990 0.1850 0.1740 0.1700
12.572946 0.1680 0.1680 0.1700 0.1910 0.2080
12.604000 0.2380 0.2580 0.2730 0.2910 0.3090
12.634946 0.3490 0.3800 0.4050 0.4380 0.4500
12.665000 0.4750 0.5230 0.5350 0.5430 0.5630
12.695946 0.5830 0.5950 0.6060 0.6130 0.6190
12.727000 0.6250 0.6340 0.6430 0.6540 0.6640
12.757946 0.6740 0.6840 0.6930 0.7020 0.7120
12.789000 0.7190 0.7240 0.7260 0.7270 0.7290
12.819946 0.7320 0.7350 0.7380 0.7410 0.7460
12.851000 0.7500 0.7530 0.7530 0.7500 0.7500
12.881946 0.7490 0.7500 0.7520 0.7560 0.7600
12.913000 0.7630 0.7640 0.7660 0.7670 0.7690
12.943946 0.7700 0.7720 0.7750 0.7770 0.7800
12.975000 0.7810 0.7830 0.7860 0.7890 0.7910
13.005946 0.7910 0.7910 0.7910 0.7940 0.7980
13.037000 0.8010 0.8030 0.8030 0.8040 0.8040
13.067946 0.8030 0.8010 0.7980 0.8000 0.8010
13.099000 0.8000 0.8000 0.7970 0.7940 0.7940
13.129946 0.7970 0.7970 0.7950 0.7950 0.7940
13.160000 0.7910 0.7890 0.7890 0.7860 0.7810
13.190946 0.7700 0.7690 0.7560 0.7500 0.7430
13.222000 0.7300 0.7220 0.7130 0.7040 0.6950
13.252946 0.6790 0.6570 0.6330 0.6050 0.5750
13.284000 0.5430 0.5090 0.4930 0.4760 0.4440
13.314946 0.4130 0.3830 0.3400 0.3040 0.2770
13.346000 0.2500 0.2290 0.2080 0.1820 0.1680
13.376946 0.1590 0.1540 0.1510 0.1500 0.1480
13.408000 0.1500 0.1540 0.1650 0.1790 0.1990
13.438946 0.2240 0.2430 0.2640 0.2890 0.3090
13.470000 0.3340 0.3600 0.3790 0.4020 0.4240
13.500946 0.4360 0.4520 0.4620 0.4790 0.4930
13.532000 0.5200 0.5290 0.5350 0.5470 0.5570
13.562946 0.5650 0.5710 0.5770 0.5850 0.5920
13.593000 0.5990 0.6030 0.6110 0.6160 0.6220
13.623946 0.6260 0.6280 0.6330 0.6370 0.6400
13.655000 0.6470 0.6510 0.6570 0.6590 0.6600
13.685946 0.6640 0.6700 0.6740 0.6790 0.6840
13.717000 0.6880 0.6910 0.6910 0.6950 0.6980
13.747946 0.6980 0.6990 0.6990 0.7010 0.7010
13.779000 0.7010 0.7020 0.7040 0.7050 0.7070
13.809946 0.7070 0.7080 0.7100 0.7120 0.7120
13.841000 0.7130 0.7130 0.7150 0.7180 0.7190
13.871946 0.7220 0.7260 0.7290 0.7330 0.7360
13.903000 0.7410 0.7490 0.7550 0.7610 0.7690
13.933946 0.7770 0.7860 0.7940 0.7970 0.7980
13.965000 0.8010 0.8060 0.8110 0.8150 0.8210
13.995946 0.8260 0.8310 0.8350 0.8370 0.8390
14.027000 0.8390 0.8430 0.8490 0.8540 0.8570
14.057946 0.8600 0.8630 0.8680 0.8760 0.8800
14.088000 0.8820 0.8830 0.8850 0.8850 0.8850
14.118946 0.8860 0.8860 0.8910 0.8940 0.8960
14.150000 0.8970 0.8970 0.8990 0.9000 0.9020
14.180946 0.9040 0.9050 0.9070 0.9100 0.9130
14.212000 0.9160 0.9190 0.9210 0.9220 0.9240
14.242946 0.9240 0.9240 0.9250 0.9240 0.9250
14.274000 0.9250 0.9270 0.9280 0.9300 0.9310
14.304946 0.9330 0.9330 0.9300 0.9300 0.9300
14.336000 0.9300 0.9330 0.9360 0.9390 0.9420
14.366946 0.9390 0.9380 0.9330 0.9340 0.9360
14.398000 0.9410 0.9450 0.9470 0.9470 0.9470
14.428946 0.9470 0.9420 0.9410 0.9380 0.9380
14.460000 0.9390 0.9390 0.9470 0.9520 0.9520
14.490946 0.9480 0.9470 0.9450 0.9420 0.9410
14.521000 0.9380 0.9380 0.9360 0.9390 0.9380
14.551946 0.9380 0.9380 0.9380 0.9380 0.9390
14.583000 0.9390 0.9480 0.9470 0.9420 0.9420
14.613946 0.9410 0.9360 0.9360 0.9360 0.9360
14.645000 0.9390 0.9390 0.9390 0.9380 0.9360
14.675946 0.9380 0.9380 0.9380 0.9380 0.9340
14.707000 0.9360 0.9340 0.9330 0.9330 0.9310
14.737946 0.9330 0.9330 0.9330 0.9330 0.9310
14.769000 0.9300 0.9360 0.9340 0.9310 0.9280
14.799946 0.9270 0.9280 0.9310 0.9310 0.9300
14.831000 0.9250 0.9270 0.9280 0.9310 0.9310
14.861946 0.9310 0.9310 0.9310 0.9310 0.9300
14.893000 0.9270 0.9240 0.9250 0.9270 0.9250
14.923946 0.9210 0.9190 0.9190 0.9160 0.9140
14.954000 0.9130 0.9100 0.9080 0.9070 0.9040
14.984946 0.8970 0.8880 0.8800 0.8690 0.8650
15.016000 0.8590 0.8520 0.8460 0.8400 0.8350
15.046946 0.8280 0.8200 0.8150 0.8120 0.8120
15.078000 0.8140 0.8200 0.8260 0.8290 0.8350
15.108946 0.8390 0.8400 0.8420 0.8450 0.8510
15.140000 0.8570 0.8590 0.8600 0.8620 0.8620
15.170946 0.8630 0.8650 0.8660 0.8660 0.8630
15.202000 0.8600 0.8590 0.8590 0.8570 0.8540
15.232946 0.8540 0.8520 0.8520 0.8510 0.8510
15.264000 0.8510 0.8480 0.8480 0.8460 0.8460
15.294946 0.8430 0.8390 0.8320 0.8260 0.8230
15.326000 0.8200 0.8170 0.8150 0.8180 0.8210
15.356946 0.8230 0.8210 0.8210 0.8210 0.8200
15.388000 0.8180 0.8170 0.8150 0.8140 0.8140
15.418946 0.8140 0.8150 0.8180 0.8260 0.8230
15.449000 0.8140 0.8120 0.8120 0.8140 0.8180
15.479946 0.8180 0.8180 0.8170 0.8150 0.8140
15.511000 0.8120 0.8090 0.8080 0.8030 0.7980
15.541946 0.8030 0.8030 0.8060 0.8060 0.8030
15.573000 0.8010 0.7980 0.7980 0.7970 0.8040
15.603946 0.8010 0.8010 0.8000 0.7980 0.7980
15.635000 0.7970 0.7970 0.7950 0.7940 0.7870
15.665946 0.7800 0.7750 0.7700 0.7670 0.7640
15.697000 0.7630 0.7640 0.7640 0.7630 0.7610
15.727946 0.7580 0.7520 0.7490 0.7440 0.7440
15.759000 0.7460 0.7460 0.7460 0.7440 0.7430
15.789946 0.7410 0.7390 0.7360 0.7330 0.7300
15.821000 0.7300 0.7270 0.7260 0.7240 0.7220
15.851946 0.7210 0.7210 0.7210 0.7190 0.7190
15.882000 0.7180 0.7180 0.7160 0.7150 0.7130
15.912946 0.7120 0.7120 0.7080 0.7050 0.7020
15.944000 0.6990 0.6980 0.6960 0.6950 0.6910
15.974946 0.6880 0.6840 0.6880
##END=
