##TITLE=Naphthalene
##JCAMP-DX=4.24
##DATA TYPE=INFRARED SPECTRUM
##CLASS=COBLENTZ II
##ORIGIN=DOW CORNING CORP.
##OWNER=Copyright (C) 1987 by the Coblentz Society
Collection (C) 2018 copyright by the U.S. Secretary of Commerce
on behalf of the United States of America. All rights reserved.
##DATE=1967/10/12
##CAS REGISTRY NO=91-20-3
##MOLFORM=C10 H8
##MP=80.2 C
##SOURCE REFERENCE=COBLENTZ NO. 5547
##$NIST SOURCE=COBLENTZ
##$NIST IMAGE=cob5547
##SPECTROMETER/DATA SYSTEM=PERKIN-ELMER 521 (GRATING)
##INSTRUMENT PARAMETERS=FILTERS AT 3150, 2500, 2000, 1150, 700, 410. GRATING CHANGES: 2000, 630
##STATE=SOLUTION (10% CCl4 FOR 3800-1300, 11% CS2 FOR 1300-650, AND 10% CCl4 FOR 650-250)
##PATH LENGTH=0.011 CM, 0.010 CM, AND 0.010 CM
##RESOLUTION=2
##XUNITS=1/CM
##YUNITS=TRANSMITTANCE
##XFACTOR=1.0
##YFACTOR=1
##FIRSTX=243
##LASTX=3808
##FIRSTY=1.0105
##MAXX=3808
##MINX=243
##MAXY=1.0105
##MINY=0.0194
##NPOINTS=3566
##XYDATA=(X++(Y..Y))
243.000000 1.0105 1.0051 0.9996 0.9953 0.9937
248.000000 0.9926 0.9916 0.9905 0.9894 0.9883
253.000000 0.9872 0.9863 0.9854 0.9845 0.9836
258.000000 0.9827 0.9810 0.9793 0.9775 0.9758
263.000000 0.9740 0.9712 0.9683 0.9655 0.9627
268.000000 0.9599 0.9572 0.9546 0.9520 0.9496
273.000000 0.9476 0.9456 0.9435 0.9415 0.9401
278.000000 0.9387 0.9372 0.9358 0.9343 0.9329
283.000000 0.9315 0.9305 0.9295 0.9286 0.9276
288.000000 0.9267 0.9257 0.9247 0.9238 0.9228
293.000000 0.9223 0.9218 0.9213 0.9208 0.9203
298.000000 0.9198 0.9193 0.9190 0.9188 0.9185
303.000000 0.9183 0.9181 0.9178 0.9174 0.9167
308.000000 0.9159 0.9152 0.9129 0.9135 0.9124
313.000000 0.9113 0.9102 0.9091 0.9082 0.9073
318.000000 0.9064 0.9056 0.9047 0.9038 0.9029
323.000000 0.9021 0.9019 0.9018 0.9017 0.9016
328.000000 0.9015 0.9013 0.9012 0.9011 0.9010
333.000000 0.9008 0.9005 0.8997 0.8976 0.8945
338.000000 0.8911 0.8890 0.8874 0.8857 0.8850
343.000000 0.8849 0.8848 0.8847 0.8846 0.8845
348.000000 0.8840 0.8835 0.8821 0.8777 0.8733
353.000000 0.8692 0.8669 0.8652 0.8643 0.8635
358.000000 0.8272 0.7848 0.7491 0.7484 0.7480
363.000000 0.7468 0.7835 0.8426 0.8739 0.8735
368.000000 0.8731 0.8725 0.8717 0.8708 0.8700
373.000000 0.8691 0.8684 0.8677 0.8669 0.8663
378.000000 0.8659 0.8656 0.8652 0.8648 0.8645
383.000000 0.8644 0.8644 0.8644 0.8645 0.8645
388.000000 0.8646 0.8645 0.8644 0.8642 0.8641
393.000000 0.8640 0.8639 0.8638 0.8634 0.8628
398.000000 0.8623 0.8617 0.8612 0.8606 0.8601
403.000000 0.8595 0.8590 0.8593 0.8602 0.8612
408.000000 0.8614 0.8611 0.8606 0.8579 0.8589
413.000000 0.8580 0.8573 0.8573 0.8573 0.8574
418.000000 0.8574 0.8575 0.8576 0.8579 0.8582
423.000000 0.8585 0.8588 0.8591 0.8592 0.8593
428.000000 0.8593 0.8594 0.8594 0.8594 0.8595
433.000000 0.8595 0.8596 0.8598 0.8600 0.8602
438.000000 0.8604 0.8604 0.8599 0.8593 0.8588
443.000000 0.8583 0.8577 0.8572 0.8567 0.8555
448.000000 0.8542 0.8529 0.8516 0.8497 0.8477
453.000000 0.8458 0.8438 0.8410 0.8375 0.8341
458.000000 0.8307 0.8259 0.8212 0.8164 0.8116
463.000000 0.8063 0.8007 0.7951 0.7862 0.7742
468.000000 0.7622 0.7419 0.6648 0.6271 0.5430
473.000000 0.4590 0.3750 0.2909 0.2069 0.1229
478.000000 0.1105 0.1113 0.1099 0.1385 0.2720
483.000000 0.4055 0.5390 0.6726 0.7637 0.7770
488.000000 0.7835 0.7900 0.7965 0.8030 0.8094
493.000000 0.8157 0.8206 0.8249 0.8287 0.8301
498.000000 0.8315 0.8329 0.8342 0.8354 0.8362
503.000000 0.8370 0.8378 0.8385 0.8392 0.8398
508.000000 0.8404 0.8410 0.8416 0.8423 0.8429
513.000000 0.8435 0.8441 0.8447 0.8454 0.8460
518.000000 0.8466 0.8472 0.8476 0.8481 0.8485
523.000000 0.8490 0.8494 0.8499 0.8501 0.8503
528.000000 0.8505 0.8506 0.8508 0.8566 0.8509
533.000000 0.8509 0.8509 0.8509 0.8509 0.8508
538.000000 0.8508 0.8508 0.8508 0.8508 0.8507
543.000000 0.8507 0.8506 0.8506 0.8505 0.8505
548.000000 0.8505 0.8504 0.8503 0.8502 0.8501
553.000000 0.8501 0.8500 0.8499 0.8499 0.8499
558.000000 0.8499 0.8498 0.8498 0.8498 0.8498
563.000000 0.8497 0.8497 0.8497 0.8497 0.8500
568.000000 0.8512 0.8523 0.8534 0.8545 0.8553
573.000000 0.8561 0.8568 0.8576 0.8584 0.8591
578.000000 0.8597 0.8600 0.8603 0.8606 0.8609
583.000000 0.8613 0.8616 0.8619 0.8622 0.8625
588.000000 0.8624 0.8623 0.8622 0.8620 0.8619
593.000000 0.8617 0.8616 0.8614 0.8613 0.8611
598.000000 0.8604 0.8591 0.8578 0.8566 0.8553
603.000000 0.8540 0.8527 0.8514 0.8489 0.8460
608.000000 0.8432 0.8395 0.8336 0.8276 0.8108
613.000000 0.7070 0.6032 0.5834 0.5818 0.5827
618.000000 0.6116 0.7691 0.8656 0.8682 0.8704
623.000000 0.8702 0.8700 0.8699 0.8724 0.8694
628.000000 0.8690 0.8687 0.8684 0.8681 0.8677
633.000000 0.8674 0.8671 0.8668 0.8664 0.8666
638.000000 0.8668 0.8670 0.8673 0.8675 0.8677
643.000000 0.8680 0.8682 0.8683 0.8684 0.8685
648.000000 0.8686 0.8687 0.8760 0.8899 0.9037
653.000000 0.9176 0.9315 0.9428 0.9416 0.9403
658.000000 0.9390 0.9391 0.9397 0.9460 0.9461
663.000000 0.9463 0.9464 0.9460 0.9454 0.9448
668.000000 0.9442 0.9433 0.9423 0.9414 0.9405
673.000000 0.9396 0.9389 0.9423 0.9377 0.9370
678.000000 0.9364 0.9358 0.9351 0.9343 0.9333
683.000000 0.9323 0.9313 0.9303 0.9294 0.9271
688.000000 0.9244 0.9218 0.9111 0.8970 0.8951
693.000000 0.8952 0.8961 0.9243 0.9256 0.9269
698.000000 0.9243 0.9188 0.9124 0.9068 0.9012
703.000000 0.8956 0.8901 0.8882 0.8863 0.8843
708.000000 0.8817 0.8766 0.8673 0.8619 0.8564
713.000000 0.8537 0.8515 0.8494 0.8478 0.8471
718.000000 0.8464 0.8457 0.8452 0.8464 0.8498
723.000000 0.8559 0.8594 0.8627 0.8648 0.8665
728.000000 0.8675 0.8685 0.8688 0.8687 0.8686
733.000000 0.8669 0.8649 0.8628 0.8576 0.8522
738.000000 0.8375 0.8131 0.8032 0.7990 0.7985
743.000000 0.7988 0.8041 0.8116 0.8161 0.8181
748.000000 0.8178 0.8172 0.8151 0.8011 0.7765
753.000000 0.7618 0.7540 0.7529 0.7599 0.7731
758.000000 0.7779 0.7770 0.7747 0.7503 0.7196
763.000000 0.7088 0.7070 0.7063 0.7057 0.7041
768.000000 0.6999 0.6942 0.6865 0.6768 0.6674
773.000000 0.6579 0.6136 0.5797 0.4315 0.3270
778.000000 0.2226 0.1181 0.0254 0.0207 0.0194
783.000000 0.0196 0.0228 0.0223 0.0248 0.0287
788.000000 0.0730 0.1238 0.1745 0.2253 0.2761
793.000000 0.3269 0.3777 0.4285 0.4792 0.5300
798.000000 0.5808 0.5975 0.6129 0.6280 0.6988
803.000000 0.7239 0.7362 0.7465 0.7546 0.7608
808.000000 0.7681 0.7772 0.8025 0.8097 0.8123
813.000000 0.8134 0.8144 0.8146 0.8147 0.8157
818.000000 0.8148 0.8142 0.8121 0.8001 0.7821
823.000000 0.7590 0.7360 0.7130 0.6900 0.6763
828.000000 0.6721 0.7140 0.7642 0.8143 0.8267
833.000000 0.8317 0.8377 0.8439 0.8511 0.8575
838.000000 0.8616 0.8657 0.8693 0.8724 0.8755
843.000000 0.8773 0.8782 0.8791 0.8798 0.8804
848.000000 0.8809 0.8815 0.8821 0.8826 0.8832
853.000000 0.8832 0.8832 0.8882 0.8833 0.8826
858.000000 0.8798 0.8777 0.8757 0.8737 0.8718
863.000000 0.8711 0.8704 0.8696 0.8688 0.8677
868.000000 0.8665 0.8654 0.8639 0.8625 0.8617
873.000000 0.8618 0.8606 0.8621 0.8622 0.8640
878.000000 0.8659 0.8682 0.8704 0.8727 0.8749
883.000000 0.8771 0.8790 0.8796 0.8798 0.8796
888.000000 0.8800 0.8797 0.8792 0.8786 0.8781
893.000000 0.8776 0.8774 0.8772 0.8771 0.8770
898.000000 0.8770 0.8771 0.8771 0.8772 0.8760
903.000000 0.8737 0.8721 0.8714 0.8707 0.8700
908.000000 0.8696 0.8698 0.8701 0.8704 0.8707
913.000000 0.8710 0.8713 0.8715 0.8718 0.8721
918.000000 0.8723 0.8726 0.8728 0.8728 0.8720
923.000000 0.8712 0.8704 0.8694 0.8685 0.8675
928.000000 0.8648 0.8620 0.8593 0.8560 0.8523
933.000000 0.8486 0.8449 0.8409 0.8368 0.8325
938.000000 0.8282 0.8238 0.8194 0.8156 0.8125
943.000000 0.8096 0.8085 0.8074 0.8064 0.8038
948.000000 0.7999 0.7934 0.7804 0.7558 0.7327
953.000000 0.6725 0.6123 0.5522 0.4920 0.4318
958.000000 0.3731 0.3739 0.3735 0.5975 0.7573
963.000000 0.7682 0.7748 0.7814 0.7880 0.7982
968.000000 0.8075 0.8141 0.8193 0.8220 0.8247
973.000000 0.8274 0.8296 0.8317 0.8339 0.8365
978.000000 0.8404 0.8444 0.8475 0.8495 0.8515
983.000000 0.8536 0.8551 0.8558 0.8566 0.8574
988.000000 0.8579 0.8576 0.8580 0.8577 0.8568
993.000000 0.8558 0.8544 0.8530 0.8516 0.8482
998.000000 0.8444 0.8395 0.8280 0.8154 0.8026
1003.000000 0.7898 0.7791 0.7684 0.7507 0.7292
1008.000000 0.7044 0.5844 0.4644 0.3444 0.2600
1013.000000 0.2615 0.5619 0.8011 0.8146 0.8211
1018.000000 0.8271 0.8319 0.8367 0.8404 0.8437
1023.000000 0.8470 0.8501 0.8525 0.8548 0.8572
1028.000000 0.8595 0.8615 0.8628 0.8642 0.8655
1033.000000 0.8667 0.8676 0.8684 0.8692 0.8700
1038.000000 0.8709 0.8717 0.8725 0.8733 0.8740
1043.000000 0.8747 0.8754 0.8761 0.8772 0.8775
1048.000000 0.8780 0.8778 0.8776 0.8774 0.8772
1053.000000 0.8768 0.8759 0.8750 0.8741 0.8731
1058.000000 0.8723 0.8720 0.8716 0.8713 0.8710
1063.000000 0.8707 0.8709 0.8711 0.8713 0.8715
1068.000000 0.8716 0.8712 0.8708 0.8704 0.8700
1073.000000 0.8696 0.8680 0.8661 0.8643 0.8625
1078.000000 0.8608 0.8595 0.8582 0.8571 0.8573
1083.000000 0.8576 0.8578 0.8585 0.8596 0.8608
1088.000000 0.8619 0.8631 0.8636 0.8629 0.8615
1093.000000 0.8598 0.8580 0.8562 0.8555 0.8549
1098.000000 0.8543 0.8537 0.8531 0.8527 0.8523
1103.000000 0.8520 0.8516 0.8512 0.8503 0.8493
1108.000000 0.8483 0.8473 0.8441 0.8395 0.8335
1113.000000 0.8270 0.8206 0.8142 0.8060 0.7921
1118.000000 0.7565 0.7227 0.7130 0.6948 0.6524
1123.000000 0.6100 0.5675 0.5251 0.4827 0.4744
1128.000000 0.4720 0.5468 0.6111 0.6753 0.7396
1133.000000 0.7468 0.7433 0.7335 0.7237 0.7138
1138.000000 0.7040 0.7036 0.7303 0.7846 0.7880
1143.000000 0.7910 0.7924 0.7939 0.7953 0.7961
1148.000000 0.7967 0.7973 0.7978 0.7980 0.7983
1153.000000 0.7985 0.7987 0.7989 0.7991 0.7992
1158.000000 0.7994 0.7995 0.7997 0.8001 0.8004
1163.000000 0.8013 0.8030 0.8060 0.8094 0.8127
1168.000000 0.8161 0.8197 0.8234 0.8270 0.8307
1173.000000 0.8343 0.8371 0.8398 0.8425 0.8452
1178.000000 0.8479 0.8496 0.8505 0.8513 0.8519
1183.000000 0.8517 0.8515 0.8513 0.8498 0.8509
1188.000000 0.8507 0.8502 0.8495 0.8488 0.8480
1193.000000 0.8473 0.8464 0.8450 0.8435 0.8417
1198.000000 0.8397 0.8377 0.8342 0.8246 0.8167
1203.000000 0.8105 0.8044 0.7982 0.7544 0.7072
1208.000000 0.6601 0.6129 0.6123 0.6786 0.7365
1213.000000 0.7943 0.8355 0.8439 0.8479 0.8491
1218.000000 0.8503 0.8512 0.8513 0.8500 0.8512
1223.000000 0.8497 0.8482 0.8459 0.8435 0.8406
1228.000000 0.8373 0.8325 0.8225 0.8024 0.7823
1233.000000 0.7622 0.7421 0.7225 0.7233 0.7250
1238.000000 0.7515 0.7817 0.8120 0.8355 0.8433
1243.000000 0.8460 0.8471 0.8470 0.8468 0.8477
1248.000000 0.8463 0.8458 0.8450 0.8443 0.8379
1253.000000 0.8290 0.8200 0.8097 0.8006 0.7926
1258.000000 0.7826 0.7733 0.7682 0.7630 0.7579
1263.000000 0.7002 0.6217 0.5433 0.4649 0.3947
1268.000000 0.3951 0.4140 0.5026 0.5912 0.6799
1273.000000 0.7685 0.8392 0.8494 0.8577 0.8658
1278.000000 0.8691 0.8707 0.8720 0.8733 0.8745
1283.000000 0.8752 0.8752 0.8753 0.8751 0.8750
1288.000000 0.8749 0.8748 0.8749 0.8755 0.8761
1293.000000 0.8767 0.8777 0.8792 0.8806 0.8820
1298.000000 0.8848 0.8881 0.8915 0.8948 0.8982
1303.000000 0.9016 0.9049 0.9078 0.9074 0.9083
1308.000000 0.9086 0.9087 0.9087 0.9084 0.9078
1313.000000 0.9072 0.9066 0.9060 0.9055 0.9049
1318.000000 0.9044 0.9038 0.9033 0.9028 0.9022
1323.000000 0.9017 0.9009 0.9002 0.8994 0.8987
1328.000000 0.8979 0.8972 0.8964 0.8955 0.8944
1333.000000 0.8933 0.8922 0.8912 0.8901 0.8890
1338.000000 0.8879 0.8864 0.8848 0.8833 0.8817
1343.000000 0.8801 0.8770 0.8736 0.8702 0.8669
1348.000000 0.8616 0.8552 0.8488 0.8419 0.8349
1353.000000 0.8279 0.8157 0.8023 0.7888 0.7754
1358.000000 0.7682 0.7686 0.7696 0.7724 0.8271
1363.000000 0.8594 0.8814 0.8833 0.8815 0.8804
1368.000000 0.8793 0.8784 0.8770 0.8752 0.8733
1373.000000 0.8671 0.8610 0.8559 0.8508 0.8444
1378.000000 0.8374 0.8257 0.7815 0.7372 0.6929
1383.000000 0.6486 0.6043 0.5600 0.5157 0.4714
1388.000000 0.4271 0.4186 0.4199 0.8385 0.8498
1393.000000 0.8668 0.8771 0.8864 0.8930 0.8954
1398.000000 0.8978 0.8988 0.8998 0.9005 0.9003
1403.000000 0.9000 0.8998 0.8995 0.8993 0.8991
1408.000000 0.8989 0.9016 0.8984 0.8976 0.8961
1413.000000 0.8937 0.8881 0.8811 0.8741 0.8672
1418.000000 0.8602 0.8570 0.8567 0.8573 0.8722
1423.000000 0.8863 0.8863 0.8862 0.8883 0.8854
1428.000000 0.8849 0.8844 0.8832 0.8821 0.8819
1433.000000 0.8849 0.8882 0.8899 0.8910 0.8922
1438.000000 0.8933 0.8935 0.8937 0.8938 0.8936
1443.000000 0.8934 0.8932 0.8930 0.8922 0.8913
1448.000000 0.8904 0.8892 0.8878 0.8865 0.8851
1453.000000 0.8837 0.8826 0.8816 0.8831 0.8845
1458.000000 0.8858 0.8872 0.8885 0.8893 0.8894
1463.000000 0.8894 0.8895 0.8895 0.8895 0.8894
1468.000000 0.8890 0.8887 0.8883 0.8879 0.8876
1473.000000 0.8872 0.8865 0.8857 0.8849 0.8840
1478.000000 0.8823 0.8806 0.8789 0.8771 0.8744
1483.000000 0.8715 0.8686 0.8628 0.8567 0.8506
1488.000000 0.8430 0.8333 0.8230 0.8115 0.7999
1493.000000 0.7890 0.7783 0.7569 0.7415 0.7101
1498.000000 0.6710 0.6319 0.5928 0.5536 0.5431
1503.000000 0.5394 0.5358 0.5313 0.4680 0.3966
1508.000000 0.3252 0.2999 0.2999 0.4031 0.5052
1513.000000 0.6073 0.7095 0.8116 0.8292 0.8290
1518.000000 0.8285 0.8285 0.8003 0.7701 0.7399
1523.000000 0.7342 0.7564 0.8043 0.8522 0.8734
1528.000000 0.8735 0.8735 0.8729 0.8724 0.8693
1533.000000 0.8654 0.8607 0.8556 0.8498 0.8441
1538.000000 0.8390 0.8338 0.8284 0.8216 0.8148
1543.000000 0.8112 0.8102 0.8101 0.8069 0.8119
1548.000000 0.8154 0.8229 0.8313 0.8379 0.8424
1553.000000 0.8468 0.8506 0.8543 0.8581 0.8631
1558.000000 0.8706 0.8781 0.8815 0.8831 0.8831
1563.000000 0.8832 0.8851 0.8828 0.8824 0.8821
1568.000000 0.8818 0.8814 0.8811 0.8809 0.8806
1573.000000 0.8804 0.8801 0.8798 0.8796 0.8789
1578.000000 0.8781 0.8773 0.8765 0.8757 0.8736
1583.000000 0.8692 0.8641 0.8590 0.8536 0.8413
1588.000000 0.8274 0.8122 0.7706 0.7085 0.6229
1593.000000 0.5374 0.4518 0.4442 0.4446 0.4976
1598.000000 0.5517 0.6059 0.6600 0.7141 0.7682
1603.000000 0.8224 0.8765 0.8792 0.8805 0.8818
1608.000000 0.8830 0.8842 0.8852 0.8859 0.8867
1613.000000 0.8870 0.8866 0.8864 0.8862 0.8859
1618.000000 0.8857 0.8853 0.8849 0.8838 0.8821
1623.000000 0.8803 0.8790 0.8786 0.8783 0.8779
1628.000000 0.8776 0.8772 0.8763 0.8751 0.8740
1633.000000 0.8729 0.8717 0.8712 0.8710 0.8709
1638.000000 0.8707 0.8701 0.8687 0.8673 0.8659
1643.000000 0.8626 0.8593 0.8560 0.8527 0.8494
1648.000000 0.8454 0.8413 0.8372 0.8330 0.8288
1653.000000 0.8246 0.8210 0.8165 0.8193 0.8216
1658.000000 0.8262 0.8314 0.8361 0.8381 0.8397
1663.000000 0.8413 0.8410 0.8247 0.8161 0.8074
1668.000000 0.7988 0.7941 0.7943 0.7960 0.8047
1673.000000 0.8128 0.8209 0.8289 0.8370 0.8451
1678.000000 0.8650 0.8702 0.8726 0.8750 0.8757
1683.000000 0.8764 0.8772 0.8777 0.8781 0.8809
1688.000000 0.8787 0.8788 0.8789 0.8790 0.8791
1693.000000 0.8783 0.8774 0.8766 0.8757 0.8726
1698.000000 0.8698 0.8671 0.8645 0.8615 0.8586
1703.000000 0.8556 0.8526 0.8497 0.8463 0.8428
1708.000000 0.8394 0.8361 0.8332 0.8314 0.8305
1713.000000 0.8296 0.8270 0.8237 0.8194 0.8130
1718.000000 0.8051 0.7947 0.7809 0.7771 0.7813
1723.000000 0.7817 0.7830 0.7873 0.8182 0.8206
1728.000000 0.8213 0.8219 0.8216 0.8209 0.8200
1733.000000 0.8189 0.8177 0.8165 0.8142 0.8186
1738.000000 0.8229 0.8280 0.8344 0.8431 0.8527
1743.000000 0.8609 0.8661 0.8695 0.8719 0.8721
1748.000000 0.8712 0.8716 0.8711 0.8705 0.8696
1753.000000 0.8683 0.8670 0.8657 0.8640 0.8622
1758.000000 0.8604 0.8585 0.8551 0.8511 0.8472
1763.000000 0.8436 0.8400 0.8364 0.8270 0.8175
1768.000000 0.8081 0.7986 0.7891 0.7802 0.7794
1773.000000 0.7761 0.7857 0.7997 0.8136 0.8275
1778.000000 0.8414 0.8554 0.8617 0.8660 0.8690
1783.000000 0.8715 0.8733 0.8750 0.8765 0.8766
1788.000000 0.8754 0.8769 0.8741 0.8657 0.8608
1793.000000 0.8581 0.8580 0.8561 0.8526 0.8485
1798.000000 0.8434 0.8374 0.8305 0.8236 0.8131
1803.000000 0.8028 0.7962 0.7913 0.7911 0.7913
1808.000000 0.7928 0.7919 0.7998 0.8131 0.8263
1813.000000 0.8482 0.8537 0.8566 0.8568 0.8569
1818.000000 0.8576 0.8569 0.8566 0.8563 0.8552
1823.000000 0.8540 0.8520 0.8479 0.8407 0.8299
1828.000000 0.8151 0.8003 0.7854 0.7706 0.7634
1833.000000 0.7630 0.7694 0.7845 0.7996 0.8147
1838.000000 0.8298 0.8351 0.8340 0.8298 0.8242
1843.000000 0.8186 0.8130 0.8074 0.8018 0.7963
1848.000000 0.7919 0.7887 0.7933 0.8161 0.8389
1853.000000 0.8555 0.8637 0.8690 0.8711 0.8732
1858.000000 0.8746 0.8759 0.8769 0.8775 0.8781
1863.000000 0.8787 0.8792 0.8796 0.8800 0.8826
1868.000000 0.8807 0.8809 0.8810 0.8812 0.8813
1873.000000 0.8811 0.8808 0.8805 0.8802 0.8796
1878.000000 0.8778 0.8761 0.8744 0.8722 0.8698
1883.000000 0.8675 0.8652 0.8628 0.8602 0.8569
1888.000000 0.8535 0.8502 0.8468 0.8374 0.8264
1893.000000 0.8154 0.8043 0.7933 0.7823 0.7776
1898.000000 0.7753 0.7820 0.7926 0.8032 0.8137
1903.000000 0.8214 0.8217 0.8218 0.8091 0.8016
1908.000000 0.7941 0.7865 0.7790 0.7737 0.7787
1913.000000 0.7936 0.8085 0.8233 0.8341 0.8395
1918.000000 0.8478 0.8526 0.8528 0.8538 0.8519
1923.000000 0.8497 0.8465 0.8417 0.8334 0.8217
1928.000000 0.8090 0.7999 0.7914 0.7841 0.7786
1933.000000 0.7760 0.7733 0.7727 0.7727 0.7726
1938.000000 0.7725 0.7677 0.7582 0.7494 0.7389
1943.000000 0.7354 0.7337 0.7346 0.7356 0.7402
1948.000000 0.7463 0.7744 0.7882 0.8023 0.8163
1953.000000 0.8300 0.8394 0.8475 0.8542 0.8570
1958.000000 0.8598 0.8626 0.8662 0.8699 0.8739
1963.000000 0.8777 0.8796 0.8811 0.8818 0.8825
1968.000000 0.8832 0.8840 0.8840 0.8841 0.8841
1973.000000 0.8841 0.8839 0.8857 0.8834 0.8831
1978.000000 0.8825 0.8820 0.8815 0.8809 0.8804
1983.000000 0.8800 0.8797 0.8795 0.8793 0.8790
1988.000000 0.8788 0.8786 0.8786 0.8794 0.8802
1993.000000 0.8812 0.8824 0.8835 0.8845 0.8855
1998.000000 0.8864 0.8879 0.8905 0.8932 0.8959
2003.000000 0.8981 0.9004 0.9013 0.9022 0.9023
2008.000000 0.9024 0.9022 0.9021 0.9019 0.9018
2013.000000 0.9016 0.9015 0.9013 0.9012 0.9010
2018.000000 0.9008 0.9005 0.9003 0.9000 0.8997
2023.000000 0.8994 0.8992 0.8989 0.8986 0.8983
2028.000000 0.8981 0.8978 0.8976 0.8974 0.8972
2033.000000 0.8970 0.8968 0.8966 0.8964 0.8961
2038.000000 0.8959 0.8957 0.8955 0.8954 0.8954
2043.000000 0.8959 0.8965 0.8972 0.8979 0.8986
2048.000000 0.8994 0.8997 0.9001 0.9003 0.9005
2053.000000 0.9006 0.9008 0.9010 0.9012 0.9014
2058.000000 0.9016 0.9017 0.9019 0.9018 0.9018
2063.000000 0.9017 0.9016 0.9015 0.9015 0.9014
2068.000000 0.9014 0.9013 0.9013 0.9012 0.9011
2073.000000 0.9010 0.9010 0.9009 0.9009 0.9008
2078.000000 0.9008 0.9007 0.9006 0.9005 0.9004
2083.000000 0.9003 0.9003 0.9002 0.9001 0.9000
2088.000000 0.8999 0.8998 0.8998 0.8997 0.8996
2093.000000 0.8996 0.8996 0.8996 0.8996 0.8996
2098.000000 0.8996 0.8996 0.8996 0.8996 0.8996
2103.000000 0.8996 0.8996 0.8996 0.8996 0.8996
2108.000000 0.8996 0.8996 0.8996 0.8996 0.8996
2113.000000 0.8996 0.8996 0.8996 0.8997 0.8996
2118.000000 0.8996 0.8995 0.8994 0.8993 0.8992
2123.000000 0.8991 0.8990 0.8989 0.8988 0.8987
2128.000000 0.8987 0.8986 0.8985 0.8984 0.8983
2133.000000 0.8982 0.8981 0.8980 0.8979 0.8978
2138.000000 0.8977 0.8976 0.8975 0.8974 0.8973
2143.000000 0.8972 0.8971 0.8970 0.8969 0.8968
2148.000000 0.8968 0.8967 0.8966 0.8965 0.8964
2153.000000 0.8963 0.8962 0.8961 0.8960 0.8960
2158.000000 0.8960 0.8960 0.8961 0.8961 0.8962
2163.000000 0.8962 0.8963 0.8963 0.8964 0.8966
2168.000000 0.8968 0.8970 0.8973 0.8975 0.8977
2173.000000 0.8979 0.8981 0.8983 0.8985 0.8987
2178.000000 0.8990 0.8992 0.8994 0.8996 0.8998
2183.000000 0.9000 0.9003 0.9005 0.9007 0.9007
2188.000000 0.9008 0.9008 0.9009 0.9009 0.9010
2193.000000 0.9011 0.9012 0.9014 0.9017 0.9020
2198.000000 0.9023 0.9022 0.9022 0.9021 0.9020
2203.000000 0.9019 0.9018 0.9017 0.9016 0.9015
2208.000000 0.9014 0.9013 0.9012 0.9010 0.9009
2213.000000 0.9008 0.9007 0.9006 0.9005 0.9003
2218.000000 0.9002 0.9001 0.9000 0.8997 0.8995
2223.000000 0.8992 0.8989 0.8986 0.8983 0.8979
2228.000000 0.8975 0.8970 0.8966 0.8962 0.8958
2233.000000 0.8951 0.8945 0.8940 0.8936 0.8934
2238.000000 0.8933 0.8931 0.8930 0.8928 0.8927
2243.000000 0.8925 0.8924 0.8927 0.8930 0.8933
2248.000000 0.8937 0.8940 0.8944 0.8948 0.8952
2253.000000 0.8955 0.8959 0.8958 0.8957 0.8956
2258.000000 0.8956 0.8955 0.8954 0.8948 0.8943
2263.000000 0.8935 0.8927 0.8919 0.8911 0.8902
2268.000000 0.8894 0.8884 0.8874 0.8863 0.8853
2273.000000 0.8842 0.8832 0.8820 0.8809 0.8795
2278.000000 0.8781 0.8767 0.8753 0.8744 0.8736
2283.000000 0.8734 0.8733 0.8731 0.8730 0.8731
2288.000000 0.8732 0.8737 0.8743 0.8748 0.8754
2293.000000 0.8771 0.8788 0.8804 0.8820 0.8836
2298.000000 0.8853 0.8869 0.8886 0.8901 0.8917
2303.000000 0.8932 0.8948 0.8959 0.8970 0.8975
2308.000000 0.8981 0.8986 0.8992 0.8997 0.9003
2313.000000 0.9008 0.9014 0.9014 0.9015 0.9014
2318.000000 0.9014 0.9013 0.9013 0.9012 0.9012
2323.000000 0.9011 0.9010 0.9009 0.9009 0.9008
2328.000000 0.9008 0.9007 0.9006 0.9004 0.9003
2333.000000 0.9002 0.9001 0.8999 0.8998 0.8997
2338.000000 0.8996 0.8993 0.8991 0.8987 0.8984
2343.000000 0.8980 0.8977 0.8973 0.8970 0.8966
2348.000000 0.8963 0.8959 0.8956 0.8952 0.8949
2353.000000 0.8945 0.8942 0.8939 0.8936 0.8934
2358.000000 0.8933 0.8931 0.8929 0.8927 0.8925
2363.000000 0.8923 0.8922 0.8923 0.8924 0.8926
2368.000000 0.8929 0.8931 0.8934 0.8936 0.8939
2373.000000 0.8941 0.8944 0.8946 0.8949 0.8951
2378.000000 0.8953 0.8954 0.8955 0.8956 0.8957
2383.000000 0.8957 0.8958 0.8955 0.8952 0.8948
2388.000000 0.8944 0.8939 0.8935 0.8931 0.8927
2393.000000 0.8922 0.8918 0.8913 0.8909 0.8903
2398.000000 0.8897 0.8890 0.8883 0.8876 0.8870
2403.000000 0.8863 0.8856 0.8849 0.8843 0.8836
2408.000000 0.8830 0.8822 0.8814 0.8806 0.8798
2413.000000 0.8789 0.8781 0.8773 0.8765 0.8758
2418.000000 0.8751 0.8745 0.8740 0.8734 0.8729
2423.000000 0.8752 0.8775 0.8795 0.8816 0.8834
2428.000000 0.8852 0.8869 0.8887 0.8898 0.8910
2433.000000 0.8922 0.8934 0.8945 0.8957 0.8965
2438.000000 0.8973 0.8978 0.8984 0.8990 0.8996
2443.000000 0.8997 0.8999 0.9000 0.9001 0.9001
2448.000000 0.9001 0.9001 0.9002 0.9002 0.9002
2453.000000 0.9002 0.9002 0.9002 0.9002 0.9001
2458.000000 0.9001 0.9001 0.9001 0.9001 0.9001
2463.000000 0.9000 0.9000 0.9000 0.9000 0.8999
2468.000000 0.8999 0.8999 0.8999 0.8998 0.8998
2473.000000 0.8997 0.8997 0.8996 0.8996 0.8995
2478.000000 0.8995 0.8994 0.8994 0.8993 0.8993
2483.000000 0.8993 0.8993 0.8992 0.8992 0.8991
2488.000000 0.8991 0.8990 0.8990 0.8989 0.8989
2493.000000 0.8988 0.8988 0.8987 0.8987 0.8986
2498.000000 0.8986 0.8985 0.8985 0.8984 0.8984
2503.000000 0.8983 0.8983 0.8983 0.8983 0.8982
2508.000000 0.8982 0.8981 0.8981 0.8980 0.8980
2513.000000 0.8979 0.8979 0.8978 0.8978 0.8977
2518.000000 0.8977 0.8976 0.8976 0.8975 0.8975
2523.000000 0.8974 0.8974 0.8974 0.8974 0.8974
2528.000000 0.8974 0.8973 0.8973 0.8973 0.8973
2533.000000 0.8973 0.8973 0.8972 0.8972 0.8972
2538.000000 0.8972 0.8972 0.8972 0.8971 0.8971
2543.000000 0.8971 0.8971 0.8971 0.8971 0.8970
2548.000000 0.8970 0.8970 0.8970 0.8969 0.8969
2553.000000 0.8969 0.8969 0.8969 0.8969 0.8969
2558.000000 0.8969 0.8969 0.8970 0.8970 0.8970
2563.000000 0.8970 0.8970 0.8970 0.8970 0.8970
2568.000000 0.8970 0.8970 0.8970 0.8970 0.8970
2573.000000 0.8970 0.8971 0.8971 0.8971 0.8971
2578.000000 0.8971 0.8971 0.8971 0.8971 0.8971
2583.000000 0.8971 0.8971 0.8973 0.8975 0.8977
2588.000000 0.8980 0.8982 0.8984 0.8986 0.8989
2593.000000 0.8991 0.8993 0.8995 0.8998 0.9000
2598.000000 0.9002 0.9004 0.9007 0.9007 0.9008
2603.000000 0.9008 0.9008 0.9008 0.9008 0.9008
2608.000000 0.9008 0.9008 0.9008 0.9008 0.9008
2613.000000 0.9008 0.9008 0.9008 0.9008 0.9008
2618.000000 0.9008 0.9008 0.9008 0.9006 0.9005
2623.000000 0.9003 0.9002 0.9000 0.8999 0.8997
2628.000000 0.8996 0.8994 0.8993 0.8992 0.8991
2633.000000 0.8989 0.8988 0.8987 0.8986 0.8989
2638.000000 0.8993 0.8997 0.9001 0.9004 0.9008
2643.000000 0.9011 0.9015 0.9019 0.9023 0.9028
2648.000000 0.9033 0.9039 0.9046 0.9051 0.9057
2653.000000 0.9057 0.9058 0.9058 0.9059 0.9060
2658.000000 0.9061 0.9061 0.9062 0.9063 0.9064
2663.000000 0.9064 0.9065 0.9065 0.9066 0.9066
2668.000000 0.9067 0.9067 0.9067 0.9067 0.9068
2673.000000 0.9068 0.9068 0.9068 0.9069 0.9069
2678.000000 0.9069 0.9069 0.9069 0.9069 0.9069
2683.000000 0.9069 0.9069 0.9068 0.9068 0.9068
2688.000000 0.9068 0.9067 0.9067 0.9066 0.9066
2693.000000 0.9066 0.9066 0.9065 0.9065 0.9065
2698.000000 0.9065 0.9064 0.9064 0.9063 0.9063
2703.000000 0.9063 0.9063 0.9062 0.9062 0.9062
2708.000000 0.9062 0.9061 0.9061 0.9060 0.9060
2713.000000 0.9060 0.9060 0.9059 0.9059 0.9059
2718.000000 0.9059 0.9058 0.9058 0.9058 0.9059
2723.000000 0.9059 0.9059 0.9059 0.9060 0.9060
2728.000000 0.9060 0.9060 0.9060 0.9060 0.9061
2733.000000 0.9061 0.9061 0.9061 0.9061 0.9061
2738.000000 0.9061 0.9060 0.9060 0.9060 0.9060
2743.000000 0.9059 0.9059 0.9058 0.9058 0.9058
2748.000000 0.9058 0.9057 0.9057 0.9058 0.9059
2753.000000 0.9062 0.9065 0.9068 0.9072 0.9075
2758.000000 0.9078 0.9081 0.9085 0.9087 0.9090
2763.000000 0.9091 0.9092 0.9093 0.9095 0.9096
2768.000000 0.9097 0.9098 0.9099 0.9100 0.9102
2773.000000 0.9102 0.9102 0.9100 0.9099 0.9098
2778.000000 0.9097 0.9096 0.9095 0.9093 0.9092
2783.000000 0.9091 0.9090 0.9089 0.9088 0.9086
2788.000000 0.9085 0.9083 0.9082 0.9080 0.9078
2793.000000 0.9076 0.9075 0.9073 0.9072 0.9070
2798.000000 0.9069 0.9067 0.9065 0.9064 0.9063
2803.000000 0.9062 0.9061 0.9060 0.9060 0.9059
2808.000000 0.9058 0.9057 0.9057 0.9056 0.9055
2813.000000 0.9054 0.9054 0.9053 0.9052 0.9050
2818.000000 0.9049 0.9045 0.9042 0.9038 0.9034
2823.000000 0.9030 0.9027 0.9023 0.9019 0.9015
2828.000000 0.9012 0.9008 0.9004 0.9000 0.8997
2833.000000 0.8993 0.8990 0.8986 0.8983 0.8979
2838.000000 0.8976 0.8972 0.8969 0.8966 0.8963
2843.000000 0.8968 0.8974 0.8983 0.8992 0.9008
2848.000000 0.9024 0.9040 0.9056 0.9072 0.9088
2853.000000 0.9104 0.9120 0.9131 0.9142 0.9147
2858.000000 0.9152 0.9154 0.9156 0.9158 0.9160
2863.000000 0.9162 0.9165 0.9165 0.9165 0.9164
2868.000000 0.9164 0.9163 0.9163 0.9162 0.9162
2873.000000 0.9161 0.9161 0.9160 0.9160 0.9159
2878.000000 0.9159 0.9158 0.9158 0.9157 0.9157
2883.000000 0.9157 0.9157 0.9156 0.9156 0.9156
2888.000000 0.9156 0.9156 0.9156 0.9155 0.9155
2893.000000 0.9155 0.9155 0.9154 0.9154 0.9154
2898.000000 0.9154 0.9154 0.9155 0.9155 0.9156
2903.000000 0.9156 0.9157 0.9157 0.9158 0.9158
2908.000000 0.9159 0.9154 0.9150 0.9142 0.9135
2913.000000 0.9124 0.9114 0.9102 0.9091 0.9079
2918.000000 0.9068 0.9055 0.9043 0.9029 0.9016
2923.000000 0.9003 0.8990 0.8976 0.8963 0.8949
2928.000000 0.8936 0.8923 0.8910 0.8897 0.8885
2933.000000 0.8885 0.8885 0.8885 0.8885 0.8885
2938.000000 0.8886 0.8879 0.8872 0.8810 0.8748
2943.000000 0.8685 0.8622 0.8566 0.8511 0.8476
2948.000000 0.8441 0.8405 0.8370 0.8346 0.8323
2953.000000 0.8301 0.8280 0.8258 0.8237 0.8213
2958.000000 0.8189 0.8075 0.7962 0.7779 0.7596
2963.000000 0.7427 0.7251 0.7256 0.7255 0.7539
2968.000000 0.7823 0.8040 0.8257 0.8257 0.8258
2973.000000 0.8258 0.8269 0.8258 0.8259 0.8182
2978.000000 0.8105 0.8017 0.7929 0.7841 0.7708
2983.000000 0.7736 0.7719 0.8030 0.8341 0.8376
2988.000000 0.8412 0.8411 0.8411 0.8410 0.8416
2993.000000 0.8345 0.8281 0.8207 0.8133 0.8059
2998.000000 0.7986 0.7912 0.7838 0.7764 0.7690
3003.000000 0.7616 0.7543 0.7502 0.7461 0.7466
3008.000000 0.7472 0.7473 0.7475 0.7477 0.7479
3013.000000 0.7414 0.7349 0.7273 0.7197 0.7120
3018.000000 0.7044 0.6968 0.6892 0.6815 0.6739
3023.000000 0.6662 0.6586 0.6531 0.6477 0.6475
3028.000000 0.6474 0.6473 0.6472 0.6405 0.6338
3033.000000 0.6206 0.6074 0.5941 0.5809 0.5677
3038.000000 0.5545 0.5351 0.5158 0.4938 0.4719
3043.000000 0.4500 0.4281 0.4062 0.3843 0.3624
3048.000000 0.3405 0.3186 0.2967 0.2747 0.2528
3053.000000 0.2309 0.2090 0.2079 0.2068 0.2187
3058.000000 0.2070 0.2522 0.2738 0.2953 0.3168
3063.000000 0.3336 0.3504 0.3451 0.3515 0.3264
3068.000000 0.3129 0.2994 0.2860 0.2725 0.2591
3073.000000 0.2525 0.2459 0.2885 0.2470 0.4377
3078.000000 0.5443 0.6312 0.7181 0.7185 0.7190
3083.000000 0.7194 0.7203 0.7151 0.7104 0.7000
3088.000000 0.6896 0.6792 0.6688 0.6583 0.6479
3093.000000 0.6426 0.6374 0.6373 0.6370 0.6538
3098.000000 0.6704 0.7010 0.7316 0.7622 0.7929
3103.000000 0.8235 0.8541 0.8690 0.8840 0.8857
3108.000000 0.8875 0.8886 0.8898 0.8899 0.8901
3113.000000 0.8903 0.8905 0.8904 0.8904 0.8902
3118.000000 0.8901 0.8900 0.8899 0.8905 0.8911
3123.000000 0.8919 0.8928 0.8970 0.9013 0.9038
3128.000000 0.9064 0.9071 0.9079 0.9080 0.9094
3133.000000 0.9082 0.9083 0.9084 0.9085 0.9086
3138.000000 0.9087 0.9087 0.9088 0.9088 0.9089
3143.000000 0.9089 0.9090 0.9090 0.9091 0.9091
3148.000000 0.9092 0.9093 0.9094 0.9093 0.9093
3153.000000 0.9092 0.9092 0.9091 0.9091 0.9090
3158.000000 0.9090 0.9089 0.9089 0.9080 0.9071
3163.000000 0.9027 0.8984 0.8961 0.8939 0.8914
3168.000000 0.8890 0.8885 0.8880 0.8881 0.8882
3173.000000 0.8905 0.8929 0.8964 0.8999 0.9033
3178.000000 0.9067 0.9101 0.9136 0.9154 0.9172
3183.000000 0.9182 0.9193 0.9197 0.9202 0.9204
3188.000000 0.9207 0.9209 0.9212 0.9214 0.9217
3193.000000 0.9219 0.9222 0.9224 0.9227 0.9227
3198.000000 0.9228 0.9228 0.9228 0.9228 0.9229
3203.000000 0.9229 0.9229 0.9229 0.9229 0.9228
3208.000000 0.9228 0.9224 0.9221 0.9217 0.9214
3213.000000 0.9208 0.9202 0.9184 0.9167 0.9141
3218.000000 0.9115 0.9115 0.9115 0.9115 0.9116
3223.000000 0.9117 0.9119 0.9128 0.9138 0.9168
3228.000000 0.9199 0.9236 0.9273 0.9282 0.9291
3233.000000 0.9293 0.9296 0.9298 0.9301 0.9303
3238.000000 0.9306 0.9307 0.9309 0.9309 0.9310
3243.000000 0.9311 0.9312 0.9312 0.9313 0.9313
3248.000000 0.9314 0.9315 0.9316 0.9316 0.9317
3253.000000 0.9318 0.9319 0.9319 0.9320 0.9320
3258.000000 0.9321 0.9322 0.9323 0.9324 0.9325
3263.000000 0.9326 0.9327 0.9328 0.9329 0.9330
3268.000000 0.9332 0.9333 0.9334 0.9335 0.9336
3273.000000 0.9337 0.9338 0.9339 0.9341 0.9342
3278.000000 0.9343 0.9344 0.9345 0.9346 0.9347
3283.000000 0.9347 0.9348 0.9349 0.9350 0.9350
3288.000000 0.9351 0.9351 0.9352 0.9353 0.9354
3293.000000 0.9354 0.9355 0.9355 0.9356 0.9357
3298.000000 0.9358 0.9358 0.9359 0.9359 0.9360
3303.000000 0.9361 0.9362 0.9362 0.9363 0.9363
3308.000000 0.9364 0.9364 0.9365 0.9366 0.9367
3313.000000 0.9367 0.9368 0.9368 0.9368 0.9368
3318.000000 0.9368 0.9368 0.9368 0.9368 0.9368
3323.000000 0.9368 0.9369 0.9369 0.9369 0.9369
3328.000000 0.9369 0.9369 0.9369 0.9369 0.9369
3333.000000 0.9369 0.9370 0.9370 0.9370 0.9370
3338.000000 0.9370 0.9370 0.9370 0.9370 0.9370
3343.000000 0.9370 0.9370 0.9370 0.9371 0.9371
3348.000000 0.9371 0.9370 0.9370 0.9369 0.9369
3353.000000 0.9368 0.9368 0.9367 0.9367 0.9366
3358.000000 0.9366 0.9365 0.9365 0.9364 0.9364
3363.000000 0.9363 0.9363 0.9362 0.9362 0.9361
3368.000000 0.9361 0.9360 0.9360 0.9359 0.9359
3373.000000 0.9358 0.9358 0.9357 0.9357 0.9356
3378.000000 0.9356 0.9355 0.9355 0.9354 0.9354
3383.000000 0.9353 0.9353 0.9352 0.9352 0.9351
3388.000000 0.9351 0.9350 0.9350 0.9350 0.9350
3393.000000 0.9349 0.9349 0.9348 0.9348 0.9348
3398.000000 0.9348 0.9347 0.9347 0.9346 0.9346
3403.000000 0.9346 0.9346 0.9345 0.9345 0.9344
3408.000000 0.9344 0.9343 0.9343 0.9343 0.9343
3413.000000 0.9342 0.9342 0.9341 0.9341 0.9341
3418.000000 0.9341 0.9340 0.9340 0.9339 0.9339
3423.000000 0.9338 0.9338 0.9337 0.9336 0.9335
3428.000000 0.9335 0.9334 0.9333 0.9332 0.9332
3433.000000 0.9331 0.9330 0.9329 0.9329 0.9328
3438.000000 0.9327 0.9326 0.9326 0.9325 0.9324
3443.000000 0.9323 0.9323 0.9322 0.9322 0.9321
3448.000000 0.9320 0.9319 0.9318 0.9317 0.9317
3453.000000 0.9316 0.9315 0.9314 0.9313 0.9312
3458.000000 0.9311 0.9310 0.9309 0.9308 0.9307
3463.000000 0.9306 0.9305 0.9304 0.9304 0.9303
3468.000000 0.9302 0.9301 0.9300 0.9299 0.9298
3473.000000 0.9297 0.9296 0.9295 0.9294 0.9293
3478.000000 0.9292 0.9291 0.9290 0.9289 0.9289
3483.000000 0.9288 0.9287 0.9286 0.9285 0.9284
3488.000000 0.9283 0.9282 0.9281 0.9280 0.9279
3493.000000 0.9278 0.9277 0.9276 0.9276 0.9275
3498.000000 0.9274 0.9273 0.9272 0.9271 0.9270
3503.000000 0.9269 0.9269 0.9268 0.9267 0.9266
3508.000000 0.9265 0.9264 0.9263 0.9262 0.9261
3513.000000 0.9260 0.9260 0.9259 0.9258 0.9257
3518.000000 0.9256 0.9255 0.9254 0.9253 0.9252
3523.000000 0.9251 0.9251 0.9249 0.9247 0.9245
3528.000000 0.9244 0.9242 0.9240 0.9238 0.9237
3533.000000 0.9235 0.9233 0.9231 0.9230 0.9228
3538.000000 0.9226 0.9224 0.9223 0.9221 0.9219
3543.000000 0.9217 0.9216 0.9214 0.9212 0.9210
3548.000000 0.9209 0.9207 0.9205 0.9204 0.9203
3553.000000 0.9201 0.9200 0.9199 0.9198 0.9196
3558.000000 0.9195 0.9194 0.9193 0.9191 0.9190
3563.000000 0.9188 0.9187 0.9186 0.9185 0.9184
3568.000000 0.9183 0.9183 0.9183 0.9183 0.9183
3573.000000 0.9183 0.9183 0.9183 0.9183 0.9183
3578.000000 0.9184 0.9184 0.9184 0.9184 0.9184
3583.000000 0.9184 0.9184 0.9184 0.9184 0.9184
3588.000000 0.9184 0.9182 0.9181 0.9180 0.9179
3593.000000 0.9177 0.9176 0.9174 0.9173 0.9172
3598.000000 0.9171 0.9169 0.9168 0.9166 0.9165
3603.000000 0.9164 0.9163 0.9161 0.9159 0.9156
3608.000000 0.9153 0.9150 0.9147 0.9143 0.9140
3613.000000 0.9137 0.9134 0.9131 0.9128 0.9124
3618.000000 0.9121 0.9118 0.9115 0.9113 0.9111
3623.000000 0.9112 0.9113 0.9114 0.9115 0.9116
3628.000000 0.9117 0.9118 0.9119 0.9119 0.9120
3633.000000 0.9119 0.9118 0.9116 0.9115 0.9114
3638.000000 0.9113 0.9111 0.9110 0.9106 0.9103
3643.000000 0.9100 0.9097 0.9094 0.9091 0.9087
3648.000000 0.9084 0.9082 0.9080 0.9088 0.9097
3653.000000 0.9105 0.9113 0.9120 0.9127 0.9134
3658.000000 0.9142 0.9143 0.9144 0.9143 0.9143
3663.000000 0.9142 0.9142 0.9137 0.9132 0.9121
3668.000000 0.9111 0.9101 0.9091 0.9081 0.9072
3673.000000 0.9062 0.9053 0.9042 0.9031 0.9033
3678.000000 0.9036 0.9043 0.9050 0.9056 0.9062
3683.000000 0.9068 0.9075 0.9081 0.9087 0.9096
3688.000000 0.9105 0.9113 0.9122 0.9131 0.9140
3693.000000 0.9147 0.9155 0.9159 0.9164 0.9167
3698.000000 0.9170 0.9167 0.9164 0.9161 0.9158
3703.000000 0.9154 0.9151 0.9148 0.9145 0.9142
3708.000000 0.9139 0.9132 0.9126 0.9117 0.9108
3713.000000 0.9099 0.9090 0.9087 0.9085 0.9086
3718.000000 0.9087 0.9089 0.9091 0.9094 0.9097
3723.000000 0.9099 0.9102 0.9105 0.9108 0.9106
3728.000000 0.9105 0.9103 0.9101 0.9099 0.9097
3733.000000 0.9095 0.9093 0.9091 0.9089 0.9087
3738.000000 0.9085 0.9083 0.9081 0.9079 0.9078
3743.000000 0.9076 0.9075 0.9073 0.9071 0.9069
3748.000000 0.9068 0.9084 0.9100 0.9102 0.9104
3753.000000 0.9105 0.9106 0.9107 0.9108 0.9109
3758.000000 0.9110 0.9111 0.9112 0.9112 0.9112
3763.000000 0.9112 0.9112 0.9112 0.9113 0.9113
3768.000000 0.9113 0.9113 0.9114 0.9114 0.9114
3773.000000 0.9114 0.9114 0.9114 0.9114 0.9113
3778.000000 0.9112 0.9111 0.9110 0.9109 0.9108
3783.000000 0.9107 0.9106 0.9105 0.9104 0.9103
3788.000000 0.9103 0.9099 0.9095 0.9091 0.9087
3793.000000 0.9082 0.9078 0.9074 0.9070 0.9065
3798.000000 0.9061 0.9050 0.9039 0.9025 0.9011
3803.000000 0.8997 0.8983 0.8969 0.8956 0.8946
3808.000000 0.8936
##END=
