##TITLE=2-Chloro-6-benzyloxybenzonitrile
##JCAMP-DX=4.24
##DATA TYPE=INFRARED SPECTRUM
##ORIGIN=EPA-IR VAPOR PHASE LIBRARY
##OWNER=SRD/NIST
Collection (C) 2018 copyright by the U.S. Secretary of Commerce
on behalf of the United States of America. All rights reserved.
##CAS REGISTRY NO=92161-40-5
##MOLFORM=C 14 H 10 Cl N O
##$NIST SOURCE=MSDC-IR
##STATE=gas
##XUNITS=1/CM
##YUNITS=ABSORBANCE
##XFACTOR=1.
##YFACTOR=0.001
##DELTAX=1.92898
##FIRSTX=549.8
##LASTX=4000.7
##FIRSTY=1.854
##MAXX=4000.7
##MINX=549.759
##MAXY=0.081224
##MINY=0
##NPOINTS=1790
##XYDATA=(X++(Y..Y))
549.759 1.854 1.684 1.062 1.4128 2.394 2.594 2.494 3.074 3.304 2.694
569.049 2.834 3.814 4.094 3.804 3.304 2.964 3.214 2.944 2.704 3.204
588.339 3.304 2.784 3.084 3.654 3.594 3.604 3.544 3.454 3.234 2.904
607.628 3.114 3.114 2.644 2.154 1.964 1.904 1.774 1.544 1.574 1.974
626.918 1.954 1.864 2.054 2.614 2.544 2.454 2.544 2.184 2.254 2.794
646.208 3.104 3.024 2.404 2.614 3.224 3.324 3.714 3.794 3.804 3.854
665.498 3.934 3.894 4.544 5.214 5.604 6.644 7.204 7.354 7.604 8.624
684.787 9.434 9.944 11.464 13.334 14.704 15.574 16.014 15.834 14.784 14.044
704.077 13.604 12.604 11.944 11.744 11.754 12.224 13.414 14.894 16.564 18.984
723.367 21.344 23.364 24.974 25.434 25.074 24.174 22.944 21.604 19.844 17.964
742.657 16.614 15.354 13.534 11.884 10.764 9.754 8.684 7.984 7.464 7.474
761.947 7.994 8.574 9.884 11.524 13.074 15.584 18.314 19.584 20.114 19.334
781.236 17.564 16.214 14.904 13.024 11.094 9.564 8.184 7.064 6.524 5.824
800.526 5.154 4.224 4.014 4.224 3.644 3.524 3.224 3.034 3.354 3.294
819.816 3.254 3.054 2.794 2.844 2.584 2.484 2.804 2.964 3.014 2.654
839.106 2.584 2.984 3.094 3.214 3.404 3.804 4.304 4.314 4.374 5.234
858.395 6.144 6.844 7.374 7.534 7.704 7.834 7.654 7.284 6.814 6.964
877.685 7.014 6.844 7.344 7.304 7.174 7.754 8.444 8.744 8.564 8.824
896.975 8.934 8.804 9.064 9.414 9.654 9.794 9.854 10.034 9.704 8.604
916.265 7.654 7.184 6.964 6.324 6.124 5.964 5.444 5.264 4.764 4.644
935.555 4.824 4.864 5.174 5.234 5.274 5.714 6.304 6.614 6.874 7.594
954.844 8.474 9.184 9.784 10.554 11.594 12.494 13.154 13.784 14.754 15.974
974.134 17.124 17.824 18.854 20.244 21.904 23.234 24.434 26.194 27.104 28.044
993.424 28.884 29.104 29.654 30.514 31.214 31.804 32.904 34.094 34.844 36.344
1012.714 38.294 40.154 42.134 43.974 46.024 47.434 47.644 46.574 45.234 43.854
1032.003 42.064 40.374 39.134 37.424 34.744 31.444 26.974 23.884 21.334 18.084
1051.293 15.584 13.344 11.494 10.384 10.144 10.344 10.144 9.994 9.554 9.444
1070.583 8.764 8.114 7.604 6.944 7.014 5.344 4.674 5.254 4.344 3.834
1089.873 3.624 3.784 3.934 2.934 2.354 3.074 3.634 3.974 4.144 3.734
1109.163 3.954 3.734 2.974 1.844 1.734 2.454 2.144 1.1016 0.4992 1.1229
1128.452 1.4376 1.804 1.2975 0 0.7314 1.934 2.274 2.124 1.844 2.634
1147.742 4.004 4.454 4.114 4.004 4.264 4.044 4.674 5.734 5.164 4.364
1167.032 4.114 3.694 3.804 4.074 4.774 4.954 4.684 5.514 6.354 6.344
1186.322 5.924 6.294 6.214 6.004 6.074 5.714 5.944 6.344 7.324 8.584
1205.611 8.454 7.604 7.374 7.654 7.984 7.824 7.224 7.774 8.534 10.174
1224.901 12.234 13.854 16.564 19.674 22.554 25.154 26.914 27.554 27.334 27.944
1244.191 27.544 27.014 27.894 28.704 30.244 31.874 33.154 34.524 37.014 39.504
1263.481 41.284 42.954 44.124 45.104 46.454 48.604 50.934 53.464 56.344 58.584
1282.771 59.294 58.314 55.644 50.724 44.274 37.994 32.154 26.864 22.634 19.704
1302.060 17.504 15.674 14.404 13.264 12.304 11.644 10.904 10.154 9.454 8.744
1321.350 8.144 7.544 6.884 6.554 6.424 6.164 5.934 5.834 5.824 5.904
1340.640 5.894 5.934 6.004 6.024 6.064 6.114 6.274 6.344 6.614 6.954
1359.930 7.284 8.114 9.204 10.264 11.494 12.814 13.984 15.004 15.824 16.014
1379.219 15.244 13.944 12.224 10.164 8.324 6.844 5.744 4.994 4.454 4.134
1398.509 3.794 3.574 3.604 3.764 3.844 3.874 4.064 4.414 4.864 5.364
1417.799 5.874 6.494 7.344 8.254 9.484 10.874 12.594 15.154 18.324 22.184
1437.089 27.284 33.944 42.304 52.004 62.464 71.694 78.114 81.224 80.174 75.044
1456.378 67.524 59.664 52.864 47.264 42.884 39.384 35.994 32.444 28.634 24.434
1475.668 20.234 16.404 13.524 11.444 10.164 9.234 8.514 8.414 8.664 9.214
1494.958 9.784 10.044 9.894 9.534 8.914 7.794 6.604 5.904 5.264 4.814
1514.248 4.734 4.624 4.584 4.574 4.524 4.724 5.044 5.194 5.464 5.764
1533.538 5.954 6.254 6.604 7.024 7.504 8.054 8.794 9.644 10.464 11.454
1552.827 12.734 14.334 16.264 18.504 21.534 25.014 28.924 33.664 38.674 43.114
1572.117 46.934 49.684 50.934 51.244 50.804 49.634 48.014 45.754 42.474 37.854
1591.407 32.294 26.414 20.784 16.014 12.434 10.104 8.384 6.824 5.734 5.054
1610.697 4.324 3.984 3.954 3.734 3.574 3.224 2.974 2.934 2.684 2.554
1629.986 2.704 2.944 2.754 2.504 2.544 2.544 2.524 2.474 2.364 2.334
1649.276 2.464 2.344 2.144 2.124 2.154 2.104 1.994 2.044 2.134 2.054
1668.566 1.854 1.824 1.964 1.994 1.944 1.894 1.894 1.944 1.924 1.744
1687.856 1.644 1.614 1.654 1.724 1.604 1.464 1.3214 1.2757 1.3433 1.4085
1707.146 1.4059 1.3214 1.3201 1.484 1.3825 1.288 1.504 1.564 1.494 1.544
1726.435 1.634 1.614 1.634 1.594 1.494 1.534 1.554 1.664 1.714 1.514
1745.725 1.514 1.634 1.664 1.664 1.704 1.804 1.654 1.484 1.474 1.634
1765.015 1.574 1.3765 1.4284 1.634 1.704 1.594 1.514 1.4168 1.564 1.714
1784.305 1.664 1.724 1.764 1.684 1.814 2.054 2.274 2.324 2.324 2.384
1803.594 2.284 2.074 2.044 2.084 1.964 1.874 1.844 1.794 1.804 1.754
1822.884 1.724 1.814 1.834 1.754 1.854 1.924 1.864 1.734 1.644 1.704
1842.174 1.764 1.844 1.894 1.804 1.744 1.914 1.894 1.834 1.964 1.974
1861.464 2.024 1.984 1.874 1.944 1.914 1.744 1.784 1.994 2.034 1.874
1880.754 1.994 2.064 1.934 1.894 1.864 1.824 1.714 1.664 1.754 1.794
1900.043 1.774 1.674 1.594 1.764 1.784 1.764 2.034 2.314 2.364 2.304
1919.333 2.334 2.444 2.424 2.444 2.404 2.384 2.354 2.284 2.274 2.284
1938.623 2.314 2.244 2.144 2.164 2.174 2.164 1.994 1.864 1.894 1.984
1957.913 2.034 1.894 1.734 1.694 1.614 1.4613 1.4619 1.4471 1.2965 1.2652
1977.202 1.2561 1.1294 1.0642 1.0991 1.2255 1.2707 1.2011 1.0614 0.9852 1.0743
1996.492 1.1682 1.0847 1.0386 1.035 0.9545 1.0119 1.168 1.2388 1.3332 1.3035
2015.782 1.1716 1.1894 1.2657 1.3749 1.3269 1.3049 1.2449 1.1067 1.0779 1.0531
2035.072 1.1104 1.2957 1.3018 1.1824 1.274 1.313 1.3445 1.3564 1.2079 1.1746
2054.362 1.2247 1.2316 1.2865 1.2433 1.1464 1.2626 1.2451 1.0261 0.9507 1.0119
2073.651 1.0086 1.0688 1.1824 1.161 1.0724 0.9085 0.8486 0.8939 0.9847 1.0702
2092.941 1.0877 1.0654 1.1507 1.3036 1.2324 1.229 1.3397 1.2541 1.1852 1.2802
2112.231 1.12 0.975 1.066 1.1218 1.2506 1.2943 1.1874 1.235 1.281 1.2227
2131.521 1.313 1.3614 1.2621 1.0875 1.1056 1.2843 1.4031 1.4182 1.3285 1.2428
2150.810 1.2293 1.2834 1.3722 1.464 1.4183 1.514 1.564 1.494 1.4626 1.386
2170.100 1.3991 1.474 1.514 1.494 1.423 1.2394 1.2262 1.3364 1.494 1.3861
2189.390 1.2179 1.2075 1.1204 1.2212 1.3214 1.2211 1.2405 1.3558 1.1926 1.1268
2208.680 1.3424 1.4095 1.3172 1.3266 1.514 1.694 1.784 1.954 2.014 2.274
2227.970 2.514 2.664 2.854 2.814 2.914 2.814 2.704 2.624 2.454 2.164
2247.259 1.774 1.484 1.3716 1.2651 1.1991 1.2152 1.1168 1.0959 1.083 1.0502
2266.549 1.0105 1.1193 1.2443 1.2141 1.1666 1.1217 1.1452 1.0469 0.9285 0.9449
2285.839 0.9789 0.9652 0.9718 1.0724 1.0414 1.0472 1.076 1.0546 1.2215 1.275
2305.129 1.1586 1.1842 1.202 1.2216 1.3365 1.3713 1.321 1.4087 1.4048 1.2775
2324.418 1.1446 1.1424 1.3215 1.3749 1.248 1.2716 1.514 1.4366 1.2124 1.3613
2343.708 1.4323 1.4159 1.3252 1.131 1.2233 1.2348 1.0922 1.1206 1.2385 1.2695
2362.998 1.1236 1.0891 1.1414 1.0715 0.9735 1.0013 1.1473 1.1755 1.1466 1.1117
2382.288 0.9922 0.9461 1.1305 1.1142 0.8939 0.8459 0.8995 0.8903 0.9014 0.9419
2401.578 0.9073 0.8748 0.8864 0.9694 1.013 0.9503 1.0445 0.9597 0.9613 1.0124
2420.867 0.9289 1.0058 1.0152 0.9138 0.8946 0.8298 0.8518 1.0728 1.1364 1.0715
2440.157 0.9903 1.09 1.1325 1.1341 1.0954 1.1813 1.2968 1.1932 1.1174 1.0394
2459.447 1.0744 1.2353 1.3244 1.1711 1.0304 1.0902 1.1752 1.1629 1.2253 1.1879
2478.737 1.0818 1.077 1.0722 1.1735 1.118 1.0304 1.1691 1.271 1.2304 1.199
2498.026 1.1712 1.1235 1.082 1.0859 1.2452 1.3729 1.3357 1.32 1.2288 1.3761
2517.316 1.494 1.3635 1.3167 1.3807 1.594 1.494 1.3744 1.4531 1.3662 1.2478
2536.606 1.3353 1.474 1.4376 1.484 1.654 1.594 1.544 1.524 1.504 1.564
2555.896 1.504 1.433 1.3715 1.3972 1.4272 1.3832 1.3053 1.3308 1.3338 1.3161
2575.186 1.2709 1.287 1.1875 0.9279 0.9749 1.1472 1.0752 0.9536 0.959 0.8889
2594.475 0.9398 1.0762 1.2273 1.2153 1.1301 1.1901 1.1643 1.2292 1.3942 1.298
2613.765 1.1882 1.2081 1.1781 1.3377 1.474 1.2589 1.1375 1.1462 1.2104 1.2741
2633.055 1.1182 1.063 1.2474 1.0739 0.8777 1.1618 1.3234 1.183 1.0227 0.9697
2652.345 1.1724 1.2091 1.2756 1.3609 1.292 1.0666 0.701 0.8811 0.9193 0.9029
2671.634 1.1445 1.1557 1.0181 0.8976 0.9553 1.0046 0.9562 0.977 0.9869 0.961
2690.924 1.1162 1.1161 0.9407 1.0115 1.0709 1.0708 1.2711 1.2953 1.2255 1.2572
2710.214 1.1586 1.2009 1.3996 1.484 1.544 1.594 1.464 1.604 1.534 1.362
2729.504 1.534 1.4462 1.4112 1.3343 1.2163 1.414 1.524 1.554 1.524 1.3995
2748.794 1.3857 1.2043 1.1495 1.3105 1.2626 1.1264 1.064 1.0325 0.9863 1.0356
2768.083 1.2273 1.504 1.534 1.1123 0.7767 0.9342 1.0715 0.9491 0.9599 1.0398
2787.373 1.0462 1.1164 1.2668 1.524 1.2844 1.0148 1.0755 1.1046 1.1565 1.0534
2806.663 1.1825 1.484 1.564 1.504 1.664 1.494 1.1929 1.3094 1.524 1.714
2825.953 1.774 1.754 1.874 1.864 1.734 1.784 1.734 1.554 1.554 1.864
2845.242 2.024 1.924 1.874 1.894 1.924 1.934 2.084 2.214 2.204 2.404
2864.532 2.804 3.114 3.164 3.274 3.454 3.624 3.954 4.324 4.514 4.674
2883.822 4.784 4.944 5.294 5.364 5.384 5.034 4.784 4.684 4.714 4.964
2903.112 4.864 4.644 4.554 4.524 4.494 4.414 4.144 4.314 4.744 4.804
2922.401 4.544 4.524 4.724 4.574 4.654 4.844 4.694 4.834 4.984 4.894
2941.691 5.164 5.524 5.514 5.304 5.234 4.964 4.734 4.914 5.034 4.994
2960.981 4.804 4.804 4.894 4.814 4.844 4.784 4.444 4.304 4.294 4.034
2980.271 3.704 3.624 3.504 3.294 3.064 2.944 2.744 2.584 2.764 2.854
2999.561 2.794 2.634 2.494 2.554 2.824 3.114 3.114 3.244 3.694 4.164
3018.850 4.544 4.724 5.464 6.214 6.884 7.734 8.234 8.924 9.664 9.874
3038.140 9.764 9.744 9.244 8.574 8.034 7.504 7.174 6.994 6.764 6.964
3057.430 7.414 7.664 8.214 9.124 10.104 11.444 12.794 13.604 14.264 14.194
3076.720 13.474 12.304 10.974 9.864 8.954 8.484 8.404 8.174 7.474 6.844
3096.009 6.414 5.924 5.594 5.134 4.594 4.534 4.144 3.764 3.674 3.324
3115.299 3.044 2.844 2.734 2.294 1.954 1.854 1.604 1.524 1.564 1.714
3134.589 1.704 1.624 1.3514 1.0234 1.1316 1.0277 1.0352 0.9664 0.9115 1.3105
3153.879 1.2326 1.0884 1.104 1.2557 1.256 1.0774 1.0193 0.9993 1.0783 1.0688
3173.169 1.1709 1.2195 0.9688 0.8279 1.1387 1.1918 0.7295 0.7889 1.1437 0.9829
3192.458 0.5944 0.4109 0.322 0.6038 0.9076 0.8416 0.8092 0.8475 0.9168 1.0222
3211.748 1.0761 0.9189 1.014 0.9455 0.54297 0.5892 0.7191 0.9416 1.0127 0.9943
3231.038 0.6612 0.469882 0.6895 0.54 0.7619 1.1636 0.9469 0.5844 0.49155 0.469483
3250.328 0.50211 0.3768 0.50374 0.803 0.8401 0.54946 0.351 0.45551 0.31 0.26
3269.617 0.4016 0.6661 0.8036 0.8287 0.9208 0.8115 0.6934 0.53097 0.6668 0.8789
3288.907 0.7806 0.8203 0.7243 0.47514 0.4458 0.50212 0.7146 0.8396 0.7177 0.7514
3308.197 0.824 0.9579 1.0748 0.8801 0.7023 0.7087 0.7218 0.6801 0.6703 0.7169
3327.487 0.6434 0.54898 0.7501 1.0836 0.9378 0.7993 0.7564 0.595 0.6856 0.7708
3346.777 0.6628 0.8045 0.8924 0.7961 0.7191 0.47838 0.6264 0.7576 0.668 0.6714
3366.066 0.5865 0.5812 0.5698 0.52059 0.5727 0.628 0.6032 0.5861 0.7185 0.6262
3385.356 0.48342 0.5861 0.645 0.7507 0.5973 0.263 0.4132 0.49447 0.445 0.53804
3404.646 0.6857 0.861 0.6808 0.7198 0.8495 0.736 0.8381 0.9398 0.8452 0.7144
3423.936 0.6954 0.7802 0.7337 0.7537 0.8668 0.7123 0.6181 0.7154 0.7423 0.674
3443.225 0.5965 0.6636 0.7981 0.8067 0.624 0.4319 0.4116 0.205 0.49769 0.8264
3462.515 0.805 0.607 0.247 0.49454 0.6567 0.46222 0.4424 0.5795 0.466731 0.3712
3481.805 0.469775 0.3738 0.3754 0.47548 0.51774 0.8038 0.9542 0.6361 0.56011 0.7397
3501.095 0.467878 0.50631 0.50733 0.4257 0.55396 0.5959 0.7227 0.656 0.48344 0.6029
3520.385 0.868 0.7233 0.8236 0.7902 0.7616 0.8831 0.6805 0.47937 0.5715 0.8198
3539.674 0.8825 0.9313 0.8701 0.7956 0.6823 0.7445 0.5023 0.6219 0.9788 0.8664
3558.964 0.7857 0.7872 0.54345 0.209 0.345 0.6572 0.6122 0.344 0.4172 0.4293
3578.254 0.56133 0.6971 0.7283 0.7277 0.654 0.7459 0.7678 0.6128 0.6387 0.9178
3597.544 0.8619 0.6648 0.6642 0.6474 0.7502 0.5907 0.54891 0.8085 0.641 0.6505
3616.833 0.7282 0.8068 0.7774 0.8303 0.9697 0.655 0.5827 0.7349 0.9363 1.0136
3636.123 0.6308 0.4127 0.4032 0.4454 0.6059 0.8841 0.8623 0.8029 0.9089 0.5826
3655.413 0.312 0.52322 0.7586 0.6168 0.6858 1.0111 1.0238 0.7886 0.7065 0.8641
3674.703 0.9768 0.8099 0.7588 0.6135 0.6576 0.9807 0.8576 0.7858 0.9015 1.0709
3693.993 1.2036 1.184 1.1016 0.9351 0.7698 0.6111 0.6408 0.6868 0.6182 0.6971
3713.282 0.7223 0.7403 0.7952 0.6516 0.6868 1.0145 0.884 0.48435 0.622 1.0592
3732.572 0.8817 0.6148 0.7129 0.8108 0.7283 0.83 1.0597 0.6967 0.6842 0.8086
3751.862 0.7943 0.8902 0.6089 0.4338 0.56144 0.9286 0.8787 0.6616 0.9579 0.8807
3771.152 0.6035 0.7893 0.8302 0.7943 0.7815 0.7374 0.8804 0.463809 0.354 0.6235
3790.441 0.7631 0.8903 0.8822 0.801 0.731 0.6237 0.51649 0.49 0.22 0.4091
3809.731 0.7058 0.7129 0.7041 0.6171 0.6526 0.8359 1.0088 0.8724 0.9758 1.0388
3829.021 0.7243 0.7244 0.8575 0.8218 0.7395 0.6347 0.828 1.0554 0.8025 0.728
3848.311 0.8148 0.6025 0.6511 0.8778 0.7738 0.7738 0.8127 0.52217 0.49976 0.878
3867.601 1.1448 1.1421 1.1257 1.1106 1.1592 0.9531 0.5644 0.327 0.3946 0.5815
3886.890 0.8517 0.9377 0.54477 0.49939 0.473742 0.48711 0.9512 1.1134 0.7978 0.86
3906.180 1.0727 1.14 0.7294 0.362 0.7198 0.8541 0.6689 0.466353 0.5431 1.0297
3925.470 1.2112 0.7668 0.4443 0.358 0.5864 0.6395 0.289 0.5644 0.8948 0.7738
3944.760 0.447 0.52526 0.7932 1.1276 1.3632 0.8593 0.50639 0.7733 0.9758 0.8725
3964.049 0.8544 0.8778 0.7534 0.6878 0.7952 0.7447 0.6307 0.6603 0.668 0.6535
3983.339 0.7087 0.7768 0.8242 0.8764 1.0674 0.8327 0.7776 1.0837 0.9867 0.955
##END=
