##TITLE=2,3-BENZANTHRACENE
##JCAMP-DX=4.24
##DATA TYPE=INFRARED SPECTRUM
##CLASS=COBLENTZ III
##ORIGIN=DOW CHEMICAL COMPANY
##OWNER=COBLENTZ SOCIETY
Collection (C) 2018 copyright by the U.S. Secretary of Commerce
on behalf of the United States of America. All rights reserved.
##DATE=1962/11/13
##NAMES=naphthacene
TETRACENE
##CAS REGISTRY NO=92-24-0
##MOLFORM=C18 H12
##SOURCE REFERENCE=COBLENTZ NO. 10674
##$NIST SOURCE=COBLENTZ
##$NIST IMAGE=cob10674
##SPECTROMETER/DATA SYSTEM=DOW KBr FOREPRISM-GRATING
##INSTRUMENT PARAMETERS=BLAZED AT 3.5, 12.0, 20.0 MICRON, CHANGED AT 5.0, 7.5, 14.9 MICRON
##STATE=SOLID (SPLIT MULL, FLUOROLUBE FOR 3800-1333 AND NUJOL FOR 1333-400 CM ^-^1)
##SAMPLING PROCEDURE=TRANSMISSION
##RESOLUTION=4
##DATA PROCESSING=DIGITIZED BY NIST FROM HARD COPY (FROM TWO SEGMENTS)
##XUNITS=1/CM
##YUNITS=TRANSMITTANCE
##XFACTOR=1.000000
##YFACTOR=1
##DELTAX=0.948169
##FIRSTX=382.427
##LASTX=3794.89
##FIRSTY=1.033
##MAXX=3794.89
##MINX=382.427
##MAXY=1.033
##MINY=0.025
##NPOINTS=3600
##XYDATA=(X++(Y..Y))
382.427000 1.0330 1.0320 1.0320 1.0320 1.0320
387.167845 1.0300 1.0290 1.0290 1.0280 1.0260
391.908690 1.0260 1.0250 1.0250 1.0230 1.0220
396.649535 1.0170 1.0170 1.0140 1.0130 1.0100
401.390380 1.0080 1.0080 1.0070 1.0070 1.0070
406.131225 1.0050 1.0040 1.0020 1.0020 1.0010
410.872070 1.0000 1.0000 0.9980 0.9980 0.9970
415.612915 0.9950 0.9940 0.9920 0.9920 0.9910
420.353761 0.9910 0.9890 0.9890 0.9880 0.9880
425.094606 0.9860 0.9850 0.9820 0.9820 0.9800
429.835451 0.9790 0.9770 0.9760 0.9710 0.9700
434.576296 0.9690 0.9690 0.9670 0.9670 0.9670
439.317141 0.9670 0.9660 0.9640 0.9630 0.9610
444.057986 0.9600 0.9570 0.9540 0.9460 0.9430
448.798831 0.9360 0.9320 0.9200 0.9120 0.9050
453.539676 0.8930 0.8820 0.8531 0.8182 0.6768
458.280521 0.5331 0.6998 0.8547 0.8949 0.8930
463.021366 0.8920 0.8591 0.8361 0.7803 0.7024
467.762211 0.6220 0.4081 0.2641 0.1192 0.1190
472.503056 0.2806 0.2830 0.4623 0.8662 0.9038
477.243901 0.9230 0.9380 0.9420 0.9580 0.9660
481.984746 0.9670 0.9690 0.9690 0.9700 0.9710
486.725592 0.9790 0.9830 0.9860 0.9880 0.9880
491.466437 0.9890 0.9890 0.9890 0.9890 0.9910
496.207282 0.9920 0.9920 0.9920 0.9910 0.9940
500.948127 0.9940 0.9920 0.9920 0.9910 0.9910
505.688972 0.9910 0.9920 0.9920 0.9910 0.9910
510.429817 0.9910 0.9890 0.9890 0.9910 0.9910
515.170662 0.9910 0.9910 0.9910 0.9910 0.9910
519.911507 0.9920 0.9940 0.9920 0.9920 0.9920
524.652352 0.9920 0.9920 0.9920 0.9920 0.9940
529.393197 0.9940 0.9910 0.9910 0.9910 0.9910
534.134042 0.9910 0.9910 0.9910 0.9910 0.9910
538.874887 0.9910 0.9910 0.9920 0.9920 0.9910
543.615732 0.9910 0.9910 0.9890 0.9880 0.9880
548.356577 0.9860 0.9800 0.9730 0.9551 0.9540
553.097423 0.9710 0.9790 0.9830 0.9860 0.9860
557.838268 0.9880 0.9890 0.9890 0.9880 0.9880
562.579113 0.9880 0.9880 0.9880 0.9880 0.9880
567.319958 0.9880 0.9880 0.9880 0.9880 0.9880
572.060803 0.9880 0.9880 0.9880 0.9890 0.9890
576.801648 0.9890 0.9910 0.9910 0.9940 0.9940
581.542493 0.9920 0.9920 0.9920 0.9920 1.0010
586.283338 1.0080 1.0100 1.0000 1.0000 0.9980
591.024183 0.9940 0.9940 0.9920 0.9920 0.9920
595.765028 0.9920 0.9920 0.9920 0.9910 0.9890
600.505873 0.9860 0.9830 0.9800 0.9790 0.9690
605.246718 0.9610 0.9351 0.9350 0.9629 0.9789
609.987563 0.9860 0.9970 1.0010 1.0010 1.0000
614.728408 1.0000 0.9980 0.9980 0.9950 0.9950
619.469254 0.9920 0.9890 0.9860 0.9730 0.9730
624.210099 0.9860 0.9880 0.9970 1.0000 1.0000
628.950944 1.0000 1.0010 1.0010 1.0010 1.0010
633.691789 1.0010 1.0000 1.0000 1.0000 0.9980
638.432634 0.9980 0.9980 1.0000 1.0000 1.0000
643.173479 1.0000 1.0000 1.0000 0.9980 0.9980
647.914324 0.9980 0.9980 0.9980 0.9980 0.9970
652.655169 0.9970 0.9970 0.9980 0.9980 0.9980
657.396014 0.9980 0.9980 1.0000 1.0000 1.0000
662.136859 0.9980 0.9980 0.9970 0.9940 0.9910
666.877704 0.9910 0.9910 0.9920 0.9920 0.9950
671.618549 0.9950 0.9970 0.9970 0.9950 0.9940
676.359394 0.9940 0.9920 0.9920 0.9920 0.9910
681.100239 0.9890 0.9890 0.9890 0.9890 0.9890
685.841084 0.9880 0.9860 0.9850 0.9830 0.9820
690.581930 0.9820 0.9820 0.9800 0.9800 0.9790
695.322775 0.9790 0.9770 0.9770 0.9760 0.9710
700.063620 0.9670 0.9630 0.9600 0.9550 0.9540
704.804465 0.9430 0.9360 0.9330 0.9210 0.9170
709.545310 0.8931 0.8790 0.8650 0.8550 0.8421
714.286155 0.8330 0.8150 0.7960 0.7750 0.7580
719.027000 0.7251 0.7150 0.7150 0.7190 0.7280
723.767845 0.7370 0.7400 0.7410 0.7400 0.7380
728.508690 0.7250 0.7100 0.6941 0.6093 0.5572
733.249535 0.5079 0.4140 0.3201 0.2521 0.2161
737.990380 0.1561 0.0952 0.0322 0.0320 0.1962
742.731225 0.2220 0.3520 0.5498 0.5660 0.5850
747.472070 0.6059 0.6060 0.5353 0.4384 0.3395
752.212915 0.5730 0.5290 0.5290 0.5810 0.5850
756.953761 0.5880 0.7745 0.8946 0.9139 0.9329
761.694606 0.9410 0.9420 0.9450 0.9490 0.9540
766.435451 0.9550 0.9550 0.9550 0.9570 0.9580
771.176296 0.9630 0.9630 0.9640 0.9640 0.9660
775.917141 0.9660 0.9670 0.9670 0.9690 0.9700
780.657986 0.9770 0.9790 0.9800 0.9800 0.9800
785.398831 0.9830 0.9830 0.9830 0.9850 0.9850
790.139676 0.9880 0.9910 0.9910 0.9890 0.9890
794.880521 0.9890 0.9880 0.9880 0.9860 0.9860
799.621366 0.9850 0.9850 0.9850 0.9860 0.9860
804.362211 0.9880 0.9880 0.9880 0.9890 0.9890
809.103056 0.9890 0.9890 0.9890 0.9890 0.9880
813.843901 0.9850 0.9850 0.9830 0.9820 0.9820
818.584746 0.9830 0.9850 0.9860 0.9860 0.9850
823.325592 0.9830 0.9830 0.9820 0.9820 0.9800
828.066437 0.9790 0.9770 0.9770 0.9760 0.9740
832.807282 0.9700 0.9660 0.9570 0.9570 0.9660
837.548127 0.9690 0.9700 0.9710 0.9730 0.9730
842.288972 0.9710 0.9700 0.9700 0.9700 0.9700
847.029817 0.9700 0.9700 0.9690 0.9690 0.9690
851.770662 0.9690 0.9670 0.9670 0.9670 0.9670
856.511507 0.9660 0.9660 0.9660 0.9640 0.9640
861.252352 0.9630 0.9630 0.9630 0.9610 0.9610
865.993197 0.9580 0.9580 0.9550 0.9540 0.9540
870.734042 0.9490 0.9450 0.9410 0.9350 0.9270
875.474887 0.9140 0.8930 0.8620 0.8120 0.7741
880.215732 0.7740 0.8737 0.8929 0.8920 0.8900
884.956577 0.8820 0.8740 0.8620 0.8530 0.8390
889.697423 0.8330 0.7991 0.7342 0.6932 0.6502
894.438268 0.5509 0.4410 0.3840 0.3280 0.2551
899.179113 0.1542 0.0532 0.0251 0.0250 0.1525
903.919958 0.2801 0.3391 0.4580 0.5529 0.7088
908.660803 0.7968 0.8329 0.8898 0.9119 0.9259
913.401648 0.9270 0.9320 0.9330 0.9390 0.9430
918.142493 0.9450 0.9460 0.9490 0.9490 0.9460
922.883338 0.9450 0.9410 0.9380 0.9360 0.9080
927.624183 0.8231 0.8230 0.8888 0.9229 0.9449
932.365028 0.9460 0.9460 0.9460 0.9460 0.9480
937.105873 0.9490 0.9490 0.9480 0.9460 0.9420
941.846718 0.9410 0.9350 0.9320 0.9300 0.9260
946.587563 0.9200 0.9140 0.9070 0.8931 0.8402
951.328408 0.6647 0.4879 0.4070 0.3240 0.5568
956.069253 0.6159 0.7827 0.8518 0.8729 0.8959
960.810099 0.9140 0.9180 0.9180 0.9170 0.9150
965.550944 0.9140 0.9120 0.9050 0.9050 0.9110
970.291789 0.9180 0.9320 0.9350 0.9380 0.9380
975.032634 0.9410 0.9430 0.9450 0.9480 0.9490
979.773479 0.9510 0.9510 0.9510 0.9510 0.9490
984.514324 0.9490 0.9480 0.9460 0.9430 0.9380
989.255169 0.9300 0.9209 0.7610 0.7610 0.8929
993.996014 0.9289 0.9380 0.9460 0.9480 0.9510
998.736859 0.9520 0.9520 0.9540 0.9540 0.9540
1003.477704 0.9540 0.9550 0.9550 0.9550 0.9550
1008.218549 0.9550 0.9570 0.9570 0.9570 0.9570
1012.959394 0.9550 0.9550 0.9550 0.9540 0.9540
1017.700239 0.9540 0.9540 0.9540 0.9540 0.9540
1022.441084 0.9520 0.9520 0.9510 0.9510 0.9490
1027.181930 0.9490 0.9490 0.9490 0.9480 0.9460
1031.922775 0.9460 0.9460 0.9460 0.9460 0.9460
1036.663620 0.9460 0.9450 0.9450 0.9450 0.9450
1041.404465 0.9460 0.9460 0.9480 0.9480 0.9480
1046.145310 0.9480 0.9480 0.9480 0.9480 0.9480
1050.886155 0.9460 0.9450 0.9430 0.9430 0.9430
1055.627000 0.9420 0.9420 0.9420 0.9420 0.9420
1060.367845 0.9420 0.9420 0.9420 0.9420 0.9420
1065.108690 0.9420 0.9410 0.9390 0.9390 0.9390
1069.849535 0.9390 0.9380 0.9380 0.9380 0.9360
1074.590380 0.9360 0.9360 0.9360 0.9360 0.9360
1079.331225 0.9360 0.9360 0.9360 0.9360 0.9350
1084.072070 0.9350 0.9350 0.9350 0.9350 0.9350
1088.812915 0.9330 0.9330 0.9330 0.9330 0.9320
1093.553761 0.9320 0.9320 0.9320 0.9320 0.9320
1098.294606 0.9320 0.9320 0.9320 0.9320 0.9300
1103.035451 0.9300 0.9290 0.9290 0.9260 0.9240
1107.776296 0.9230 0.9180 0.9150 0.9110 0.8980
1112.517141 0.8740 0.8700 0.8620 0.8420 0.8250
1117.257986 0.8230 0.7811 0.7611 0.7610 0.8357
1121.998831 0.8711 0.9050 0.9050 0.9120 0.9150
1126.739676 0.9170 0.9170 0.9170 0.9170 0.9170
1131.480521 0.9170 0.9150 0.9140 0.9140 0.9120
1136.221366 0.9120 0.9110 0.9110 0.9070 0.9040
1140.962211 0.9010 0.8980 0.8930 0.8930 0.8920
1145.703056 0.8920 0.8890 0.8890 0.8870 0.8840
1150.443901 0.8820 0.8790 0.8760 0.8730 0.8680
1155.184746 0.8650 0.8590 0.8510 0.8450 0.8420
1159.925591 0.8340 0.8200 0.8000 0.8000 0.8120
1164.666437 0.8390 0.8530 0.8620 0.8700 0.8760
1169.407282 0.8870 0.8890 0.8920 0.8930 0.8930
1174.148127 0.8930 0.8930 0.8930 0.8920 0.8920
1178.888972 0.8920 0.8900 0.8900 0.8890 0.8890
1183.629817 0.8890 0.8870 0.8860 0.8840 0.8830
1188.370662 0.8790 0.8760 0.8700 0.8580 0.8530
1193.111507 0.8530 0.8710 0.8730 0.8740 0.8740
1197.852352 0.8770 0.8790 0.8790 0.8820 0.8840
1202.593197 0.8860 0.8860 0.8840 0.8830 0.8830
1207.334042 0.8830 0.8830 0.8830 0.8840 0.8840
1212.074887 0.8840 0.8830 0.8820 0.8820 0.8800
1216.815732 0.8790 0.8790 0.8770 0.8770 0.8760
1221.556577 0.8760 0.8760 0.8760 0.8760 0.8760
1226.297422 0.8740 0.8730 0.8730 0.8730 0.8710
1231.038268 0.8700 0.8680 0.8670 0.8650 0.8650
1235.779113 0.8650 0.8650 0.8650 0.8650 0.8640
1240.519958 0.8640 0.8620 0.8610 0.8580 0.8560
1245.260803 0.8560 0.8550 0.8550 0.8530 0.8530
1250.001648 0.8530 0.8520 0.8520 0.8510 0.8510
1254.742493 0.8490 0.8480 0.8480 0.8460 0.8450
1259.483338 0.8420 0.8400 0.8390 0.8360 0.8330
1264.224183 0.8310 0.8300 0.8280 0.8270 0.8230
1268.965028 0.8180 0.8140 0.7990 0.7860 0.7810
1273.705873 0.7780 0.7770 0.7690 0.7640 0.7610
1278.446718 0.7590 0.7580 0.7560 0.7410 0.7241
1283.187563 0.7020 0.6780 0.6530 0.6200 0.5820
1287.928408 0.5790 0.5790 0.5670 0.5510 0.5012
1292.669253 0.5011 0.5500 0.5690 0.5890 0.6350
1297.410099 0.7299 0.7500 0.7720 0.7840 0.7920
1302.150944 0.7940 0.8020 0.8020 0.8050 0.8080
1306.891789 0.8090 0.8110 0.8120 0.8140 0.8140
1311.632634 0.8150 0.8170 0.8180 0.8180 0.8180
1316.373479 0.8180 0.8180 0.8180 0.8170 0.8150
1321.114324 0.8120 0.8060 0.8030 0.8000 0.7990
1325.855169 0.7990 0.8000 0.8020 0.8020 0.7930
1330.596014 0.7860 0.7810 0.7780 0.7770 0.7750
1335.336859 0.7740 0.7740 0.7740 0.7740 0.7740
1340.077704 0.7740 0.7740 0.7750 0.7750 0.7770
1344.818549 0.7780 0.7830 0.7940 0.7970 0.8090
1349.559394 0.8140 0.8200 0.8250 0.8310 0.8310
1354.300239 0.8330 0.8340 0.8340 0.8340 0.8360
1359.041084 0.8370 0.8370 0.8390 0.8420 0.8420
1363.781930 0.8430 0.8430 0.8430 0.8430 0.8450
1368.522775 0.8450 0.8450 0.8450 0.8450 0.8450
1373.263620 0.8450 0.8450 0.8430 0.8430 0.8400
1378.004465 0.8390 0.8330 0.8240 0.8030 0.7660
1382.745310 0.7370 0.7051 0.6900 0.6740 0.6999
1387.486155 0.7251 0.7521 0.8181 0.8980 0.9010
1392.227000 0.8990 0.9010 0.8990 0.8990 0.8980
1396.967845 0.8980 0.8960 0.8950 0.8950 0.8950
1401.708690 0.8950 0.8930 0.8930 0.8920 0.8920
1406.449535 0.8900 0.8890 0.8890 0.8870 0.8890
1411.190380 0.8920 0.8950 0.8960 0.8980 0.8980
1415.931225 0.8980 0.8980 0.8990 0.8990 0.9010
1420.672070 0.9010 0.9010 0.9010 0.9010 0.9010
1425.412915 0.9010 0.9010 0.9010 0.9010 0.9010
1430.153760 0.9010 0.8990 0.8990 0.8960 0.8960
1434.894606 0.8950 0.8930 0.8930 0.8950 0.8960
1439.635451 0.8960 0.8960 0.8960 0.8950 0.8920
1444.376296 0.8920 0.8900 0.8900 0.8890 0.8870
1449.117141 0.8860 0.8840 0.8800 0.8790 0.8740
1453.857986 0.8730 0.8710 0.8610 0.8490 0.8460
1458.598831 0.8400 0.8200 0.8020 0.7691 0.7251
1463.339676 0.6812 0.7811 0.8710 0.8950 0.9150
1468.080521 0.9210 0.9240 0.9240 0.9210 0.9180
1472.821366 0.9180 0.9210 0.9240 0.9240 0.9260
1477.562211 0.9260 0.9240 0.9240 0.9230 0.9230
1482.303056 0.9230 0.9210 0.9210 0.9200 0.9200
1487.043901 0.9170 0.9140 0.9110 0.9110 0.9170
1491.784746 0.9170 0.9170 0.9120 0.9080 0.9080
1496.525591 0.9120 0.9120 0.9140 0.9170 0.9200
1501.266437 0.9240 0.9240 0.9210 0.9140 0.9070
1506.007282 0.9070 0.9120 0.9170 0.9170 0.9180
1510.748127 0.9180 0.9180 0.9170 0.9170 0.9170
1515.488972 0.9170 0.9170 0.9180 0.9180 0.9170
1520.229817 0.9150 0.9150 0.9150 0.9140 0.9120
1524.970662 0.9120 0.9110 0.9110 0.9050 0.9040
1529.711507 0.9020 0.8830 0.8620 0.8520 0.8370
1534.452352 0.8340 0.8310 0.7551 0.7550 0.8308
1539.193197 0.8901 0.9170 0.9200 0.9260 0.9240
1543.934042 0.9230 0.9210 0.9210 0.9200 0.9200
1548.674887 0.9200 0.9200 0.9180 0.9170 0.9140
1553.415732 0.9120 0.9110 0.9110 0.9100 0.9020
1558.156577 0.8730 0.8731 0.8980 0.8990 0.8990
1562.897422 0.8990 0.9010 0.9010 0.9010 0.8980
1567.638268 0.8950 0.8930 0.8930 0.8950 0.8990
1572.379113 0.8990 0.8960 0.8890 0.8890 0.8930
1577.119958 0.8980 0.8990 0.9010 0.8980 0.8930
1581.860803 0.8920 0.8920 0.8900 0.8900 0.8890
1586.601648 0.8890 0.8890 0.8890 0.8890 0.8890
1591.342493 0.8890 0.8890 0.8890 0.8890 0.8890
1596.083338 0.8890 0.8890 0.8890 0.8870 0.8870
1600.824183 0.8860 0.8860 0.8860 0.8860 0.8860
1605.565028 0.8860 0.8840 0.8820 0.8800 0.8800
1610.305873 0.8800 0.8790 0.8790 0.8760 0.8710
1615.046718 0.8670 0.8650 0.8640 0.8640 0.8620
1619.787563 0.8530 0.8420 0.8240 0.8140 0.7940
1624.528408 0.7780 0.7780 0.7920 0.8000 0.8150
1629.269253 0.8270 0.8360 0.8510 0.8590 0.8610
1634.010099 0.8620 0.8710 0.8820 0.8870 0.8900
1638.750944 0.8920 0.8930 0.8920 0.8920 0.8870
1643.491789 0.8770 0.8760 0.8790 0.8890 0.8900
1648.232634 0.8920 0.8890 0.8860 0.8790 0.8760
1652.973479 0.8740 0.8740 0.8730 0.8710 0.8700
1657.714324 0.8700 0.8680 0.8640 0.8580 0.8550
1662.455169 0.8530 0.8520 0.8510 0.8510 0.8490
1667.196014 0.8450 0.8420 0.8420 0.8370 0.8360
1671.936859 0.8280 0.8250 0.8250 0.8270 0.8280
1676.677704 0.8310 0.8330 0.8340 0.8370 0.8400
1681.418549 0.8400 0.8400 0.8390 0.8390 0.8390
1686.159394 0.8360 0.8360 0.8340 0.8310 0.8310
1690.900239 0.8300 0.8200 0.8180 0.8200 0.8240
1695.641084 0.8280 0.8300 0.8300 0.8330 0.8340
1700.381929 0.8360 0.8360 0.8370 0.8390 0.8390
1705.122775 0.8390 0.8400 0.8400 0.8400 0.8400
1709.863620 0.8400 0.8390 0.8370 0.8360 0.8340
1714.604465 0.8280 0.8240 0.8230 0.8230 0.8230
1719.345310 0.8230 0.8230 0.8230 0.8210 0.8210
1724.086155 0.8200 0.8170 0.8150 0.8110 0.8050
1728.827000 0.7940 0.7890 0.7800 0.7800 0.7900
1733.567845 0.8120 0.8140 0.8200 0.8240 0.8250
1738.308690 0.8330 0.8360 0.8370 0.8420 0.8430
1743.049535 0.8430 0.8420 0.8420 0.8420 0.8400
1747.790380 0.8340 0.8340 0.8360 0.8400 0.8420
1752.531225 0.8420 0.8420 0.8420 0.8420 0.8420
1757.272070 0.8420 0.8420 0.8400 0.8400 0.8400
1762.012915 0.8390 0.8370 0.8360 0.8340 0.8340
1766.753760 0.8330 0.8330 0.8330 0.8310 0.8310
1771.494606 0.8310 0.8310 0.8300 0.8280 0.8270
1776.235451 0.8240 0.8240 0.8230 0.8210 0.8180
1780.976296 0.8150 0.8140 0.8120 0.8060 0.8050
1785.717141 0.7970 0.7940 0.7930 0.7920 0.7890
1790.457986 0.7890 0.7870 0.7870 0.7860 0.7830
1795.198831 0.7770 0.7650 0.7590 0.7560 0.7440
1799.939676 0.7330 0.7270 0.7330 0.7490 0.7500
1804.680521 0.7610 0.7770 0.7810 0.7940 0.7970
1809.421366 0.8020 0.8050 0.8110 0.8150 0.8170
1814.162211 0.8180 0.8200 0.8210 0.8230 0.8240
1818.903056 0.8240 0.8240 0.8240 0.8240 0.8230
1823.643901 0.8230 0.8230 0.8210 0.8170 0.8150
1828.384746 0.8150 0.8140 0.8110 0.8090 0.8090
1833.125591 0.8090 0.8090 0.8110 0.8110 0.8120
1837.866437 0.8120 0.8120 0.8120 0.8120 0.8120
1842.607282 0.8110 0.8110 0.8090 0.8090 0.8080
1847.348127 0.8080 0.8060 0.8060 0.8050 0.8030
1852.088972 0.8030 0.8020 0.8020 0.8000 0.8000
1856.829817 0.8000 0.8000 0.8000 0.8000 0.7990
1861.570662 0.7990 0.7990 0.7990 0.7990 0.7990
1866.311507 0.7990 0.7990 0.7990 0.7990 0.7990
1871.052352 0.7990 0.7970 0.7970 0.7970 0.7970
1875.793197 0.7970 0.7970 0.7970 0.7970 0.7970
1880.534042 0.7970 0.7960 0.7960 0.7960 0.7960
1885.274887 0.7960 0.7940 0.7940 0.7940 0.7940
1890.015732 0.7930 0.7930 0.7930 0.7920 0.7920
1894.756577 0.7920 0.7900 0.7900 0.7900 0.7890
1899.497422 0.7890 0.7870 0.7860 0.7840 0.7840
1904.238268 0.7830 0.7810 0.7780 0.7770 0.7750
1908.979113 0.7740 0.7720 0.7710 0.7690 0.7660
1913.719958 0.7660 0.7620 0.7610 0.7590 0.7590
1918.460803 0.7590 0.7590 0.7580 0.7560 0.7550
1923.201648 0.7530 0.7530 0.7530 0.7550 0.7560
1927.942493 0.7560 0.7580 0.7590 0.7590 0.7590
1932.683338 0.7590 0.7590 0.7590 0.7590 0.7590
1937.424183 0.7590 0.7610 0.7610 0.7610 0.7620
1942.165028 0.7620 0.7620 0.7640 0.7640 0.7640
1946.905873 0.7650 0.7650 0.7650 0.7660 0.7660
1951.646718 0.7660 0.7680 0.7680 0.7680 0.7680
1956.387563 0.7680 0.7680 0.7680 0.7660 0.7660
1961.128408 0.7660 0.7650 0.7650 0.7650 0.7650
1965.869253 0.7650 0.7640 0.7640 0.7620 0.7620
1970.610098 0.7620 0.7610 0.7610 0.7580 0.7580
1975.350944 0.7580 0.7580 0.7560 0.7560 0.7550
1980.091789 0.7550 0.7530 0.7520 0.7520 0.7500
1984.832634 0.7490 0.7470 0.7470 0.7460 0.7460
1989.573479 0.7440 0.7430 0.7430 0.7410 0.7410
1994.314324 0.7400 0.7400 0.7400 0.7410 0.7410
1999.055169 0.7410 0.7430 0.7430 0.7430 0.7435
2003.796014 0.7440 0.7440 0.7440 0.7450 0.7460
2008.536859 0.7460 0.7460 0.7460 0.7460 0.7460
2013.277704 0.7460 0.7460 0.7460 0.7460 0.7460
2018.018549 0.7460 0.7460 0.7451 0.7441 0.7440
2022.759394 0.7440 0.7435 0.7430 0.7430 0.7430
2027.500239 0.7430 0.7430 0.7430 0.7430 0.7421
2032.241084 0.7411 0.7410 0.7410 0.7406 0.7401
2036.981929 0.7391 0.7381 0.7380 0.7380 0.7376
2041.722775 0.7371 0.7361 0.7351 0.7350 0.7350
2046.463620 0.7346 0.7341 0.7336 0.7331 0.7330
2051.204465 0.7330 0.7322 0.7312 0.7306 0.7301
2055.945310 0.7292 0.7282 0.7280 0.7280 0.7276
2060.686155 0.7271 0.7270 0.7270 0.7262 0.7252
2065.427000 0.7250 0.7250 0.7246 0.7241 0.7240
2070.167845 0.7240 0.7232 0.7222 0.7216 0.7211
2074.908690 0.7203 0.7192 0.7186 0.7181 0.7173
2079.649535 0.7163 0.7156 0.7151 0.7143 0.7133
2084.390380 0.7126 0.7121 0.7120 0.7120 0.7113
2089.131225 0.7103 0.7097 0.7092 0.7090 0.7090
2093.872070 0.7083 0.7073 0.7067 0.7062 0.7060
2098.612915 0.7060 0.7057 0.7052 0.7043 0.7033
2103.353760 0.7030 0.7030 0.7027 0.7022 0.7014
2108.094606 0.7004 0.7000 0.7000 0.7000 0.7000
2112.835451 0.6997 0.6992 0.6984 0.6974 0.6970
2117.576296 0.6970 0.6967 0.6962 0.6954 0.6944
2122.317141 0.6937 0.6932 0.6924 0.6914 0.6910
2127.057986 0.6910 0.6907 0.6902 0.6894 0.6884
2131.798831 0.6880 0.6880 0.6877 0.6872 0.6864
2136.539676 0.6854 0.6850 0.6850 0.6850 0.6850
2141.280521 0.6847 0.6842 0.6840 0.6840 0.6835
2146.021366 0.6825 0.6820 0.6820 0.6820 0.6820
2150.762211 0.6817 0.6812 0.6810 0.6810 0.6805
2155.503056 0.6795 0.6788 0.6783 0.6775 0.6765
2160.243901 0.6760 0.6760 0.6758 0.6753 0.6748
2164.984746 0.6743 0.6740 0.6740 0.6736 0.6726
2169.725591 0.6718 0.6713 0.6703 0.6688 0.6676
2174.466437 0.6666 0.6658 0.6653 0.6646 0.6636
2179.207282 0.6630 0.6630 0.6628 0.6623 0.6620
2183.948127 0.6620 0.6616 0.6606 0.6598 0.6593
2188.688972 0.6584 0.6569 0.6560 0.6560 0.6556
2193.429817 0.6546 0.6540 0.6540 0.6538 0.6533
2198.170662 0.6526 0.6516 0.6508 0.6503 0.6500
2202.911507 0.6500 0.6497 0.6487 0.6480 0.6480
2207.652352 0.6478 0.6473 0.6468 0.6463 0.6460
2212.393197 0.6460 0.6457 0.6447 0.6440 0.6440
2217.134042 0.6434 0.6414 0.6397 0.6387 0.6379
2221.874887 0.6374 0.6367 0.6357 0.6346 0.6331
2226.615732 0.6319 0.6314 0.6310 0.6310 0.6307
2231.356577 0.6297 0.6290 0.6290 0.6289 0.6284
2236.097422 0.6278 0.6268 0.6257 0.6242 0.6229
2240.838267 0.6224 0.6218 0.6208 0.6199 0.6194
2245.579113 0.6188 0.6178 0.6169 0.6164 0.6160
2250.319958 0.6160 0.6159 0.6154 0.6150 0.6150
2255.060803 0.6150 0.6150 0.6148 0.6138 0.6129
2259.801648 0.6124 0.6119 0.6109 0.6097 0.6077
2264.542493 0.6060 0.6060 0.6059 0.6049 0.6039
2269.283338 0.6034 0.6030 0.6030 0.6029 0.6019
2274.024183 0.6010 0.6010 0.6010 0.6010 0.6010
2278.765028 0.6005 0.5999 0.5984 0.5969 0.5959
2283.505873 0.5950 0.5945 0.5939 0.5929 0.5920
2288.246718 0.5915 0.5909 0.5899 0.5890 0.5885
2292.987563 0.5880 0.5880 0.5880 0.5875 0.5870
2297.728408 0.5870 0.5870 0.5870 0.5870 0.5860
2302.469253 0.5850 0.5850 0.5850 0.5845 0.5840
2307.210098 0.5840 0.5840 0.5830 0.5820 0.5820
2311.950944 0.5820 0.5800 0.5780 0.5780 0.5780
2316.691789 0.5766 0.5751 0.5750 0.5750 0.5741
2321.432634 0.5731 0.5725 0.5720 0.5710 0.5701
2326.173479 0.5700 0.5700 0.5695 0.5690 0.5690
2330.914324 0.5690 0.5690 0.5690 0.5681 0.5671
2335.655169 0.5670 0.5670 0.5666 0.5661 0.5660
2340.396014 0.5660 0.5660 0.5660 0.5660 0.5660
2345.136859 0.5651 0.5641 0.5640 0.5640 0.5640
2349.877704 0.5640 0.5636 0.5631 0.5630 0.5630
2354.618549 0.5630 0.5630 0.5630 0.5630 0.5630
2359.359394 0.5630 0.5630 0.5630 0.5630 0.5630
2364.100239 0.5630 0.5630 0.5630 0.5630 0.5630
2368.841084 0.5630 0.5630 0.5630 0.5630 0.5630
2373.581929 0.5630 0.5630 0.5630 0.5630 0.5630
2378.322775 0.5630 0.5630 0.5630 0.5630 0.5630
2383.063620 0.5634 0.5639 0.5640 0.5640 0.5640
2387.804465 0.5640 0.5636 0.5631 0.5630 0.5630
2392.545310 0.5623 0.5613 0.5610 0.5610 0.5610
2397.286155 0.5610 0.5610 0.5610 0.5610 0.5610
2402.027000 0.5606 0.5602 0.5600 0.5600 0.5600
2406.767845 0.5600 0.5600 0.5600 0.5593 0.5583
2411.508690 0.5580 0.5580 0.5580 0.5580 0.5577
2416.249535 0.5572 0.5570 0.5570 0.5567 0.5562
2420.990380 0.5560 0.5560 0.5560 0.5560 0.5560
2425.731225 0.5560 0.5554 0.5544 0.5537 0.5532
2430.472070 0.5524 0.5514 0.5507 0.5502 0.5500
2435.212915 0.5500 0.5500 0.5500 0.5500 0.5500
2439.953760 0.5494 0.5484 0.5480 0.5480 0.5480
2444.694605 0.5480 0.5480 0.5480 0.5477 0.5472
2449.435451 0.5470 0.5470 0.5465 0.5455 0.5450
2454.176296 0.5450 0.5447 0.5442 0.5440 0.5440
2458.917141 0.5440 0.5440 0.5435 0.5425 0.5420
2463.657986 0.5420 0.5420 0.5420 0.5420 0.5420
2468.398831 0.5420 0.5420 0.5420 0.5420 0.5420
2473.139676 0.5420 0.5418 0.5413 0.5410 0.5410
2477.880521 0.5410 0.5410 0.5406 0.5396 0.5390
2482.621366 0.5390 0.5390 0.5390 0.5390 0.5390
2487.362211 0.5390 0.5390 0.5390 0.5390 0.5388
2492.103056 0.5383 0.5380 0.5380 0.5380 0.5380
2496.843901 0.5380 0.5380 0.5376 0.5366 0.5360
2501.584746 0.5360 0.5360 0.5360 0.5358 0.5353
2506.325591 0.5350 0.5350 0.5350 0.5350 0.5347
2511.066436 0.5337 0.5330 0.5330 0.5328 0.5323
2515.807282 0.5320 0.5320 0.5317 0.5307 0.5300
2520.548127 0.5300 0.5298 0.5293 0.5290 0.5290
2525.288972 0.5289 0.5284 0.5277 0.5267 0.5260
2530.029817 0.5260 0.5260 0.5260 0.5260 0.5260
2534.770662 0.5260 0.5260 0.5256 0.5241 0.5230
2539.511507 0.5230 0.5229 0.5224 0.5220 0.5220
2544.252352 0.5220 0.5220 0.5218 0.5208 0.5200
2548.993197 0.5200 0.5200 0.5200 0.5199 0.5194
2553.734042 0.5190 0.5190 0.5190 0.5190 0.5188
2558.474887 0.5178 0.5170 0.5170 0.5170 0.5170
2563.215732 0.5169 0.5164 0.5160 0.5160 0.5158
2567.956577 0.5149 0.5139 0.5134 0.5130 0.5130
2572.697422 0.5130 0.5130 0.5129 0.5119 0.5110
2577.438267 0.5110 0.5110 0.5110 0.5110 0.5110
2582.179113 0.5109 0.5104 0.5100 0.5100 0.5099
2586.919958 0.5089 0.5080 0.5075 0.5069 0.5059
2591.660803 0.5050 0.5050 0.5050 0.5045 0.5040
2596.401648 0.5040 0.5040 0.5040 0.5040 0.5040
2601.142493 0.5040 0.5030 0.5020 0.5020 0.5020
2605.883338 0.5020 0.5020 0.5020 0.5020 0.5015
2610.624183 0.5010 0.5010 0.5010 0.5010 0.5010
2615.365028 0.5010 0.5010 0.5005 0.5000 0.5000
2620.105873 0.5000 0.5000 0.5000 0.4990 0.4980
2624.846718 0.4980 0.4980 0.4980 0.4980 0.4975
2629.587563 0.4970 0.4960 0.4950 0.4950 0.4950
2634.328408 0.4945 0.4940 0.4940 0.4940 0.4931
2639.069253 0.4921 0.4920 0.4920 0.4915 0.4910
2643.810098 0.4910 0.4910 0.4910 0.4910 0.4910
2648.550944 0.4910 0.4901 0.4891 0.4890 0.4890
2653.291789 0.4886 0.4881 0.4871 0.4861 0.4860
2658.032634 0.4860 0.4856 0.4851 0.4842 0.4832
2662.773479 0.4830 0.4830 0.4830 0.4830 0.4826
2667.514324 0.4821 0.4820 0.4820 0.4812 0.4802
2672.255169 0.4800 0.4800 0.4800 0.4800 0.4796
2676.996014 0.4791 0.4790 0.4790 0.4790 0.4790
2681.736859 0.4782 0.4772 0.4770 0.4770 0.4770
2686.477704 0.4770 0.4770 0.4770 0.4766 0.4761
2691.218549 0.4752 0.4742 0.4740 0.4740 0.4736
2695.959394 0.4731 0.4730 0.4730 0.4730 0.4730
2700.700239 0.4723 0.4713 0.4710 0.4710 0.4710
2705.441084 0.4710 0.4706 0.4701 0.4700 0.4700
2710.181929 0.4697 0.4692 0.4690 0.4690 0.4683
2714.922774 0.4673 0.4670 0.4670 0.4667 0.4662
2719.663620 0.4660 0.4660 0.4653 0.4643 0.4640
2724.404465 0.4640 0.4637 0.4632 0.4630 0.4630
2729.145310 0.4624 0.4614 0.4610 0.4610 0.4610
2733.886155 0.4610 0.4607 0.4602 0.4600 0.4600
2738.627000 0.4600 0.4600 0.4594 0.4584 0.4580
2743.367845 0.4580 0.4580 0.4580 0.4577 0.4572
2748.108690 0.4570 0.4570 0.4570 0.4570 0.4564
2752.849535 0.4554 0.4550 0.4550 0.4550 0.4550
2757.590380 0.4547 0.4542 0.4540 0.4540 0.4535
2762.331225 0.4525 0.4520 0.4520 0.4517 0.4512
2767.072070 0.4510 0.4510 0.4510 0.4510 0.4505
2771.812915 0.4495 0.4490 0.4490 0.4488 0.4483
2776.553760 0.4480 0.4480 0.4480 0.4480 0.4475
2781.294605 0.4465 0.4460 0.4460 0.4458 0.4453
2786.035451 0.4450 0.4450 0.4446 0.4436 0.4430
2790.776296 0.4430 0.4428 0.4423 0.4420 0.4420
2795.517141 0.4418 0.4413 0.4410 0.4410 0.4410
2800.257986 0.4410 0.4406 0.4396 0.4390 0.4390
2804.998831 0.4388 0.4383 0.4380 0.4380 0.4376
2809.739676 0.4366 0.4360 0.4360 0.4358 0.4353
2814.480521 0.4346 0.4337 0.4330 0.4330 0.4328
2819.221366 0.4323 0.4317 0.4307 0.4300 0.4300
2823.962211 0.4298 0.4293 0.4290 0.4290 0.4287
2828.703056 0.4277 0.4270 0.4270 0.4269 0.4264
2833.443901 0.4257 0.4247 0.4240 0.4240 0.4239
2838.184746 0.4234 0.4227 0.4217 0.4206 0.4191
2842.925591 0.4179 0.4174 0.4170 0.4170 0.4164
2847.666436 0.4139 0.4118 0.4108 0.4100 0.4100
2852.407282 0.4098 0.4088 0.4080 0.4080 0.4079
2857.148127 0.4074 0.4068 0.4058 0.4050 0.4050
2861.888972 0.4049 0.4044 0.4040 0.4040 0.4040
2866.629817 0.4040 0.4040 0.4040 0.4038 0.4028
2871.370662 0.4020 0.4020 0.4020 0.4020 0.4020
2876.111507 0.4020 0.4019 0.4014 0.4008 0.3998
2880.852352 0.3990 0.3990 0.3989 0.3984 0.3980
2885.593197 0.3980 0.3979 0.3969 0.3958 0.3943
2890.334042 0.3928 0.3913 0.3900 0.3900 0.3899
2895.074887 0.3894 0.3890 0.3890 0.3889 0.3879
2899.815732 0.3870 0.3870 0.3870 0.3865 0.3860
2904.556577 0.3860 0.3859 0.3849 0.3840 0.3835
2909.297422 0.3830 0.3825 0.3820 0.3820 0.3820
2914.038267 0.3810 0.3800 0.3795 0.3790 0.3790
2918.779113 0.3790 0.3780 0.3770 0.3750 0.3730
2923.519958 0.3715 0.3700 0.3685 0.3670 0.3660
2928.260803 0.3650 0.3650 0.3650 0.3645 0.3640
2933.001648 0.3630 0.3620 0.3620 0.3620 0.3615
2937.742493 0.3610 0.3610 0.3610 0.3615 0.3620
2942.483338 0.3620 0.3620 0.3629 0.3639 0.3640
2947.224183 0.3640 0.3645 0.3650 0.3659 0.3669
2951.965028 0.3670 0.3670 0.3670 0.3670 0.3670
2956.705873 0.3670 0.3661 0.3651 0.3650 0.3650
2961.446718 0.3650 0.3650 0.3650 0.3650 0.3650
2966.187563 0.3650 0.3650 0.3650 0.3646 0.3641
2970.928408 0.3640 0.3640 0.3640 0.3640 0.3632
2975.669253 0.3622 0.3620 0.3620 0.3620 0.3620
2980.410098 0.3616 0.3611 0.3610 0.3610 0.3610
2985.150943 0.3610 0.3602 0.3592 0.3590 0.3590
2989.891789 0.3586 0.3581 0.3572 0.3562 0.3560
2994.632634 0.3560 0.3556 0.3551 0.3550 0.3550
2999.373479 0.3542 0.3532 0.3522 0.3513 0.3503
3004.114324 0.3493 0.3486 0.3481 0.3480 0.3480
3008.855169 0.3473 0.3463 0.3438 0.3408 0.3396
3013.596014 0.3391 0.3390 0.3390 0.3383 0.3373
3018.336859 0.3370 0.3370 0.3356 0.3336 0.3323
3023.077704 0.3313 0.3310 0.3310 0.3310 0.3310
3027.818549 0.3310 0.3310 0.3307 0.3302 0.3290
3032.559394 0.3275 0.3270 0.3270 0.3264 0.3254
3037.300239 0.3244 0.3234 0.3230 0.3230 0.3211
3042.041084 0.3182 0.3143 0.3098 0.3037 0.2967
3046.781929 0.2940 0.2940 0.2983 0.3052 0.3089
3051.522774 0.3104 0.3169 0.3269 0.3342 0.3397
3056.263620 0.3423 0.3428 0.3438 0.3453 0.3460
3061.004465 0.3460 0.3465 0.3475 0.3480 0.3480
3065.745310 0.3483 0.3488 0.3498 0.3513 0.3531
3070.486155 0.3551 0.3565 0.3575 0.3580 0.3580
3075.227000 0.3580 0.3580 0.3575 0.3565 0.3560
3079.967845 0.3560 0.3560 0.3560 0.3558 0.3553
3084.708690 0.3550 0.3550 0.3550 0.3550 0.3550
3089.449535 0.3550 0.3552 0.3557 0.3572 0.3596
3094.190380 0.3617 0.3632 0.3642 0.3647 0.3650
3098.931225 0.3650 0.3648 0.3643 0.3640 0.3640
3103.672070 0.3634 0.3619 0.3610 0.3610 0.3606
3108.412915 0.3596 0.3590 0.3590 0.3590 0.3590
3113.153760 0.3588 0.3583 0.3580 0.3580 0.3576
3117.894605 0.3566 0.3560 0.3560 0.3558 0.3553
3122.635451 0.3550 0.3550 0.3546 0.3536 0.3530
3127.376296 0.3530 0.3528 0.3523 0.3520 0.3520
3132.117141 0.3518 0.3513 0.3510 0.3510 0.3510
3136.857986 0.3510 0.3507 0.3497 0.3490 0.3490
3141.598831 0.3488 0.3483 0.3480 0.3480 0.3480
3146.339676 0.3480 0.3477 0.3467 0.3460 0.3460
3151.080521 0.3460 0.3460 0.3459 0.3454 0.3450
3155.821366 0.3450 0.3450 0.3450 0.3448 0.3438
3160.562211 0.3430 0.3430 0.3430 0.3430 0.3430
3165.303056 0.3430 0.3429 0.3424 0.3420 0.3420
3170.043901 0.3420 0.3420 0.3420 0.3420 0.3418
3174.784746 0.3408 0.3400 0.3400 0.3400 0.3400
3179.525591 0.3399 0.3394 0.3390 0.3390 0.3390
3184.266436 0.3390 0.3390 0.3390 0.3388 0.3379
3189.007282 0.3370 0.3370 0.3370 0.3370 0.3369
3193.748127 0.3364 0.3360 0.3360 0.3358 0.3343
3198.488972 0.3330 0.3330 0.3330 0.3330 0.3330
3203.229817 0.3330 0.3329 0.3319 0.3310 0.3310
3207.970662 0.3310 0.3310 0.3310 0.3305 0.3300
3212.711507 0.3300 0.3300 0.3300 0.3300 0.3300
3217.452352 0.3299 0.3289 0.3280 0.3280 0.3280
3222.193197 0.3280 0.3280 0.3275 0.3270 0.3270
3226.934042 0.3270 0.3270 0.3270 0.3260 0.3250
3231.674887 0.3250 0.3250 0.3245 0.3240 0.3240
3236.415732 0.3240 0.3235 0.3230 0.3230 0.3230
3241.156577 0.3220 0.3210 0.3210 0.3210 0.3205
3245.897422 0.3200 0.3200 0.3200 0.3200 0.3200
3250.638267 0.3200 0.3200 0.3200 0.3200 0.3191
3255.379112 0.3181 0.3180 0.3180 0.3180 0.3180
3260.119958 0.3180 0.3180 0.3180 0.3180 0.3175
3264.860803 0.3171 0.3170 0.3170 0.3170 0.3170
3269.601648 0.3170 0.3170 0.3170 0.3170 0.3170
3274.342493 0.3170 0.3170 0.3170 0.3161 0.3151
3279.083338 0.3146 0.3141 0.3140 0.3140 0.3140
3283.824183 0.3140 0.3132 0.3122 0.3120 0.3120
3288.565028 0.3120 0.3120 0.3116 0.3111 0.3110
3293.305873 0.3110 0.3110 0.3110 0.3102 0.3092
3298.046718 0.3090 0.3090 0.3090 0.3090 0.3086
3302.787563 0.3081 0.3080 0.3080 0.3080 0.3080
3307.528408 0.3084 0.3089 0.3090 0.3090 0.3090
3312.269253 0.3090 0.3086 0.3081 0.3080 0.3080
3317.010098 0.3073 0.3063 0.3060 0.3060 0.3060
3321.750943 0.3060 0.3056 0.3051 0.3050 0.3050
3326.491789 0.3050 0.3050 0.3043 0.3033 0.3030
3331.232634 0.3030 0.3027 0.3022 0.3020 0.3020
3335.973479 0.3020 0.3020 0.3020 0.3020 0.3020
3340.714324 0.3020 0.3020 0.3020 0.3020 0.3020
3345.455169 0.3020 0.3020 0.3014 0.3004 0.3000
3350.196014 0.3000 0.2997 0.2992 0.2990 0.2990
3354.936859 0.2990 0.2990 0.2984 0.2974 0.2970
3359.677704 0.2970 0.2970 0.2970 0.2967 0.2962
3364.418549 0.2960 0.2960 0.2960 0.2960 0.2954
3369.159394 0.2944 0.2940 0.2940 0.2940 0.2940
3373.900239 0.2940 0.2940 0.2940 0.2940 0.2940
3378.641084 0.2940 0.2940 0.2940 0.2940 0.2940
3383.381929 0.2940 0.2940 0.2937 0.2933 0.2930
3388.122774 0.2930 0.2930 0.2930 0.2928 0.2923
3392.863620 0.2920 0.2920 0.2920 0.2920 0.2915
3397.604465 0.2905 0.2898 0.2893 0.2890 0.2890
3402.345310 0.2885 0.2876 0.2870 0.2870 0.2870
3407.086155 0.2870 0.2870 0.2870 0.2870 0.2870
3411.827000 0.2868 0.2863 0.2860 0.2860 0.2860
3416.567845 0.2860 0.2860 0.2860 0.2860 0.2860
3421.308690 0.2860 0.2860 0.2856 0.2846 0.2840
3426.049535 0.2840 0.2840 0.2840 0.2840 0.2840
3430.790380 0.2838 0.2833 0.2830 0.2830 0.2830
3435.531225 0.2830 0.2830 0.2830 0.2827 0.2817
3440.272070 0.2810 0.2810 0.2810 0.2810 0.2810
3445.012915 0.2810 0.2808 0.2803 0.2800 0.2800
3449.753760 0.2800 0.2800 0.2797 0.2787 0.2780
3454.494605 0.2780 0.2780 0.2780 0.2780 0.2780
3459.235451 0.2779 0.2774 0.2770 0.2770 0.2770
3463.976296 0.2770 0.2770 0.2770 0.2770 0.2770
3468.717141 0.2768 0.2758 0.2750 0.2750 0.2750
3473.457986 0.2750 0.2750 0.2750 0.2749 0.2744
3478.198831 0.2740 0.2740 0.2740 0.2740 0.2740
3482.939676 0.2740 0.2740 0.2740 0.2738 0.2728
3487.680521 0.2720 0.2720 0.2720 0.2720 0.2720
3492.421366 0.2720 0.2719 0.2714 0.2710 0.2710
3497.162211 0.2709 0.2699 0.2690 0.2690 0.2690
3501.903056 0.2690 0.2689 0.2684 0.2680 0.2680
3506.643901 0.2680 0.2680 0.2679 0.2669 0.2660
3511.384746 0.2660 0.2660 0.2655 0.2650 0.2650
3516.125591 0.2650 0.2650 0.2650 0.2650 0.2650
3520.866436 0.2650 0.2650 0.2650 0.2650 0.2650
3525.607281 0.2650 0.2650 0.2650 0.2650 0.2650
3530.348127 0.2645 0.2640 0.2640 0.2640 0.2640
3535.088972 0.2640 0.2630 0.2620 0.2620 0.2620
3539.829817 0.2620 0.2620 0.2620 0.2620 0.2615
3544.570662 0.2610 0.2610 0.2610 0.2610 0.2610
3549.311507 0.2600 0.2590 0.2590 0.2590 0.2590
3554.052352 0.2590 0.2590 0.2590 0.2590 0.2590
3558.793197 0.2590 0.2590 0.2590 0.2590 0.2590
3563.534042 0.2590 0.2590 0.2590 0.2590 0.2590
3568.274887 0.2585 0.2580 0.2580 0.2580 0.2580
3573.015732 0.2580 0.2571 0.2561 0.2560 0.2560
3577.756577 0.2560 0.2560 0.2556 0.2551 0.2550
3582.497422 0.2550 0.2550 0.2550 0.2541 0.2531
3587.238267 0.2530 0.2530 0.2530 0.2530 0.2530
3591.979112 0.2530 0.2526 0.2521 0.2520 0.2520
3596.719958 0.2520 0.2520 0.2520 0.2520 0.2520
3601.460803 0.2520 0.2512 0.2502 0.2500 0.2500
3606.201648 0.2500 0.2500 0.2496 0.2491 0.2490
3610.942493 0.2490 0.2490 0.2490 0.2490 0.2490
3615.683338 0.2490 0.2490 0.2482 0.2472 0.2470
3620.424183 0.2470 0.2470 0.2470 0.2470 0.2470
3625.165028 0.2466 0.2461 0.2460 0.2460 0.2460
3629.905873 0.2460 0.2460 0.2460 0.2460 0.2460
3634.646718 0.2453 0.2443 0.2440 0.2440 0.2440
3639.387563 0.2440 0.2437 0.2432 0.2430 0.2430
3644.128408 0.2430 0.2430 0.2423 0.2413 0.2410
3648.869253 0.2410 0.2410 0.2410 0.2407 0.2402
3653.610098 0.2400 0.2400 0.2394 0.2384 0.2380
3658.350943 0.2380 0.2380 0.2380 0.2380 0.2380
3663.091789 0.2380 0.2380 0.2380 0.2380 0.2380
3667.832634 0.2380 0.2380 0.2380 0.2377 0.2372
3672.573479 0.2370 0.2370 0.2370 0.2370 0.2370
3677.314324 0.2370 0.2370 0.2370 0.2370 0.2370
3682.055169 0.2364 0.2355 0.2350 0.2350 0.2350
3686.796014 0.2350 0.2350 0.2350 0.2350 0.2350
3691.536859 0.2350 0.2350 0.2347 0.2342 0.2340
3696.277704 0.2340 0.2340 0.2340 0.2340 0.2340
3701.018549 0.2340 0.2340 0.2338 0.2333 0.2330
3705.759394 0.2330 0.2330 0.2330 0.2330 0.2330
3710.500239 0.2325 0.2315 0.2310 0.2310 0.2310
3715.241084 0.2310 0.2310 0.2310 0.2308 0.2303
3719.981929 0.2300 0.2300 0.2296 0.2286 0.2280
3724.722774 0.2280 0.2280 0.2280 0.2278 0.2273
3729.463620 0.2270 0.2270 0.2270 0.2270 0.2270
3734.204465 0.2270 0.2266 0.2256 0.2250 0.2250
3738.945310 0.2248 0.2243 0.2240 0.2240 0.2240
3743.686155 0.2240 0.2237 0.2227 0.2220 0.2220
3748.427000 0.2220 0.2220 0.2218 0.2213 0.2207
3753.167845 0.2197 0.2193 0.2203 0.2210 0.2210
3757.908690 0.2210 0.2210 0.2210 0.2210 0.2210
3762.649535 0.2210 0.2210 0.2210 0.2210 0.2210
3767.390380 0.2210 0.2210 0.2210 0.2210 0.2207
3772.131225 0.2197 0.2190 0.2190 0.2190 0.2190
3776.872070 0.2190 0.2190 0.2190 0.2190 0.2190
3781.612915 0.2190 0.2189 0.2184 0.2180 0.2180
3786.353760 0.2180 0.2180 0.2178 0.2168 0.2160
3791.094605 0.2160 0.2160 0.2160 0.2160 0.2160
##END=
