##TITLE=BIPHENYL
##JCAMP-DX=4.24
$$ By DXEDIT 1.05 (RS McDonald)
##DATA TYPE=INFRARED SPECTRUM
##CLASS=COBLENTZ III
##ORIGIN=BECKMAN INSTRUMENTS, KENNETH STINE
##OWNER=COBLENTZ SOC.
Collection (C) 2018 copyright by the U.S. Secretary of Commerce
on behalf of the United States of America. All rights reserved.
##DATE=1969/05/09
##NAMES=1,1'-biphenyl
##CAS REGISTRY NO=92-52-4
##MOLFORM=C12 H10
##SOURCE REFERENCE=COBLENTZ NO. 06024
##$NIST SOURCE=COBLENTZ
##$NIST IMAGE=cob6024
##SPECTROMETER/DATA SYSTEM=BECKMAN IR-12 (GRATING)
##INSTRUMENT PARAMETERS=FILTERS AT 303, 473, 790, 1036, 1880, 2930 CM^-^1. GRATING CHANGE: 300.5, 650.0, 2000.4 CM^-^1
##STATE=SOLUTION (10% CCl4 FOR 4000-1340, 10% CCl4 FOR 430-200, 10% CS2 FOR 1340-430 CM^-^1)
##PATH LENGTH=0.01 CM, 0.01 CM, AND 0.01 CM
$$SPECTRAL CONTAMINATION DUE TO CS2 AROUND 860 AND CCl4 AROUND 1550 CM^-^1
##SAMPLING PROCEDURE=TRANSMISSION
$$ SPECTRAL FEATURE AT 433 CM^-^1 IS AN ARTIFACT CAUSED BY A CHANGE IN SOLVENT
$$ SPECTRAL CONTAMINATION DUE TO AN UNKNOWN AROUND 3410 CM^-^1
##RESOLUTION=2
##DATA PROCESSING=DIGITIZED BY COBLENTZ SOCIETY (BATCH I) FROM HARD COPY
##XUNITS=1/CM
##YUNITS=TRANSMITTANCE
##XLABEL=Wavenumbers (cm-1)
##YLABEL=Transmittance
##XFACTOR=1
##YFACTOR=1
##DELTAX=1
##FIRSTX=3990
##LASTX=213
##FIRSTY=0.8715
##MAXX=3990
##MINX=213
##MAXY=0.9341
##MINY=0.0134
##NPOINTS=3778
##XYDATA=(X++(Y..Y))
3990.000000 0.8715 0.8715 0.8715 0.8715 0.8715
3985.000000 0.8715 0.8716 0.8716 0.8716 0.8716
3980.000000 0.8717 0.8717 0.8717 0.8717 0.8717
3975.000000 0.8717 0.8718 0.8718 0.8718 0.8718
3970.000000 0.8718 0.8718 0.8718 0.8718 0.8718
3965.000000 0.8718 0.8718 0.8718 0.8718 0.8718
3960.000000 0.8718 0.8718 0.8718 0.8718 0.8718
3955.000000 0.8717 0.8717 0.8717 0.8717 0.8717
3950.000000 0.8717 0.8716 0.8716 0.8715 0.8715
3945.000000 0.8714 0.8714 0.8713 0.8713 0.8712
3940.000000 0.8712 0.8711 0.8711 0.8710 0.8710
3935.000000 0.8709 0.8709 0.8708 0.8708 0.8707
3930.000000 0.8707 0.8706 0.8706 0.8706 0.8707
3925.000000 0.8708 0.8709 0.8709 0.8710 0.8710
3920.000000 0.8711 0.8712 0.8713 0.8713 0.8714
3915.000000 0.8714 0.8715 0.8716 0.8717 0.8718
3910.000000 0.8718 0.8721 0.8724 0.8725 0.8728
3905.000000 0.8731 0.8733 0.8735 0.8738 0.8740
3900.000000 0.8743 0.8745 0.8747 0.8748 0.8749
3895.000000 0.8749 0.8749 0.8748 0.8748 0.8747
3890.000000 0.8747 0.8747 0.8747 0.8746 0.8746
3885.000000 0.8746 0.8746 0.8745 0.8745 0.8744
3880.000000 0.8744 0.8744 0.8744 0.8743 0.8743
3875.000000 0.8742 0.8742 0.8740 0.8739 0.8738
3870.000000 0.8737 0.8736 0.8735 0.8733 0.8732
3865.000000 0.8731 0.8730 0.8728 0.8728 0.8725
3860.000000 0.8725 0.8724 0.8724 0.8723 0.8721
3855.000000 0.8721 0.8721 0.8720 0.8720 0.8718
3850.000000 0.8718 0.8718 0.8718 0.8717 0.8716
3845.000000 0.8715 0.8715 0.8715 0.8715 0.8716
3840.000000 0.8717 0.8718 0.8718 0.8720 0.8721
3835.000000 0.8721 0.8723 0.8723 0.8724 0.8725
3830.000000 0.8725 0.8727 0.8728 0.8728 0.8730
3825.000000 0.8731 0.8732 0.8733 0.8734 0.8735
3820.000000 0.8736 0.8737 0.8738 0.8739 0.8741
3815.000000 0.8742 0.8743 0.8744 0.8745 0.8746
3810.000000 0.8747 0.8748 0.8749 0.8750 0.8752
3805.000000 0.8753 0.8754 0.8755 0.8756 0.8757
3800.000000 0.8758 0.8759 0.8760 0.8760 0.8761
3795.000000 0.8761 0.8762 0.8762 0.8762 0.8762
3790.000000 0.8763 0.8763 0.8764 0.8764 0.8764
3785.000000 0.8764 0.8765 0.8765 0.8766 0.8766
3780.000000 0.8767 0.8767 0.8767 0.8767 0.8767
3775.000000 0.8767 0.8767 0.8766 0.8765 0.8764
3770.000000 0.8763 0.8762 0.8761 0.8760 0.8759
3765.000000 0.8758 0.8757 0.8756 0.8755 0.8754
3760.000000 0.8753 0.8751 0.8750 0.8748 0.8746
3755.000000 0.8744 0.8742 0.8740 0.8739 0.8737
3750.000000 0.8737 0.8737 0.8739 0.8742 0.8745
3745.000000 0.8747 0.8750 0.8752 0.8754 0.8756
3740.000000 0.8759 0.8761 0.8763 0.8765 0.8768
3735.000000 0.8768 0.8768 0.8767 0.8766 0.8765
3730.000000 0.8764 0.8763 0.8762 0.8761 0.8760
3725.000000 0.8759 0.8758 0.8757 0.8756 0.8755
3720.000000 0.8754 0.8753 0.8752 0.8750 0.8749
3715.000000 0.8748 0.8747 0.8746 0.8745 0.8744
3710.000000 0.8744 0.8743 0.8742 0.8741 0.8741
3705.000000 0.8740 0.8740 0.8739 0.8739 0.8739
3700.000000 0.8739 0.8740 0.8742 0.8743 0.8745
3695.000000 0.8746 0.8748 0.8751 0.8754 0.8758
3690.000000 0.8763 0.8767 0.8771 0.8775 0.8780
3685.000000 0.8784 0.8789 0.8787 0.8785 0.8773
3680.000000 0.8762 0.8755 0.8748 0.8743 0.8738
3675.000000 0.8735 0.8736 0.8736 0.8739 0.8741
3670.000000 0.8743 0.8745 0.8748 0.8750 0.8752
3665.000000 0.8753 0.8754 0.8755 0.8756 0.8756
3660.000000 0.8756 0.8751 0.8747 0.8742 0.8738
3655.000000 0.8733 0.8728 0.8725 0.8727 0.8728
3650.000000 0.8733 0.8737 0.8742 0.8746 0.8751
3645.000000 0.8755 0.8760 0.8763 0.8767 0.8771
3640.000000 0.8775 0.8778 0.8783 0.8787 0.8791
3635.000000 0.8794 0.8798 0.8802 0.8806 0.8809
3630.000000 0.8813 0.8814 0.8816 0.8817 0.8818
3625.000000 0.8820 0.8821 0.8823 0.8825 0.8825
3620.000000 0.8828 0.8830 0.8832 0.8833 0.8835
3615.000000 0.8836 0.8838 0.8839 0.8841 0.8842
3610.000000 0.8844 0.8845 0.8847 0.8847 0.8847
3605.000000 0.8847 0.8847 0.8847 0.8847 0.8847
3600.000000 0.8847 0.8847 0.8847 0.8847 0.8847
3595.000000 0.8847 0.8847 0.8847 0.8847 0.8847
3590.000000 0.8847 0.8847 0.8847 0.8847 0.8847
3585.000000 0.8846 0.8846 0.8846 0.8846 0.8846
3580.000000 0.8846 0.8846 0.8846 0.8846 0.8846
3575.000000 0.8845 0.8845 0.8844 0.8844 0.8843
3570.000000 0.8843 0.8842 0.8842 0.8841 0.8841
3565.000000 0.8840 0.8840 0.8839 0.8839 0.8838
3560.000000 0.8838 0.8837 0.8837 0.8836 0.8836
3555.000000 0.8835 0.8835 0.8834 0.8834 0.8833
3550.000000 0.8833 0.8832 0.8832 0.8831 0.8831
3545.000000 0.8830 0.8830 0.8828 0.8828 0.8827
3540.000000 0.8827 0.8825 0.8825 0.8825 0.8825
3535.000000 0.8824 0.8824 0.8823 0.8823 0.8821
3530.000000 0.8821 0.8821 0.8821 0.8820 0.8820
3525.000000 0.8818 0.8818 0.8818 0.8818 0.8817
3520.000000 0.8817 0.8816 0.8816 0.8815 0.8814
3515.000000 0.8813 0.8812 0.8811 0.8810 0.8809
3510.000000 0.8809 0.8808 0.8807 0.8806 0.8805
3505.000000 0.8804 0.8804 0.8803 0.8802 0.8801
3500.000000 0.8800 0.8799 0.8799 0.8798 0.8797
3495.000000 0.8796 0.8796 0.8795 0.8794 0.8793
3490.000000 0.8793 0.8792 0.8791 0.8790 0.8790
3485.000000 0.8789 0.8788 0.8785 0.8783 0.8780
3480.000000 0.8778 0.8775 0.8773 0.8770 0.8768
3475.000000 0.8765 0.8763 0.8760 0.8758 0.8755
3470.000000 0.8753 0.8750 0.8747 0.8744 0.8742
3465.000000 0.8739 0.8736 0.8733 0.8730 0.8727
3460.000000 0.8725 0.8721 0.8718 0.8716 0.8713
3455.000000 0.8710 0.8707 0.8704 0.8701 0.8698
3450.000000 0.8695 0.8692 0.8689 0.8686 0.8683
3445.000000 0.8680 0.8678 0.8675 0.8671 0.8668
3440.000000 0.8666 0.8663 0.8660 0.8657 0.8655
3435.000000 0.8652 0.8650 0.8648 0.8646 0.8643
3430.000000 0.8641 0.8638 0.8636 0.8634 0.8632
3425.000000 0.8630 0.8628 0.8625 0.8625 0.8623
3420.000000 0.8621 0.8618 0.8618 0.8616 0.8600
3415.000000 0.8612 0.8611 0.8609 0.8607 0.8605
3410.000000 0.8604 0.8602 0.8601 0.8604 0.8607
3405.000000 0.8610 0.8614 0.8618 0.8621 0.8625
3400.000000 0.8628 0.8633 0.8637 0.8640 0.8644
3395.000000 0.8648 0.8652 0.8655 0.8659 0.8662
3390.000000 0.8665 0.8667 0.8670 0.8671 0.8675
3385.000000 0.8678 0.8681 0.8683 0.8686 0.8688
3380.000000 0.8691 0.8694 0.8697 0.8699 0.8702
3375.000000 0.8704 0.8707 0.8710 0.8713 0.8715
3370.000000 0.8718 0.8720 0.8723 0.8725 0.8728
3365.000000 0.8731 0.8734 0.8736 0.8739 0.8741
3360.000000 0.8744 0.8746 0.8748 0.8750 0.8753
3355.000000 0.8755 0.8758 0.8760 0.8763 0.8765
3350.000000 0.8768 0.8770 0.8773 0.8775 0.8778
3345.000000 0.8780 0.8783 0.8785 0.8787 0.8788
3340.000000 0.8789 0.8790 0.8792 0.8793 0.8794
3335.000000 0.8795 0.8797 0.8798 0.8800 0.8801
3330.000000 0.8802 0.8803 0.8805 0.8806 0.8808
3325.000000 0.8809 0.8810 0.8811 0.8813 0.8814
3320.000000 0.8816 0.8818 0.8820 0.8821 0.8823
3315.000000 0.8824 0.8825 0.8827 0.8828 0.8831
3310.000000 0.8833 0.8834 0.8836 0.8837 0.8839
3305.000000 0.8840 0.8842 0.8844 0.8846 0.8847
3300.000000 0.8849 0.8850 0.8852 0.8853 0.8855
3295.000000 0.8856 0.8857 0.8858 0.8860 0.8861
3290.000000 0.8862 0.8863 0.8865 0.8866 0.8867
3285.000000 0.8868 0.8870 0.8871 0.8871 0.8873
3280.000000 0.8875 0.8875 0.8878 0.8878 0.8880
3275.000000 0.8881 0.8883 0.8884 0.8885 0.8886
3270.000000 0.8888 0.8889 0.8890 0.8891 0.8892
3265.000000 0.8893 0.8894 0.8894 0.8895 0.8895
3260.000000 0.8896 0.8896 0.8897 0.8897 0.8898
3255.000000 0.8898 0.8899 0.8899 0.8900 0.8901
3250.000000 0.8902 0.8902 0.8903 0.8903 0.8904
3245.000000 0.8904 0.8905 0.8905 0.8905 0.8905
3240.000000 0.8905 0.8905 0.8905 0.8904 0.8904
3235.000000 0.8904 0.8904 0.8903 0.8903 0.8902
3230.000000 0.8902 0.8902 0.8902 0.8901 0.8901
3225.000000 0.8900 0.8900 0.8900 0.8900 0.8899
3220.000000 0.8899 0.8899 0.8899 0.8899 0.8899
3215.000000 0.8899 0.8899 0.8899 0.8899 0.8899
3210.000000 0.8899 0.8899 0.8899 0.8899 0.8899
3205.000000 0.8898 0.8898 0.8898 0.8898 0.8898
3200.000000 0.8898 0.8898 0.8898 0.8898 0.8898
3195.000000 0.8898 0.8898 0.8898 0.8898 0.8898
3190.000000 0.8898 0.8898 0.8898 0.8898 0.8898
3185.000000 0.8896 0.8895 0.8893 0.8892 0.8890
3180.000000 0.8888 0.8886 0.8884 0.8882 0.8881
3175.000000 0.8875 0.8871 0.8866 0.8860 0.8859
3170.000000 0.8858 0.8843 0.8837 0.8831 0.8825
3165.000000 0.8818 0.8814 0.8808 0.8802 0.8796
3160.000000 0.8790 0.8785 0.8781 0.8777 0.8774
3155.000000 0.8771 0.8771 0.8771 0.8775 0.8777
3150.000000 0.8780 0.8782 0.8784 0.8785 0.8786
3145.000000 0.8787 0.8788 0.8789 0.8790 0.8790
3140.000000 0.8790 0.8785 0.8781 0.8775 0.8771
3135.000000 0.8766 0.8761 0.8751 0.8742 0.8732
3130.000000 0.8721 0.8712 0.8703 0.8687 0.8671
3125.000000 0.8653 0.8635 0.8616 0.8597 0.8565
3120.000000 0.8533 0.8500 0.8467 0.8424 0.8382
3115.000000 0.8245 0.8108 0.7964 0.7819 0.7767
3110.000000 0.7715 0.7712 0.7711 0.7710 0.7708
3105.000000 0.7708 0.7707 0.7706 0.7705 0.7703
3100.000000 0.7701 0.7651 0.7601 0.7443 0.7286
3095.000000 0.7128 0.6971 0.6812 0.6656 0.6498
3090.000000 0.6341 0.6184 0.6027 0.5869 0.5712
3085.000000 0.5596 0.5481 0.5483 0.5486 0.5514
3080.000000 0.5543 0.5571 0.5599 0.5602 0.5606
3075.000000 0.5523 0.5440 0.5318 0.5197 0.5075
3070.000000 0.4954 0.4832 0.4710 0.4621 0.4541
3065.000000 0.4533 0.4534 0.4568 0.4603 0.4807
3060.000000 0.5012 0.5216 0.5420 0.5624 0.5829
3055.000000 0.5938 0.6047 0.6049 0.6050 0.6050
3050.000000 0.6049 0.6048 0.6055 0.5904 0.5762
3045.000000 0.5527 0.5292 0.5057 0.4822 0.4587
3040.000000 0.4353 0.4118 0.3668 0.3768 0.3655
3035.000000 0.3730 0.3808 0.4049 0.4291 0.4533
3030.000000 0.4775 0.5016 0.5258 0.5499 0.5741
3025.000000 0.5940 0.6139 0.6142 0.6145 0.6147
3020.000000 0.6150 0.6227 0.6305 0.6460 0.6615
3015.000000 0.6769 0.6925 0.7080 0.7236 0.7391
3010.000000 0.7546 0.7701 0.7856 0.8011 0.8167
3005.000000 0.8200 0.8233 0.8262 0.8291 0.8324
3000.000000 0.8357 0.8391 0.8425 0.8464 0.8502
2995.000000 0.8545 0.8588 0.8617 0.8647 0.8659
2990.000000 0.8671 0.8678 0.8678 0.8680 0.8677
2985.000000 0.8654 0.8632 0.8616 0.8616 0.8616
2980.000000 0.8633 0.8652 0.8671 0.8694 0.8716
2975.000000 0.8740 0.8765 0.8783 0.8802 0.8816
2970.000000 0.8831 0.8844 0.8857 0.8862 0.8867
2965.000000 0.8871 0.8877 0.8881 0.8885 0.8886
2960.000000 0.8888 0.8889 0.8891 0.8891 0.8892
2955.000000 0.8891 0.8889 0.8887 0.8885 0.8881
2950.000000 0.8878 0.8873 0.8868 0.8861 0.8853
2945.000000 0.8845 0.8837 0.8825 0.8814 0.8805
2940.000000 0.8796 0.8792 0.8789 0.8787 0.8786
2935.000000 0.8796 0.8806 0.8813 0.8821 0.8828
2930.000000 0.8837 0.8844 0.8852 0.8856 0.8861
2925.000000 0.8865 0.8868 0.8871 0.8875 0.8878
2920.000000 0.8882 0.8885 0.8888 0.8891 0.8894
2915.000000 0.8896 0.8899 0.8901 0.8903 0.8905
2910.000000 0.8907 0.8908 0.8910 0.8912 0.8914
2905.000000 0.8915 0.8917 0.8918 0.8920 0.8921
2900.000000 0.8923 0.8923 0.8924 0.8924 0.8924
2895.000000 0.8917 0.8910 0.8900 0.8890 0.8875
2890.000000 0.8863 0.8846 0.8830 0.8823 0.8817
2885.000000 0.8811 0.8806 0.8801 0.8797 0.8794
2880.000000 0.8792 0.8802 0.8813 0.8825 0.8840
2875.000000 0.8851 0.8863 0.8874 0.8886 0.8897
2870.000000 0.8908 0.8917 0.8927 0.8935 0.8943
2865.000000 0.8951 0.8959 0.8967 0.8975 0.8981
2860.000000 0.8988 0.8991 0.8995 0.8999 0.9003
2855.000000 0.9006 0.9010 0.9013 0.9017 0.9021
2850.000000 0.9025 0.9028 0.9031 0.9033 0.9035
2845.000000 0.9037 0.9039 0.9041 0.9043 0.9045
2840.000000 0.9047 0.9049 0.9051 0.9053 0.9055
2835.000000 0.9056 0.9058 0.9060 0.9062 0.9063
2830.000000 0.9065 0.9067 0.9068 0.9070 0.9071
2825.000000 0.9073 0.9074 0.9075 0.9077 0.9078
2820.000000 0.9080 0.9081 0.9083 0.9084 0.9085
2815.000000 0.9086 0.9088 0.9089 0.9091 0.9092
2810.000000 0.9093 0.9094 0.9096 0.9097 0.9099
2805.000000 0.9100 0.9102 0.9103 0.9105 0.9107
2800.000000 0.9109 0.9110 0.9112 0.9113 0.9114
2795.000000 0.9115 0.9116 0.9117 0.9118 0.9118
2790.000000 0.9120 0.9121 0.9121 0.9123 0.9124
2785.000000 0.9125 0.9125 0.9127 0.9128 0.9128
2780.000000 0.9131 0.9132 0.9134 0.9135 0.9136
2775.000000 0.9136 0.9136 0.9133 0.9130 0.9121
2770.000000 0.9115 0.9109 0.9104 0.9100 0.9097
2765.000000 0.9098 0.9100 0.9104 0.9109 0.9113
2760.000000 0.9118 0.9121 0.9127 0.9128 0.9130
2755.000000 0.9132 0.9134 0.9134 0.9134 0.9133
2750.000000 0.9133 0.9132 0.9131 0.9130 0.9130
2745.000000 0.9128 0.9128 0.9125 0.9125 0.9124
2740.000000 0.9123 0.9121 0.9120 0.9118 0.9118
2735.000000 0.9117 0.9116 0.9115 0.9115 0.9114
2730.000000 0.9114 0.9114 0.9114 0.9116 0.9118
2725.000000 0.9121 0.9125 0.9128 0.9132 0.9135
2720.000000 0.9138 0.9140 0.9142 0.9144 0.9146
2715.000000 0.9148 0.9150 0.9152 0.9155 0.9155
2710.000000 0.9156 0.9156 0.9157 0.9157 0.9158
2705.000000 0.9159 0.9160 0.9160 0.9161 0.9161
2700.000000 0.9162 0.9163 0.9164 0.9164 0.9165
2695.000000 0.9165 0.9166 0.9166 0.9166 0.9166
2690.000000 0.9166 0.9166 0.9166 0.9166 0.9167
2685.000000 0.9167 0.9167 0.9167 0.9167 0.9167
2680.000000 0.9167 0.9167 0.9167 0.9167 0.9167
2675.000000 0.9167 0.9167 0.9166 0.9165 0.9164
2670.000000 0.9163 0.9162 0.9162 0.9161 0.9160
2665.000000 0.9159 0.9158 0.9155 0.9153 0.9151
2660.000000 0.9149 0.9147 0.9145 0.9143 0.9141
2655.000000 0.9138 0.9136 0.9134 0.9132 0.9130
2650.000000 0.9128 0.9127 0.9125 0.9123 0.9121
2645.000000 0.9118 0.9117 0.9115 0.9114 0.9112
2640.000000 0.9110 0.9108 0.9106 0.9103 0.9101
2635.000000 0.9098 0.9096 0.9093 0.9091 0.9088
2630.000000 0.9086 0.9083 0.9081 0.9078 0.9077
2625.000000 0.9075 0.9073 0.9073 0.9073 0.9066
2620.000000 0.9065 0.9065 0.9067 0.9068 0.9071
2615.000000 0.9078 0.9087 0.9093 0.9100 0.9106
2610.000000 0.9112 0.9118 0.9124 0.9121 0.9121
2605.000000 0.9117 0.9114 0.9110 0.9107 0.9104
2600.000000 0.9101 0.9101 0.9102 0.9103 0.9105
2595.000000 0.9107 0.9109 0.9111 0.9113 0.9114
2590.000000 0.9116 0.9117 0.9118 0.9120 0.9121
2585.000000 0.9123 0.9125 0.9125 0.9128 0.9128
2580.000000 0.9131 0.9132 0.9134 0.9135 0.9137
2575.000000 0.9138 0.9140 0.9141 0.9143 0.9144
2570.000000 0.9146 0.9147 0.9148 0.9149 0.9150
2565.000000 0.9151 0.9152 0.9153 0.9154 0.9155
2560.000000 0.9156 0.9157 0.9158 0.9159 0.9160
2555.000000 0.9161 0.9162 0.9163 0.9164 0.9165
2550.000000 0.9166 0.9166 0.9167 0.9168 0.9168
2545.000000 0.9168 0.9170 0.9171 0.9171 0.9171
2540.000000 0.9173 0.9173 0.9174 0.9175 0.9175
2535.000000 0.9177 0.9178 0.9178 0.9181 0.9182
2530.000000 0.9184 0.9185 0.9187 0.9188 0.9190
2525.000000 0.9191 0.9192 0.9193 0.9195 0.9196
2520.000000 0.9197 0.9197 0.9197 0.9197 0.9196
2515.000000 0.9192 0.9188 0.9184 0.9181 0.9177
2510.000000 0.9173 0.9168 0.9166 0.9162 0.9159
2505.000000 0.9159 0.9159 0.9160 0.9162 0.9163
2500.000000 0.9164 0.9165 0.9166 0.9168 0.9170
2495.000000 0.9171 0.9174 0.9175 0.9178 0.9180
2490.000000 0.9182 0.9184 0.9186 0.9188 0.9190
2485.000000 0.9192 0.9194 0.9196 0.9198 0.9199
2480.000000 0.9201 0.9203 0.9205 0.9207 0.9209
2475.000000 0.9211 0.9213 0.9214 0.9215 0.9216
2470.000000 0.9218 0.9218 0.9221 0.9216 0.9212
2465.000000 0.9207 0.9203 0.9199 0.9195 0.9192
2460.000000 0.9190 0.9189 0.9189 0.9188 0.9187
2455.000000 0.9186 0.9186 0.9190 0.9194 0.9197
2450.000000 0.9201 0.9205 0.9209 0.9212 0.9216
2445.000000 0.9220 0.9224 0.9225 0.9225 0.9227
2440.000000 0.9228 0.9228 0.9230 0.9231 0.9231
2435.000000 0.9231 0.9230 0.9228 0.9228 0.9228
2430.000000 0.9228 0.9227 0.9225 0.9225 0.9227
2425.000000 0.9228 0.9230 0.9231 0.9233 0.9234
2420.000000 0.9236 0.9237 0.9238 0.9239 0.9241
2415.000000 0.9241 0.9241 0.9241 0.9241 0.9240
2410.000000 0.9240 0.9239 0.9238 0.9237 0.9237
2405.000000 0.9235 0.9233 0.9230 0.9227 0.9224
2400.000000 0.9221 0.9218 0.9217 0.9215 0.9213
2395.000000 0.9211 0.9209 0.9207 0.9205 0.9203
2390.000000 0.9201 0.9200 0.9200 0.9199 0.9199
2385.000000 0.9198 0.9198 0.9197 0.9197 0.9201
2380.000000 0.9206 0.9212 0.9218 0.9224 0.9231
2375.000000 0.9237 0.9244 0.9250 0.9257 0.9264
2370.000000 0.9271 0.9278 0.9287 0.9295 0.9304
2365.000000 0.9307 0.9310 0.9311 0.9312 0.9312
2360.000000 0.9313 0.9314 0.9315 0.9311 0.9308
2355.000000 0.9303 0.9299 0.9294 0.9290 0.9285
2350.000000 0.9281 0.9275 0.9271 0.9266 0.9262
2345.000000 0.9257 0.9252 0.9246 0.9240 0.9233
2340.000000 0.9227 0.9220 0.9213 0.9206 0.9199
2335.000000 0.9193 0.9187 0.9182 0.9178 0.9173
2330.000000 0.9168 0.9165 0.9163 0.9161 0.9159
2325.000000 0.9158 0.9158 0.9158 0.9158 0.9157
2320.000000 0.9157 0.9157 0.9157 0.9157 0.9157
2315.000000 0.9156 0.9156 0.9156 0.9156 0.9155
2310.000000 0.9155 0.9155 0.9155 0.9153 0.9152
2305.000000 0.9150 0.9148 0.9145 0.9142 0.9138
2300.000000 0.9134 0.9130 0.9125 0.9121 0.9116
2295.000000 0.9111 0.9106 0.9101 0.9083 0.9091
2290.000000 0.9086 0.9083 0.9080 0.9077 0.9074
2285.000000 0.9073 0.9073 0.9077 0.9081 0.9084
2280.000000 0.9088 0.9092 0.9096 0.9100 0.9104
2275.000000 0.9108 0.9112 0.9116 0.9120 0.9124
2270.000000 0.9128 0.9133 0.9138 0.9143 0.9149
2265.000000 0.9154 0.9160 0.9166 0.9171 0.9175
2260.000000 0.9180 0.9180 0.9180 0.9181 0.9182
2255.000000 0.9184 0.9186 0.9188 0.9190 0.9191
2250.000000 0.9193 0.9195 0.9197 0.9201 0.9205
2245.000000 0.9209 0.9213 0.9217 0.9221 0.9225
2240.000000 0.9228 0.9233 0.9237 0.9241 0.9245
2235.000000 0.9249 0.9253 0.9257 0.9261 0.9264
2230.000000 0.9268 0.9271 0.9275 0.9278 0.9283
2225.000000 0.9284 0.9286 0.9288 0.9290 0.9291
2220.000000 0.9292 0.9292 0.9291 0.9287 0.9284
2215.000000 0.9278 0.9274 0.9271 0.9270 0.9268
2210.000000 0.9271 0.9271 0.9273 0.9274 0.9275
2205.000000 0.9277 0.9278 0.9280 0.9281 0.9282
2200.000000 0.9284 0.9285 0.9286 0.9287 0.9288
2195.000000 0.9289 0.9290 0.9291 0.9293 0.9294
2190.000000 0.9295 0.9296 0.9297 0.9298 0.9299
2185.000000 0.9300 0.9302 0.9302 0.9302 0.9302
2180.000000 0.9303 0.9303 0.9303 0.9303 0.9304
2175.000000 0.9304 0.9304 0.9304 0.9304 0.9304
2170.000000 0.9305 0.9305 0.9305 0.9305 0.9306
2165.000000 0.9306 0.9306 0.9306 0.9307 0.9307
2160.000000 0.9307 0.9307 0.9308 0.9308 0.9308
2155.000000 0.9308 0.9309 0.9309 0.9309 0.9309
2150.000000 0.9310 0.9310 0.9310 0.9310 0.9311
2145.000000 0.9311 0.9311 0.9311 0.9312 0.9312
2140.000000 0.9312 0.9312 0.9313 0.9313 0.9313
2135.000000 0.9313 0.9313 0.9313 0.9314 0.9314
2130.000000 0.9314 0.9314 0.9314 0.9313 0.9313
2125.000000 0.9313 0.9313 0.9313 0.9313 0.9313
2120.000000 0.9313 0.9312 0.9312 0.9312 0.9312
2115.000000 0.9312 0.9312 0.9311 0.9311 0.9311
2110.000000 0.9311 0.9311 0.9311 0.9311 0.9311
2105.000000 0.9310 0.9310 0.9310 0.9310 0.9310
2100.000000 0.9310 0.9310 0.9310 0.9310 0.9310
2095.000000 0.9310 0.9310 0.9309 0.9309 0.9309
2090.000000 0.9309 0.9309 0.9309 0.9309 0.9309
2085.000000 0.9309 0.9309 0.9309 0.9309 0.9309
2080.000000 0.9309 0.9309 0.9309 0.9309 0.9309
2075.000000 0.9309 0.9309 0.9308 0.9308 0.9307
2070.000000 0.9307 0.9307 0.9307 0.9306 0.9306
2065.000000 0.9306 0.9306 0.9305 0.9305 0.9304
2060.000000 0.9304 0.9304 0.9304 0.9303 0.9303
2055.000000 0.9303 0.9303 0.9302 0.9302 0.9301
2050.000000 0.9301 0.9300 0.9300 0.9299 0.9299
2045.000000 0.9298 0.9298 0.9297 0.9297 0.9296
2040.000000 0.9296 0.9295 0.9295 0.9294 0.9294
2035.000000 0.9294 0.9294 0.9293 0.9293 0.9292
2030.000000 0.9292 0.9292 0.9292 0.9292 0.9293
2025.000000 0.9293 0.9293 0.9293 0.9293 0.9293
2020.000000 0.9293 0.9293 0.9294 0.9294 0.9294
2015.000000 0.9294 0.9294 0.9294 0.9295 0.9295
2010.000000 0.9295 0.9294 0.9293 0.9288 0.9283
2005.000000 0.9278 0.9273 0.9267 0.9262 0.9248
2000.000000 0.9235 0.9231 0.9227 0.9223 0.9218
1995.000000 0.9218 0.9217 0.9218 0.9220 0.9223
1990.000000 0.9227 0.9232 0.9237 0.9246 0.9255
1985.000000 0.9264 0.9264 0.9262 0.9260 0.9258
1980.000000 0.9251 0.9243 0.9236 0.9228 0.9220
1975.000000 0.9207 0.9195 0.9167 0.9133 0.9097
1970.000000 0.8989 0.8746 0.8502 0.8461 0.8464
1965.000000 0.8492 0.8546 0.8600 0.8654 0.8708
1960.000000 0.8762 0.8771 0.8792 0.8778 0.8734
1955.000000 0.8588 0.8441 0.8294 0.8148 0.8001
1950.000000 0.7875 0.7899 0.7915 0.7936 0.8044
1945.000000 0.8206 0.8368 0.8530 0.8692 0.8854
1940.000000 0.9016 0.9103 0.9146 0.9177 0.9200
1935.000000 0.9223 0.9233 0.9240 0.9246 0.9253
1930.000000 0.9259 0.9264 0.9270 0.9275 0.9278
1925.000000 0.9283 0.9275 0.9290 0.9291 0.9281
1920.000000 0.9260 0.9234 0.9233 0.9233 0.9232
1915.000000 0.9230 0.9228 0.9224 0.9215 0.9190
1910.000000 0.9125 0.9057 0.8990 0.8923 0.8865
1905.000000 0.8866 0.8867 0.8875 0.8898 0.8932
1900.000000 0.8967 0.9000 0.9008 0.9012 0.8993
1895.000000 0.8899 0.8806 0.8712 0.8618 0.8525
1890.000000 0.8431 0.8388 0.8377 0.8401 0.8471
1885.000000 0.8544 0.8615 0.8687 0.8758 0.8830
1880.000000 0.8901 0.8913 0.8913 0.8862 0.8760
1875.000000 0.8658 0.8555 0.8504 0.8516 0.8570
1870.000000 0.8662 0.8754 0.8846 0.8938 0.9028
1865.000000 0.9095 0.9139 0.9183 0.9234 0.9267
1860.000000 0.9282 0.9290 0.9288 0.9286 0.9285
1855.000000 0.9281 0.9296 0.9271 0.9266 0.9261
1850.000000 0.9259 0.9258 0.9258 0.9258 0.9260
1845.000000 0.9261 0.9263 0.9265 0.9265 0.9265
1840.000000 0.9260 0.9256 0.9252 0.9245 0.9237
1835.000000 0.9228 0.9217 0.9203 0.9181 0.9151
1830.000000 0.9098 0.9039 0.8980 0.8920 0.8861
1825.000000 0.8807 0.8801 0.8824 0.8868 0.8915
1820.000000 0.8960 0.9006 0.9025 0.9032 0.9033
1815.000000 0.9033 0.9033 0.9002 0.8897 0.8762
1810.000000 0.8628 0.8493 0.8378 0.8375 0.8364
1805.000000 0.8371 0.8382 0.8409 0.8483 0.8628
1800.000000 0.8851 0.8962 0.9078 0.9138 0.9186
1795.000000 0.9218 0.9245 0.9264 0.9278 0.9275
1790.000000 0.9275 0.9273 0.9268 0.9265 0.9287
1785.000000 0.9268 0.9271 0.9274 0.9274 0.9273
1780.000000 0.9267 0.9260 0.9254 0.9235 0.9215
1775.000000 0.9194 0.9164 0.9134 0.9106 0.9078
1770.000000 0.9040 0.8975 0.8910 0.8875 0.8850
1765.000000 0.8846 0.8845 0.8844 0.8862 0.8887
1760.000000 0.8933 0.8971 0.8999 0.9016 0.9025
1755.000000 0.9028 0.9033 0.9035 0.9004 0.8933
1750.000000 0.8862 0.8780 0.8781 0.8781 0.8783
1745.000000 0.8797 0.8904 0.8971 0.9033 0.9085
1740.000000 0.9123 0.9160 0.9182 0.9202 0.9223
1735.000000 0.9241 0.9253 0.9265 0.9277 0.9288
1730.000000 0.9294 0.9300 0.9306 0.9312 0.9317
1725.000000 0.9323 0.9328 0.9330 0.9333 0.9336
1720.000000 0.9338 0.9341 0.9340 0.9339 0.9339
1715.000000 0.9338 0.9338 0.9334 0.9325 0.9318
1710.000000 0.9301 0.9280 0.9263 0.9249 0.9235
1705.000000 0.9224 0.9214 0.9205 0.9205 0.9208
1700.000000 0.9210 0.9211 0.9211 0.9203 0.9195
1695.000000 0.9181 0.9163 0.9143 0.9120 0.9098
1690.000000 0.9031 0.8908 0.8785 0.8741 0.8747
1685.000000 0.8811 0.8881 0.8951 0.9021 0.9092
1680.000000 0.9139 0.9178 0.9198 0.9203 0.9203
1675.000000 0.9203 0.9203 0.9198 0.9192 0.9183
1670.000000 0.9163 0.9142 0.9113 0.9078 0.9041
1665.000000 0.8999 0.8968 0.8940 0.8917 0.8895
1660.000000 0.8875 0.8878 0.8883 0.8891 0.8907
1655.000000 0.8921 0.8934 0.8946 0.8955 0.8963
1650.000000 0.8971 0.8980 0.8987 0.8993 0.8999
1645.000000 0.9005 0.9010 0.9013 0.9016 0.9018
1640.000000 0.9021 0.9021 0.9035 0.9016 0.9013
1635.000000 0.9005 0.8985 0.8964 0.8937 0.8909
1630.000000 0.8881 0.8853 0.8821 0.8788 0.8755
1625.000000 0.8723 0.8691 0.8658 0.8620 0.8582
1620.000000 0.8545 0.8516 0.8486 0.8470 0.8456
1615.000000 0.8441 0.8427 0.8402 0.8378 0.8346
1610.000000 0.8257 0.8007 0.7665 0.7174 0.6684
1605.000000 0.6193 0.5703 0.5212 0.4436 0.4428
1600.000000 0.4432 0.4691 0.4977 0.5262 0.5550
1595.000000 0.5836 0.6122 0.6571 0.6583 0.6565
1590.000000 0.6537 0.6507 0.6478 0.6447 0.6417
1585.000000 0.6389 0.6367 0.6346 0.6324 0.6302
1580.000000 0.6279 0.6252 0.6219 0.6136 0.5894
1575.000000 0.5653 0.5412 0.5212 0.5242 0.5405
1570.000000 0.5568 0.5731 0.5894 0.5948 0.5932
1565.000000 0.5891 0.5796 0.5700 0.5632 0.5573
1560.000000 0.5525 0.5478 0.5446 0.5414 0.5388
1555.000000 0.5369 0.5357 0.5346 0.5339 0.5333
1550.000000 0.5337 0.5341 0.5356 0.5391 0.5448
1545.000000 0.5514 0.5586 0.5754 0.5937 0.6050
1540.000000 0.6159 0.6260 0.6359 0.6458 0.6557
1535.000000 0.6654 0.6731 0.6807 0.6884 0.6930
1530.000000 0.6972 0.7015 0.7057 0.7094 0.7132
1525.000000 0.7168 0.7207 0.7240 0.7269 0.7299
1520.000000 0.7328 0.7358 0.7388 0.7419 0.7451
1515.000000 0.7483 0.7519 0.7568 0.7618 0.7676
1510.000000 0.7749 0.7830 0.7893 0.7941 0.7989
1505.000000 0.8034 0.8078 0.8124 0.8172 0.8224
1500.000000 0.8270 0.8318 0.8311 0.8305 0.8273
1495.000000 0.8241 0.8169 0.7976 0.7893 0.6774
1490.000000 0.5204 0.3634 0.2064 0.0516 0.0525
1485.000000 0.0668 0.1334 0.2000 0.2666 0.3332
1480.000000 0.3999 0.4665 0.5331 0.5997 0.6662
1475.000000 0.7201 0.7354 0.7554 0.7669 0.7787
1470.000000 0.7903 0.8018 0.8136 0.8252 0.8368
1465.000000 0.8385 0.8393 0.8360 0.7937 0.7937
1460.000000 0.7912 0.8028 0.8186 0.8345 0.8503
1455.000000 0.8662 0.8731 0.8715 0.8671 0.8664
1450.000000 0.8690 0.8751 0.8812 0.8873 0.8905
1445.000000 0.8906 0.8907 0.8907 0.8889 0.8847
1440.000000 0.8768 0.8640 0.7382 0.6004 0.4625
1435.000000 0.3247 0.2772 0.2931 0.3855 0.4779
1430.000000 0.5703 0.6628 0.7551 0.8314 0.8421
1425.000000 0.8614 0.8734 0.8801 0.8860 0.8911
1420.000000 0.8954 0.8993 0.9017 0.9028 0.9038
1415.000000 0.9070 0.9048 0.9048 0.9046 0.9044
1410.000000 0.9039 0.9030 0.9021 0.9010 0.9000
1405.000000 0.8989 0.8971 0.8952 0.8932 0.8899
1400.000000 0.8867 0.8836 0.8805 0.8774 0.8743
1395.000000 0.8710 0.8677 0.8645 0.8599 0.8544
1390.000000 0.8468 0.8420 0.8380 0.8356 0.8357
1385.000000 0.8366 0.8395 0.8455 0.8521 0.8607
1380.000000 0.8694 0.8786 0.8888 0.8931 0.8974
1375.000000 0.9008 0.9015 0.9015 0.9015 0.9006
1370.000000 0.8997 0.8992 0.8993 0.8994 0.8995
1365.000000 0.8996 0.8999 0.9004 0.9009 0.9014
1360.000000 0.9021 0.9028 0.9035 0.9043 0.9051
1355.000000 0.9057 0.9061 0.9055 0.9043 0.9031
1350.000000 0.8994 0.8953 0.8918 0.8887 0.8866
1345.000000 0.8851 0.8845 0.8844 0.8844 0.8844
1340.000000 0.8875 0.8912 0.8949 0.8978 0.9002
1335.000000 0.9021 0.9021 0.9021 0.9024 0.9025
1330.000000 0.9025 0.9025 0.9018 0.9009 0.8998
1325.000000 0.8987 0.8971 0.8949 0.8927 0.8932
1320.000000 0.8930 0.8944 0.8957 0.8982 0.9010
1315.000000 0.9038 0.9103 0.9068 0.9080 0.9084
1310.000000 0.9083 0.9083 0.9070 0.9057 0.9042
1305.000000 0.9028 0.9018 0.9018 0.9018 0.9028
1300.000000 0.9039 0.9050 0.9062 0.9078 0.9097
1295.000000 0.9111 0.9125 0.9124 0.9121 0.9118
1290.000000 0.9107 0.9093 0.9078 0.9054 0.9028
1285.000000 0.9004 0.8975 0.8957 0.8957 0.8968
1280.000000 0.8996 0.9025 0.9048 0.9054 0.8984
1275.000000 0.8900 0.8817 0.8734 0.8683 0.8699
1270.000000 0.8680 0.8727 0.8775 0.8821 0.8870
1265.000000 0.8917 0.8965 0.9013 0.9060 0.9107
1260.000000 0.9121 0.9134 0.9147 0.9161 0.9174
1255.000000 0.9187 0.9199 0.9208 0.9218 0.9227
1250.000000 0.9232 0.9220 0.9208 0.9195 0.9183
1245.000000 0.9180 0.9175 0.9175 0.9175 0.9183
1240.000000 0.9192 0.9203 0.9213 0.9223 0.9234
1235.000000 0.9244 0.9253 0.9260 0.9267 0.9275
1230.000000 0.9282 0.9289 0.9289 0.9289 0.9289
1225.000000 0.9289 0.9289 0.9289 0.9289 0.9288
1220.000000 0.9288 0.9282 0.9275 0.9270 0.9264
1215.000000 0.9258 0.9252 0.9245 0.9239 0.9233
1210.000000 0.9227 0.9220 0.9212 0.9204 0.9196
1205.000000 0.9188 0.9180 0.9171 0.9154 0.9134
1200.000000 0.9113 0.9093 0.9071 0.9052 0.9027
1195.000000 0.8994 0.8961 0.8927 0.8894 0.8863
1190.000000 0.8831 0.8799 0.8768 0.8738 0.8708
1185.000000 0.8678 0.8655 0.8635 0.8627 0.8611
1180.000000 0.8618 0.8620 0.8621 0.8633 0.8644
1175.000000 0.8656 0.8670 0.8678 0.8686 0.8694
1170.000000 0.8695 0.8696 0.8690 0.8682 0.8664
1165.000000 0.8643 0.8621 0.8595 0.8568 0.8540
1160.000000 0.8514 0.8505 0.8509 0.8513 0.8528
1155.000000 0.8547 0.8609 0.8671 0.8718 0.8763
1150.000000 0.8807 0.8848 0.8889 0.8931 0.8963
1145.000000 0.8990 0.9017 0.9044 0.9068 0.9087
1140.000000 0.9106 0.9125 0.9144 0.9156 0.9161
1135.000000 0.9166 0.9171 0.9177 0.9183 0.9212
1130.000000 0.9189 0.9189 0.9189 0.9190 0.9189
1125.000000 0.9188 0.9186 0.9184 0.9182 0.9178
1120.000000 0.9168 0.9159 0.9150 0.9128 0.9105
1115.000000 0.9081 0.9052 0.9023 0.8984 0.8944
1110.000000 0.8903 0.8884 0.8874 0.8874 0.8883
1105.000000 0.8914 0.8947 0.8971 0.8986 0.8994
1100.000000 0.9001 0.9007 0.9007 0.9008 0.9008
1095.000000 0.9008 0.9008 0.9005 0.9003 0.8995
1090.000000 0.8984 0.8973 0.8957 0.8923 0.8889
1085.000000 0.8845 0.8777 0.8677 0.8563 0.8036
1080.000000 0.7500 0.6965 0.6428 0.6162 0.6162
1075.000000 0.6162 0.6425 0.6739 0.7054 0.7368
1070.000000 0.7683 0.7997 0.8312 0.8514 0.8578
1065.000000 0.8662 0.8749 0.8817 0.8878 0.8946
1060.000000 0.8990 0.9001 0.9009 0.9018 0.9013
1055.000000 0.9014 0.9014 0.8849 0.8567 0.8285
1050.000000 0.8004 0.7721 0.7440 0.7158 0.7018
1045.000000 0.7087 0.7387 0.7686 0.7986 0.8285
1040.000000 0.8584 0.8854 0.8871 0.8888 0.8905
1035.000000 0.8910 0.8911 0.8911 0.8911 0.8908
1030.000000 0.8906 0.8902 0.8897 0.8893 0.8889
1025.000000 0.8885 0.8875 0.8865 0.8854 0.8843
1020.000000 0.8818 0.8783 0.8721 0.8667 0.8615
1015.000000 0.8528 0.5014 0.5131 0.5003 0.5343
1010.000000 0.6121 0.6899 0.7676 0.7964 0.8050
1005.000000 0.8190 0.8324 0.8458 0.8592 0.8725
1000.000000 0.8777 0.8785 0.8716 0.8635 0.8555
995.000000 0.8474 0.8406 0.8401 0.8496 0.8637
990.000000 0.8778 0.8881 0.8880 0.8878 0.8847
985.000000 0.8816 0.8812 0.8811 0.8830 0.8863
980.000000 0.8895 0.8911 0.8923 0.8928 0.8928
975.000000 0.8928 0.8925 0.8902 0.8880 0.8863
970.000000 0.8847 0.8839 0.8837 0.8837 0.8837
965.000000 0.8873 0.8905 0.8932 0.8960 0.8988
960.000000 0.9011 0.9030 0.9049 0.9068 0.9087
955.000000 0.9106 0.9118 0.9130 0.9142 0.9154
950.000000 0.9166 0.9174 0.9181 0.9188 0.9194
945.000000 0.9201 0.9201 0.9200 0.9199 0.9197
940.000000 0.9190 0.9183 0.9177 0.9168 0.9148
935.000000 0.9127 0.9107 0.9089 0.9070 0.9052
930.000000 0.9031 0.9011 0.8990 0.8970 0.8939
925.000000 0.8903 0.8854 0.8625 0.8384 0.8380
920.000000 0.8425 0.8478 0.8533 0.8587 0.8641
915.000000 0.8683 0.8683 0.8534 0.8188 0.7842
910.000000 0.7495 0.7149 0.6803 0.6456 0.6110
905.000000 0.5738 0.5741 0.5814 0.6291 0.6768
900.000000 0.7246 0.7722 0.8200 0.8661 0.8681
895.000000 0.8691 0.8711 0.8703 0.8702 0.8687
890.000000 0.8671 0.8649 0.8627 0.8604 0.8568
885.000000 0.8531 0.8492 0.8452 0.8413 0.8381
880.000000 0.8349 0.8316 0.8284 0.8260 0.8236
875.000000 0.8213 0.8189 0.8165 0.8134 0.8093
870.000000 0.8053 0.8014 0.7981 0.7947 0.7914
865.000000 0.7858 0.7807 0.7765 0.7745 0.7737
860.000000 0.7732 0.7728 0.7726 0.7743 0.7774
855.000000 0.7828 0.7887 0.7940 0.7991 0.8046
850.000000 0.8096 0.8118 0.8130 0.8134 0.8134
845.000000 0.8118 0.8108 0.8105 0.8158 0.8221
840.000000 0.8285 0.8352 0.8418 0.8494 0.8575
835.000000 0.8658 0.8721 0.8777 0.8837 0.8897
830.000000 0.8927 0.8933 0.8935 0.8936 0.8938
825.000000 0.8941 0.8945 0.8951 0.8961 0.8970
820.000000 0.8977 0.8985 0.8985 0.8981 0.8953
815.000000 0.8921 0.8913 0.8912 0.8917 0.8921
810.000000 0.8925 0.8931 0.8936 0.8928 0.8924
805.000000 0.8911 0.8902 0.8889 0.8875 0.8863
800.000000 0.8849 0.8836 0.8820 0.8804 0.8789
795.000000 0.8764 0.8739 0.8700 0.8645 0.8541
790.000000 0.8444 0.8331 0.8212 0.7799 0.6983
785.000000 0.6167 0.5352 0.4744 0.4735 0.4964
780.000000 0.5427 0.5890 0.6353 0.6815 0.7278
775.000000 0.7742 0.8205 0.8452 0.8511 0.8545
770.000000 0.8561 0.8568 0.8568 0.8568 0.8570
765.000000 0.8564 0.8558 0.8538 0.8516 0.8494
760.000000 0.8468 0.8392 0.8298 0.8207 0.8141
755.000000 0.8075 0.8011 0.7857 0.7686 0.7208
750.000000 0.6375 0.5542 0.4709 0.3875 0.3042
745.000000 0.2209 0.1376 0.0542 0.0143 0.0134
740.000000 0.0147 0.0171 0.0240 0.0560 0.1361
735.000000 0.2163 0.2964 0.3764 0.4566 0.5367
730.000000 0.6449 0.6611 0.6861 0.7018 0.7156
725.000000 0.7294 0.7431 0.7568 0.7705 0.7784
720.000000 0.7825 0.7810 0.7810 0.7651 0.7490
715.000000 0.7328 0.7168 0.7008 0.6847 0.6719
710.000000 0.6242 0.5295 0.4347 0.3399 0.2451
705.000000 0.1503 0.0555 0.0254 0.0242 0.0244
700.000000 0.0506 0.1144 0.1781 0.2418 0.3056
695.000000 0.3693 0.4330 0.4968 0.5690 0.6488
690.000000 0.7287 0.7801 0.7928 0.8124 0.8216
685.000000 0.8270 0.8325 0.8367 0.8378 0.8386
680.000000 0.8385 0.8357 0.8325 0.8295 0.8264
675.000000 0.8263 0.8262 0.8295 0.8402 0.8494
670.000000 0.8521 0.8548 0.8574 0.8598 0.8621
665.000000 0.8654 0.8666 0.8678 0.8689 0.8687
660.000000 0.8649 0.8611 0.8573 0.8551 0.8552
655.000000 0.8554 0.8567 0.8583 0.8609 0.8635
650.000000 0.8661 0.8681 0.8702 0.8721 0.8743
645.000000 0.8764 0.8784 0.8803 0.8823 0.8843
640.000000 0.8862 0.8882 0.8901 0.8921 0.8935
635.000000 0.8944 0.8954 0.8963 0.8971 0.8978
630.000000 0.8984 0.8989 0.8994 0.8999 0.9005
625.000000 0.9011 0.9017 0.9016 0.9016 0.9016
620.000000 0.9003 0.8986 0.8938 0.8244 0.7549
615.000000 0.6855 0.6160 0.5594 0.5815 0.6630
610.000000 0.7444 0.8259 0.8899 0.8964 0.9023
605.000000 0.9068 0.9117 0.9162 0.9197 0.9213
600.000000 0.9218 0.9220 0.9223 0.9225 0.9227
595.000000 0.9228 0.9230 0.9232 0.9233 0.9234
590.000000 0.9236 0.9236 0.9236 0.9236 0.9236
585.000000 0.9236 0.9236 0.9234 0.9231 0.9228
580.000000 0.9223 0.9218 0.9214 0.9232 0.9206
575.000000 0.9206 0.9205 0.9205 0.9206 0.9207
570.000000 0.9208 0.9209 0.9210 0.9210 0.9209
565.000000 0.9208 0.9198 0.9189 0.9180 0.9171
560.000000 0.9162 0.9149 0.9130 0.9110 0.9085
555.000000 0.9053 0.9021 0.8951 0.8645 0.8231
550.000000 0.7818 0.7405 0.6945 0.6945 0.7125
545.000000 0.7384 0.7642 0.7901 0.8160 0.8418
540.000000 0.8678 0.8932 0.9004 0.9031 0.9042
535.000000 0.9051 0.9059 0.9064 0.9068 0.9073
530.000000 0.9078 0.9088 0.9083 0.9083 0.9084
525.000000 0.9084 0.9085 0.9078 0.9073 0.9067
520.000000 0.9060 0.9054 0.9048 0.9030 0.9013
515.000000 0.8995 0.8977 0.8960 0.8933 0.8902
510.000000 0.8871 0.8842 0.8812 0.8762 0.8707
505.000000 0.8653 0.8568 0.8481 0.8395 0.8223
500.000000 0.8110 0.7997 0.7884 0.7771 0.7658
495.000000 0.7545 0.7432 0.7318 0.7217 0.7218
490.000000 0.7218 0.7228 0.7254 0.7300 0.7383
485.000000 0.7465 0.7549 0.7632 0.7714 0.7797
480.000000 0.7880 0.7962 0.8046 0.8128 0.8211
475.000000 0.8294 0.8377 0.8428 0.8454 0.8471
470.000000 0.8481 0.8489 0.8495 0.8486 0.8486
465.000000 0.8486 0.8483 0.8478 0.8471 0.8463
460.000000 0.8455 0.8446 0.8438 0.8430 0.8413
455.000000 0.8396 0.8378 0.8360 0.8342 0.8324
450.000000 0.8299 0.8274 0.8248 0.8223 0.8197
445.000000 0.8171 0.8130 0.8086 0.8041 0.7975
440.000000 0.7903 0.7839 0.7778 0.7710 0.7647
435.000000 0.7600 0.7557 0.7511 0.8248 0.8651
430.000000 0.9053 0.9196 0.9205 0.9214 0.9221
425.000000 0.9225 0.9232 0.9237 0.9242 0.9247
420.000000 0.9253 0.9259 0.9264 0.9270 0.9274
415.000000 0.9278 0.9282 0.9286 0.9291 0.9280
410.000000 0.9238 0.9197 0.9155 0.9114 0.9071
405.000000 0.9033 0.9038 0.9074 0.9111 0.9146
400.000000 0.9177 0.9208 0.9231 0.9249 0.9266
395.000000 0.9278 0.9286 0.9293 0.9301 0.9306
390.000000 0.9308 0.9309 0.9311 0.9305 0.9305
385.000000 0.9305 0.9280 0.9283 0.9288 0.9296
380.000000 0.9304 0.9313 0.9308 0.9301 0.9293
375.000000 0.9281 0.9268 0.9257 0.9247 0.9237
370.000000 0.9236 0.9242 0.9247 0.9252 0.9257
365.000000 0.9263 0.9268 0.9270 0.9271 0.9275
360.000000 0.9277 0.9278 0.9266 0.9252 0.9238
355.000000 0.9223 0.9209 0.9195 0.9181 0.9166
350.000000 0.9152 0.9134 0.9116 0.9098 0.9080
345.000000 0.9062 0.9044 0.9027 0.9009 0.8987
340.000000 0.8965 0.8943 0.8921 0.8900 0.8878
335.000000 0.8856 0.8834 0.8801 0.8768 0.8735
330.000000 0.8701 0.8668 0.8638 0.8610 0.8583
325.000000 0.8556 0.8528 0.8501 0.8475 0.8453
320.000000 0.8431 0.8409 0.8387 0.8365 0.8347
315.000000 0.8333 0.8318 0.8305 0.8291 0.8277
310.000000 0.8263 0.8249 0.8235 0.8218 0.8201
305.000000 0.8184 0.8167 0.8150 0.8133 0.8115
300.000000 0.8095 0.8072 0.8051 0.8030 0.8008
295.000000 0.7988 0.7953 0.7914 0.7875 0.7837
290.000000 0.7798 0.7751 0.7685 0.7618 0.7551
285.000000 0.7483 0.7414 0.7345 0.7276 0.7207
280.000000 0.7137 0.7067 0.6997 0.6908 0.6814
275.000000 0.6718 0.6625 0.6544 0.6462 0.6381
270.000000 0.6300 0.6220 0.6152 0.6084 0.6016
265.000000 0.5948 0.5876 0.5796 0.5715 0.5635
260.000000 0.5555 0.5393 0.5221 0.5045 0.4879
255.000000 0.4738 0.4598 0.4440 0.4309 0.4248
250.000000 0.4186 0.4116 0.4006 0.3896 0.3786
245.000000 0.3676 0.3566 0.3456 0.3345 0.3234
240.000000 0.3125 0.3015 0.2905 0.2795 0.2684
235.000000 0.2575 0.2463 0.2349 0.2226 0.1949
230.000000 0.1766 0.1600 0.1486 0.1425 0.1365
225.000000 0.1304 0.1244 0.1180 0.1092 0.1006
220.000000 0.0919 0.0831 0.0743 0.0655 0.0566
215.000000 0.0475 0.0379 0.0202
##END=
