##TITLE=P-PHENYLPHENOL
$$ E.K. (W.L.)
##JCAMP-DX=4.24
##DATA TYPE=INFRARED SPECTRUM
##CLASS=COBLENTZ
##ORIGIN=WYANDOTTE CHEMICALS CORP., WYANDOTTE, MICHIGAN, USA
##OWNER=COBLENTZ SOCIETY
Collection (C) 2018 copyright by the U.S. Secretary of Commerce
on behalf of the United States of America. All rights reserved.
##DATE=Not specified, most likely prior to 1970
##NAMES=[1,1'-biphenyl]-4-ol
##CAS REGISTRY NO=92-69-3
##MOLFORM=C12 H10 O
##MP=164-165 C
##SOURCE REFERENCE=COBLENTZ NO. 1272
##$NIST SOURCE=COBLENTZ
##$NIST IMAGE=cob1272
##SPECTROMETER/DATA SYSTEM=Not specified, most likely a prism, grating, or hybrid spectrometer.
##STATE=SOLID (MINERAL OIL MULL)
##SAMPLING PROCEDURE=TRANSMISSION
##RESOLUTION=4
##DATA PROCESSING=DIGITIZED BY NIST FROM HARD COPY
##XUNITS=MICROMETERS
##YUNITS=TRANSMITTANCE
##XFACTOR=1.000000
##YFACTOR=1
##DELTAX=000.006816
##FIRSTX=2.014
##LASTX=15.9996
##FIRSTY=0.336
##MAXX=15.9996
##MINX=2.014
##MAXY=0.925
##MINY=0.05
##NPOINTS=2053
##XYDATA=(X++(Y..Y))
2.014000 0.3360 0.3360 0.3360 0.3360 0.3350
2.048096 0.3360 0.3360 0.3380 0.3380 0.3400
2.082000 0.3400 0.3410 0.3450 0.3450 0.3480
2.116096 0.3480 0.3500 0.3500 0.3510 0.3530
2.150000 0.3550 0.3570 0.3570 0.3580 0.3580
2.184096 0.3580 0.3600 0.3600 0.3620 0.3620
2.218000 0.3600 0.3600 0.3620 0.3630 0.3650
2.252096 0.3700 0.3720 0.3720 0.3750 0.3750
2.286000 0.3770 0.3770 0.3790 0.3790 0.3800
2.320096 0.3820 0.3800 0.3820 0.3820 0.3840
2.354000 0.3840 0.3840 0.3820 0.3840 0.3840
2.388096 0.3840 0.3850 0.3900 0.3950 0.3970
2.423000 0.3990 0.4010 0.4020 0.4060 0.4120
2.457096 0.4160 0.4160 0.4140 0.4140 0.4110
2.491000 0.4090 0.4090 0.4110 0.4110 0.4110
2.525096 0.4120 0.4140 0.4190 0.4230 0.4230
2.559000 0.4240 0.4290 0.4290 0.4290 0.4280
2.593096 0.4280 0.4280 0.4290 0.4310 0.4330
2.627000 0.4360 0.4410 0.4500 0.4530 0.4580
2.661096 0.4600 0.4630 0.4670 0.4700 0.4700
2.695000 0.4680 0.4700 0.4700 0.4700 0.4700
2.729096 0.4700 0.4750 0.4780 0.4780 0.4780
2.763000 0.4780 0.4780 0.4750 0.4680 0.4600
2.797096 0.4500 0.4390 0.4280 0.4160 0.4060
2.832000 0.3950 0.3850 0.3570 0.3450 0.3290
2.866096 0.3180 0.3010 0.2840 0.2630 0.2410
2.900000 0.2230 0.2030 0.1860 0.1740 0.1640
2.934096 0.1590 0.1550 0.1530 0.1530 0.1530
2.968000 0.1550 0.1550 0.1570 0.1590 0.1670
3.002096 0.1840 0.1920 0.2010 0.2160 0.2280
3.036000 0.2430 0.2570 0.2750 0.2960 0.3010
3.070096 0.3130 0.3230 0.3290 0.3290 0.3310
3.104000 0.3310 0.3350 0.3380 0.3410 0.3450
3.138096 0.3500 0.3530 0.3530 0.3570 0.3620
3.172000 0.3630 0.3650 0.3680 0.3700 0.3700
3.206096 0.3700 0.3680 0.3620 0.3550 0.3430
3.241000 0.3310 0.3180 0.3090 0.3060 0.3040
3.275096 0.3010 0.2990 0.2920 0.2850 0.2790
3.309000 0.2670 0.2530 0.2160 0.1860 0.1400
3.343096 0.1010 0.0770 0.0650 0.0600 0.0590
3.377000 0.0520 0.0500 0.0500 0.0540 0.0670
3.411096 0.0740 0.0930 0.1060 0.1230 0.1370
3.445000 0.1430 0.1500 0.1400 0.1380 0.1250
3.479096 0.1230 0.1250 0.1480 0.1870 0.2230
3.513000 0.2890 0.3510 0.4020 0.4380 0.4650
3.547096 0.4830 0.4940 0.4990 0.5020 0.5040
3.581000 0.5090 0.5120 0.5170 0.5190 0.5210
3.615096 0.5210 0.5210 0.5210 0.5210 0.5210
3.649000 0.5210 0.5190 0.5170 0.5190 0.5190
3.683096 0.5210 0.5220 0.5260 0.5260 0.5270
3.718000 0.5290 0.5310 0.5340 0.5380 0.5380
3.752096 0.5390 0.5430 0.5430 0.5430 0.5430
3.786000 0.5430 0.5430 0.5430 0.5430 0.5430
3.820096 0.5430 0.5430 0.5430 0.5440 0.5460
3.854000 0.5480 0.5490 0.5510 0.5530 0.5600
3.888096 0.5630 0.5650 0.5700 0.5700 0.5710
3.922000 0.5710 0.5730 0.5730 0.5730 0.5730
3.956096 0.5760 0.5780 0.5820 0.5850 0.5880
3.990000 0.5920 0.5970 0.6000 0.6000 0.5950
4.024096 0.5920 0.5880 0.5880 0.5880 0.5880
4.058000 0.5880 0.5880 0.5880 0.5900 0.5900
4.092096 0.5900 0.5920 0.5920 0.5920 0.5920
4.127000 0.5930 0.5950 0.5950 0.5950 0.5970
4.161096 0.5970 0.5980 0.5980 0.5980 0.6000
4.195000 0.6050 0.6100 0.6170 0.6190 0.6190
4.229096 0.6150 0.6120 0.6050 0.6000 0.5980
4.263000 0.6000 0.6040 0.6070 0.6120 0.6150
4.297096 0.6200 0.6220 0.6220 0.6240 0.6240
4.331000 0.6270 0.6310 0.6390 0.6420 0.6460
4.365096 0.6480 0.6490 0.6510 0.6510 0.6530
4.399000 0.6530 0.6540 0.6540 0.6580 0.6580
4.433096 0.6590 0.6590 0.6610 0.6640 0.6680
4.467000 0.6700 0.6710 0.6710 0.6710 0.6750
4.501096 0.6760 0.6780 0.6800 0.6810 0.6830
4.536000 0.6850 0.6850 0.6850 0.6850 0.6850
4.570096 0.6860 0.6880 0.6880 0.6900 0.6920
4.604000 0.6930 0.6950 0.6970 0.6980 0.7000
4.638096 0.7000 0.7000 0.7020 0.7020 0.7030
4.672000 0.7030 0.7030 0.7070 0.7070 0.7080
4.706096 0.7100 0.7120 0.7120 0.7140 0.7150
4.740000 0.7170 0.7200 0.7220 0.7240 0.7250
4.774096 0.7290 0.7290 0.7300 0.7290 0.7240
4.808000 0.7200 0.7190 0.7220 0.7250 0.7270
4.842096 0.7290 0.7300 0.7300 0.7290 0.7250
4.876000 0.7250 0.7220 0.7200 0.7240 0.7270
4.910096 0.7320 0.7360 0.7360 0.7360 0.7370
4.944000 0.7390 0.7410 0.7410 0.7420 0.7420
4.978096 0.7420 0.7410 0.7410 0.7410 0.7410
5.013000 0.7420 0.7470 0.7490 0.7520 0.7560
5.047096 0.7590 0.7610 0.7610 0.7610 0.7630
5.081000 0.7610 0.7610 0.7610 0.7610 0.7610
5.115096 0.7610 0.7590 0.7590 0.7590 0.7560
5.149000 0.7540 0.7520 0.7460 0.7300 0.7290
5.183096 0.7290 0.7390 0.7470 0.7540 0.7610
5.217000 0.7630 0.7640 0.7660 0.7680 0.7710
5.251096 0.7740 0.7800 0.7800 0.7800 0.7730
5.285000 0.7510 0.7340 0.7030 0.7020 0.7030
5.319096 0.7150 0.7270 0.7370 0.7390 0.7460
5.353000 0.7490 0.7520 0.7630 0.7640 0.7710
5.387096 0.7830 0.7950 0.8000 0.8070 0.8100
5.422000 0.8120 0.8120 0.8120 0.8120 0.8130
5.456096 0.8150 0.8170 0.8180 0.8180 0.8180
5.490000 0.8180 0.8170 0.8150 0.8130 0.8130
5.524096 0.8130 0.8120 0.8120 0.8120 0.8130
5.558000 0.8130 0.8130 0.8130 0.8150 0.8150
5.592096 0.8170 0.8180 0.8220 0.8220 0.8170
5.626000 0.8170 0.8170 0.8170 0.8170 0.8180
5.660096 0.8220 0.8240 0.8240 0.8220 0.8220
5.694000 0.8200 0.8120 0.8120 0.8100 0.8100
5.728096 0.8120 0.8200 0.8240 0.8270 0.8300
5.762000 0.8390 0.8490 0.8490 0.8490 0.8320
5.796096 0.8320 0.8350 0.8350 0.8400 0.8400
5.831000 0.8400 0.8400 0.8390 0.8390 0.8420
5.865096 0.8420 0.8510 0.8540 0.8540 0.8490
5.899000 0.8400 0.8340 0.8290 0.8250 0.8220
5.933096 0.8200 0.8200 0.8180 0.8180 0.8180
5.967000 0.8180 0.8170 0.8170 0.8170 0.8150
6.001096 0.8120 0.8100 0.8050 0.8030 0.8020
6.035000 0.8050 0.8200 0.8420 0.8540 0.8590
6.069096 0.8610 0.8640 0.8690 0.8780 0.8780
6.103000 0.8690 0.8400 0.8150 0.7830 0.7190
6.137096 0.5560 0.4890 0.4190 0.3720 0.3700
6.171000 0.3730 0.4160 0.4240 0.4240 0.3450
6.205096 0.3430 0.3460 0.4380 0.4770 0.5510
6.240000 0.5870 0.5900 0.5900 0.5760 0.5750
6.274096 0.5760 0.5870 0.5970 0.6120 0.6360
6.308000 0.6610 0.6900 0.7170 0.7420 0.7560
6.342096 0.7630 0.7640 0.7680 0.7780 0.7950
6.376000 0.8100 0.8270 0.8400 0.8440 0.8470
6.410096 0.8470 0.8470 0.8420 0.8390 0.8370
6.444000 0.8390 0.8420 0.8460 0.8490 0.8490
6.478096 0.8100 0.7410 0.6630 0.5580 0.5070
6.512000 0.4560 0.3870 0.3500 0.3480 0.3510
6.546096 0.4430 0.5760 0.6310 0.6730 0.6920
6.580000 0.6980 0.7150 0.7520 0.7980 0.8340
6.614096 0.8370 0.8390 0.8350 0.7070 0.6340
6.648000 0.5050 0.4500 0.3920 0.2910 0.1890
6.682096 0.1870 0.1890 0.2480 0.2970 0.3230
6.717000 0.3460 0.3570 0.3720 0.3800 0.3820
6.751096 0.3800 0.3580 0.3330 0.3040 0.2580
6.785000 0.1920 0.1700 0.1700 0.1720 0.1820
6.819096 0.2010 0.2670 0.3130 0.3430 0.3670
6.853000 0.3820 0.3970 0.4120 0.4360 0.4560
6.887096 0.4780 0.4970 0.5260 0.5320 0.5410
6.921000 0.5460 0.5460 0.5390 0.5160 0.5040
6.955096 0.4920 0.4510 0.4110 0.3970 0.3840
6.989000 0.3800 0.3840 0.4110 0.4380 0.4670
7.023096 0.4970 0.5530 0.5800 0.6070 0.6340
7.057000 0.6580 0.6800 0.6950 0.7030 0.7150
7.091096 0.7270 0.7340 0.7360 0.7360 0.7360
7.126000 0.7340 0.7340 0.7290 0.7170 0.7020
7.160096 0.6800 0.6560 0.6260 0.5880 0.5160
7.194000 0.4430 0.4310 0.4230 0.3700 0.3280
7.228096 0.2920 0.2720 0.2630 0.2630 0.2820
7.262000 0.3260 0.3510 0.3770 0.4120 0.4390
7.296096 0.4510 0.4580 0.4680 0.4850 0.5160
7.330000 0.5260 0.5360 0.5510 0.5680 0.5700
7.364096 0.5700 0.5700 0.5700 0.5730 0.5850
7.398000 0.5950 0.6040 0.6150 0.6270 0.6390
7.432096 0.6340 0.6100 0.5870 0.5680 0.5660
7.466000 0.5680 0.6050 0.6340 0.6560 0.6760
7.500096 0.6950 0.7080 0.7240 0.7370 0.7460
7.535000 0.7520 0.7630 0.7690 0.7740 0.7830
7.569096 0.7950 0.8000 0.8030 0.8050 0.7960
7.603000 0.7900 0.7800 0.7590 0.7540 0.7490
7.637096 0.7370 0.7220 0.7020 0.6860 0.6730
7.671000 0.6660 0.6610 0.6580 0.6530 0.6580
7.705096 0.6630 0.6680 0.6730 0.6830 0.6970
7.739000 0.7000 0.7030 0.7150 0.7300 0.7360
7.773096 0.7340 0.7100 0.6900 0.6680 0.6070
7.807000 0.5600 0.5290 0.4970 0.4950 0.4970
7.841096 0.5610 0.5700 0.5700 0.5610 0.5090
7.875000 0.4730 0.4380 0.3570 0.2770 0.2250
7.909096 0.2040 0.1640 0.1600 0.1530 0.1620
7.944000 0.1970 0.2230 0.2470 0.2580 0.2720
7.978096 0.2910 0.3010 0.2890 0.2650 0.2450
8.012000 0.2250 0.2080 0.1940 0.1920 0.1940
8.046096 0.2080 0.2230 0.2380 0.2550 0.2740
8.080000 0.2960 0.3090 0.3260 0.3410 0.3600
8.114096 0.3770 0.3940 0.4120 0.4280 0.4430
8.148000 0.4550 0.4670 0.4770 0.4900 0.5090
8.182096 0.5170 0.5260 0.5320 0.5460 0.5540
8.216000 0.5630 0.5650 0.5680 0.5710 0.5730
8.250096 0.5750 0.5750 0.5710 0.5410 0.5050
8.284000 0.4730 0.4410 0.3870 0.3430 0.3410
8.318096 0.3430 0.3770 0.4070 0.4410 0.4670
8.352000 0.4920 0.5220 0.5340 0.5430 0.5510
8.386096 0.5600 0.5710 0.5850 0.5970 0.6090
8.421000 0.6090 0.6050 0.6020 0.5900 0.5660
8.455096 0.5610 0.5610 0.5610 0.5610 0.5660
8.489000 0.5710 0.5800 0.5850 0.5880 0.5820
8.523096 0.5510 0.5460 0.5460 0.5560 0.5850
8.557000 0.6000 0.6260 0.6420 0.6490 0.6560
8.591096 0.6610 0.6640 0.6730 0.6750 0.6730
8.625000 0.6700 0.6680 0.6660 0.6660 0.6610
8.659096 0.6610 0.6610 0.6610 0.6710 0.6950
8.693000 0.7020 0.7120 0.7150 0.7240 0.7340
8.727096 0.7370 0.7370 0.7370 0.7370 0.7370
8.761000 0.7370 0.7300 0.7250 0.7190 0.7080
8.795096 0.6980 0.6850 0.6700 0.6490 0.6360
8.830000 0.6320 0.6260 0.6120 0.6100 0.6100
8.864096 0.6100 0.6120 0.6290 0.6310 0.6310
8.898000 0.6200 0.5980 0.5650 0.5210 0.4990
8.932096 0.4770 0.4410 0.4380 0.4410 0.4700
8.966000 0.4950 0.5320 0.5490 0.5700 0.5900
9.000096 0.6100 0.6310 0.6460 0.6540 0.6610
9.034000 0.6660 0.6660 0.6660 0.6680 0.6700
9.068096 0.6730 0.6760 0.6810 0.6810 0.6830
9.102000 0.6810 0.6800 0.6760 0.6730 0.6730
9.136096 0.6730 0.6730 0.6780 0.6780 0.6750
9.170000 0.6730 0.6730 0.6730 0.6750 0.6750
9.204096 0.6710 0.6680 0.6640 0.6560 0.6480
9.239000 0.6390 0.6340 0.6310 0.6290 0.6220
9.273096 0.6220 0.6220 0.6290 0.6510 0.6660
9.307000 0.6710 0.6750 0.6800 0.6810 0.6860
9.341096 0.6950 0.7000 0.7050 0.7080 0.7100
9.375000 0.7120 0.7150 0.7200 0.7250 0.7290
9.409096 0.7300 0.7300 0.7320 0.7340 0.7370
9.443000 0.7390 0.7410 0.7420 0.7460 0.7490
9.477096 0.7490 0.7510 0.7580 0.7580 0.7580
9.511000 0.7580 0.7580 0.7580 0.7580 0.7540
9.545096 0.7460 0.7300 0.7000 0.6880 0.6610
9.579000 0.6590 0.6610 0.6710 0.6810 0.6900
9.613096 0.7020 0.7100 0.7190 0.7220 0.7290
9.648000 0.7320 0.7340 0.7360 0.7370 0.7390
9.682096 0.7410 0.7420 0.7460 0.7460 0.7540
9.716000 0.7590 0.7610 0.7610 0.7580 0.7580
9.750096 0.7590 0.7630 0.7630 0.7660 0.7680
9.784000 0.7640 0.7610 0.7580 0.7580 0.7540
9.818096 0.7540 0.7540 0.7560 0.7610 0.7690
9.852000 0.7740 0.7810 0.7860 0.7880 0.7880
9.886096 0.7900 0.7910 0.7910 0.7690 0.7030
9.920000 0.6310 0.5710 0.5650 0.5680 0.6120
9.954096 0.6730 0.7050 0.7320 0.7460 0.7540
9.988000 0.7590 0.7680 0.7800 0.7860 0.7860
10.022096 0.7910 0.7950 0.7980 0.8020 0.8030
10.056000 0.8030 0.8070 0.8070 0.8080 0.8080
10.090096 0.8120 0.8130 0.8130 0.8150 0.8150
10.125000 0.8170 0.8170 0.8200 0.8220 0.8220
10.159096 0.8220 0.8220 0.8220 0.8220 0.8240
10.193000 0.8270 0.8270 0.8270 0.8270 0.8270
10.227096 0.8270 0.8240 0.8250 0.8250 0.8250
10.261000 0.8240 0.8240 0.8240 0.8240 0.8240
10.295096 0.8240 0.8240 0.8240 0.8240 0.8240
10.329000 0.8240 0.8240 0.8240 0.8240 0.8250
10.363096 0.8250 0.8270 0.8270 0.8270 0.8290
10.397000 0.8290 0.8290 0.8270 0.8240 0.8220
10.431096 0.8220 0.8200 0.8200 0.8220 0.8240
10.465000 0.8270 0.8300 0.8320 0.8390 0.8390
10.499096 0.8390 0.8350 0.8350 0.8340 0.8350
10.534000 0.8370 0.8400 0.8420 0.8420 0.8440
10.568096 0.8440 0.8460 0.8460 0.8470 0.8440
10.602000 0.8440 0.8490 0.8490 0.8490 0.8490
10.636096 0.8490 0.8490 0.8470 0.8490 0.8560
10.670000 0.8560 0.8510 0.8490 0.8470 0.8470
10.704096 0.8460 0.8460 0.8460 0.8460 0.8470
10.738000 0.8470 0.8490 0.8490 0.8490 0.8510
10.772096 0.8540 0.8570 0.8610 0.8620 0.8620
10.806000 0.8620 0.8570 0.8570 0.8590 0.8620
10.840096 0.8640 0.8680 0.8680 0.8680 0.8660
10.874000 0.8660 0.8660 0.8640 0.8640 0.8640
10.908096 0.8640 0.8640 0.8640 0.8640 0.8660
10.943000 0.8660 0.8660 0.8680 0.8690 0.8690
10.977096 0.8690 0.8680 0.8540 0.8440 0.8240
11.011000 0.7960 0.7830 0.7730 0.7680 0.7690
11.045096 0.7740 0.7850 0.7950 0.8080 0.8220
11.079000 0.8300 0.8390 0.8440 0.8520 0.8590
11.113096 0.8620 0.8690 0.8810 0.8830 0.8830
11.147000 0.8860 0.8860 0.8880 0.8880 0.8900
11.181096 0.8910 0.8930 0.8950 0.8950 0.8960
11.215000 0.8980 0.8980 0.8960 0.8960 0.8960
11.249096 0.8980 0.8980 0.8980 0.8960 0.8980
11.283000 0.8980 0.9000 0.9000 0.9010 0.9030
11.317096 0.9060 0.9060 0.9060 0.9060 0.9060
11.352000 0.9050 0.9050 0.9050 0.9050 0.9030
11.386096 0.9030 0.9030 0.9030 0.9030 0.9030
11.420000 0.9030 0.9030 0.9050 0.9060 0.9050
11.454096 0.9060 0.9060 0.9120 0.9120 0.9100
11.488000 0.9060 0.9050 0.9030 0.9050 0.9050
11.522096 0.9080 0.9120 0.9100 0.9100 0.9080
11.556000 0.9080 0.9080 0.9060 0.9060 0.9050
11.590096 0.9050 0.9050 0.9060 0.9100 0.9120
11.624000 0.9120 0.9100 0.9080 0.9080 0.9050
11.658096 0.8980 0.8960 0.8950 0.8960 0.8960
11.692000 0.9000 0.9000 0.8960 0.8910 0.8880
11.726096 0.8860 0.8860 0.8840 0.8790 0.8760
11.760000 0.8710 0.8660 0.8590 0.8540 0.8490
11.794096 0.8440 0.8340 0.8240 0.8150 0.8070
11.829000 0.8000 0.7950 0.7800 0.7710 0.7460
11.863096 0.7340 0.7220 0.7080 0.6750 0.6590
11.897000 0.6240 0.5900 0.5600 0.5390 0.5160
11.931096 0.4900 0.4410 0.4060 0.3570 0.3180
11.965000 0.2230 0.2060 0.1820 0.1620 0.1500
11.999096 0.1110 0.1040 0.1030 0.1030 0.1030
12.033000 0.1040 0.1300 0.1600 0.1860 0.2210
12.067096 0.2570 0.2960 0.3040 0.3700 0.4040
12.101000 0.4310 0.4610 0.4730 0.5260 0.5440
12.135096 0.5580 0.5650 0.5880 0.5950 0.6050
12.169000 0.6200 0.6340 0.6410 0.6480 0.6510
12.203096 0.6540 0.6590 0.6660 0.6780 0.6830
12.238000 0.6930 0.7030 0.7140 0.7250 0.7340
12.272096 0.7420 0.7490 0.7510 0.7560 0.7580
12.306000 0.7640 0.7730 0.7800 0.7880 0.7960
12.340096 0.8030 0.8100 0.8180 0.8250 0.8320
12.374000 0.8370 0.8420 0.8490 0.8520 0.8570
12.408096 0.8610 0.8710 0.8790 0.8840 0.8840
12.442000 0.8840 0.8880 0.8900 0.8910 0.8930
12.476096 0.8960 0.8980 0.9000 0.9000 0.9010
12.510000 0.9010 0.9010 0.9030 0.9030 0.9030
12.544096 0.9050 0.9050 0.9060 0.9100 0.9100
12.578000 0.9100 0.9120 0.9120 0.9120 0.9120
12.612096 0.9130 0.9130 0.9130 0.9130 0.9130
12.647000 0.9130 0.9130 0.9130 0.9120 0.9120
12.681096 0.9120 0.9120 0.9120 0.9100 0.9100
12.715000 0.9100 0.9100 0.9080 0.9080 0.9060
12.749096 0.9060 0.9050 0.9000 0.8950 0.8910
12.783000 0.8860 0.8860 0.8860 0.8880 0.8880
12.817096 0.8880 0.8900 0.8900 0.8900 0.8880
12.851000 0.8840 0.8790 0.8710 0.8660 0.8560
12.885096 0.8510 0.8470 0.8460 0.8460 0.8400
12.919000 0.8370 0.8300 0.8180 0.8150 0.8130
12.953096 0.8020 0.7930 0.7810 0.7690 0.7630
12.987000 0.7490 0.7250 0.7050 0.6860 0.6480
13.021096 0.6150 0.5730 0.5310 0.5290 0.5120
13.056000 0.4950 0.4780 0.4460 0.3790 0.3620
13.090096 0.3260 0.2740 0.2280 0.2030 0.1790
13.124000 0.1430 0.1250 0.1160 0.1090 0.1040
13.158096 0.0940 0.0790 0.0760 0.0760 0.0760
13.192000 0.0790 0.0940 0.1080 0.1350 0.1520
13.226096 0.1740 0.1940 0.2530 0.2910 0.3350
13.260000 0.3730 0.4090 0.4480 0.4940 0.5320
13.294096 0.5930 0.6190 0.6320 0.6460 0.6830
13.328000 0.7100 0.7320 0.7490 0.7630 0.7730
13.362096 0.7860 0.7960 0.8070 0.8150 0.8250
13.396000 0.8340 0.8400 0.8440 0.8460 0.8470
13.430096 0.8640 0.8680 0.8740 0.8760 0.8780
13.464000 0.8840 0.8860 0.8880 0.8900 0.8910
13.498096 0.8930 0.8930 0.8960 0.8980 0.9000
13.533000 0.9050 0.9080 0.9080 0.9050 0.9050
13.567096 0.9030 0.9060 0.9080 0.9100 0.9120
13.601000 0.9130 0.9150 0.9170 0.9170 0.9180
13.635096 0.9170 0.9180 0.9180 0.9170 0.9170
13.669000 0.9170 0.9150 0.9150 0.9170 0.9180
13.703096 0.9180 0.9220 0.9220 0.9220 0.9220
13.737000 0.9220 0.9220 0.9220 0.9220 0.9230
13.771096 0.9250 0.9250 0.9250 0.9250 0.9250
13.805000 0.9250 0.9230 0.9230 0.9170 0.9130
13.839096 0.9120 0.9120 0.9120 0.9200 0.9200
13.873000 0.9170 0.9060 0.9060 0.9050 0.9060
13.907096 0.9080 0.9080 0.9080 0.9170 0.9170
13.942000 0.9150 0.9080 0.9060 0.9050 0.9010
13.976096 0.8960 0.8900 0.8690 0.8490 0.8440
14.010000 0.8350 0.7850 0.7660 0.7170 0.6750
14.044096 0.6440 0.6120 0.5930 0.5730 0.5630
14.078000 0.5540 0.5480 0.5480 0.5530 0.5630
14.112096 0.5800 0.5920 0.6000 0.6220 0.6360
14.146000 0.6590 0.6710 0.6860 0.7150 0.7240
14.180096 0.7360 0.7460 0.7540 0.7630 0.7740
14.214000 0.7850 0.7950 0.8000 0.8050 0.8070
14.248096 0.8130 0.8150 0.8170 0.8170 0.8170
14.282000 0.8170 0.8150 0.8130 0.8130 0.8130
14.316096 0.8100 0.8050 0.8020 0.8000 0.7960
14.351000 0.7960 0.7950 0.7900 0.7760 0.7660
14.385096 0.7580 0.7520 0.7460 0.7390 0.7290
14.419000 0.7150 0.6970 0.6830 0.6700 0.6580
14.453096 0.6390 0.6040 0.5710 0.5530 0.5310
14.487000 0.5090 0.5070 0.5020 0.4970 0.4820
14.521096 0.4560 0.4330 0.4140 0.4040 0.3920
14.555000 0.3820 0.3720 0.3670 0.3570 0.3480
14.589096 0.3450 0.3430 0.3410 0.3400 0.3400
14.623000 0.3380 0.3360 0.3360 0.3380 0.3410
14.657096 0.3480 0.3580 0.3680 0.3750 0.3770
14.691000 0.3820 0.3920 0.4060 0.4190 0.4390
14.725096 0.4580 0.4730 0.4890 0.4990 0.5220
14.759000 0.5340 0.5390 0.5680 0.5780 0.5920
14.793096 0.5980 0.6090 0.6240 0.6370 0.6510
14.828000 0.6580 0.6640 0.6710 0.6810 0.6900
14.862096 0.7000 0.7080 0.7140 0.7170 0.7240
14.896000 0.7290 0.7370 0.7440 0.7510 0.7560
14.930096 0.7580 0.7590 0.7630 0.7640 0.7640
14.964000 0.7640 0.7640 0.7630 0.7630 0.7580
14.998096 0.7540 0.7490 0.7440 0.7390 0.7360
15.032000 0.7340 0.7320 0.7300 0.7300 0.7320
15.066096 0.7370 0.7470 0.7580 0.7680 0.7800
15.100000 0.7930 0.7980 0.8030 0.8050 0.8100
15.134096 0.8170 0.8200 0.8240 0.8270 0.8270
15.168000 0.8270 0.8270 0.8270 0.8270 0.8250
15.202096 0.8220 0.8200 0.8170 0.8150 0.8130
15.237000 0.8130 0.8080 0.8050 0.8030 0.8000
15.271096 0.8000 0.8000 0.7960 0.7950 0.7850
15.305000 0.7810 0.7780 0.7780 0.7760 0.7760
15.339096 0.7760 0.7760 0.7740 0.7730 0.7730
15.373000 0.7640 0.7590 0.7540 0.7520 0.7460
15.407096 0.7460 0.7460 0.7460 0.7470 0.7470
15.441000 0.7460 0.7440 0.7410 0.7340 0.7320
15.475096 0.7320 0.7290 0.7250 0.7240 0.7200
15.509000 0.7150 0.7140 0.7120 0.7100 0.7050
15.543096 0.7030 0.7020 0.7020 0.6950 0.6920
15.577000 0.6900 0.6880 0.6860 0.6830 0.6800
15.611096 0.6760 0.6760 0.6710 0.6680 0.6680
15.646000 0.6660 0.6630 0.6630 0.6580 0.6530
15.680096 0.6440 0.6420 0.6460 0.6460 0.6460
15.714000 0.6440 0.6370 0.6340 0.6340 0.6360
15.748096 0.6360 0.6360 0.6270 0.6190 0.6150
15.782000 0.6100 0.6090 0.6090 0.6050 0.6050
15.816096 0.6050 0.6050 0.6050 0.6040 0.5980
15.850000 0.5980 0.5970 0.5970 0.5930 0.5900
15.884096 0.5870 0.5850 0.5830 0.5820 0.5800
15.918000 0.5760 0.5730 0.5730 0.5710 0.5680
15.952096 0.5650 0.5610 0.5580 0.5540 0.5510
15.986000 0.5490 0.5440 0.5490
##END=
