##TITLE=4-BIPHENYLAMINE
##JCAMP-DX=4.24
##DATA TYPE=INFRARED SPECTRUM
##CLASS=COBLENTZ III
##ORIGIN=DOW CHEMICAL COMPANY
##OWNER=COBLENTZ SOC.
Collection (C) 2018 copyright by the U.S. Secretary of Commerce
on behalf of the United States of America. All rights reserved.
##DATE=1963/06/18
##NAMES=[1,1'-biphenyl]-4-ylamine
[1,1'-biphenyl]-4-amine
##CAS REGISTRY NO=92-67-1
##MOLFORM=C12 H11 N
##SOURCE REFERENCE=COBLENTZ NO. 06491
##$NIST SOURCE=COBLENTZ
##$NIST IMAGE=cob6491
##SPECTROMETER/DATA SYSTEM=DOW KBr FOREPRISM-GRATING
##INSTRUMENT PARAMETERS=BLAZED AT 3.5, 12.0, 20.0 MICRON AND CHANGED AT 5.0, 7.5, 14.9 MICRON
##STATE=SOLUTION (10% CCl4 FOR 3800-1335, 10% CS2 FOR 1335-450 CM^-^1)
##PATH LENGTH=0.011 CM, 0.011 CM
$$SPECTRAL CONTAMINATION DUE TO CCl4 AROUND 1550 CM^-^1
##SAMPLING PROCEDURE=TRANSMISSION
##RESOLUTION=2
##DATA PROCESSING=DIGITIZED BY COBLENTZ SOCIETY (BATCH I) FROM HARD COPY
##XUNITS=1/CM
##YUNITS=TRANSMITTANCE
##XLABEL=Wavenumbers (cm-1)
##YLABEL=% Transmission
##XFACTOR=1
##YFACTOR=1
##DELTAX=1
##FIRSTX=446
##LASTX=3796
##FIRSTY=0.4822
##MAXX=3796
##MINX=446
##MAXY=0.8691
##MINY=0.0075
##NPOINTS=3351
##XYDATA=(X++(Y..Y))
446.000000 0.4822 0.4810 0.4799 0.4798 0.4774
451.000000 0.4757 0.4740 0.4723 0.4706 0.4689
456.000000 0.4670 0.4651 0.4631 0.4612 0.4593
461.000000 0.4574 0.4555 0.4536 0.4517 0.4498
466.000000 0.4479 0.4455 0.4432 0.4408 0.4385
471.000000 0.4359 0.4328 0.4296 0.4264 0.4230
476.000000 0.4188 0.4147 0.4096 0.4038 0.3980
481.000000 0.3922 0.3862 0.3805 0.3746 0.3688
486.000000 0.3618 0.3540 0.3462 0.3384 0.3292
491.000000 0.3176 0.3061 0.2924 0.2782 0.2637
496.000000 0.2489 0.2313 0.2117 0.2007 0.2025
501.000000 0.1981 0.1994 0.2031 0.2224 0.2454
506.000000 0.2684 0.2914 0.3144 0.3374 0.3605
511.000000 0.3834 0.4058 0.4358 0.4468 0.4539
516.000000 0.4609 0.4652 0.4683 0.4714 0.4740
521.000000 0.4754 0.4760 0.4762 0.4776 0.4751
526.000000 0.4735 0.4708 0.4680 0.4631 0.4586
531.000000 0.4530 0.4462 0.4409 0.4349 0.4245
536.000000 0.4127 0.3899 0.3607 0.3316 0.3025
541.000000 0.2733 0.2409 0.2392 0.2388 0.2933
546.000000 0.3486 0.4039 0.4452 0.4452 0.4478
551.000000 0.4441 0.4273 0.4105 0.3937 0.3768
556.000000 0.3600 0.3432 0.3264 0.3096 0.2928
561.000000 0.2790 0.2776 0.4616 0.6238 0.6871
566.000000 0.6871 0.6871 0.6857 0.6781 0.6705
571.000000 0.6628 0.6551 0.6475 0.6401 0.6368
576.000000 0.6330 0.6292 0.6254 0.6216 0.6183
581.000000 0.6151 0.6126 0.6105 0.6083 0.6062
586.000000 0.6040 0.6018 0.5999 0.5983 0.5968
591.000000 0.5953 0.5938 0.5906 0.5912 0.5899
596.000000 0.5886 0.5876 0.5867 0.5859 0.5850
601.000000 0.5842 0.5833 0.5825 0.5817 0.5809
606.000000 0.5802 0.5794 0.5786 0.5778 0.5771
611.000000 0.5762 0.5752 0.5741 0.5731 0.5720
616.000000 0.5710 0.5699 0.5689 0.5681 0.5673
621.000000 0.5664 0.5656 0.5648 0.5639 0.5631
626.000000 0.5623 0.5616 0.5608 0.5601 0.5590
631.000000 0.5567 0.5543 0.5519 0.5482 0.5386
636.000000 0.5290 0.5195 0.5099 0.5034 0.5053
641.000000 0.5028 0.5130 0.5232 0.5268 0.5259
646.000000 0.5253 0.5246 0.5237 0.5231 0.5245
651.000000 0.5315 0.5389 0.5467 0.5550 0.5594
656.000000 0.5606 0.5609 0.5591 0.5574 0.5556
661.000000 0.5538 0.5517 0.5495 0.5473 0.5449
666.000000 0.5412 0.5375 0.5296 0.5222 0.5253
671.000000 0.5300 0.5320 0.5337 0.5336 0.5336
676.000000 0.5370 0.5312 0.5300 0.5268 0.5231
681.000000 0.5193 0.5137 0.5079 0.5010 0.4935
686.000000 0.4800 0.4647 0.4475 0.3804 0.2961
691.000000 0.2266 0.1570 0.0875 0.0180 0.0139
696.000000 0.0131 0.0125 0.0116 0.0445 0.0904
701.000000 0.1363 0.1822 0.2281 0.2739 0.3198
706.000000 0.3657 0.4116 0.4809 0.4810 0.4773
711.000000 0.4542 0.4310 0.4080 0.3850 0.3618
716.000000 0.3388 0.3349 0.3809 0.4251 0.4692
721.000000 0.5133 0.5496 0.5576 0.5631 0.5678
726.000000 0.5769 0.5995 0.6042 0.6068 0.6077
731.000000 0.6086 0.6096 0.6105 0.6104 0.6103
736.000000 0.6096 0.6087 0.6078 0.6068 0.6052
741.000000 0.6034 0.6015 0.5992 0.5962 0.5928
746.000000 0.5854 0.5692 0.5412 0.5168 0.4492
751.000000 0.3980 0.3468 0.2958 0.2447 0.1935
756.000000 0.1424 0.0425 0.0233 0.0100 0.0076
761.000000 0.0075 0.0075 0.0089 0.0131 0.0240
766.000000 0.1684 0.3162 0.4948 0.5177 0.5400
771.000000 0.5669 0.5880 0.6079 0.6212 0.6314
776.000000 0.6406 0.6496 0.6553 0.6597 0.6642
781.000000 0.6678 0.6708 0.6737 0.6765 0.6793
786.000000 0.6817 0.6840 0.6847 0.6854 0.6861
791.000000 0.6868 0.6904 0.6874 0.6872 0.6871
796.000000 0.6869 0.6865 0.6853 0.6831 0.6803
801.000000 0.6765 0.6708 0.6658 0.6615 0.6560
806.000000 0.6491 0.6421 0.6351 0.6269 0.6157
811.000000 0.6039 0.5918 0.5834 0.5758 0.5668
816.000000 0.5548 0.5369 0.5215 0.3493 0.2828
821.000000 0.2163 0.1498 0.0833 0.0300 0.0261
826.000000 0.0292 0.0303 0.0552 0.1119 0.1684
831.000000 0.2251 0.2818 0.3384 0.3702 0.3723
836.000000 0.3744 0.3788 0.3896 0.4043 0.4508
841.000000 0.4633 0.4757 0.4879 0.4972 0.5037
846.000000 0.5085 0.5134 0.5182 0.5243 0.5307
851.000000 0.5371 0.5435 0.5494 0.5550 0.5605
856.000000 0.5660 0.5716 0.5770 0.5816 0.5862
861.000000 0.5908 0.5954 0.6000 0.6051 0.6105
866.000000 0.6159 0.6212 0.6268 0.6348 0.6426
871.000000 0.6507 0.6585 0.6640 0.6695 0.6751
876.000000 0.6806 0.6861 0.6921 0.6980 0.7039
881.000000 0.7098 0.7155 0.7205 0.7255 0.7304
886.000000 0.7354 0.7404 0.7454 0.7504 0.7553
891.000000 0.7574 0.7587 0.7578 0.7569 0.7561
896.000000 0.7553 0.7533 0.7497 0.7333 0.7078
901.000000 0.6843 0.6607 0.6370 0.6134 0.6094
906.000000 0.6108 0.6110 0.6539 0.7121 0.7400
911.000000 0.7499 0.7601 0.7647 0.7678 0.7710
916.000000 0.7732 0.7755 0.7774 0.7774 0.7774
921.000000 0.7774 0.7769 0.7765 0.7761 0.7758
926.000000 0.7754 0.7750 0.7721 0.7691 0.7660
931.000000 0.7655 0.7653 0.7661 0.7691 0.7722
936.000000 0.7768 0.7821 0.7853 0.7881 0.7891
941.000000 0.7901 0.7901 0.7893 0.7885 0.7878
946.000000 0.7871 0.7862 0.7856 0.7853 0.7860
951.000000 0.7875 0.7888 0.7901 0.7914 0.7924
956.000000 0.7934 0.7945 0.7955 0.7967 0.7978
961.000000 0.7991 0.8007 0.8022 0.8038 0.8054
966.000000 0.8069 0.8086 0.8101 0.8111 0.8119
971.000000 0.8128 0.8125 0.8119 0.8114 0.8106
976.000000 0.8099 0.8125 0.8151 0.8162 0.8175
981.000000 0.8183 0.8183 0.8184 0.8184 0.8217
986.000000 0.8181 0.8175 0.8105 0.8051 0.7985
991.000000 0.7888 0.7668 0.7421 0.7300 0.7291
996.000000 0.7349 0.7806 0.8096 0.8108 0.8091
1001.000000 0.8075 0.7951 0.7826 0.7203 0.6721
1006.000000 0.6714 0.7249 0.7781 0.8021 0.8132
1011.000000 0.8158 0.8165 0.8131 0.8101 0.7971
1016.000000 0.7898 0.7864 0.7861 0.7836 0.7933
1021.000000 0.8075 0.8244 0.8303 0.8310 0.8306
1026.000000 0.8285 0.8287 0.8271 0.8252 0.8209
1031.000000 0.8150 0.8051 0.7968 0.7890 0.7751
1036.000000 0.7241 0.6637 0.6222 0.6238 0.6235
1041.000000 0.6836 0.7691 0.8218 0.8251 0.8267
1046.000000 0.8288 0.8275 0.8275 0.8271 0.8256
1051.000000 0.8228 0.8200 0.8168 0.8125 0.8085
1056.000000 0.8046 0.8004 0.7945 0.7878 0.7807
1061.000000 0.7738 0.7680 0.7617 0.7543 0.7468
1066.000000 0.7343 0.7204 0.7065 0.6925 0.6787
1071.000000 0.6595 0.6258 0.6210 0.6210 0.6206
1076.000000 0.6525 0.6965 0.7408 0.7850 0.8004
1081.000000 0.8088 0.8138 0.8172 0.8187 0.8200
1086.000000 0.8212 0.8225 0.8235 0.8242 0.8249
1091.000000 0.8254 0.8254 0.8253 0.8253 0.8246
1096.000000 0.8238 0.8230 0.8218 0.8201 0.8181
1101.000000 0.8161 0.8141 0.8117 0.8093 0.8068
1106.000000 0.8046 0.8024 0.8001 0.7958 0.7911
1111.000000 0.7864 0.7800 0.7737 0.7675 0.7618
1116.000000 0.7561 0.7415 0.7249 0.7084 0.6918
1121.000000 0.6751 0.6586 0.6461 0.6360 0.6262
1126.000000 0.6217 0.6217 0.6218 0.6203 0.6493
1131.000000 0.6621 0.6749 0.6876 0.6978 0.7094
1136.000000 0.7221 0.7371 0.7494 0.7604 0.7643
1141.000000 0.7680 0.7708 0.7731 0.7738 0.7734
1146.000000 0.7733 0.7733 0.7685 0.7665 0.7628
1151.000000 0.7578 0.7431 0.7406 0.7390 0.7394
1156.000000 0.7418 0.7510 0.7581 0.7598 0.7599
1161.000000 0.7600 0.7592 0.7585 0.7561 0.7534
1166.000000 0.7499 0.7449 0.7389 0.7338 0.7283
1171.000000 0.7185 0.6518 0.5356 0.4192 0.2937
1176.000000 0.2938 0.3005 0.4050 0.4980 0.4950
1181.000000 0.4729 0.4333 0.3938 0.3543 0.3334
1186.000000 0.3334 0.3597 0.4008 0.4418 0.4829
1191.000000 0.5240 0.5651 0.6678 0.6840 0.6982
1196.000000 0.7065 0.7147 0.7228 0.7336 0.7450
1201.000000 0.7515 0.7571 0.7626 0.7700 0.7776
1206.000000 0.7867 0.7961 0.8018 0.8050 0.8082
1211.000000 0.8110 0.8125 0.8140 0.8155 0.8169
1216.000000 0.8182 0.8189 0.8195 0.8202 0.8208
1221.000000 0.8214 0.8213 0.8213 0.8212 0.8211
1226.000000 0.8207 0.8196 0.8185 0.8169 0.8149
1231.000000 0.8115 0.8078 0.8028 0.7972 0.7917
1236.000000 0.7814 0.7744 0.7731 0.7728 0.7728
1241.000000 0.7725 0.7721 0.7714 0.7684 0.7646
1246.000000 0.7605 0.7548 0.7480 0.7386 0.7307
1251.000000 0.7231 0.7153 0.7015 0.6878 0.6736
1256.000000 0.6615 0.6518 0.6412 0.6305 0.5696
1261.000000 0.5332 0.4968 0.4603 0.4239 0.3874
1266.000000 0.3509 0.3145 0.2848 0.2732 0.2572
1271.000000 0.2400 0.2223 0.2040 0.1904 0.1775
1276.000000 0.1651 0.1532 0.1286 0.1033 0.0889
1281.000000 0.0685 0.0479 0.0437 0.0421 0.0421
1286.000000 0.0437 0.0466 0.0801 0.1277 0.1752
1291.000000 0.2228 0.2703 0.3179 0.3654 0.4130
1296.000000 0.4605 0.5081 0.5556 0.5720 0.6075
1301.000000 0.6239 0.6394 0.6519 0.6665 0.6844
1306.000000 0.6971 0.7098 0.7217 0.7324 0.7418
1311.000000 0.7467 0.7515 0.7562 0.7583 0.7604
1316.000000 0.7624 0.7645 0.7651 0.7656 0.7661
1321.000000 0.7660 0.7658 0.7650 0.7657 0.7698
1326.000000 0.7747 0.7795 0.7847 0.7893 0.7917
1331.000000 0.7942 0.7958 0.7969 0.7982 0.7997
1336.000000 0.8021 0.8046 0.8069 0.8094 0.8118
1341.000000 0.8124 0.8131 0.8138 0.8137 0.8137
1346.000000 0.8130 0.8121 0.8114 0.8106 0.8091
1351.000000 0.8075 0.8061 0.8043 0.8025 0.8006
1356.000000 0.7988 0.7975 0.7961 0.7972 0.7983
1361.000000 0.7995 0.8006 0.8019 0.8036 0.8053
1366.000000 0.8068 0.8085 0.8100 0.8115 0.8124
1371.000000 0.8133 0.8132 0.8121 0.8112 0.8098
1376.000000 0.8082 0.8065 0.8050 0.8035 0.8038
1381.000000 0.8058 0.8081 0.8100 0.8115 0.8132
1386.000000 0.8145 0.8158 0.8167 0.8171 0.8176
1391.000000 0.8182 0.8187 0.8187 0.8187 0.8188
1396.000000 0.8188 0.8183 0.8178 0.8172 0.8165
1401.000000 0.8153 0.8140 0.8121 0.8098 0.8072
1406.000000 0.8036 0.7999 0.7947 0.7891 0.7836
1411.000000 0.7781 0.7725 0.7669 0.7589 0.7503
1416.000000 0.7417 0.7331 0.7243 0.7126 0.7012
1421.000000 0.6825 0.6808 0.6799 0.6811 0.6865
1426.000000 0.6936 0.7074 0.7344 0.7604 0.7708
1431.000000 0.7736 0.7745 0.7749 0.7756 0.7738
1436.000000 0.7725 0.7705 0.7686 0.7665 0.7645
1441.000000 0.7624 0.7589 0.7541 0.7480 0.7414
1446.000000 0.7338 0.7210 0.7014 0.6817 0.6619
1451.000000 0.6422 0.6194 0.6194 0.6195 0.6648
1456.000000 0.7228 0.7362 0.7404 0.7415 0.7425
1461.000000 0.7428 0.7428 0.7455 0.7390 0.7312
1466.000000 0.7132 0.6958 0.6858 0.6674 0.6500
1471.000000 0.6130 0.5662 0.5195 0.4728 0.4260
1476.000000 0.3793 0.3326 0.2858 0.2391 0.0981
1481.000000 0.0683 0.0543 0.0448 0.0382 0.0316
1486.000000 0.0254 0.0208 0.0180 0.0165 0.0162
1491.000000 0.0180 0.0215 0.0362 0.0939 0.1660
1496.000000 0.2380 0.5043 0.5427 0.5673 0.5779
1501.000000 0.5862 0.5892 0.5900 0.5897 0.5908
1506.000000 0.5879 0.5869 0.5826 0.5782 0.5722
1511.000000 0.5645 0.5540 0.4900 0.4545 0.4190
1516.000000 0.3834 0.3480 0.3125 0.0459 0.0353
1521.000000 0.0204 0.0170 0.0175 0.0177 0.0252
1526.000000 0.0941 0.1629 0.2319 0.3008 0.3697
1531.000000 0.4317 0.4472 0.4468 0.4494 0.4481
1536.000000 0.4445 0.4392 0.4334 0.4282 0.4231
1541.000000 0.4170 0.4114 0.4080 0.4047 0.4030
1546.000000 0.4023 0.4026 0.4029 0.4042 0.4056
1551.000000 0.4070 0.4096 0.4126 0.4164 0.4212
1556.000000 0.4274 0.4356 0.4445 0.4510 0.4531
1561.000000 0.4560 0.4603 0.4652 0.4716 0.4764
1566.000000 0.4837 0.4796 0.4794 0.4785 0.4759
1571.000000 0.4700 0.4640 0.4581 0.4524 0.4469
1576.000000 0.4408 0.4328 0.4248 0.4167 0.4087
1581.000000 0.4016 0.3953 0.3906 0.3884 0.3893
1586.000000 0.3914 0.3945 0.3944 0.3944 0.3897
1591.000000 0.3837 0.3750 0.3672 0.3580 0.3472
1596.000000 0.3291 0.2991 0.2640 0.2357 0.1873
1601.000000 0.1701 0.1702 0.1703 0.1717 0.1740
1606.000000 0.1759 0.1774 0.1778 0.1713 0.1592
1611.000000 0.1442 0.1289 0.1109 0.0529 0.0305
1616.000000 0.0233 0.0182 0.0161 0.0140 0.0135
1621.000000 0.0137 0.0138 0.0146 0.0160 0.0190
1626.000000 0.0216 0.0246 0.0287 0.0357 0.0443
1631.000000 0.0587 0.1087 0.1305 0.2923 0.3170
1636.000000 0.3416 0.3662 0.3989 0.4172 0.4307
1641.000000 0.4479 0.5070 0.5335 0.5487 0.5606
1646.000000 0.5724 0.6317 0.6431 0.6550 0.6715
1651.000000 0.6815 0.6925 0.7006 0.7037 0.7051
1656.000000 0.7068 0.7083 0.7098 0.7111 0.7125
1661.000000 0.7167 0.7208 0.7254 0.7301 0.7346
1666.000000 0.7391 0.7439 0.7491 0.7553 0.7633
1671.000000 0.7668 0.7700 0.7732 0.7764 0.7797
1676.000000 0.7832 0.7868 0.7910 0.7951 0.8001
1681.000000 0.8061 0.8142 0.8185 0.8221 0.8218
1686.000000 0.8215 0.8210 0.8202 0.8194 0.8194
1691.000000 0.8194 0.8197 0.8201 0.8218 0.8237
1696.000000 0.8243 0.8248 0.8253 0.8258 0.8262
1701.000000 0.8266 0.8270 0.8290 0.8277 0.8280
1706.000000 0.8282 0.8284 0.8285 0.8286 0.8286
1711.000000 0.8287 0.8290 0.8301 0.8313 0.8325
1716.000000 0.8337 0.8333 0.8323 0.8290 0.8268
1721.000000 0.8263 0.8258 0.8258 0.8258 0.8260
1726.000000 0.8261 0.8263 0.8265 0.8270 0.8274
1731.000000 0.8278 0.8255 0.8235 0.8212 0.8187
1736.000000 0.8161 0.8140 0.8118 0.8099 0.8087
1741.000000 0.8075 0.8062 0.8051 0.8039 0.8060
1746.000000 0.8071 0.8084 0.8094 0.8101 0.8108
1751.000000 0.8115 0.8124 0.8133 0.8142 0.8151
1756.000000 0.8161 0.8169 0.8183 0.8195 0.8207
1761.000000 0.8218 0.8232 0.8246 0.8263 0.8278
1766.000000 0.8295 0.8308 0.8321 0.8325 0.8314
1771.000000 0.8303 0.8297 0.8299 0.8302 0.8308
1776.000000 0.8321 0.8344 0.8368 0.8425 0.8400
1781.000000 0.8399 0.8396 0.8394 0.8391 0.8386
1786.000000 0.8378 0.8371 0.8361 0.8350 0.8338
1791.000000 0.8327 0.8315 0.8292 0.8271 0.8252
1796.000000 0.8221 0.8197 0.8168 0.8134 0.8101
1801.000000 0.8072 0.8068 0.8065 0.8072 0.8111
1806.000000 0.8130 0.8143 0.8149 0.8151 0.8153
1811.000000 0.8156 0.8158 0.8161 0.8165 0.8171
1816.000000 0.8176 0.8183 0.8189 0.8198 0.8218
1821.000000 0.8239 0.8261 0.8278 0.8292 0.8305
1826.000000 0.8312 0.8312 0.8312 0.8311 0.8310
1831.000000 0.8308 0.8307 0.8305 0.8304 0.8302
1836.000000 0.8300 0.8298 0.8296 0.8296 0.8297
1841.000000 0.8303 0.8309 0.8358 0.8318 0.8321
1846.000000 0.8321 0.8321 0.8311 0.8301 0.8292
1851.000000 0.8282 0.8271 0.8260 0.8248 0.8235
1856.000000 0.8221 0.8205 0.8190 0.8175 0.8158
1861.000000 0.8143 0.8126 0.8111 0.8082 0.8051
1866.000000 0.8019 0.7984 0.7925 0.7858 0.7794
1871.000000 0.7714 0.7628 0.7598 0.7586 0.7576
1876.000000 0.7567 0.7548 0.7507 0.7454 0.7349
1881.000000 0.7275 0.7192 0.7195 0.7162 0.7200
1886.000000 0.7215 0.7249 0.7283 0.7325 0.7534
1891.000000 0.7696 0.7811 0.7999 0.8069 0.8131
1896.000000 0.8187 0.8224 0.8258 0.8277 0.8293
1901.000000 0.8310 0.8324 0.8334 0.8345 0.8356
1906.000000 0.8365 0.8371 0.8378 0.8384 0.8391
1911.000000 0.8397 0.8403 0.8409 0.8415 0.8420
1916.000000 0.8425 0.8430 0.8431 0.8431 0.8430
1921.000000 0.8421 0.8411 0.8401 0.8392 0.8375
1926.000000 0.8354 0.8332 0.8307 0.8283 0.8254
1931.000000 0.8223 0.8186 0.8114 0.8062 0.8011
1936.000000 0.7955 0.7884 0.7862 0.7861 0.7861
1941.000000 0.7861 0.7903 0.7949 0.7995 0.8041
1946.000000 0.8087 0.8133 0.8165 0.8175 0.8175
1951.000000 0.8171 0.8165 0.8161 0.8156 0.8151
1956.000000 0.8148 0.8171 0.8212 0.8248 0.8284
1961.000000 0.8311 0.8339 0.8367 0.8394 0.8421
1966.000000 0.8447 0.8467 0.8487 0.8503 0.8514
1971.000000 0.8525 0.8537 0.8540 0.8543 0.8544
1976.000000 0.8545 0.8545 0.8544 0.8543 0.8541
1981.000000 0.8536 0.8532 0.8527 0.8523 0.8518
1986.000000 0.8513 0.8504 0.8494 0.8485 0.8475
1991.000000 0.8466 0.8456 0.8450 0.8444 0.8437
1996.000000 0.8432 0.8433 0.8435 0.8437 0.8438
2001.000000 0.8440 0.8443 0.8444 0.8446 0.8447
2006.000000 0.8449 0.8451 0.8453 0.8455 0.8457
2011.000000 0.8460 0.8463 0.8465 0.8468 0.8471
2016.000000 0.8474 0.8477 0.8480 0.8483 0.8486
2021.000000 0.8488 0.8491 0.8494 0.8497 0.8500
2026.000000 0.8504 0.8507 0.8510 0.8513 0.8516
2031.000000 0.8518 0.8521 0.8525 0.8528 0.8531
2036.000000 0.8534 0.8536 0.8538 0.8540 0.8542
2041.000000 0.8544 0.8546 0.8548 0.8550 0.8552
2046.000000 0.8554 0.8556 0.8558 0.8560 0.8562
2051.000000 0.8564 0.8566 0.8568 0.8570 0.8571
2056.000000 0.8571 0.8571 0.8571 0.8571 0.8571
2061.000000 0.8571 0.8571 0.8571 0.8573 0.8573
2066.000000 0.8573 0.8571 0.8571 0.8570 0.8568
2071.000000 0.8568 0.8567 0.8566 0.8565 0.8563
2076.000000 0.8562 0.8561 0.8560 0.8559 0.8558
2081.000000 0.8556 0.8555 0.8553 0.8552 0.8550
2086.000000 0.8549 0.8547 0.8546 0.8544 0.8543
2091.000000 0.8541 0.8540 0.8537 0.8535 0.8531
2096.000000 0.8527 0.8523 0.8518 0.8514 0.8510
2101.000000 0.8506 0.8502 0.8497 0.8493 0.8488
2106.000000 0.8483 0.8483 0.8484 0.8487 0.8491
2111.000000 0.8494 0.8498 0.8501 0.8505 0.8508
2116.000000 0.8512 0.8516 0.8520 0.8524 0.8528
2121.000000 0.8533 0.8537 0.8538 0.8540 0.8542
2126.000000 0.8544 0.8546 0.8548 0.8549 0.8551
2131.000000 0.8553 0.8555 0.8557 0.8559 0.8560
2136.000000 0.8562 0.8564 0.8566 0.8568 0.8570
2141.000000 0.8571 0.8573 0.8574 0.8575 0.8575
2146.000000 0.8577 0.8578 0.8578 0.8580 0.8581
2151.000000 0.8581 0.8582 0.8583 0.8584 0.8585
2156.000000 0.8586 0.8586 0.8586 0.8585 0.8584
2161.000000 0.8583 0.8583 0.8582 0.8582 0.8581
2166.000000 0.8580 0.8578 0.8578 0.8578 0.8577
2171.000000 0.8575 0.8575 0.8573 0.8571 0.8570
2176.000000 0.8568 0.8567 0.8566 0.8565 0.8565
2181.000000 0.8565 0.8567 0.8573 0.8580 0.8588
2186.000000 0.8597 0.8599 0.8601 0.8601 0.8602
2191.000000 0.8602 0.8603 0.8603 0.8604 0.8604
2196.000000 0.8605 0.8606 0.8607 0.8607 0.8607
2201.000000 0.8607 0.8607 0.8606 0.8605 0.8604
2206.000000 0.8604 0.8603 0.8602 0.8601 0.8601
2211.000000 0.8600 0.8600 0.8599 0.8598 0.8597
2216.000000 0.8596 0.8595 0.8594 0.8593 0.8593
2221.000000 0.8592 0.8591 0.8590 0.8589 0.8588
2226.000000 0.8587 0.8586 0.8585 0.8583 0.8582
2231.000000 0.8581 0.8580 0.8578 0.8577 0.8575
2236.000000 0.8574 0.8571 0.8571 0.8570 0.8568
2241.000000 0.8567 0.8566 0.8564 0.8563 0.8562
2246.000000 0.8561 0.8559 0.8558 0.8556 0.8554
2251.000000 0.8552 0.8550 0.8547 0.8545 0.8543
2256.000000 0.8541 0.8538 0.8536 0.8534 0.8532
2261.000000 0.8528 0.8527 0.8525 0.8523 0.8520
2266.000000 0.8518 0.8515 0.8512 0.8509 0.8507
2271.000000 0.8504 0.8501 0.8498 0.8496 0.8493
2276.000000 0.8490 0.8487 0.8485 0.8482 0.8478
2281.000000 0.8475 0.8474 0.8471 0.8468 0.8465
2286.000000 0.8463 0.8460 0.8458 0.8455 0.8453
2291.000000 0.8450 0.8448 0.8445 0.8443 0.8440
2296.000000 0.8438 0.8435 0.8433 0.8430 0.8428
2301.000000 0.8425 0.8423 0.8421 0.8418 0.8417
2306.000000 0.8415 0.8413 0.8411 0.8409 0.8407
2311.000000 0.8405 0.8403 0.8408 0.8413 0.8421
2316.000000 0.8431 0.8445 0.8460 0.8468 0.8478
2321.000000 0.8487 0.8496 0.8503 0.8510 0.8516
2326.000000 0.8521 0.8524 0.8527 0.8528 0.8530
2331.000000 0.8531 0.8532 0.8533 0.8535 0.8536
2336.000000 0.8536 0.8536 0.8536 0.8535 0.8534
2341.000000 0.8533 0.8533 0.8532 0.8531 0.8534
2346.000000 0.8537 0.8552 0.8567 0.8584 0.8602
2351.000000 0.8613 0.8625 0.8633 0.8641 0.8642
2356.000000 0.8643 0.8644 0.8645 0.8646 0.8647
2361.000000 0.8648 0.8649 0.8649 0.8650 0.8650
2366.000000 0.8651 0.8651 0.8652 0.8652 0.8653
2371.000000 0.8653 0.8653 0.8653 0.8653 0.8653
2376.000000 0.8653 0.8653 0.8653 0.8652 0.8652
2381.000000 0.8652 0.8652 0.8652 0.8652 0.8652
2386.000000 0.8652 0.8652 0.8652 0.8651 0.8651
2391.000000 0.8651 0.8651 0.8652 0.8653 0.8653
2396.000000 0.8654 0.8654 0.8655 0.8655 0.8656
2401.000000 0.8656 0.8657 0.8657 0.8658 0.8658
2406.000000 0.8658 0.8658 0.8657 0.8655 0.8654
2411.000000 0.8653 0.8652 0.8650 0.8649 0.8648
2416.000000 0.8647 0.8646 0.8645 0.8643 0.8642
2421.000000 0.8640 0.8638 0.8636 0.8634 0.8632
2426.000000 0.8630 0.8628 0.8625 0.8624 0.8621
2431.000000 0.8620 0.8618 0.8616 0.8614 0.8613
2436.000000 0.8612 0.8611 0.8610 0.8609 0.8608
2441.000000 0.8607 0.8606 0.8605 0.8604 0.8602
2446.000000 0.8601 0.8601 0.8602 0.8605 0.8609
2451.000000 0.8613 0.8617 0.8620 0.8624 0.8628
2456.000000 0.8632 0.8636 0.8641 0.8646 0.8651
2461.000000 0.8655 0.8660 0.8662 0.8665 0.8667
2466.000000 0.8670 0.8671 0.8675 0.8675 0.8675
2471.000000 0.8675 0.8675 0.8675 0.8675 0.8675
2476.000000 0.8675 0.8675 0.8675 0.8675 0.8675
2481.000000 0.8675 0.8675 0.8675 0.8675 0.8675
2486.000000 0.8675 0.8675 0.8675 0.8675 0.8677
2491.000000 0.8677 0.8677 0.8677 0.8677 0.8677
2496.000000 0.8677 0.8677 0.8677 0.8675 0.8675
2501.000000 0.8673 0.8671 0.8668 0.8668 0.8666
2506.000000 0.8665 0.8663 0.8662 0.8660 0.8659
2511.000000 0.8657 0.8656 0.8654 0.8653 0.8647
2516.000000 0.8642 0.8637 0.8632 0.8627 0.8621
2521.000000 0.8618 0.8614 0.8610 0.8607 0.8603
2526.000000 0.8600 0.8597 0.8595 0.8595 0.8596
2531.000000 0.8596 0.8597 0.8597 0.8598 0.8598
2536.000000 0.8598 0.8597 0.8595 0.8593 0.8592
2541.000000 0.8590 0.8589 0.8587 0.8585 0.8583
2546.000000 0.8582 0.8580 0.8578 0.8577 0.8575
2551.000000 0.8571 0.8570 0.8568 0.8566 0.8564
2556.000000 0.8562 0.8559 0.8557 0.8554 0.8552
2561.000000 0.8549 0.8547 0.8544 0.8542 0.8540
2566.000000 0.8538 0.8534 0.8531 0.8525 0.8521
2571.000000 0.8518 0.8514 0.8509 0.8505 0.8501
2576.000000 0.8497 0.8492 0.8488 0.8485 0.8483
2581.000000 0.8480 0.8477 0.8474 0.8471 0.8468
2586.000000 0.8465 0.8462 0.8460 0.8457 0.8454
2591.000000 0.8452 0.8450 0.8455 0.8460 0.8465
2596.000000 0.8470 0.8474 0.8478 0.8482 0.8487
2601.000000 0.8491 0.8495 0.8500 0.8505 0.8510
2606.000000 0.8515 0.8518 0.8524 0.8525 0.8527
2611.000000 0.8528 0.8530 0.8531 0.8533 0.8534
2616.000000 0.8535 0.8536 0.8538 0.8539 0.8541
2621.000000 0.8542 0.8544 0.8545 0.8547 0.8547
2626.000000 0.8547 0.8547 0.8547 0.8547 0.8548
2631.000000 0.8548 0.8549 0.8549 0.8550 0.8550
2636.000000 0.8551 0.8551 0.8552 0.8552 0.8553
2641.000000 0.8553 0.8554 0.8554 0.8555 0.8555
2646.000000 0.8556 0.8556 0.8556 0.8556 0.8557
2651.000000 0.8557 0.8558 0.8558 0.8558 0.8558
2656.000000 0.8559 0.8559 0.8560 0.8561 0.8562
2661.000000 0.8564 0.8567 0.8568 0.8571 0.8573
2666.000000 0.8575 0.8578 0.8580 0.8582 0.8584
2671.000000 0.8587 0.8591 0.8595 0.8599 0.8603
2676.000000 0.8608 0.8612 0.8616 0.8621 0.8625
2681.000000 0.8631 0.8637 0.8642 0.8648 0.8653
2686.000000 0.8659 0.8664 0.8670 0.8675 0.8680
2691.000000 0.8685 0.8691 0.8691 0.8691 0.8690
2696.000000 0.8690 0.8689 0.8689 0.8689 0.8689
2701.000000 0.8688 0.8688 0.8688 0.8688 0.8688
2706.000000 0.8688 0.8687 0.8687 0.8687 0.8687
2711.000000 0.8687 0.8687 0.8686 0.8686 0.8686
2716.000000 0.8686 0.8686 0.8686 0.8685 0.8685
2721.000000 0.8684 0.8684 0.8683 0.8683 0.8682
2726.000000 0.8682 0.8682 0.8682 0.8681 0.8681
2731.000000 0.8680 0.8680 0.8678 0.8678 0.8678
2736.000000 0.8680 0.8680 0.8680 0.8680 0.8680
2741.000000 0.8680 0.8680 0.8680 0.8680 0.8680
2746.000000 0.8680 0.8680 0.8680 0.8680 0.8680
2751.000000 0.8680 0.8680 0.8678 0.8678 0.8678
2756.000000 0.8678 0.8677 0.8677 0.8675 0.8675
2761.000000 0.8675 0.8674 0.8673 0.8673 0.8671
2766.000000 0.8671 0.8670 0.8668 0.8668 0.8667
2771.000000 0.8666 0.8666 0.8665 0.8664 0.8663
2776.000000 0.8662 0.8661 0.8661 0.8660 0.8659
2781.000000 0.8658 0.8657 0.8656 0.8655 0.8654
2786.000000 0.8653 0.8652 0.8651 0.8650 0.8649
2791.000000 0.8648 0.8647 0.8646 0.8645 0.8644
2796.000000 0.8643 0.8642 0.8641 0.8641 0.8642
2801.000000 0.8643 0.8644 0.8645 0.8647 0.8648
2806.000000 0.8650 0.8651 0.8653 0.8655 0.8658
2811.000000 0.8663 0.8668 0.8670 0.8671 0.8673
2816.000000 0.8674 0.8675 0.8675 0.8677 0.8678
2821.000000 0.8680 0.8681 0.8681 0.8682 0.8682
2826.000000 0.8682 0.8682 0.8682 0.8682 0.8683
2831.000000 0.8683 0.8683 0.8683 0.8683 0.8683
2836.000000 0.8683 0.8683 0.8683 0.8683 0.8683
2841.000000 0.8683 0.8683 0.8683 0.8683 0.8683
2846.000000 0.8682 0.8678 0.8674 0.8670 0.8666
2851.000000 0.8659 0.8652 0.8643 0.8634 0.8624
2856.000000 0.8615 0.8606 0.8597 0.8587 0.8578
2861.000000 0.8570 0.8562 0.8553 0.8545 0.8537
2866.000000 0.8528 0.8521 0.8513 0.8504 0.8496
2871.000000 0.8488 0.8481 0.8473 0.8466 0.8459
2876.000000 0.8452 0.8444 0.8437 0.8428 0.8421
2881.000000 0.8415 0.8408 0.8400 0.8393 0.8386
2886.000000 0.8378 0.8375 0.8371 0.8367 0.8367
2891.000000 0.8367 0.8371 0.8383 0.8396 0.8409
2896.000000 0.8421 0.8435 0.8448 0.8459 0.8471
2901.000000 0.8481 0.8492 0.8502 0.8512 0.8521
2906.000000 0.8533 0.8542 0.8551 0.8560 0.8570
2911.000000 0.8578 0.8589 0.8598 0.8608 0.8614
2916.000000 0.8621 0.8623 0.8625 0.8618 0.8614
2921.000000 0.8608 0.8602 0.8596 0.8591 0.8581
2926.000000 0.8571 0.8561 0.8551 0.8540 0.8530
2931.000000 0.8518 0.8509 0.8498 0.8488 0.8488
2936.000000 0.8488 0.8490 0.8493 0.8496 0.8499
2941.000000 0.8502 0.8506 0.8509 0.8513 0.8520
2946.000000 0.8527 0.8533 0.8540 0.8538 0.8537
2951.000000 0.8535 0.8533 0.8528 0.8525 0.8506
2956.000000 0.8488 0.8468 0.8451 0.8418 0.8385
2961.000000 0.8359 0.8333 0.8312 0.8292 0.8271
2966.000000 0.8250 0.8228 0.8208 0.8176 0.8146
2971.000000 0.8115 0.8084 0.8053 0.8022 0.7988
2976.000000 0.7953 0.7917 0.7882 0.7847 0.7811
2981.000000 0.7771 0.7733 0.7686 0.7639 0.7592
2986.000000 0.7546 0.7493 0.7440 0.7374 0.7308
2991.000000 0.7196 0.7084 0.7015 0.6947 0.6935
2996.000000 0.6924 0.6911 0.6901 0.6888 0.6875
3001.000000 0.6851 0.6828 0.6797 0.6765 0.6731
3006.000000 0.6696 0.6651 0.6607 0.6551 0.6495
3011.000000 0.6425 0.6358 0.6109 0.5860 0.5708
3016.000000 0.5555 0.5402 0.5249 0.5095 0.4942
3021.000000 0.4789 0.4636 0.4483 0.4330 0.4177
3026.000000 0.4024 0.3870 0.3716 0.3564 0.3410
3031.000000 0.3258 0.3105 0.2951 0.2798 0.2771
3036.000000 0.2766 0.2744 0.2744 0.2932 0.3120
3041.000000 0.3378 0.3636 0.3894 0.4152 0.4410
3046.000000 0.4668 0.4926 0.5808 0.5442 0.5700
3051.000000 0.5748 0.5797 0.5756 0.5715 0.5633
3056.000000 0.5552 0.5470 0.5389 0.5307 0.5226
3061.000000 0.5144 0.5062 0.4980 0.4843 0.4860
3066.000000 0.4821 0.4966 0.5110 0.5426 0.5741
3071.000000 0.5847 0.5953 0.5930 0.5907 0.5870
3076.000000 0.5833 0.5795 0.5758 0.5721 0.5684
3081.000000 0.5673 0.5662 0.5666 0.5669 0.5847
3086.000000 0.6025 0.6304 0.6583 0.6758 0.6936
3091.000000 0.6947 0.6958 0.6962 0.6968 0.6976
3096.000000 0.6986 0.6994 0.7003 0.7017 0.7031
3101.000000 0.7064 0.7098 0.7221 0.7345 0.7468
3106.000000 0.7591 0.7714 0.7837 0.7971 0.8106
3111.000000 0.8161 0.8218 0.8243 0.8268 0.8270
3116.000000 0.8271 0.8268 0.8264 0.8260 0.8256
3121.000000 0.8250 0.8245 0.8238 0.8231 0.8215
3126.000000 0.8199 0.8194 0.8190 0.8191 0.8193
3131.000000 0.8195 0.8197 0.8202 0.8208 0.8216
3136.000000 0.8224 0.8235 0.8246 0.8263 0.8280
3141.000000 0.8299 0.8318 0.8321 0.8325 0.8328
3146.000000 0.8331 0.8333 0.8335 0.8337 0.8340
3151.000000 0.8342 0.8344 0.8352 0.8361 0.8375
3156.000000 0.8390 0.8406 0.8423 0.8437 0.8451
3161.000000 0.8457 0.8464 0.8470 0.8501 0.8478
3166.000000 0.8478 0.8478 0.8478 0.8478 0.8477
3171.000000 0.8475 0.8474 0.8471 0.8471 0.8464
3176.000000 0.8457 0.8450 0.8443 0.8435 0.8428
3181.000000 0.8420 0.8412 0.8403 0.8394 0.8378
3186.000000 0.8363 0.8347 0.8331 0.8315 0.8300
3191.000000 0.8282 0.8265 0.8246 0.8227 0.8208
3196.000000 0.8189 0.8156 0.8124 0.8074 0.8025
3201.000000 0.7984 0.7944 0.7941 0.7940 0.7940
3206.000000 0.7940 0.7941 0.7942 0.7943 0.7945
3211.000000 0.7960 0.7975 0.8000 0.8024 0.8031
3216.000000 0.8038 0.8042 0.8046 0.8049 0.8053
3221.000000 0.8058 0.8065 0.8081 0.8096 0.8115
3226.000000 0.8134 0.8157 0.8180 0.8214 0.8249
3231.000000 0.8305 0.8362 0.8381 0.8400 0.8416
3236.000000 0.8433 0.8447 0.8462 0.8475 0.8489
3241.000000 0.8502 0.8516 0.8525 0.8535 0.8544
3246.000000 0.8553 0.8562 0.8571 0.8578 0.8584
3251.000000 0.8587 0.8591 0.8594 0.8598 0.8601
3256.000000 0.8605 0.8608 0.8611 0.8614 0.8618
3261.000000 0.8617 0.8617 0.8616 0.8616 0.8616
3266.000000 0.8616 0.8615 0.8615 0.8614 0.8614
3271.000000 0.8613 0.8611 0.8611 0.8610 0.8609
3276.000000 0.8609 0.8608 0.8607 0.8606 0.8605
3281.000000 0.8602 0.8600 0.8594 0.8588 0.8581
3286.000000 0.8575 0.8568 0.8563 0.8557 0.8551
3291.000000 0.8545 0.8539 0.8533 0.8527 0.8521
3296.000000 0.8516 0.8508 0.8501 0.8493 0.8485
3301.000000 0.8477 0.8468 0.8461 0.8454 0.8446
3306.000000 0.8438 0.8427 0.8416 0.8402 0.8388
3311.000000 0.8374 0.8360 0.8346 0.8332 0.8316
3316.000000 0.8300 0.8282 0.8265 0.8247 0.8230
3321.000000 0.8212 0.8195 0.8176 0.8160 0.8143
3326.000000 0.8125 0.8108 0.8093 0.8075 0.8058
3331.000000 0.8042 0.8025 0.8006 0.7987 0.7960
3336.000000 0.7934 0.7908 0.7882 0.7856 0.7831
3341.000000 0.7805 0.7778 0.7753 0.7728 0.7701
3346.000000 0.7675 0.7633 0.7591 0.7549 0.7507
3351.000000 0.7464 0.7421 0.7365 0.7308 0.7250
3356.000000 0.7192 0.7118 0.7044 0.6978 0.6914
3361.000000 0.6862 0.6812 0.6755 0.6698 0.6632
3366.000000 0.6567 0.6398 0.6230 0.6101 0.5972
3371.000000 0.5842 0.5712 0.5583 0.5454 0.5325
3376.000000 0.5196 0.5066 0.4937 0.4807 0.4678
3381.000000 0.4531 0.4384 0.4272 0.4160 0.4118
3386.000000 0.4075 0.4045 0.4016 0.3986 0.3957
3391.000000 0.3943 0.3930 0.3922 0.3914 0.3914
3396.000000 0.3914 0.3914 0.3908 0.3968 0.4022
3401.000000 0.4343 0.4664 0.4985 0.5307 0.5628
3406.000000 0.5950 0.6259 0.6568 0.6734 0.6899
3411.000000 0.7037 0.7175 0.7322 0.7471 0.7518
3416.000000 0.7565 0.7608 0.7651 0.7661 0.7671
3421.000000 0.7674 0.7674 0.7672 0.7711 0.7661
3426.000000 0.7653 0.7640 0.7626 0.7615 0.7606
3431.000000 0.7591 0.7576 0.7558 0.7541 0.7521
3436.000000 0.7501 0.7469 0.7438 0.7385 0.7332
3441.000000 0.7278 0.7226 0.7174 0.7121 0.7068
3446.000000 0.7015 0.6961 0.6910 0.6857 0.6804
3451.000000 0.6751 0.6699 0.6646 0.6593 0.6540
3456.000000 0.6488 0.6435 0.6382 0.6329 0.6277
3461.000000 0.6224 0.6171 0.6118 0.6066 0.6012
3466.000000 0.5960 0.5890 0.5820 0.5772 0.5724
3471.000000 0.5697 0.5670 0.5649 0.5629 0.5624
3476.000000 0.5620 0.5620 0.5596 0.5625 0.5631
3481.000000 0.5649 0.5667 0.5708 0.5749 0.5795
3486.000000 0.5842 0.5882 0.5922 0.5954 0.5987
3491.000000 0.6017 0.6048 0.6148 0.6249 0.6316
3496.000000 0.6384 0.6741 0.7099 0.7215 0.7333
3501.000000 0.7517 0.7701 0.7821 0.7941 0.8008
3506.000000 0.8075 0.8124 0.8172 0.8209 0.8245
3511.000000 0.8280 0.8315 0.8332 0.8350 0.8368
3516.000000 0.8386 0.8402 0.8418 0.8428 0.8441
3521.000000 0.8453 0.8465 0.8474 0.8484 0.8491
3526.000000 0.8498 0.8504 0.8511 0.8518 0.8525
3531.000000 0.8531 0.8538 0.8544 0.8551 0.8556
3536.000000 0.8562 0.8567 0.8573 0.8578 0.8584
3541.000000 0.8589 0.8595 0.8599 0.8603 0.8607
3546.000000 0.8611 0.8615 0.8618 0.8623 0.8627
3551.000000 0.8631 0.8635 0.8639 0.8643 0.8643
3556.000000 0.8643 0.8643 0.8643 0.8643 0.8643
3561.000000 0.8643 0.8643 0.8643 0.8643 0.8642
3566.000000 0.8642 0.8641 0.8640 0.8639 0.8638
3571.000000 0.8637 0.8636 0.8635 0.8634 0.8634
3576.000000 0.8634 0.8636 0.8638 0.8640 0.8642
3581.000000 0.8643 0.8643 0.8643 0.8642 0.8640
3586.000000 0.8639 0.8638 0.8637 0.8636 0.8635
3591.000000 0.8635 0.8635 0.8636 0.8637 0.8638
3596.000000 0.8639 0.8640 0.8642 0.8643 0.8644
3601.000000 0.8645 0.8646 0.8647 0.8648 0.8649
3606.000000 0.8650 0.8650 0.8650 0.8650 0.8650
3611.000000 0.8650 0.8650 0.8650 0.8650 0.8650
3616.000000 0.8651 0.8651 0.8651 0.8651 0.8651
3621.000000 0.8651 0.8651 0.8650 0.8649 0.8645
3626.000000 0.8641 0.8637 0.8633 0.8628 0.8625
3631.000000 0.8625 0.8625 0.8628 0.8631 0.8633
3636.000000 0.8636 0.8641 0.8647 0.8649 0.8652
3641.000000 0.8646 0.8641 0.8635 0.8630 0.8627
3646.000000 0.8624 0.8621 0.8621 0.8618 0.8617
3651.000000 0.8615 0.8614 0.8614 0.8615 0.8617
3656.000000 0.8618 0.8620 0.8621 0.8623 0.8625
3661.000000 0.8627 0.8630 0.8641 0.8642 0.8642
3666.000000 0.8633 0.8627 0.8621 0.8616 0.8610
3671.000000 0.8604 0.8599 0.8594 0.8590 0.8585
3676.000000 0.8580 0.8575 0.8573 0.8571 0.8571
3681.000000 0.8570 0.8568 0.8568 0.8567 0.8566
3686.000000 0.8567 0.8567 0.8568 0.8571 0.8575
3691.000000 0.8580 0.8584 0.8587 0.8591 0.8595
3696.000000 0.8599 0.8600 0.8601 0.8601 0.8601
3701.000000 0.8601 0.8601 0.8596 0.8591 0.8585
3706.000000 0.8580 0.8582 0.8584 0.8590 0.8596
3711.000000 0.8601 0.8606 0.8610 0.8614 0.8617
3716.000000 0.8621 0.8621 0.8623 0.8623 0.8624
3721.000000 0.8624 0.8625 0.8625 0.8625 0.8625
3726.000000 0.8627 0.8627 0.8628 0.8628 0.8628
3731.000000 0.8628 0.8628 0.8627 0.8625 0.8621
3736.000000 0.8618 0.8612 0.8607 0.8600 0.8594
3741.000000 0.8588 0.8582 0.8577 0.8571 0.8568
3746.000000 0.8565 0.8561 0.8557 0.8553 0.8550
3751.000000 0.8546 0.8543 0.8541 0.8540 0.8540
3756.000000 0.8541 0.8541 0.8542 0.8543 0.8544
3761.000000 0.8545 0.8547 0.8549 0.8551 0.8553
3766.000000 0.8555 0.8556 0.8558 0.8560 0.8562
3771.000000 0.8565 0.8568 0.8573 0.8577 0.8581
3776.000000 0.8585 0.8589 0.8593 0.8595 0.8597
3781.000000 0.8597 0.8598 0.8599 0.8598 0.8597
3786.000000 0.8595 0.8589 0.8584 0.8578 0.8573
3791.000000 0.8566 0.8560 0.8553 0.8547 0.8541
3796.000000 0.8535
##END=
