##TITLE=BIPHENYL, 4-BROMO-
##JCAMP-DX=4.24
##DATA TYPE=INFRARED SPECTRUM
##CLASS=COBLENTZ III
##ORIGIN=DOW CORNING CORP.
##OWNER=COBLENTZ SOCIETY
Collection (C) 2018 copyright by the U.S. Secretary of Commerce
on behalf of the United States of America. All rights reserved.
##DATE=1965/03/16
##NAMES=4-bromo-1,1'-biphenyl
##CAS REGISTRY NO=92-66-0
##MOLFORM=C12 H9 Br
##SOURCE REFERENCE=COBLENTZ NO. 10046
##$NIST SOURCE=COBLENTZ
##$NIST IMAGE=cob10046
##SPECTROMETER/DATA SYSTEM=PERKIN-ELMER 521 (GRATING)
##INSTRUMENT PARAMETERS=FILTERS AT 3150, 2500, 2000, 1150, 700, 410 AND GRATING CHANGES AT 2000, 630 CM^-^1
##STATE=SOLUTION (5% IN CCl4 FOR 3800-1300, 2% IN CS2 FOR 1300-650, AND 5% IN CCl4 FOR 650-250 CM^-^1) VS. SOLVENT
##PATH LENGTH=0.011, 0.011, AND 0.020CM (CsBr CELL)
##SAMPLING PROCEDURE=TRANSMISSION
##RESOLUTION=4
##DATA PROCESSING=DIGITIZED BY NIST FROM HARD COPY (FROM TWO SEGMENTS)
##XUNITS=1/CM
##YUNITS=TRANSMITTANCE
##XFACTOR=1.000000
##YFACTOR=1
##DELTAX=0.919542
##FIRSTX=236.322
##LASTX=3797.71
##FIRSTY=0.926
##MAXX=3797.71
##MINX=236.322
##MAXY=0.926
##MINY=0.297
##NPOINTS=3874
##XYDATA=(X++(Y..Y))
236.322000 0.9260 0.9260 0.9260 0.9260 0.9260
240.919712 0.9250 0.9250 0.9250 0.9250 0.9240
245.517423 0.9240 0.9250 0.9250 0.9260 0.9260
250.115135 0.9260 0.9260 0.9260 0.9260 0.9260
254.712846 0.9250 0.9250 0.9250 0.9250 0.9250
259.310558 0.9250 0.9240 0.9250 0.9240 0.9240
263.908269 0.9220 0.9220 0.9220 0.9220 0.9220
268.505981 0.9230 0.9240 0.9240 0.9240 0.9240
273.103693 0.9240 0.9240 0.9230 0.9230 0.9220
277.701404 0.9210 0.9210 0.9210 0.9210 0.9210
282.299116 0.9210 0.9210 0.9210 0.9210 0.9210
286.896827 0.9210 0.9210 0.9210 0.9210 0.9210
291.494539 0.9210 0.9230 0.9230 0.9230 0.9230
296.092250 0.9230 0.9230 0.9230 0.9230 0.9230
300.689962 0.9230 0.9240 0.9240 0.9220 0.9220
305.287674 0.9220 0.9220 0.9210 0.9210 0.9240
309.885385 0.9240 0.9240 0.9230 0.9210 0.9210
314.483097 0.9210 0.9190 0.9190 0.9220 0.9220
319.080808 0.9230 0.9230 0.9230 0.9250 0.9250
323.678520 0.9260 0.9260 0.9250 0.9250 0.9240
328.276231 0.9240 0.9230 0.9230 0.9220 0.9190
332.873943 0.9180 0.9160 0.9150 0.9140 0.9130
337.471655 0.9100 0.9090 0.9070 0.9060 0.9050
342.069366 0.9050 0.9050 0.9050 0.9030 0.9030
346.667078 0.9020 0.9010 0.9010 0.9000 0.8980
351.264789 0.8980 0.8940 0.8900 0.8830 0.8790
355.862501 0.8780 0.8770 0.8760 0.8750 0.8740
360.460212 0.8720 0.8710 0.8710 0.8700 0.8700
365.057924 0.8690 0.8690 0.8690 0.8690 0.8690
369.655636 0.8680 0.8680 0.8670 0.8660 0.8660
374.253347 0.8640 0.8640 0.8630 0.8620 0.8610
378.851059 0.8590 0.8560 0.8540 0.8510 0.8470
383.448770 0.8450 0.8430 0.8380 0.8320 0.8210
388.046482 0.8140 0.8110 0.8070 0.8050 0.8040
392.644193 0.8030 0.8030 0.8020 0.8020 0.8020
397.241905 0.8000 0.8000 0.7990 0.7980 0.7950
401.839617 0.7940 0.7920 0.7920 0.7920 0.7920
406.437328 0.7920 0.7940 0.7940 0.7920 0.7900
411.035040 0.7880 0.7870 0.7830 0.7740 0.7710
415.632751 0.7710 0.7730 0.7800 0.7890 0.7980
420.230463 0.8020 0.8140 0.8190 0.8230 0.8230
424.828174 0.8270 0.8290 0.8320 0.8340 0.8360
429.425886 0.8370 0.8380 0.8430 0.8450 0.8460
434.023598 0.8460 0.8470 0.8480 0.8480 0.8470
438.621309 0.8460 0.8460 0.8450 0.8430 0.8390
443.219021 0.8370 0.8370 0.8340 0.8300 0.8240
447.816732 0.8210 0.8200 0.8210 0.8220 0.8260
452.414444 0.8280 0.8310 0.8310 0.8320 0.8340
457.012155 0.8340 0.8340 0.8340 0.8350 0.8350
461.609867 0.8350 0.8340 0.8340 0.8320 0.8320
466.207579 0.8310 0.8300 0.8290 0.8270 0.8220
470.805290 0.8190 0.8140 0.8080 0.8000 0.7980
475.403002 0.7970 0.7950 0.7890 0.7810 0.7730
480.000713 0.7630 0.7520 0.7420 0.7320 0.7210
484.598425 0.7010 0.6760 0.6600 0.6490 0.6430
489.196136 0.6270 0.6160 0.5851 0.5651 0.5511
493.793848 0.5500 0.5500 0.5500 0.5510 0.5510
498.391560 0.5520 0.5540 0.5570 0.5620 0.5670
502.989271 0.5680 0.5720 0.5770 0.5850 0.5930
507.586983 0.6040 0.6140 0.6230 0.6330 0.6430
512.184694 0.6510 0.6520 0.6570 0.6670 0.6710
516.782406 0.6760 0.6790 0.6850 0.6910 0.6960
521.380118 0.7010 0.7020 0.7020 0.7030 0.7030
525.977829 0.7040 0.7070 0.7090 0.7110 0.7130
530.575541 0.7190 0.7210 0.7210 0.7230 0.7200
535.173252 0.7130 0.7080 0.6791 0.6611 0.6490
539.770964 0.6469 0.5840 0.5900 0.6520 0.6730
544.368675 0.6970 0.7170 0.7200 0.7200 0.7190
548.966387 0.7190 0.7200 0.7200 0.7230 0.7240
553.564099 0.7250 0.7250 0.7270 0.7280 0.7320
558.161810 0.7350 0.7420 0.7490 0.7650 0.7750
562.759522 0.7890 0.7970 0.8000 0.8040 0.8040
567.357233 0.8030 0.8020 0.7990 0.7890 0.7820
571.954945 0.7790 0.7760 0.7780 0.7880 0.7970
576.552656 0.8050 0.8120 0.8180 0.8220 0.8240
581.150368 0.8280 0.8310 0.8320 0.8350 0.8370
585.748080 0.8390 0.8400 0.8420 0.8430 0.8430
590.345791 0.8430 0.8440 0.8450 0.8460 0.8460
594.943503 0.8460 0.8460 0.8460 0.8460 0.8450
599.541214 0.8450 0.8460 0.8480 0.8470 0.8470
604.138926 0.8460 0.8450 0.8430 0.8400 0.8390
608.736637 0.8370 0.8360 0.8350 0.8360 0.8360
613.334349 0.8380 0.8390 0.8430 0.8460 0.8480
617.932061 0.8520 0.8520 0.8530 0.8550 0.8560
622.529772 0.8580 0.8620 0.8620 0.7970 0.7950
627.127484 0.7920 0.7910 0.7900 0.7790 0.7790
631.725195 0.7900 0.7900 0.7900 0.7890 0.7890
636.322907 0.7870 0.7860 0.7860 0.7860 0.7870
640.920618 0.7870 0.7900 0.7940 0.7940 0.7960
645.518330 0.7980 0.8030 0.8060 0.8100 0.8140
650.116042 0.8210 0.8380 0.8390 0.8390 0.8380
654.713753 0.8380 0.8380 0.8370 0.8370 0.8370
659.311465 0.8370 0.8370 0.8360 0.8360 0.8360
663.909176 0.8340 0.8310 0.8270 0.8210 0.8180
668.506888 0.8160 0.8150 0.8150 0.8150 0.8160
673.104599 0.8160 0.8200 0.8270 0.8340 0.8340
677.702311 0.8320 0.8310 0.8300 0.8260 0.8210
682.300023 0.8160 0.8130 0.8100 0.8070 0.8050
686.897734 0.7970 0.7890 0.7730 0.7600 0.7230
691.495446 0.6711 0.5593 0.5381 0.5380 0.5500
696.093157 0.6161 0.6630 0.6950 0.7260 0.7510
700.690869 0.7720 0.7920 0.8020 0.8110 0.8120
705.288580 0.8150 0.8210 0.8310 0.8390 0.8500
709.886292 0.8530 0.8610 0.8620 0.8640 0.8660
714.484004 0.8670 0.8680 0.8680 0.8680 0.8690
719.081715 0.8690 0.8700 0.8710 0.8710 0.8710
723.679427 0.8710 0.8710 0.8710 0.8700 0.8700
728.277138 0.8690 0.8680 0.8670 0.8620 0.8580
732.874850 0.8520 0.8480 0.8470 0.8480 0.8510
737.472561 0.8520 0.8510 0.8460 0.8430 0.8340
742.070273 0.8230 0.8140 0.8040 0.7940 0.7820
746.667985 0.7740 0.7580 0.7211 0.6691 0.5823
751.265696 0.5679 0.5190 0.5099 0.4450 0.4140
755.863408 0.3071 0.3070 0.5266 0.5719 0.6687
760.461119 0.7990 0.8190 0.8360 0.8390 0.8450
765.058831 0.8460 0.8480 0.8510 0.8510 0.8510
769.656542 0.8510 0.8500 0.8480 0.8480 0.8470
774.254254 0.8470 0.8470 0.8480 0.8510 0.8510
778.851966 0.8520 0.8530 0.8530 0.8540 0.8550
783.449677 0.8560 0.8580 0.8590 0.8610 0.8640
788.047389 0.8690 0.8720 0.8720 0.8760 0.8770
792.645100 0.8780 0.8780 0.8780 0.8780 0.8770
797.242812 0.8760 0.8760 0.8740 0.8680 0.8630
801.840523 0.8600 0.8500 0.8350 0.8340 0.8350
806.438235 0.8430 0.8460 0.8540 0.8600 0.8600
811.035947 0.8590 0.8590 0.8580 0.8560 0.8540
815.633658 0.8510 0.8400 0.8310 0.8230 0.8120
820.231370 0.7990 0.7800 0.7071 0.6751 0.5883
824.829081 0.5120 0.5120 0.5480 0.7209 0.7869
829.426793 0.8160 0.8469 0.8630 0.8720 0.8760
834.024504 0.8770 0.8780 0.8780 0.8790 0.8810
838.622216 0.8830 0.8830 0.8840 0.8850 0.8860
843.219928 0.8860 0.8860 0.8890 0.8890 0.8900
847.817639 0.8900 0.8900 0.8900 0.8910 0.8910
852.415351 0.8910 0.8910 0.8910 0.8910 0.8910
857.013062 0.8900 0.8900 0.8900 0.8900 0.8900
861.610774 0.8890 0.8870 0.8870 0.8860 0.8860
866.208485 0.8860 0.8860 0.8860 0.8850 0.8850
870.806197 0.8850 0.8840 0.8850 0.8840 0.8840
875.403909 0.8840 0.8830 0.8830 0.8830 0.8820
880.001620 0.8830 0.8830 0.8820 0.8820 0.8810
884.599332 0.8810 0.8790 0.8790 0.8780 0.8770
889.197043 0.8770 0.8760 0.8760 0.8740 0.8740
893.794755 0.8720 0.8720 0.8710 0.8700 0.8690
898.392466 0.8690 0.8690 0.8690 0.8690 0.8690
902.990178 0.8700 0.8700 0.8700 0.8690 0.8690
907.587890 0.8690 0.8700 0.8700 0.8710 0.8720
912.185601 0.8750 0.8760 0.8760 0.8770 0.8770
916.783313 0.8770 0.8770 0.8770 0.8770 0.8770
921.381024 0.8780 0.8780 0.8770 0.8760 0.8750
925.978736 0.8740 0.8740 0.8740 0.8720 0.8720
930.576447 0.8720 0.8720 0.8740 0.8740 0.8740
935.174159 0.8740 0.8740 0.8720 0.8710 0.8710
939.771871 0.8710 0.8700 0.8700 0.8700 0.8700
944.369582 0.8700 0.8690 0.8680 0.8680 0.8670
948.967294 0.8670 0.8670 0.8660 0.8640 0.8620
953.565005 0.8590 0.8590 0.8600 0.8600 0.8610
958.162717 0.8630 0.8660 0.8670 0.8680 0.8700
962.760428 0.8710 0.8720 0.8720 0.8720 0.8720
967.358140 0.8720 0.8710 0.8710 0.8710 0.8710
971.955852 0.8710 0.8720 0.8720 0.8720 0.8720
976.553563 0.8710 0.8710 0.8710 0.8710 0.8700
981.151275 0.8700 0.8700 0.8700 0.8690 0.8680
985.748986 0.8670 0.8640 0.8610 0.8580 0.8540
990.346698 0.8530 0.8460 0.8390 0.8280 0.8210
994.944409 0.8190 0.8180 0.8120 0.8060 0.8040
999.542121 0.7980 0.7938 0.6909 0.6440 0.6290
1004.139833 0.4970 0.4970 0.7437 0.8059 0.8080
1008.737544 0.8140 0.8150 0.8130 0.8080 0.8060
1013.335256 0.8070 0.8140 0.8280 0.8360 0.8400
1017.932967 0.8430 0.8440 0.8440 0.8440 0.8440
1022.530679 0.8440 0.8430 0.8420 0.8420 0.8420
1027.128390 0.8420 0.8420 0.8420 0.8420 0.8420
1031.726102 0.8400 0.8390 0.8400 0.8390 0.8390
1036.323814 0.8370 0.8360 0.8370 0.8370 0.8390
1040.921525 0.8400 0.8390 0.8390 0.8390 0.8380
1045.519237 0.8380 0.8370 0.8360 0.8350 0.8320
1050.116948 0.8280 0.8260 0.8230 0.8210 0.8210
1054.714660 0.8190 0.8150 0.8130 0.8110 0.8070
1059.312371 0.8050 0.8020 0.7970 0.7940 0.7830
1063.910083 0.7760 0.7710 0.7650 0.7590 0.7510
1068.507795 0.7330 0.7090 0.6711 0.6361 0.6250
1073.105506 0.6250 0.6400 0.6560 0.6790 0.6940
1077.703218 0.7150 0.7400 0.7430 0.7500 0.7620
1082.300929 0.7730 0.7860 0.7950 0.8000 0.8040
1086.898641 0.8050 0.8050 0.8050 0.8060 0.8060
1091.496353 0.8060 0.8050 0.8050 0.8040 0.8020
1096.094064 0.8020 0.8000 0.8000 0.8000 0.8020
1100.691776 0.8030 0.8060 0.8110 0.8140 0.8150
1105.289487 0.8180 0.8200 0.8210 0.8220 0.8220
1109.887199 0.8230 0.8240 0.8260 0.8260 0.8260
1114.484910 0.8230 0.8230 0.8240 0.8240 0.8270
1119.082622 0.8270 0.8280 0.8300 0.8320 0.8320
1123.680334 0.8340 0.8360 0.8380 0.8430 0.8440
1128.278045 0.8500 0.8550 0.8600 0.8630 0.8690
1132.875757 0.8710 0.8710 0.8720 0.8720 0.8720
1137.473468 0.8740 0.8750 0.8760 0.8770 0.8770
1142.071180 0.8780 0.8780 0.8770 0.8770 0.8770
1146.668891 0.8770 0.8770 0.8770 0.8760 0.8760
1151.266603 0.8720 0.8750 0.8760 0.8770 0.8770
1155.864315 0.8760 0.8760 0.8760 0.8760 0.8750
1160.462026 0.8750 0.8740 0.8740 0.8760 0.8770
1165.059738 0.8770 0.8780 0.8780 0.8790 0.8790
1169.657449 0.8790 0.8780 0.8810 0.8820 0.8830
1174.255161 0.8830 0.8830 0.8830 0.8830 0.8840
1178.852872 0.8850 0.8850 0.8850 0.8860 0.8860
1183.450584 0.8850 0.8860 0.8900 0.8920 0.8920
1188.048296 0.8930 0.8930 0.8930 0.8950 0.8970
1192.646007 0.8980 0.8980 0.8980 0.8980 0.8990
1197.243719 0.8990 0.8990 0.8990 0.8990 0.9000
1201.841430 0.9000 0.9000 0.9000 0.9000 0.9000
1206.439142 0.9000 0.9000 0.9000 0.9000 0.9000
1211.036853 0.8990 0.8990 0.8990 0.8990 0.8990
1215.634565 0.8990 0.8990 0.8990 0.8990 0.8990
1220.232277 0.8990 0.9000 0.9010 0.9000 0.9010
1224.829988 0.9010 0.9010 0.9010 0.9020 0.9010
1229.427700 0.9010 0.9010 0.9000 0.8990 0.9000
1234.025411 0.8990 0.8990 0.8990 0.8990 0.8980
1238.623123 0.8970 0.8970 0.8950 0.8950 0.8940
1243.220834 0.8940 0.8930 0.8930 0.8920 0.8920
1247.818546 0.8910 0.8910 0.8910 0.8910 0.8910
1252.416258 0.8910 0.8910 0.8910 0.8910 0.8910
1257.013969 0.8910 0.8910 0.8910 0.8910 0.8910
1261.611681 0.8910 0.8910 0.8910 0.8900 0.8900
1266.209392 0.8900 0.8900 0.8900 0.8900 0.8900
1270.807104 0.8900 0.8900 0.8900 0.8900 0.8900
1275.404815 0.8900 0.8900 0.8900 0.8890 0.8890
1280.002527 0.8890 0.8890 0.8890 0.8890 0.8890
1284.600239 0.8890 0.8890 0.8890 0.8890 0.8890
1289.197950 0.8890 0.8890 0.8890 0.8900 0.8900
1293.795662 0.8900 0.8870 0.8870 0.8870 0.8870
1298.393373 0.8890 0.8900 0.8910 0.8900 0.8900
1302.991085 0.8890 0.8870 0.8860 0.8860 0.8850
1307.588796 0.8850 0.8860 0.8870 0.8870 0.8870
1312.186508 0.8870 0.8870 0.8870 0.8860 0.8850
1316.784220 0.8860 0.8860 0.8860 0.8860 0.8860
1321.381931 0.8870 0.8840 0.8840 0.8850 0.8860
1325.979643 0.8870 0.8890 0.8900 0.8900 0.8900
1330.577354 0.8910 0.8910 0.8910 0.8910 0.8910
1335.175066 0.8900 0.8890 0.8870 0.8870 0.8870
1339.772777 0.8860 0.8860 0.8850 0.8840 0.8830
1344.370489 0.8820 0.8820 0.8810 0.8810 0.8820
1348.968201 0.8850 0.8870 0.8900 0.8930 0.8950
1353.565912 0.8980 0.8990 0.9010 0.9010 0.8980
1358.163624 0.8710 0.8700 0.8690 0.8680 0.8680
1362.761335 0.8690 0.8690 0.8680 0.8660 0.8620
1367.359047 0.8600 0.8560 0.8530 0.8510 0.8480
1371.956758 0.8440 0.8340 0.8290 0.8240 0.8160
1376.554470 0.8130 0.8100 0.8070 0.8000 0.7970
1381.152182 0.7870 0.7840 0.7840 0.7820 0.7810
1385.749893 0.7780 0.7730 0.7670 0.7569 0.6750
1390.347605 0.6510 0.6510 0.7310 0.7700 0.8069
1394.945316 0.8140 0.8300 0.8530 0.8560 0.8580
1399.543028 0.8580 0.8600 0.8600 0.8600 0.8590
1404.140739 0.8590 0.8590 0.8590 0.8600 0.8600
1408.738451 0.8600 0.8600 0.8610 0.8610 0.8610
1413.336163 0.8610 0.8610 0.8600 0.8580 0.8560
1417.933874 0.8550 0.8540 0.8540 0.8530 0.8520
1422.531586 0.8510 0.8480 0.8460 0.8440 0.8420
1427.129297 0.8400 0.8370 0.8360 0.8360 0.8350
1431.727009 0.8350 0.8350 0.8350 0.8350 0.8350
1436.324720 0.8350 0.8340 0.8310 0.8270 0.8210
1440.922432 0.8130 0.8080 0.7920 0.7860 0.7560
1445.520144 0.7260 0.7270 0.7779 0.8030 0.8150
1450.117855 0.8160 0.8160 0.8150 0.8140 0.8120
1454.715567 0.8100 0.8030 0.7960 0.7920 0.7800
1459.313278 0.7670 0.7569 0.7229 0.7000 0.6770
1463.910990 0.6630 0.6520 0.6480 0.6460 0.6360
1468.508701 0.6229 0.5979 0.5409 0.4979 0.4579
1473.106413 0.3790 0.2970 0.2970 0.3829 0.3860
1477.704125 0.4390 0.4421 0.4932 0.5680 0.5780
1482.301836 0.5860 0.5860 0.5940 0.6160 0.6480
1486.899548 0.7011 0.7371 0.7640 0.7810 0.7950
1491.497259 0.8060 0.8110 0.8150 0.8210 0.8260
1496.094971 0.8310 0.8350 0.8380 0.8400 0.8430
1500.692682 0.8430 0.8440 0.8440 0.8430 0.8420
1505.290394 0.8400 0.8400 0.8440 0.8510 0.8550
1509.888106 0.8610 0.8680 0.8740 0.8780 0.8790
1514.485817 0.8830 0.8850 0.8890 0.8900 0.8900
1519.083529 0.8900 0.8900 0.8910 0.8890 0.8890
1523.681240 0.8890 0.8890 0.8890 0.8870 0.8870
1528.278952 0.8870 0.8870 0.8870 0.8870 0.8870
1532.876663 0.8900 0.8900 0.8900 0.8900 0.8900
1537.474375 0.8900 0.8900 0.8900 0.8910 0.8910
1542.072087 0.8900 0.8900 0.8900 0.8900 0.8900
1546.669798 0.8900 0.8900 0.8900 0.8900 0.8890
1551.267510 0.8890 0.8870 0.8860 0.8860 0.8850
1555.865221 0.8840 0.8840 0.8830 0.8820 0.8830
1560.462933 0.8830 0.8840 0.8840 0.8840 0.8850
1565.060644 0.8850 0.8830 0.8820 0.8790 0.8770
1569.658356 0.8760 0.8740 0.8710 0.8690 0.8680
1574.256068 0.8660 0.8620 0.8540 0.8470 0.8420
1578.853779 0.8390 0.8370 0.8350 0.8350 0.8320
1583.451491 0.8320 0.8320 0.8310 0.8300 0.8240
1588.049202 0.8200 0.8180 0.8160 0.8150 0.8150
1592.646914 0.8140 0.8130 0.8110 0.8060 0.7980
1597.244625 0.7909 0.7760 0.7640 0.7640 0.7660
1601.842337 0.7880 0.8060 0.8290 0.8420 0.8580
1606.440049 0.8640 0.8690 0.8740 0.8770 0.8770
1611.037760 0.8790 0.8820 0.8820 0.8830 0.8840
1615.635472 0.8840 0.8850 0.8850 0.8840 0.8840
1620.233183 0.8830 0.8830 0.8820 0.8820 0.8810
1624.830895 0.8810 0.8810 0.8790 0.8790 0.8780
1629.428607 0.8780 0.8770 0.8770 0.8760 0.8760
1634.026318 0.8750 0.8750 0.8750 0.8740 0.8720
1638.624030 0.8720 0.8720 0.8710 0.8710 0.8700
1643.221741 0.8700 0.8690 0.8680 0.8670 0.8640
1647.819453 0.8640 0.8660 0.8670 0.8680 0.8690
1652.417164 0.8700 0.8700 0.8700 0.8710 0.8720
1657.014876 0.8720 0.8740 0.8750 0.8760 0.8770
1661.612588 0.8780 0.8780 0.8790 0.8790 0.8790
1666.210299 0.8790 0.8790 0.8790 0.8790 0.8790
1670.808011 0.8820 0.8820 0.8840 0.8840 0.8850
1675.405722 0.8870 0.8890 0.8890 0.8890 0.8890
1680.003434 0.8900 0.8900 0.8900 0.8890 0.8890
1684.601145 0.8870 0.8870 0.8860 0.8860 0.8860
1689.198857 0.8850 0.8850 0.8840 0.8840 0.8840
1693.796569 0.8850 0.8850 0.8860 0.8890 0.8900
1698.394280 0.8900 0.8900 0.8910 0.8910 0.8900
1702.991992 0.8900 0.8900 0.8900 0.8890 0.8890
1707.589703 0.8870 0.8870 0.8870 0.8860 0.8860
1712.187415 0.8850 0.8850 0.8840 0.8840 0.8840
1716.785126 0.8840 0.8850 0.8860 0.8860 0.8850
1721.382838 0.8850 0.8850 0.8840 0.8840 0.8840
1725.980550 0.8830 0.8830 0.8830 0.8830 0.8830
1730.578261 0.8820 0.8810 0.8790 0.8820 0.8820
1735.175973 0.8820 0.8820 0.8820 0.8820 0.8820
1739.773684 0.8820 0.8810 0.8810 0.8790 0.8810
1744.371396 0.8790 0.8790 0.8780 0.8780 0.8790
1748.969107 0.8790 0.8810 0.8810 0.8810 0.8810
1753.566819 0.8810 0.8810 0.8810 0.8810 0.8810
1758.164531 0.8810 0.8790 0.8790 0.8790 0.8790
1762.762242 0.8790 0.8790 0.8810 0.8820 0.8820
1767.359954 0.8820 0.8810 0.8810 0.8810 0.8810
1771.957665 0.8790 0.8810 0.8790 0.8790 0.8780
1776.555377 0.8780 0.8780 0.8780 0.8770 0.8770
1781.153088 0.8780 0.8810 0.8810 0.8810 0.8810
1785.750800 0.8820 0.8820 0.8820 0.8820 0.8820
1790.348512 0.8820 0.8810 0.8810 0.8790 0.8790
1794.946223 0.8790 0.8780 0.8770 0.8760 0.8750
1799.543935 0.8750 0.8740 0.8740 0.8740 0.8740
1804.141646 0.8760 0.8780 0.8790 0.8790 0.8790
1808.739358 0.8790 0.8810 0.8820 0.8820 0.8840
1813.337069 0.8840 0.8840 0.8840 0.8830 0.8830
1817.934781 0.8810 0.8810 0.8790 0.8810 0.8820
1822.532493 0.8830 0.8840 0.8860 0.8870 0.8890
1827.130204 0.8890 0.8900 0.8900 0.8890 0.8900
1831.727916 0.8910 0.8910 0.8920 0.8920 0.8920
1836.325627 0.8920 0.8920 0.8920 0.8920 0.8920
1840.923339 0.8920 0.8920 0.8920 0.8920 0.8920
1845.521050 0.8920 0.8920 0.8920 0.8920 0.8920
1850.118762 0.8910 0.8900 0.8890 0.8870 0.8870
1854.716474 0.8870 0.8870 0.8870 0.8870 0.8860
1859.314185 0.8860 0.8850 0.8840 0.8840 0.8830
1863.911897 0.8820 0.8810 0.8790 0.8770 0.8760
1868.509608 0.8760 0.8760 0.8750 0.8750 0.8740
1873.107320 0.8720 0.8720 0.8720 0.8720 0.8710
1877.705031 0.8710 0.8720 0.8720 0.8740 0.8740
1882.302743 0.8720 0.8710 0.8710 0.8700 0.8690
1886.900455 0.8670 0.8660 0.8630 0.8610 0.8580
1891.498166 0.8540 0.8500 0.8500 0.8480 0.8470
1896.095878 0.8440 0.8400 0.8390 0.8390 0.8420
1900.693589 0.8440 0.8500 0.8590 0.8640 0.8660
1905.291301 0.8700 0.8720 0.8740 0.8770 0.8780
1909.889012 0.8790 0.8790 0.8810 0.8810 0.8810
1914.486724 0.8810 0.8810 0.8810 0.8810 0.8810
1919.084436 0.8790 0.8810 0.8810 0.8820 0.8820
1923.682147 0.8820 0.8820 0.8820 0.8820 0.8820
1928.279859 0.8820 0.8820 0.8820 0.8810 0.8810
1932.877570 0.8810 0.8810 0.8790 0.8780 0.8770
1937.475282 0.8770 0.8760 0.8760 0.8740 0.8720
1942.072993 0.8700 0.8690 0.8680 0.8690 0.8690
1946.670705 0.8700 0.8700 0.8710 0.8710 0.8740
1951.268417 0.8770 0.8780 0.8780 0.8790 0.8790
1955.866128 0.8790 0.8780 0.8780 0.8780 0.8770
1960.463840 0.8760 0.8760 0.8760 0.8760 0.8760
1965.061551 0.8760 0.8770 0.8780 0.8830 0.8870
1969.659263 0.8890 0.8900 0.8910 0.8910 0.8910
1974.256974 0.8910 0.8910 0.8870 0.8870 0.8900
1978.854686 0.8920 0.8930 0.8930 0.8930 0.8930
1983.452398 0.8930 0.8930 0.8920 0.8920 0.8910
1988.050109 0.8910 0.8920 0.8920 0.8930 0.8950
1992.647821 0.8970 0.8970 0.8980 0.8980 0.9000
1997.245532 0.9020 0.9060 0.9070 0.9080 0.9085
2001.843244 0.9090 0.9095 0.9100 0.9105 0.9110
2006.440955 0.9120 0.9130 0.9135 0.9140 0.9140
2011.038667 0.9140 0.9140 0.9140 0.9140 0.9140
2015.636379 0.9140 0.9140 0.9140 0.9140 0.9140
2020.234090 0.9140 0.9140 0.9140 0.9140 0.9140
2024.831802 0.9140 0.9140 0.9135 0.9130 0.9130
2029.429513 0.9130 0.9135 0.9140 0.9140 0.9140
2034.027225 0.9135 0.9130 0.9130 0.9130 0.9135
2038.624936 0.9140 0.9140 0.9140 0.9140 0.9140
2043.222648 0.9140 0.9140 0.9140 0.9140 0.9140
2047.820360 0.9140 0.9140 0.9140 0.9140 0.9140
2052.418071 0.9140 0.9140 0.9140 0.9140 0.9140
2057.015783 0.9140 0.9140 0.9140 0.9140 0.9140
2061.613494 0.9140 0.9140 0.9140 0.9140 0.9140
2066.211206 0.9140 0.9140 0.9140 0.9140 0.9140
2070.808917 0.9136 0.9131 0.9130 0.9130 0.9130
2075.406629 0.9130 0.9130 0.9130 0.9130 0.9130
2080.004341 0.9134 0.9139 0.9140 0.9140 0.9136
2084.602052 0.9131 0.9130 0.9130 0.9130 0.9130
2089.199764 0.9130 0.9130 0.9134 0.9139 0.9140
2093.797475 0.9140 0.9140 0.9140 0.9140 0.9140
2098.395187 0.9140 0.9140 0.9128 0.9113 0.9110
2102.992898 0.9110 0.9110 0.9110 0.9110 0.9110
2107.590610 0.9110 0.9110 0.9110 0.9110 0.9110
2112.188322 0.9110 0.9118 0.9128 0.9130 0.9130
2116.786033 0.9134 0.9139 0.9140 0.9140 0.9136
2121.383745 0.9131 0.9130 0.9130 0.9134 0.9139
2125.981456 0.9136 0.9131 0.9130 0.9130 0.9130
2130.579168 0.9130 0.9130 0.9130 0.9130 0.9130
2135.176879 0.9130 0.9130 0.9130 0.9130 0.9130
2139.774591 0.9130 0.9123 0.9113 0.9110 0.9110
2144.372303 0.9110 0.9110 0.9110 0.9110 0.9110
2148.970014 0.9110 0.9117 0.9127 0.9130 0.9130
2153.567726 0.9130 0.9130 0.9130 0.9130 0.9130
2158.165437 0.9130 0.9133 0.9138 0.9140 0.9140
2162.763149 0.9137 0.9132 0.9130 0.9130 0.9130
2167.360861 0.9130 0.9130 0.9130 0.9130 0.9130
2171.958572 0.9130 0.9130 0.9130 0.9130 0.9123
2176.556284 0.9114 0.9110 0.9110 0.9110 0.9110
2181.153995 0.9110 0.9110 0.9110 0.9110 0.9110
2185.751707 0.9110 0.9110 0.9110 0.9110 0.9110
2190.349418 0.9110 0.9110 0.9110 0.9110 0.9110
2194.947130 0.9110 0.9110 0.9110 0.9110 0.9110
2199.544842 0.9110 0.9110 0.9110 0.9110 0.9116
2204.142553 0.9126 0.9130 0.9130 0.9130 0.9130
2208.740265 0.9130 0.9130 0.9130 0.9130 0.9130
2213.337976 0.9130 0.9124 0.9114 0.9110 0.9110
2217.935688 0.9110 0.9110 0.9107 0.9102 0.9103
2222.533399 0.9108 0.9110 0.9110 0.9110 0.9110
2227.131111 0.9110 0.9110 0.9110 0.9110 0.9110
2231.728823 0.9110 0.9110 0.9110 0.9110 0.9110
2236.326534 0.9110 0.9110 0.9110 0.9110 0.9110
2240.924246 0.9110 0.9107 0.9102 0.9097 0.9092
2245.521957 0.9090 0.9090 0.9090 0.9090 0.9090
2250.119669 0.9090 0.9090 0.9090 0.9090 0.9090
2254.717380 0.9090 0.9090 0.9090 0.9090 0.9090
2259.315092 0.9090 0.9090 0.9090 0.9090 0.9090
2263.912804 0.9090 0.9090 0.9092 0.9097 0.9100
2268.510515 0.9100 0.9100 0.9100 0.9100 0.9100
2273.108227 0.9095 0.9085 0.9082 0.9087 0.9090
2277.705938 0.9090 0.9090 0.9090 0.9092 0.9097
2282.303650 0.9100 0.9100 0.9098 0.9093 0.9088
2286.901361 0.9083 0.9080 0.9080 0.9080 0.9080
2291.499073 0.9082 0.9087 0.9092 0.9097 0.9100
2296.096785 0.9100 0.9102 0.9107 0.9110 0.9110
2300.694496 0.9108 0.9103 0.9102 0.9107 0.9110
2305.292208 0.9110 0.9110 0.9110 0.9108 0.9103
2309.889919 0.9102 0.9107 0.9110 0.9110 0.9110
2314.487631 0.9110 0.9108 0.9103 0.9100 0.9100
2319.085342 0.9100 0.9100 0.9106 0.9121 0.9130
2323.683054 0.9130 0.9130 0.9130 0.9130 0.9130
2328.280766 0.9130 0.9130 0.9127 0.9116 0.9110
2332.878477 0.9110 0.9110 0.9110 0.9110 0.9110
2337.476189 0.9110 0.9110 0.9113 0.9123 0.9130
2342.073900 0.9130 0.9127 0.9117 0.9110 0.9110
2346.671612 0.9110 0.9110 0.9110 0.9110 0.9113
2351.269323 0.9123 0.9130 0.9130 0.9127 0.9117
2355.867035 0.9110 0.9110 0.9108 0.9104 0.9100
2360.464747 0.9100 0.9100 0.9100 0.9100 0.9100
2365.062458 0.9100 0.9100 0.9100 0.9100 0.9100
2369.660170 0.9100 0.9100 0.9100 0.9099 0.9094
2374.257881 0.9089 0.9084 0.9080 0.9080 0.9080
2378.855593 0.9080 0.9080 0.9080 0.9080 0.9080
2383.453304 0.9080 0.9080 0.9081 0.9086 0.9090
2388.051016 0.9090 0.9091 0.9096 0.9101 0.9106
2392.648728 0.9110 0.9110 0.9110 0.9110 0.9110
2397.246439 0.9110 0.9112 0.9122 0.9130 0.9130
2401.844151 0.9128 0.9118 0.9110 0.9110 0.9110
2406.441862 0.9110 0.9109 0.9104 0.9099 0.9094
2411.039574 0.9090 0.9090 0.9090 0.9090 0.9090
2415.637285 0.9090 0.9090 0.9090 0.9089 0.9084
2420.234997 0.9081 0.9086 0.9090 0.9090 0.9090
2424.832709 0.9090 0.9089 0.9084 0.9080 0.9080
2429.430420 0.9080 0.9080 0.9079 0.9074 0.9071
2434.028132 0.9076 0.9079 0.9074 0.9070 0.9070
2438.625843 0.9070 0.9070 0.9069 0.9064 0.9060
2443.223555 0.9060 0.9060 0.9060 0.9060 0.9060
2447.821266 0.9060 0.9060 0.9059 0.9054 0.9049
2452.418978 0.9039 0.9030 0.9030 0.9029 0.9024
2457.016690 0.9019 0.9009 0.9000 0.8994 0.8991
2461.614401 0.8996 0.9002 0.9017 0.9030 0.9030
2466.212113 0.9030 0.9025 0.9020 0.9025 0.9030
2470.809824 0.9030 0.9031 0.9041 0.9050 0.9055
2475.407536 0.9060 0.9060 0.9060 0.9060 0.9060
2480.005247 0.9055 0.9049 0.9034 0.9020 0.9015
2484.602959 0.9010 0.9010 0.9010 0.9010 0.9010
2489.200671 0.9010 0.9010 0.9010 0.9010 0.9010
2493.798382 0.9010 0.9010 0.9010 0.9010 0.9010
2498.396094 0.9010 0.9010 0.9010 0.9010 0.9020
2502.993805 0.9030 0.9025 0.9020 0.9020 0.9020
2507.591517 0.9020 0.9020 0.9020 0.9020 0.9020
2512.189228 0.9020 0.9015 0.9010 0.9010 0.9010
2516.786940 0.9015 0.9020 0.9020 0.9020 0.9025
2521.384652 0.9030 0.9030 0.9030 0.9025 0.9020
2525.982363 0.9020 0.9020 0.9020 0.9020 0.9015
2530.580075 0.9010 0.9010 0.9010 0.9010 0.9010
2535.177786 0.9010 0.9010 0.9010 0.9010 0.9010
2539.775498 0.9010 0.9010 0.9010 0.9005 0.9000
2544.373209 0.9000 0.9000 0.8995 0.8990 0.8990
2548.970921 0.8990 0.8990 0.8990 0.8990 0.8990
2553.568633 0.8990 0.8990 0.8990 0.8990 0.8990
2558.166344 0.8990 0.8990 0.8990 0.8990 0.8990
2562.764056 0.8990 0.8990 0.8990 0.8990 0.8990
2567.361767 0.8990 0.8990 0.8990 0.8990 0.8990
2571.959479 0.8990 0.8990 0.8994 0.8999 0.9000
2576.557190 0.9000 0.8996 0.8991 0.8986 0.8981
2581.154902 0.8980 0.8980 0.8980 0.8980 0.8980
2585.752614 0.8980 0.8980 0.8980 0.8980 0.8980
2590.350325 0.8980 0.8980 0.8980 0.8980 0.8980
2594.948037 0.8980 0.8984 0.8989 0.8990 0.8990
2599.545748 0.8990 0.8990 0.8990 0.8990 0.8982
2604.143460 0.8972 0.8970 0.8970 0.8974 0.8979
2608.741171 0.8984 0.8989 0.8990 0.8990 0.8990
2613.338883 0.8990 0.8990 0.8990 0.8990 0.8990
2617.936595 0.8990 0.8990 0.8990 0.8990 0.8990
2622.534306 0.8990 0.8990 0.8990 0.8990 0.8990
2627.132018 0.8990 0.8990 0.8990 0.8990 0.8990
2631.729729 0.8990 0.8990 0.8990 0.8986 0.8981
2636.327441 0.8980 0.8980 0.8988 0.8998 0.9004
2640.925152 0.9009 0.9010 0.9010 0.8999 0.8984
2645.522864 0.8980 0.8980 0.8980 0.8980 0.8980
2650.120576 0.8980 0.8980 0.8980 0.8980 0.8980
2654.718287 0.8980 0.8980 0.8980 0.8980 0.8984
2659.315999 0.8989 0.8990 0.8990 0.8983 0.8973
2663.913710 0.8970 0.8970 0.8974 0.8979 0.8980
2668.511422 0.8980 0.8980 0.8980 0.8983 0.8988
2673.109133 0.8990 0.8990 0.8990 0.8990 0.8990
2677.706845 0.8990 0.8990 0.8990 0.8990 0.8990
2682.304557 0.8990 0.8990 0.8990 0.8990 0.8990
2686.902268 0.8990 0.8990 0.8990 0.8990 0.8990
2691.499980 0.8987 0.8982 0.8980 0.8980 0.8980
2696.097691 0.8980 0.8977 0.8972 0.8964 0.8954
2700.695403 0.8956 0.8966 0.8970 0.8970 0.8970
2705.293114 0.8970 0.8970 0.8970 0.8970 0.8970
2709.890826 0.8970 0.8970 0.8970 0.8970 0.8970
2714.488538 0.8970 0.8970 0.8970 0.8970 0.8970
2719.086249 0.8970 0.8970 0.8970 0.8970 0.8970
2723.683961 0.8970 0.8970 0.8970 0.8970 0.8970
2728.281672 0.8970 0.8970 0.8970 0.8970 0.8970
2732.879384 0.8970 0.8970 0.8970 0.8970 0.8970
2737.477096 0.8970 0.8970 0.8964 0.8954 0.8950
2742.074807 0.8950 0.8950 0.8950 0.8950 0.8950
2746.672519 0.8950 0.8950 0.8947 0.8942 0.8940
2751.270230 0.8940 0.8940 0.8940 0.8940 0.8940
2755.867942 0.8937 0.8932 0.8930 0.8930 0.8930
2760.465653 0.8930 0.8930 0.8930 0.8930 0.8930
2765.063365 0.8930 0.8930 0.8927 0.8922 0.8920
2769.661077 0.8920 0.8920 0.8920 0.8920 0.8920
2774.258788 0.8920 0.8920 0.8920 0.8920 0.8920
2778.856500 0.8920 0.8925 0.8935 0.8940 0.8940
2783.454211 0.8938 0.8933 0.8928 0.8923 0.8918
2788.051923 0.8913 0.8910 0.8910 0.8910 0.8910
2792.649634 0.8908 0.8903 0.8900 0.8900 0.8900
2797.247346 0.8900 0.8900 0.8900 0.8898 0.8893
2801.845058 0.8890 0.8890 0.8890 0.8890 0.8890
2806.442769 0.8890 0.8890 0.8890 0.8886 0.8876
2811.040481 0.8870 0.8870 0.8870 0.8870 0.8870
2815.638192 0.8870 0.8868 0.8863 0.8860 0.8860
2820.235904 0.8858 0.8853 0.8850 0.8850 0.8850
2824.833615 0.8850 0.8848 0.8843 0.8840 0.8840
2829.431327 0.8838 0.8833 0.8828 0.8823 0.8818
2834.029039 0.8813 0.8804 0.8789 0.8778 0.8773
2838.626750 0.8768 0.8763 0.8756 0.8746 0.8735
2843.224462 0.8720 0.8710 0.8710 0.8708 0.8703
2847.822173 0.8700 0.8700 0.8698 0.8693 0.8688
2852.419885 0.8683 0.8678 0.8673 0.8668 0.8663
2857.017596 0.8660 0.8660 0.8657 0.8647 0.8638
2861.615308 0.8633 0.8627 0.8617 0.8607 0.8597
2866.213020 0.8585 0.8570 0.8558 0.8553 0.8548
2870.810731 0.8543 0.8538 0.8533 0.8529 0.8524
2875.408443 0.8519 0.8514 0.8509 0.8504 0.8497
2880.006154 0.8487 0.8477 0.8467 0.8460 0.8460
2884.603866 0.8457 0.8447 0.8440 0.8440 0.8440
2889.201577 0.8440 0.8440 0.8440 0.8441 0.8446
2893.799289 0.8450 0.8450 0.8451 0.8456 0.8460
2898.397001 0.8460 0.8461 0.8466 0.8470 0.8470
2902.994712 0.8467 0.8458 0.8450 0.8450 0.8449
2907.592424 0.8444 0.8439 0.8434 0.8427 0.8412
2912.190135 0.8396 0.8376 0.8358 0.8348 0.8338
2916.787847 0.8328 0.8318 0.8308 0.8299 0.8294
2921.385558 0.8290 0.8290 0.8291 0.8296 0.8301
2925.983270 0.8306 0.8311 0.8316 0.8322 0.8332
2930.580982 0.8340 0.8340 0.8341 0.8346 0.8352
2935.178693 0.8362 0.8372 0.8382 0.8391 0.8396
2939.776405 0.8403 0.8418 0.8431 0.8436 0.8439
2944.374116 0.8434 0.8430 0.8430 0.8429 0.8424
2948.971828 0.8418 0.8403 0.8389 0.8379 0.8369
2953.569539 0.8359 0.8349 0.8344 0.8340 0.8340
2958.167251 0.8336 0.8306 0.8277 0.8252 0.8229
2962.764963 0.8219 0.8209 0.8199 0.8188 0.8173
2967.362674 0.8158 0.8143 0.8127 0.8097 0.8069
2971.960386 0.8064 0.8060 0.8060 0.8060 0.8060
2976.558097 0.8061 0.8066 0.8072 0.8092 0.8112
2981.155809 0.8132 0.8154 0.8194 0.8234 0.8279
2985.753520 0.8322 0.8342 0.8361 0.8381 0.8402
2990.351232 0.8427 0.8451 0.8461 0.8470 0.8475
2994.948944 0.8481 0.8491 0.8500 0.8500 0.8500
2999.546655 0.8505 0.8510 0.8510 0.8510 0.8505
3004.144367 0.8500 0.8500 0.8499 0.8484 0.8470
3008.742078 0.8465 0.8459 0.8440 0.8419 0.8384
3013.339790 0.8349 0.8329 0.8309 0.8289 0.8269
3017.937501 0.8239 0.8209 0.8164 0.8119 0.8049
3022.535213 0.7979 0.7824 0.7670 0.7620 0.7570
3027.132925 0.7500 0.7431 0.7301 0.7172 0.7150
3031.730636 0.7130 0.7240 0.7349 0.7375 0.7400
3036.328348 0.7454 0.7509 0.7608 0.7708 0.7827
3040.926059 0.7947 0.7960 0.7970 0.7970 0.7970
3045.523771 0.7956 0.7941 0.7892 0.7842 0.7816
3050.121482 0.7791 0.7756 0.7721 0.7687 0.7652
3054.719194 0.7621 0.7592 0.7566 0.7541 0.7521
3059.316906 0.7501 0.7467 0.7432 0.7411 0.7391
3063.914617 0.7376 0.7361 0.7374 0.7389 0.7436
3068.512329 0.7486 0.7578 0.7673 0.7731 0.7786
3073.110040 0.7808 0.7828 0.7844 0.7859 0.7869
3077.707752 0.7879 0.7889 0.7899 0.7909 0.7919
3082.305463 0.7929 0.7939 0.7966 0.7996 0.8018
3086.903175 0.8038 0.8076 0.8116 0.8151 0.8186
3091.500887 0.8238 0.8293 0.8335 0.8375 0.8410
3096.098598 0.8445 0.8463 0.8478 0.8501 0.8526
3100.696310 0.8551 0.8576 0.8588 0.8598 0.8608
3105.294021 0.8619 0.8629 0.8639 0.8640 0.8640
3109.891733 0.8648 0.8658 0.8668 0.8678 0.8684
3114.489444 0.8689 0.8694 0.8699 0.8700 0.8700
3119.087156 0.8716 0.8736 0.8744 0.8749 0.8758
3123.684868 0.8768 0.8774 0.8779 0.8784 0.8789
3128.282579 0.8802 0.8817 0.8820 0.8820 0.8820
3132.880291 0.8820 0.8820 0.8820 0.8820 0.8820
3137.478002 0.8816 0.8811 0.8810 0.8810 0.8810
3142.075714 0.8810 0.8810 0.8810 0.8810 0.8810
3146.673425 0.8810 0.8810 0.8810 0.8810 0.8814
3151.271137 0.8819 0.8820 0.8820 0.8824 0.8829
3155.868849 0.8830 0.8830 0.8834 0.8839 0.8844
3160.466560 0.8849 0.8854 0.8859 0.8871 0.8886
3165.064272 0.8890 0.8890 0.8890 0.8890 0.8890
3169.661983 0.8890 0.8883 0.8873 0.8870 0.8870
3174.259695 0.8870 0.8870 0.8877 0.8887 0.8890
3178.857406 0.8890 0.8890 0.8890 0.8894 0.8899
3183.455118 0.8900 0.8900 0.8897 0.8892 0.8890
3188.052830 0.8890 0.8890 0.8890 0.8890 0.8890
3192.650541 0.8890 0.8890 0.8890 0.8890 0.8893
3197.248253 0.8898 0.8900 0.8900 0.8900 0.8900
3201.845964 0.8890 0.8875 0.8870 0.8870 0.8870
3206.443676 0.8870 0.8870 0.8870 0.8870 0.8870
3211.041387 0.8876 0.8886 0.8890 0.8890 0.8890
3215.639099 0.8890 0.8890 0.8890 0.8893 0.8898
3220.236811 0.8900 0.8900 0.8900 0.8900 0.8903
3224.834522 0.8908 0.8910 0.8910 0.8910 0.8910
3229.432234 0.8910 0.8910 0.8907 0.8902 0.8900
3234.029945 0.8900 0.8897 0.8892 0.8890 0.8890
3238.627657 0.8884 0.8874 0.8882 0.8902 0.8910
3243.225368 0.8910 0.8907 0.8902 0.8900 0.8900
3247.823080 0.8900 0.8900 0.8900 0.8900 0.8900
3252.420792 0.8900 0.8903 0.8908 0.8910 0.8910
3257.018503 0.8910 0.8910 0.8910 0.8910 0.8907
3261.616215 0.8902 0.8903 0.8908 0.8910 0.8910
3266.213926 0.8910 0.8910 0.8907 0.8902 0.8900
3270.811638 0.8900 0.8900 0.8900 0.8900 0.8900
3275.409350 0.8897 0.8892 0.8890 0.8890 0.8890
3280.007061 0.8890 0.8890 0.8890 0.8890 0.8890
3284.604773 0.8892 0.8897 0.8898 0.8893 0.8890
3289.202484 0.8890 0.8890 0.8890 0.8890 0.8890
3293.800196 0.8890 0.8890 0.8890 0.8890 0.8890
3298.397907 0.8890 0.8890 0.8890 0.8890 0.8890
3302.995619 0.8892 0.8897 0.8900 0.8900 0.8900
3307.593331 0.8900 0.8900 0.8900 0.8900 0.8900
3312.191042 0.8900 0.8900 0.8902 0.8907 0.8908
3316.788754 0.8903 0.8898 0.8893 0.8890 0.8890
3321.386465 0.8890 0.8890 0.8890 0.8890 0.8886
3325.984177 0.8876 0.8874 0.8884 0.8892 0.8897
3330.581888 0.8898 0.8893 0.8892 0.8897 0.8900
3335.179600 0.8900 0.8898 0.8893 0.8886 0.8876
3339.777312 0.8870 0.8870 0.8868 0.8863 0.8862
3344.375023 0.8867 0.8870 0.8870 0.8874 0.8884
3348.972735 0.8892 0.8897 0.8894 0.8879 0.8870
3353.570446 0.8870 0.8866 0.8856 0.8850 0.8850
3358.168158 0.8848 0.8843 0.8840 0.8840 0.8842
3362.765869 0.8847 0.8850 0.8850 0.8850 0.8850
3367.363581 0.8852 0.8857 0.8862 0.8867 0.8875
3371.961293 0.8890 0.8900 0.8900 0.8900 0.8900
3376.559004 0.8900 0.8900 0.8900 0.8900 0.8902
3381.156716 0.8907 0.8910 0.8910 0.8907 0.8897
3385.754427 0.8890 0.8890 0.8890 0.8890 0.8890
3390.352139 0.8890 0.8890 0.8890 0.8887 0.8877
3394.949850 0.8870 0.8870 0.8869 0.8864 0.8859
3399.547562 0.8854 0.8850 0.8850 0.8850 0.8850
3404.145274 0.8851 0.8856 0.8861 0.8866 0.8870
3408.742985 0.8870 0.8873 0.8883 0.8890 0.8890
3413.340697 0.8891 0.8896 0.8900 0.8900 0.8900
3417.938408 0.8900 0.8899 0.8894 0.8891 0.8896
3422.536120 0.8900 0.8900 0.8900 0.8900 0.8900
3427.133831 0.8900 0.8901 0.8906 0.8909 0.8904
3431.731543 0.8899 0.8894 0.8888 0.8878 0.8869
3436.329255 0.8864 0.8860 0.8860 0.8861 0.8866
3440.926966 0.8873 0.8888 0.8901 0.8906 0.8909
3445.524678 0.8904 0.8900 0.8900 0.8900 0.8900
3450.122389 0.8900 0.8900 0.8899 0.8894 0.8890
3454.720101 0.8890 0.8890 0.8890 0.8890 0.8890
3459.317812 0.8888 0.8878 0.8870 0.8870 0.8870
3463.915524 0.8870 0.8870 0.8870 0.8870 0.8870
3468.513236 0.8871 0.8881 0.8890 0.8890 0.8891
3473.110947 0.8896 0.8900 0.8900 0.8901 0.8906
3477.708659 0.8910 0.8910 0.8910 0.8910 0.8910
3482.306370 0.8910 0.8911 0.8916 0.8920 0.8920
3486.904082 0.8920 0.8920 0.8920 0.8915 0.8910
3491.501793 0.8915 0.8921 0.8926 0.8929 0.8925
3496.099505 0.8920 0.8920 0.8920 0.8920 0.8920
3500.697217 0.8915 0.8910 0.8910 0.8910 0.8910
3505.294928 0.8910 0.8905 0.8900 0.8900 0.8900
3509.892640 0.8900 0.8900 0.8900 0.8900 0.8905
3514.490351 0.8910 0.8910 0.8910 0.8915 0.8920
3519.088063 0.8920 0.8920 0.8925 0.8930 0.8935
3523.685774 0.8940 0.8940 0.8940 0.8935 0.8930
3528.283486 0.8930 0.8930 0.8930 0.8930 0.8935
3532.881198 0.8940 0.8930 0.8920 0.8920 0.8920
3537.478909 0.8915 0.8910 0.8910 0.8910 0.8910
3542.076621 0.8910 0.8930 0.8950 0.8950 0.8950
3546.674332 0.8935 0.8920 0.8920 0.8920 0.8920
3551.272044 0.8920 0.8920 0.8920 0.8925 0.8930
3555.869755 0.8930 0.8930 0.8935 0.8940 0.8940
3560.467467 0.8940 0.8940 0.8940 0.8940 0.8940
3565.065179 0.8945 0.8950 0.8945 0.8940 0.8935
3569.662890 0.8930 0.8925 0.8920 0.8920 0.8920
3574.260602 0.8920 0.8920 0.8920 0.8920 0.8920
3578.858313 0.8920 0.8915 0.8910 0.8910 0.8910
3583.456025 0.8924 0.8939 0.8945 0.8950 0.8950
3588.053736 0.8950 0.8950 0.8950 0.8950 0.8950
3592.651448 0.8950 0.8950 0.8950 0.8950 0.8946
3597.249160 0.8941 0.8931 0.8921 0.8916 0.8911
3601.846871 0.8914 0.8919 0.8924 0.8929 0.8930
3606.444583 0.8930 0.8934 0.8939 0.8944 0.8949
3611.042294 0.8963 0.8978 0.8980 0.8980 0.8967
3615.640006 0.8952 0.8937 0.8922 0.8920 0.8920
3620.237717 0.8920 0.8920 0.8916 0.8911 0.8910
3624.835429 0.8910 0.8927 0.8947 0.8958 0.8968
3629.433141 0.8970 0.8970 0.8962 0.8952 0.8938
3634.030852 0.8923 0.8920 0.8920 0.8920 0.8920
3638.628564 0.8920 0.8920 0.8920 0.8920 0.8916
3643.226275 0.8911 0.8910 0.8910 0.8910 0.8910
3647.823987 0.8922 0.8937 0.8944 0.8949 0.8958
3652.421698 0.8968 0.8958 0.8943 0.8940 0.8940
3657.019410 0.8928 0.8913 0.8910 0.8910 0.8910
3661.617122 0.8910 0.8906 0.8901 0.8900 0.8900
3666.214833 0.8904 0.8909 0.8918 0.8928 0.8937
3670.812545 0.8947 0.8957 0.8967 0.8963 0.8953
3675.410256 0.8946 0.8941 0.8933 0.8923 0.8916
3680.007968 0.8911 0.8910 0.8910 0.8906 0.8901
3684.605679 0.8900 0.8900 0.8907 0.8917 0.8924
3689.203391 0.8929 0.8926 0.8921 0.8916 0.8912
3693.801103 0.8906 0.8901 0.8900 0.8900 0.8904
3698.398814 0.8909 0.8910 0.8910 0.8913 0.8918
3702.996526 0.8917 0.8912 0.8913 0.8918 0.8923
3707.594237 0.8928 0.8930 0.8930 0.8933 0.8938
3712.191949 0.8940 0.8940 0.8940 0.8940 0.8940
3716.789660 0.8940 0.8937 0.8932 0.8930 0.8930
3721.387372 0.8930 0.8930 0.8933 0.8938 0.8943
3725.985084 0.8948 0.8950 0.8950 0.8950 0.8950
3730.582795 0.8956 0.8966 0.8973 0.8978 0.8983
3735.180507 0.8988 0.8990 0.8990 0.8993 0.8998
3739.778218 0.9003 0.9008 0.9010 0.9010 0.9010
3744.375930 0.9010 0.9007 0.9002 0.9000 0.9000
3748.973641 0.8997 0.8992 0.8987 0.8982 0.8980
3753.571353 0.8980 0.8977 0.8972 0.8970 0.8970
3758.169065 0.8964 0.8954 0.8950 0.8950 0.8947
3762.766776 0.8942 0.8940 0.8940 0.8937 0.8932
3767.364488 0.8930 0.8930 0.8930 0.8930 0.8930
3771.962199 0.8930 0.8930 0.8930 0.8930 0.8930
3776.559911 0.8930 0.8930 0.8930 0.8930 0.8933
3781.157622 0.8938 0.8940 0.8940 0.8940 0.8940
3785.755334 0.8943 0.8948 0.8947 0.8942 0.8940
3790.353046 0.8940 0.8940 0.8940 0.8940 0.8940
3794.950757 0.8937 0.8932 0.8930 0.8930
##END=
