##TITLE=Benzidine
##JCAMP-DX=4.24
$$ By DXEDIT 1.05 (RS McDonald)
##DATA TYPE=INFRARED SPECTRUM
##CLASS=COBLENTZ III
##ORIGIN=DOW CHEMICAL COMPANY
##OWNER=COPYRIGHT (C) 1988 by COBLENTZ SOCIETY INC.
Collection (C) 2018 copyright by the U.S. Secretary of Commerce
on behalf of the United States of America. All rights reserved.
##DATE=1963/11/08
##CAS NAME=4,4'-Diaminobiphenyl
##NAMES=[1,1'-biphenyl]-4,4'-diamine
4'-amino[1,1'-biphenyl]-4-ylamine
##CAS REGISTRY NO=92-87-5
##MOLFORM=C12 H12 N2
##SOURCE REFERENCE=COBLENTZ NO. 06382
##$NIST SOURCE=COBLENTZ
##$NIST IMAGE=cob6382
##SPECTROMETER/DATA SYSTEM=BECKMAN IR-9 (GRATING)
##INSTRUMENT PARAMETERS=ORDER CHANGES: 670, 1200, 2000 CM^-^1
##STATE=SOLID (SPLIT MULL)
##SAMPLING PROCEDURE=TRANSMISSION
##RESOLUTION=2
##DATA PROCESSING=DIGITIZED BY COBLENTZ SOCIETY (BATCH I) FROM HARD COPY
##XUNITS=1/CM
##YUNITS=TRANSMITTANCE
##XFACTOR=1
##YFACTOR=1
##DELTAX=1
##FIRSTX=3810
##LASTX=399
##FIRSTY=0.56
##MAXX=3810
##MINX=399
##MAXY=0.9338
##MINY=0.0904
##NPOINTS=3412
##XYDATA=(X++(Y..Y))
3810.000000 0.5600 0.5601 0.5602 0.5603 0.5605
3805.000000 0.5607 0.5609 0.5610 0.5612 0.5614
3800.000000 0.5616 0.5617 0.5619 0.5620 0.5622
3795.000000 0.5624 0.5626 0.5627 0.5629 0.5631
3790.000000 0.5633 0.5634 0.5636 0.5638 0.5640
3785.000000 0.5641 0.5643 0.5644 0.5646 0.5648
3780.000000 0.5650 0.5651 0.5653 0.5654 0.5655
3775.000000 0.5656 0.5658 0.5659 0.5660 0.5660
3770.000000 0.5662 0.5664 0.5665 0.5666 0.5668
3765.000000 0.5669 0.5670 0.5671 0.5673 0.5674
3760.000000 0.5675 0.5676 0.5678 0.5680 0.5682
3755.000000 0.5683 0.5685 0.5687 0.5689 0.5691
3750.000000 0.5693 0.5694 0.5696 0.5698 0.5700
3745.000000 0.5702 0.5704 0.5705 0.5707 0.5709
3740.000000 0.5710 0.5712 0.5715 0.5716 0.5718
3735.000000 0.5720 0.5722 0.5723 0.5725 0.5726
3730.000000 0.5728 0.5729 0.5731 0.5732 0.5733
3725.000000 0.5734 0.5736 0.5737 0.5739 0.5740
3720.000000 0.5742 0.5743 0.5745 0.5746 0.5748
3715.000000 0.5749 0.5750 0.5751 0.5753 0.5754
3710.000000 0.5756 0.5757 0.5759 0.5760 0.5762
3705.000000 0.5762 0.5764 0.5765 0.5767 0.5768
3700.000000 0.5770 0.5771 0.5773 0.5774 0.5776
3695.000000 0.5777 0.5779 0.5780 0.5782 0.5783
3690.000000 0.5785 0.5786 0.5788 0.5789 0.5791
3685.000000 0.5792 0.5794 0.5795 0.5797 0.5798
3680.000000 0.5800 0.5801 0.5803 0.5804 0.5806
3675.000000 0.5807 0.5809 0.5810 0.5812 0.5814
3670.000000 0.5816 0.5818 0.5820 0.5822 0.5824
3665.000000 0.5826 0.5828 0.5830 0.5832 0.5834
3660.000000 0.5836 0.5838 0.5840 0.5842 0.5844
3655.000000 0.5846 0.5848 0.5850 0.5852 0.5854
3650.000000 0.5856 0.5858 0.5860 0.5862 0.5864
3645.000000 0.5866 0.5868 0.5869 0.5871 0.5873
3640.000000 0.5875 0.5877 0.5879 0.5880 0.5882
3635.000000 0.5884 0.5886 0.5887 0.5889 0.5891
3630.000000 0.5893 0.5895 0.5897 0.5898 0.5900
3625.000000 0.5902 0.5904 0.5905 0.5907 0.5909
3620.000000 0.5910 0.5912 0.5915 0.5916 0.5918
3615.000000 0.5920 0.5922 0.5924 0.5926 0.5927
3610.000000 0.5929 0.5931 0.5933 0.5935 0.5937
3605.000000 0.5938 0.5940 0.5942 0.5944 0.5946
3600.000000 0.5948 0.5949 0.5951 0.5953 0.5955
3595.000000 0.5957 0.5959 0.5960 0.5962 0.5964
3590.000000 0.5966 0.5969 0.5972 0.5974 0.5977
3585.000000 0.5980 0.5983 0.5985 0.5988 0.5991
3580.000000 0.5994 0.5996 0.5999 0.6002 0.6005
3575.000000 0.6008 0.6010 0.6012 0.6016 0.6019
3570.000000 0.6022 0.6024 0.6027 0.6029 0.6032
3565.000000 0.6033 0.6035 0.6037 0.6039 0.6040
3560.000000 0.6042 0.6043 0.6045 0.6046 0.6048
3555.000000 0.6049 0.6051 0.6052 0.6054 0.6055
3550.000000 0.6057 0.6058 0.6060 0.6060 0.6062
3545.000000 0.6064 0.6066 0.6067 0.6069 0.6069
3540.000000 0.6070 0.6071 0.6072 0.6072 0.6073
3535.000000 0.6074 0.6075 0.6075 0.6076 0.6076
3530.000000 0.6077 0.6078 0.6079 0.6079 0.6080
3525.000000 0.6081 0.6082 0.6082 0.6083 0.6083
3520.000000 0.6084 0.6084 0.6085 0.6085 0.6086
3515.000000 0.6086 0.6086 0.6086 0.6087 0.6087
3510.000000 0.6088 0.6088 0.6088 0.6088 0.6089
3505.000000 0.6089 0.6090 0.6090 0.6090 0.6090
3500.000000 0.6091 0.6091 0.6091 0.6091 0.6091
3495.000000 0.6091 0.6092 0.6092 0.6092 0.6091
3490.000000 0.6091 0.6090 0.6089 0.6088 0.6087
3485.000000 0.6086 0.6085 0.6084 0.6083 0.6077
3480.000000 0.6071 0.6064 0.6058 0.6051 0.6045
3475.000000 0.6038 0.6032 0.6022 0.6012 0.6001
3470.000000 0.5991 0.5977 0.5962 0.5944 0.5925
3465.000000 0.5902 0.5880 0.5856 0.5833 0.5771
3460.000000 0.5710 0.5624 0.5539 0.5487 0.5436
3455.000000 0.5393 0.5351 0.5310 0.5269 0.5240
3450.000000 0.5212 0.5202 0.5193 0.5190 0.5187
3445.000000 0.5187 0.5187 0.5187 0.5189 0.5192
3440.000000 0.5195 0.5277 0.5359 0.5428 0.5498
3435.000000 0.5530 0.5562 0.5600 0.5637 0.5652
3430.000000 0.5667 0.5674 0.5674 0.5674 0.5674
3425.000000 0.5659 0.5652 0.5644 0.5637 0.5562
3420.000000 0.5490 0.5410 0.5330 0.5252 0.5174
3415.000000 0.5133 0.5092 0.5051 0.5010 0.4926
3410.000000 0.4842 0.4768 0.4694 0.4610 0.4529
3405.000000 0.4406 0.4284 0.4283 0.4260 0.4281
3400.000000 0.4281 0.4281 0.4281 0.4309 0.4338
3395.000000 0.4426 0.4515 0.4604 0.4694 0.4783
3390.000000 0.4872 0.4960 0.5051 0.5140 0.5229
3385.000000 0.5318 0.5407 0.5496 0.5586 0.5615
3380.000000 0.5644 0.5648 0.5652 0.5653 0.5668
3375.000000 0.5649 0.5644 0.5639 0.5634 0.5586
3370.000000 0.5538 0.5484 0.5431 0.5379 0.5328
3365.000000 0.5294 0.5260 0.5262 0.5266 0.5266
3360.000000 0.5267 0.5262 0.5259 0.5255 0.5252
3355.000000 0.5235 0.5219 0.5116 0.5014 0.4939
3350.000000 0.4865 0.4790 0.4716 0.4641 0.4567
3345.000000 0.4492 0.4418 0.4343 0.4269 0.4194
3340.000000 0.4119 0.4044 0.3970 0.3895 0.3750
3335.000000 0.3782 0.3745 0.3746 0.3747 0.3748
3330.000000 0.3749 0.3770 0.3792 0.3846 0.3900
3325.000000 0.3955 0.4009 0.4062 0.4118 0.4172
3320.000000 0.4226 0.4280 0.4335 0.4389 0.4444
3315.000000 0.4498 0.4552 0.4598 0.4645 0.4681
3310.000000 0.4717 0.4753 0.4789 0.4822 0.4856
3305.000000 0.4883 0.4910 0.4937 0.4964 0.4991
3300.000000 0.5019 0.5045 0.5071 0.5096 0.5122
3295.000000 0.5147 0.5172 0.5194 0.5217 0.5232
3290.000000 0.5248 0.5262 0.5279 0.5295 0.5310
3285.000000 0.5323 0.5336 0.5348 0.5360 0.5372
3280.000000 0.5385 0.5397 0.5409 0.5421 0.5433
3275.000000 0.5445 0.5457 0.5462 0.5470 0.5472
3270.000000 0.5475 0.5477 0.5480 0.5483 0.5486
3265.000000 0.5488 0.5491 0.5492 0.5493 0.5493
3260.000000 0.5494 0.5494 0.5494 0.5494 0.5494
3255.000000 0.5491 0.5489 0.5486 0.5484 0.5482
3250.000000 0.5480 0.5477 0.5475 0.5464 0.5454
3245.000000 0.5442 0.5430 0.5415 0.5401 0.5376
3240.000000 0.5352 0.5328 0.5305 0.5283 0.5260
3235.000000 0.5239 0.5218 0.5198 0.5179 0.5159
3230.000000 0.5140 0.5121 0.5102 0.5082 0.5062
3225.000000 0.5041 0.5019 0.4990 0.4962 0.4956
3220.000000 0.4968 0.4951 0.4951 0.4952 0.4953
3215.000000 0.4962 0.4971 0.4991 0.5010 0.5034
3210.000000 0.5057 0.5080 0.5103 0.5125 0.5148
3205.000000 0.5169 0.5191 0.5212 0.5235 0.5256
3200.000000 0.5278 0.5299 0.5321 0.5340 0.5360
3195.000000 0.5378 0.5397 0.5415 0.5434 0.5452
3190.000000 0.5471 0.5489 0.5508 0.5525 0.5543
3185.000000 0.5559 0.5575 0.5591 0.5607 0.5623
3180.000000 0.5639 0.5654 0.5670 0.5686 0.5702
3175.000000 0.5718 0.5734 0.5749 0.5765 0.5781
3170.000000 0.5797 0.5812 0.5828 0.5844 0.5860
3165.000000 0.5872 0.5885 0.5897 0.5909 0.5921
3160.000000 0.5933 0.5945 0.5957 0.5968 0.5980
3155.000000 0.5992 0.6004 0.6015 0.6027 0.6037
3150.000000 0.6047 0.6057 0.6068 0.6078 0.6089
3145.000000 0.6099 0.6109 0.6119 0.6130 0.6140
3140.000000 0.6150 0.6156 0.6162 0.6169 0.6175
3135.000000 0.6181 0.6188 0.6194 0.6201 0.6207
3130.000000 0.6214 0.6220 0.6227 0.6231 0.6236
3125.000000 0.6239 0.6243 0.6246 0.6250 0.6253
3120.000000 0.6257 0.6260 0.6265 0.6268 0.6272
3115.000000 0.6274 0.6277 0.6278 0.6280 0.6281
3110.000000 0.6283 0.6284 0.6286 0.6288 0.6290
3105.000000 0.6291 0.6293 0.6294 0.6296 0.6298
3100.000000 0.6300 0.6300 0.6301 0.6301 0.6302
3095.000000 0.6302 0.6303 0.6303 0.6303 0.6303
3090.000000 0.6303 0.6304 0.6305 0.6305 0.6306
3085.000000 0.6307 0.6308 0.6309 0.6310 0.6310
3080.000000 0.6312 0.6314 0.6315 0.6316 0.6317
3075.000000 0.6317 0.6318 0.6318 0.6319 0.6319
3070.000000 0.6319 0.6319 0.6319 0.6319 0.6319
3065.000000 0.6318 0.6317 0.6316 0.6315 0.6312
3060.000000 0.6310 0.6309 0.6308 0.6298 0.6289
3055.000000 0.6277 0.6265 0.6230 0.6196 0.6158
3050.000000 0.6120 0.6082 0.6044 0.6006 0.5968
3045.000000 0.5930 0.5892 0.5855 0.5819 0.5825
3040.000000 0.5832 0.5841 0.5850 0.5874 0.5898
3035.000000 0.5924 0.5951 0.5977 0.6003 0.6029
3030.000000 0.6056 0.6082 0.6108 0.6134 0.6160
3025.000000 0.6187 0.6212 0.6238 0.6262 0.6266
3020.000000 0.6270 0.6273 0.6277 0.6280 0.6284
3015.000000 0.6290 0.6297 0.6308 0.6319 0.6330
3010.000000 0.6342 0.6353 0.6364 0.6374 0.6385
3005.000000 0.6394 0.6404 0.6412 0.6422 0.6432
3000.000000 0.6442 0.6451 0.6461 0.6468 0.6478
2995.000000 0.6486 0.6494 0.6501 0.6510 0.6518
2990.000000 0.6525 0.6534 0.6542 0.6549 0.6557
2985.000000 0.6561 0.6565 0.6569 0.6574 0.6578
2980.000000 0.6583 0.6587 0.6592 0.6592 0.6593
2975.000000 0.6593 0.6593 0.6593 0.6594 0.6594
2970.000000 0.6594 0.6594 0.6595 0.6595 0.6595
2965.000000 0.6595 0.6596 0.6596 0.6597 0.6597
2960.000000 0.6598 0.6599 0.6600 0.6600 0.6601
2955.000000 0.6601 0.6601 0.6603 0.6604 0.6604
2950.000000 0.6605 0.6606 0.6607 0.6607 0.6608
2945.000000 0.6608 0.6610 0.6611 0.6614 0.6615
2940.000000 0.6617 0.6618 0.6621 0.6621 0.6624
2935.000000 0.6625 0.6628 0.6628 0.6631 0.6633
2930.000000 0.6635 0.6637 0.6639 0.6642 0.6646
2925.000000 0.6649 0.6653 0.6656 0.6660 0.6662
2920.000000 0.6667 0.6669 0.6674 0.6676 0.6681
2915.000000 0.6684 0.6688 0.6691 0.6695 0.6698
2910.000000 0.6701 0.6705 0.6708 0.6712 0.6717
2905.000000 0.6721 0.6725 0.6730 0.6734 0.6738
2900.000000 0.6743 0.6747 0.6751 0.6755 0.6760
2895.000000 0.6764 0.6768 0.6772 0.6776 0.6780
2890.000000 0.6783 0.6785 0.6788 0.6791 0.6794
2885.000000 0.6796 0.6799 0.6801 0.6804 0.6806
2880.000000 0.6808 0.6811 0.6814 0.6815 0.6815
2875.000000 0.6817 0.6818 0.6819 0.6821 0.6822
2870.000000 0.6824 0.6825 0.6825 0.6826 0.6828
2865.000000 0.6832 0.6836 0.6841 0.6846 0.6850
2860.000000 0.6855 0.6858 0.6864 0.6868 0.6872
2855.000000 0.6875 0.6880 0.6882 0.6885 0.6888
2850.000000 0.6891 0.6894 0.6897 0.6900 0.6903
2845.000000 0.6906 0.6908 0.6911 0.6915 0.6918
2840.000000 0.6921 0.6924 0.6926 0.6926 0.6928
2835.000000 0.6928 0.6930 0.6931 0.6932 0.6932
2830.000000 0.6933 0.6934 0.6935 0.6935 0.6936
2825.000000 0.6937 0.6938 0.6938 0.6939 0.6940
2820.000000 0.6941 0.6941 0.6942 0.6943 0.6944
2815.000000 0.6944 0.6945 0.6946 0.6947 0.6947
2810.000000 0.6948 0.6949 0.6950 0.6950 0.6951
2805.000000 0.6951 0.6953 0.6953 0.6954 0.6955
2800.000000 0.6956 0.6957 0.6958 0.6960 0.6961
2795.000000 0.6964 0.6965 0.6968 0.6969 0.6971
2790.000000 0.6974 0.6975 0.6978 0.6980 0.6982
2785.000000 0.6984 0.6986 0.6988 0.6990 0.6992
2780.000000 0.6995 0.6998 0.7001 0.7003 0.7006
2775.000000 0.7008 0.7011 0.7015 0.7018 0.7019
2770.000000 0.7022 0.7025 0.7028 0.7031 0.7033
2765.000000 0.7034 0.7036 0.7037 0.7039 0.7040
2760.000000 0.7042 0.7043 0.7045 0.7046 0.7048
2755.000000 0.7049 0.7051 0.7051 0.7053 0.7054
2750.000000 0.7056 0.7057 0.7058 0.7060 0.7061
2745.000000 0.7062 0.7065 0.7065 0.7068 0.7068
2740.000000 0.7071 0.7071 0.7074 0.7075 0.7076
2735.000000 0.7076 0.7078 0.7078 0.7078 0.7078
2730.000000 0.7078 0.7078 0.7080 0.7080 0.7081
2725.000000 0.7081 0.7082 0.7082 0.7082 0.7082
2720.000000 0.7083 0.7083 0.7084 0.7084 0.7084
2715.000000 0.7084 0.7085 0.7085 0.7086 0.7087
2710.000000 0.7088 0.7089 0.7091 0.7092 0.7094
2705.000000 0.7095 0.7097 0.7098 0.7100 0.7101
2700.000000 0.7103 0.7104 0.7105 0.7107 0.7108
2695.000000 0.7110 0.7111 0.7112 0.7115 0.7117
2690.000000 0.7118 0.7119 0.7121 0.7124 0.7125
2685.000000 0.7126 0.7128 0.7130 0.7132 0.7134
2680.000000 0.7136 0.7137 0.7139 0.7141 0.7143
2675.000000 0.7144 0.7146 0.7148 0.7150 0.7151
2670.000000 0.7154 0.7156 0.7158 0.7160 0.7161
2665.000000 0.7164 0.7167 0.7168 0.7171 0.7172
2660.000000 0.7175 0.7178 0.7180 0.7182 0.7185
2655.000000 0.7187 0.7189 0.7191 0.7194 0.7196
2650.000000 0.7198 0.7200 0.7203 0.7205 0.7207
2645.000000 0.7208 0.7211 0.7212 0.7215 0.7218
2640.000000 0.7219 0.7222 0.7225 0.7228 0.7231
2635.000000 0.7234 0.7237 0.7240 0.7243 0.7245
2630.000000 0.7248 0.7251 0.7254 0.7257 0.7260
2625.000000 0.7261 0.7265 0.7268 0.7271 0.7274
2620.000000 0.7276 0.7280 0.7283 0.7285 0.7288
2615.000000 0.7291 0.7294 0.7297 0.7300 0.7301
2610.000000 0.7305 0.7307 0.7310 0.7311 0.7315
2605.000000 0.7317 0.7319 0.7321 0.7325 0.7326
2600.000000 0.7330 0.7332 0.7335 0.7337 0.7340
2595.000000 0.7342 0.7345 0.7347 0.7350 0.7351
2590.000000 0.7354 0.7355 0.7357 0.7358 0.7360
2585.000000 0.7361 0.7362 0.7364 0.7365 0.7367
2580.000000 0.7368 0.7368 0.7371 0.7371 0.7374
2575.000000 0.7375 0.7376 0.7378 0.7380 0.7381
2570.000000 0.7383 0.7384 0.7386 0.7387 0.7389
2565.000000 0.7390 0.7392 0.7393 0.7394 0.7395
2560.000000 0.7397 0.7399 0.7401 0.7401 0.7404
2555.000000 0.7405 0.7407 0.7408 0.7410 0.7411
2550.000000 0.7412 0.7414 0.7415 0.7418 0.7419
2545.000000 0.7421 0.7422 0.7424 0.7425 0.7426
2540.000000 0.7428 0.7430 0.7432 0.7433 0.7435
2535.000000 0.7437 0.7439 0.7440 0.7442 0.7443
2530.000000 0.7445 0.7446 0.7448 0.7449 0.7451
2525.000000 0.7451 0.7454 0.7456 0.7458 0.7458
2520.000000 0.7460 0.7461 0.7462 0.7464 0.7465
2515.000000 0.7467 0.7468 0.7469 0.7471 0.7471
2510.000000 0.7474 0.7475 0.7476 0.7478 0.7478
2505.000000 0.7480 0.7482 0.7483 0.7485 0.7486
2500.000000 0.7488 0.7489 0.7490 0.7491 0.7493
2495.000000 0.7494 0.7496 0.7497 0.7498 0.7499
2490.000000 0.7501 0.7501 0.7503 0.7504 0.7505
2485.000000 0.7506 0.7508 0.7508 0.7510 0.7511
2480.000000 0.7511 0.7512 0.7514 0.7515 0.7515
2475.000000 0.7517 0.7518 0.7518 0.7519 0.7521
2470.000000 0.7522 0.7524 0.7525 0.7525 0.7526
2465.000000 0.7528 0.7528 0.7530 0.7532 0.7533
2460.000000 0.7535 0.7536 0.7537 0.7538 0.7540
2455.000000 0.7541 0.7543 0.7544 0.7545 0.7546
2450.000000 0.7548 0.7549 0.7551 0.7551 0.7554
2445.000000 0.7555 0.7556 0.7557 0.7558 0.7560
2440.000000 0.7561 0.7562 0.7564 0.7565 0.7565
2435.000000 0.7565 0.7567 0.7568 0.7568 0.7568
2430.000000 0.7569 0.7571 0.7571 0.7572 0.7574
2425.000000 0.7574 0.7575 0.7575 0.7576 0.7578
2420.000000 0.7578 0.7578 0.7580 0.7581 0.7582
2415.000000 0.7583 0.7584 0.7584 0.7585 0.7586
2410.000000 0.7587 0.7587 0.7588 0.7588 0.7589
2405.000000 0.7589 0.7590 0.7590 0.7590 0.7590
2400.000000 0.7591 0.7591 0.7592 0.7592 0.7592
2395.000000 0.7592 0.7593 0.7593 0.7594 0.7594
2390.000000 0.7594 0.7594 0.7595 0.7595 0.7596
2385.000000 0.7596 0.7596 0.7596 0.7597 0.7597
2380.000000 0.7598 0.7598 0.7598 0.7598 0.7598
2375.000000 0.7598 0.7598 0.7598 0.7598 0.7598
2370.000000 0.7598 0.7597 0.7597 0.7597 0.7597
2365.000000 0.7597 0.7597 0.7597 0.7597 0.7597
2360.000000 0.7597 0.7596 0.7596 0.7596 0.7596
2355.000000 0.7596 0.7596 0.7596 0.7597 0.7597
2350.000000 0.7597 0.7597 0.7598 0.7598 0.7599
2345.000000 0.7599 0.7599 0.7599 0.7600 0.7600
2340.000000 0.7600 0.7600 0.7601 0.7601 0.7601
2335.000000 0.7603 0.7605 0.7608 0.7611 0.7614
2330.000000 0.7617 0.7619 0.7622 0.7625 0.7628
2325.000000 0.7632 0.7635 0.7637 0.7640 0.7643
2320.000000 0.7646 0.7649 0.7651 0.7654 0.7657
2315.000000 0.7660 0.7662 0.7665 0.7668 0.7671
2310.000000 0.7674 0.7676 0.7680 0.7682 0.7685
2305.000000 0.7687 0.7690 0.7692 0.7695 0.7697
2300.000000 0.7700 0.7701 0.7705 0.7707 0.7710
2295.000000 0.7711 0.7715 0.7717 0.7719 0.7721
2290.000000 0.7725 0.7726 0.7728 0.7731 0.7734
2285.000000 0.7736 0.7739 0.7741 0.7744 0.7746
2280.000000 0.7749 0.7751 0.7754 0.7756 0.7758
2275.000000 0.7761 0.7764 0.7765 0.7768 0.7771
2270.000000 0.7774 0.7775 0.7778 0.7781 0.7784
2265.000000 0.7786 0.7789 0.7792 0.7795 0.7797
2260.000000 0.7800 0.7801 0.7805 0.7807 0.7810
2255.000000 0.7812 0.7815 0.7818 0.7821 0.7822
2250.000000 0.7825 0.7828 0.7831 0.7833 0.7836
2245.000000 0.7839 0.7842 0.7844 0.7847 0.7849
2240.000000 0.7851 0.7854 0.7857 0.7860 0.7864
2235.000000 0.7867 0.7871 0.7874 0.7878 0.7881
2230.000000 0.7885 0.7888 0.7892 0.7895 0.7899
2225.000000 0.7901 0.7906 0.7908 0.7912 0.7915
2220.000000 0.7918 0.7921 0.7925 0.7928 0.7933
2215.000000 0.7936 0.7940 0.7943 0.7947 0.7950
2210.000000 0.7954 0.7957 0.7961 0.7964 0.7968
2205.000000 0.7971 0.7975 0.7978 0.7982 0.7984
2200.000000 0.7987 0.7990 0.7993 0.7995 0.7998
2195.000000 0.8001 0.8004 0.8006 0.8008 0.8011
2190.000000 0.8015 0.8017 0.8019 0.8022 0.8025
2185.000000 0.8028 0.8031 0.8034 0.8037 0.8039
2180.000000 0.8042 0.8045 0.8048 0.8050 0.8053
2175.000000 0.8056 0.8058 0.8061 0.8065 0.8067
2170.000000 0.8068 0.8071 0.8072 0.8075 0.8076
2165.000000 0.8078 0.8081 0.8082 0.8084 0.8086
2160.000000 0.8088 0.8090 0.8092 0.8094 0.8096
2155.000000 0.8097 0.8099 0.8101 0.8103 0.8105
2150.000000 0.8107 0.8108 0.8111 0.8111 0.8114
2145.000000 0.8115 0.8118 0.8119 0.8121 0.8124
2140.000000 0.8125 0.8128 0.8130 0.8131 0.8133
2135.000000 0.8135 0.8137 0.8139 0.8141 0.8143
2130.000000 0.8145 0.8147 0.8150 0.8151 0.8154
2125.000000 0.8156 0.8158 0.8161 0.8162 0.8165
2120.000000 0.8168 0.8169 0.8171 0.8174 0.8176
2115.000000 0.8178 0.8181 0.8183 0.8186 0.8188
2110.000000 0.8190 0.8192 0.8194 0.8196 0.8199
2105.000000 0.8201 0.8203 0.8205 0.8208 0.8211
2100.000000 0.8215 0.8218 0.8221 0.8225 0.8228
2095.000000 0.8232 0.8236 0.8239 0.8242 0.8245
2090.000000 0.8249 0.8252 0.8256 0.8259 0.8263
2085.000000 0.8266 0.8270 0.8271 0.8274 0.8275
2080.000000 0.8278 0.8281 0.8284 0.8286 0.8289
2075.000000 0.8290 0.8292 0.8292 0.8293 0.8293
2070.000000 0.8294 0.8294 0.8295 0.8295 0.8296
2065.000000 0.8296 0.8297 0.8297 0.8298 0.8298
2060.000000 0.8299 0.8299 0.8300 0.8300 0.8301
2055.000000 0.8301 0.8302 0.8302 0.8303 0.8303
2050.000000 0.8304 0.8304 0.8305 0.8305 0.8306
2045.000000 0.8306 0.8307 0.8307 0.8307 0.8308
2040.000000 0.8309 0.8309 0.8310 0.8310 0.8311
2035.000000 0.8311 0.8312 0.8313 0.8314 0.8314
2030.000000 0.8315 0.8315 0.8316 0.8317 0.8318
2025.000000 0.8318 0.8318 0.8318 0.8320 0.8320
2020.000000 0.8321 0.8321 0.8323 0.8323 0.8324
2015.000000 0.8324 0.8325 0.8325 0.8327 0.8327
2010.000000 0.8328 0.8328 0.8330 0.8331 0.8332
2005.000000 0.8333 0.8334 0.8335 0.8336 0.8337
2000.000000 0.8339 0.8341 0.8343 0.8345 0.8346
1995.000000 0.8348 0.8350 0.8352 0.8354 0.8357
1990.000000 0.8360 0.8364 0.8367 0.8371 0.8375
1985.000000 0.8378 0.8382 0.8385 0.8389 0.8392
1980.000000 0.8396 0.8400 0.8403 0.8406 0.8409
1975.000000 0.8411 0.8414 0.8416 0.8418 0.8421
1970.000000 0.8424 0.8425 0.8428 0.8431 0.8433
1965.000000 0.8435 0.8436 0.8437 0.8438 0.8439
1960.000000 0.8440 0.8441 0.8442 0.8443 0.8444
1955.000000 0.8445 0.8446 0.8446 0.8447 0.8447
1950.000000 0.8447 0.8447 0.8448 0.8448 0.8448
1945.000000 0.8448 0.8449 0.8449 0.8450 0.8451
1940.000000 0.8451 0.8452 0.8453 0.8453 0.8454
1935.000000 0.8455 0.8456 0.8456 0.8457 0.8460
1930.000000 0.8459 0.8458 0.8457 0.8456 0.8455
1925.000000 0.8455 0.8455 0.8457 0.8459 0.8461
1920.000000 0.8463 0.8465 0.8466 0.8468 0.8468
1915.000000 0.8468 0.8462 0.8454 0.8447 0.8440
1910.000000 0.8432 0.8425 0.8418 0.8410 0.8401
1905.000000 0.8400 0.8399 0.8398 0.8397 0.8397
1900.000000 0.8396 0.8395 0.8394 0.8394 0.8394
1895.000000 0.8395 0.8396 0.8397 0.8398 0.8398
1890.000000 0.8399 0.8399 0.8400 0.8401 0.8401
1885.000000 0.8406 0.8414 0.8421 0.8430 0.8438
1880.000000 0.8446 0.8455 0.8463 0.8471 0.8480
1875.000000 0.8489 0.8498 0.8505 0.8512 0.8518
1870.000000 0.8525 0.8532 0.8539 0.8546 0.8553
1865.000000 0.8559 0.8566 0.8573 0.8580 0.8586
1860.000000 0.8591 0.8595 0.8599 0.8603 0.8607
1855.000000 0.8611 0.8615 0.8618 0.8623 0.8627
1850.000000 0.8631 0.8635 0.8639 0.8642 0.8646
1845.000000 0.8650 0.8654 0.8658 0.8661 0.8665
1840.000000 0.8668 0.8673 0.8675 0.8678 0.8681
1835.000000 0.8683 0.8686 0.8688 0.8691 0.8694
1830.000000 0.8696 0.8699 0.8702 0.8703 0.8704
1825.000000 0.8705 0.8705 0.8706 0.8706 0.8707
1820.000000 0.8708 0.8708 0.8708 0.8708 0.8708
1815.000000 0.8707 0.8707 0.8706 0.8706 0.8705
1810.000000 0.8705 0.8704 0.8704 0.8703 0.8703
1805.000000 0.8702 0.8702 0.8701 0.8701 0.8700
1800.000000 0.8700 0.8700 0.8700 0.8700 0.8700
1795.000000 0.8700 0.8699 0.8699 0.8699 0.8699
1790.000000 0.8701 0.8703 0.8705 0.8708 0.8710
1785.000000 0.8715 0.8721 0.8728 0.8734 0.8739
1780.000000 0.8744 0.8749 0.8754 0.8758 0.8763
1775.000000 0.8768 0.8771 0.8775 0.8780 0.8782
1770.000000 0.8782 0.8781 0.8781 0.8786 0.8790
1765.000000 0.8794 0.8799 0.8803 0.8808 0.8812
1760.000000 0.8817 0.8821 0.8827 0.8832 0.8837
1755.000000 0.8842 0.8846 0.8847 0.8848 0.8849
1750.000000 0.8850 0.8851 0.8852 0.8853 0.8854
1745.000000 0.8855 0.8856 0.8857 0.8858 0.8859
1740.000000 0.8861 0.8862 0.8863 0.8865 0.8866
1735.000000 0.8867 0.8868 0.8870 0.8871 0.8873
1730.000000 0.8875 0.8877 0.8878 0.8880 0.8882
1725.000000 0.8884 0.8886 0.8888 0.8889 0.8890
1720.000000 0.8891 0.8892 0.8893 0.8895 0.8896
1715.000000 0.8897 0.8898 0.8899 0.8900 0.8900
1710.000000 0.8901 0.8902 0.8903 0.8904 0.8905
1705.000000 0.8905 0.8906 0.8906 0.8906 0.8906
1700.000000 0.8906 0.8906 0.8906 0.8906 0.8905
1695.000000 0.8905 0.8905 0.8905 0.8903 0.8901
1690.000000 0.8899 0.8896 0.8894 0.8891 0.8889
1685.000000 0.8887 0.8883 0.8878 0.8874 0.8870
1680.000000 0.8865 0.8860 0.8854 0.8848 0.8841
1675.000000 0.8835 0.8828 0.8821 0.8816 0.8811
1670.000000 0.8805 0.8800 0.8795 0.8790 0.8785
1665.000000 0.8778 0.8773 0.8764 0.8749 0.8734
1660.000000 0.8720 0.8705 0.8687 0.8663 0.8638
1655.000000 0.8614 0.8582 0.8538 0.8494 0.8452
1650.000000 0.8412 0.8371 0.8324 0.8259 0.8192
1645.000000 0.8107 0.7961 0.7841 0.7761 0.7662
1640.000000 0.7553 0.7407 0.7198 0.6995 0.6843
1635.000000 0.6522 0.6202 0.5881 0.5560 0.4989
1630.000000 0.5006 0.5002 0.4998 0.5146 0.5295
1625.000000 0.5444 0.5593 0.5742 0.5891 0.6040
1620.000000 0.6089 0.6106 0.6118 0.6112 0.6124
1615.000000 0.6110 0.6097 0.6043 0.5959 0.5876
1610.000000 0.5793 0.5710 0.5626 0.5487 0.5496
1605.000000 0.5490 0.5515 0.5583 0.5736 0.5975
1600.000000 0.6162 0.6329 0.6432 0.6536 0.6751
1595.000000 0.7025 0.7232 0.7354 0.7471 0.7588
1590.000000 0.7672 0.7739 0.7805 0.7871 0.7934
1585.000000 0.7995 0.8055 0.8115 0.8176 0.8239
1580.000000 0.8300 0.8335 0.8362 0.8390 0.8417
1575.000000 0.8444 0.8462 0.8475 0.8491 0.8505
1570.000000 0.8520 0.8534 0.8549 0.8563 0.8578
1565.000000 0.8592 0.8607 0.8618 0.8627 0.8637
1560.000000 0.8647 0.8656 0.8666 0.8675 0.8685
1555.000000 0.8695 0.8704 0.8714 0.8724 0.8733
1550.000000 0.8741 0.8749 0.8756 0.8764 0.8771
1545.000000 0.8778 0.8787 0.8795 0.8802 0.8812
1540.000000 0.8821 0.8831 0.8841 0.8851 0.8860
1535.000000 0.8866 0.8871 0.8877 0.8883 0.8889
1530.000000 0.8893 0.8895 0.8898 0.8900 0.8902
1525.000000 0.8903 0.8907 0.8905 0.8901 0.8886
1520.000000 0.8867 0.8844 0.8821 0.8790 0.8753
1515.000000 0.8711 0.8656 0.8602 0.8465 0.8246
1510.000000 0.7876 0.7030 0.6458 0.4542 0.2627
1505.000000 0.0951 0.0929 0.0904 0.0917 0.0914
1500.000000 0.0925 0.1281 0.1925 0.2569 0.3214
1495.000000 0.3858 0.4285 0.5014 0.5230 0.5391
1490.000000 0.5560 0.5759 0.5908 0.6027 0.6146
1485.000000 0.6257 0.6368 0.6482 0.6630 0.6757
1480.000000 0.6854 0.6951 0.7044 0.7130 0.7217
1475.000000 0.7303 0.7378 0.7433 0.7486 0.7540
1470.000000 0.7593 0.7643 0.7678 0.7712 0.7747
1465.000000 0.7782 0.7815 0.7840 0.7865 0.7890
1460.000000 0.7914 0.7939 0.7962 0.7988 0.8011
1455.000000 0.8033 0.8054 0.8075 0.8096 0.8117
1450.000000 0.8138 0.8158 0.8171 0.8185 0.8198
1445.000000 0.8211 0.8225 0.8238 0.8251 0.8263
1440.000000 0.8275 0.8288 0.8300 0.8310 0.8318
1435.000000 0.8328 0.8335 0.8340 0.8345 0.8350
1430.000000 0.8352 0.8353 0.8355 0.8357 0.8359
1425.000000 0.8354 0.8347 0.8339 0.8330 0.8321
1420.000000 0.8311 0.8300 0.8289 0.8278 0.8271
1415.000000 0.8263 0.8260 0.8256 0.8264 0.8278
1410.000000 0.8292 0.8305 0.8318 0.8332 0.8344
1405.000000 0.8357 0.8368 0.8382 0.8394 0.8407
1400.000000 0.8418 0.8425 0.8433 0.8440 0.8447
1395.000000 0.8454 0.8461 0.8466 0.8467 0.8468
1390.000000 0.8471 0.8473 0.8475 0.8475 0.8474
1385.000000 0.8473 0.8471 0.8471 0.8470 0.8468
1380.000000 0.8464 0.8459 0.8454 0.8449 0.8444
1375.000000 0.8439 0.8434 0.8428 0.8424 0.8416
1370.000000 0.8409 0.8401 0.8394 0.8386 0.8378
1365.000000 0.8371 0.8361 0.8352 0.8342 0.8332
1360.000000 0.8317 0.8300 0.8283 0.8266 0.8241
1355.000000 0.8216 0.8191 0.8161 0.8125 0.8088
1350.000000 0.8049 0.8008 0.7967 0.7924 0.7848
1345.000000 0.7851 0.7824 0.7832 0.7841 0.7857
1340.000000 0.7871 0.7888 0.7903 0.7917 0.7932
1335.000000 0.7934 0.7934 0.7933 0.7932 0.7928
1330.000000 0.7924 0.7922 0.7921 0.7921 0.7921
1325.000000 0.7940 0.7993 0.8030 0.8044 0.8058
1320.000000 0.8071 0.8084 0.8096 0.8108 0.8119
1315.000000 0.8133 0.8146 0.8153 0.8160 0.8183
1310.000000 0.8153 0.8137 0.8111 0.8075 0.8043
1305.000000 0.8011 0.7971 0.7931 0.7897 0.7868
1300.000000 0.7839 0.7811 0.7803 0.7801 0.7798
1295.000000 0.7791 0.7784 0.7756 0.7721 0.7689
1290.000000 0.7646 0.7582 0.7497 0.7388 0.7137
1285.000000 0.6822 0.6055 0.5892 0.5603 0.5497
1280.000000 0.5416 0.5337 0.5168 0.4732 0.4297
1275.000000 0.4080 0.4025 0.3973 0.3923 0.3859
1270.000000 0.3768 0.3672 0.3568 0.3482 0.3412
1265.000000 0.3345 0.3276 0.3197 0.3108 0.3084
1260.000000 0.3077 0.3093 0.3175 0.3647 0.3850
1255.000000 0.4053 0.4256 0.4459 0.4638 0.4892
1250.000000 0.5034 0.5371 0.5643 0.5898 0.6039
1245.000000 0.6148 0.6224 0.6283 0.6342 0.6401
1240.000000 0.6455 0.6508 0.6561 0.6614 0.6667
1235.000000 0.6711 0.6753 0.6796 0.6838 0.6881
1230.000000 0.6925 0.6971 0.7015 0.7060 0.7105
1225.000000 0.7151 0.7199 0.7246 0.7293 0.7337
1220.000000 0.7367 0.7398 0.7428 0.7458 0.7489
1215.000000 0.7511 0.7534 0.7556 0.7578 0.7599
1210.000000 0.7621 0.7642 0.7660 0.7678 0.7696
1205.000000 0.7714 0.7731 0.7747 0.7764 0.7778
1200.000000 0.7791 0.7804 0.7817 0.7830 0.7843
1195.000000 0.7856 0.7871 0.7885 0.7900 0.7917
1190.000000 0.7939 0.7961 0.7984 0.8026 0.8085
1185.000000 0.8223 0.8278 0.8291 0.8334 0.8309
1180.000000 0.8310 0.8301 0.8284 0.8223 0.6201
1175.000000 0.4301 0.4114 0.4396 0.4831 0.5265
1170.000000 0.5700 0.6135 0.6569 0.6867 0.7001
1165.000000 0.7078 0.7144 0.7211 0.7281 0.7341
1160.000000 0.7388 0.7436 0.7471 0.7501 0.7517
1155.000000 0.7532 0.7543 0.7543 0.7558 0.7558
1150.000000 0.7560 0.7549 0.7522 0.7491 0.7454
1145.000000 0.7408 0.7361 0.7312 0.7278 0.7218
1140.000000 0.7218 0.7217 0.7231 0.7276 0.7324
1135.000000 0.7371 0.7417 0.7460 0.7501 0.7541
1130.000000 0.7580 0.7611 0.7645 0.7676 0.7712
1125.000000 0.7758 0.7797 0.7821 0.7845 0.7868
1120.000000 0.7892 0.7915 0.7937 0.7955 0.7974
1115.000000 0.7991 0.8005 0.8018 0.8033 0.8039
1110.000000 0.8064 0.8047 0.8048 0.8048 0.8044
1105.000000 0.8037 0.8031 0.8022 0.8015 0.8007
1100.000000 0.7999 0.7992 0.7985 0.7978 0.7974
1095.000000 0.7968 0.7988 0.7987 0.8000 0.8012
1090.000000 0.8025 0.8040 0.8053 0.8067 0.8080
1085.000000 0.8093 0.8108 0.8125 0.8142 0.8158
1080.000000 0.8175 0.8193 0.8208 0.8221 0.8235
1075.000000 0.8248 0.8261 0.8275 0.8288 0.8301
1070.000000 0.8314 0.8328 0.8341 0.8352 0.8364
1065.000000 0.8375 0.8388 0.8400 0.8411 0.8423
1060.000000 0.8435 0.8447 0.8458 0.8467 0.8477
1055.000000 0.8487 0.8497 0.8507 0.8517 0.8527
1050.000000 0.8537 0.8547 0.8557 0.8567 0.8577
1045.000000 0.8587 0.8597 0.8607 0.8617 0.8627
1040.000000 0.8634 0.8639 0.8645 0.8650 0.8655
1035.000000 0.8660 0.8663 0.8666 0.8671 0.8671
1030.000000 0.8675 0.8677 0.8673 0.8668 0.8664
1025.000000 0.8657 0.8647 0.8636 0.8625 0.8617
1020.000000 0.8610 0.8603 0.8596 0.8593 0.8592
1015.000000 0.8592 0.8594 0.8598 0.8603 0.8611
1010.000000 0.8648 0.8677 0.8703 0.8725 0.8743
1005.000000 0.8754 0.8754 0.8755 0.8751 0.8742
1000.000000 0.8728 0.8712 0.8706 0.8718 0.8730
995.000000 0.8745 0.8760 0.8775 0.8788 0.8801
990.000000 0.8814 0.8827 0.8840 0.8848 0.8855
985.000000 0.8862 0.8865 0.8866 0.8866 0.8866
980.000000 0.8862 0.8853 0.8840 0.8832 0.8823
975.000000 0.8816 0.8818 0.8818 0.8818 0.8818
970.000000 0.8816 0.8814 0.8811 0.8796 0.8781
965.000000 0.8764 0.8748 0.8730 0.8710 0.8688
960.000000 0.8614 0.8646 0.8628 0.8628 0.8630
955.000000 0.8634 0.8637 0.8640 0.8642 0.8644
950.000000 0.8646 0.8647 0.8663 0.8690 0.8721
945.000000 0.8752 0.8773 0.8790 0.8803 0.8815
940.000000 0.8828 0.8840 0.8852 0.8864 0.8871
935.000000 0.8877 0.8877 0.8877 0.8877 0.8878
930.000000 0.8878 0.8878 0.8890 0.8921 0.8958
925.000000 0.8992 0.9024 0.9037 0.9046 0.9048
920.000000 0.9051 0.9054 0.9057 0.9058 0.9059
915.000000 0.9060 0.9061 0.9062 0.9063 0.9063
910.000000 0.9064 0.9065 0.9068 0.9068 0.9068
905.000000 0.9068 0.9068 0.9061 0.9053 0.9044
900.000000 0.9035 0.9021 0.9008 0.8995 0.8984
895.000000 0.8973 0.8955 0.8938 0.8927 0.8913
890.000000 0.8902 0.8895 0.8896 0.8898 0.8901
885.000000 0.8911 0.8920 0.8925 0.8931 0.8936
880.000000 0.8936 0.8937 0.8934 0.8928 0.8923
875.000000 0.8916 0.8905 0.8887 0.8867 0.8845
870.000000 0.8824 0.8802 0.8777 0.8748 0.8718
865.000000 0.8678 0.8623 0.8571 0.8525 0.8475
860.000000 0.8421 0.8358 0.8271 0.8165 0.8076
855.000000 0.7995 0.7887 0.7658 0.7546 0.7391
850.000000 0.7237 0.7082 0.6849 0.6844 0.6868
845.000000 0.6928 0.7022 0.7117 0.7211 0.7305
840.000000 0.7398 0.7401 0.7408 0.7324 0.6795
835.000000 0.6267 0.5738 0.5548 0.5462 0.5421
830.000000 0.5387 0.5357 0.5162 0.4918 0.4675
825.000000 0.4431 0.4187 0.3944 0.3721 0.3624
820.000000 0.3584 0.3550 0.3516 0.3498 0.3492
815.000000 0.3503 0.3568 0.3648 0.3759 0.3916
810.000000 0.4121 0.4289 0.4767 0.5245 0.5722
805.000000 0.6200 0.6678 0.7155 0.7545 0.7714
800.000000 0.7874 0.7941 0.7964 0.7969 0.7975
795.000000 0.7997 0.7968 0.7958 0.7944 0.7922
790.000000 0.7901 0.7880 0.7830 0.7780 0.7726
785.000000 0.7668 0.7611 0.7554 0.7490 0.7419
780.000000 0.7350 0.7280 0.7211 0.7142 0.7072
775.000000 0.7008 0.6955 0.6901 0.6848 0.6795
770.000000 0.6742 0.6689 0.6636 0.6606 0.6578
765.000000 0.6550 0.6521 0.6494 0.6464 0.6433
760.000000 0.6403 0.6372 0.6342 0.6308 0.6274
755.000000 0.6240 0.6212 0.6189 0.6167 0.6150
750.000000 0.6122 0.6142 0.6140 0.6147 0.6164
745.000000 0.6215 0.6271 0.6348 0.6425 0.6534
740.000000 0.6640 0.6725 0.6790 0.6843 0.6901
735.000000 0.6924 0.6931 0.6964 0.6937 0.6932
730.000000 0.6917 0.6830 0.6605 0.6398 0.6191
725.000000 0.5985 0.5778 0.5658 0.5662 0.5645
720.000000 0.5657 0.5777 0.5931 0.6084 0.6238
715.000000 0.6276 0.6262 0.6256 0.6151 0.6045
710.000000 0.5940 0.5835 0.5730 0.5693 0.5680
705.000000 0.5697 0.5692 0.5789 0.5932 0.6028
700.000000 0.6124 0.6236 0.6350 0.6433 0.6501
695.000000 0.6568 0.6636 0.6700 0.6762 0.6826
690.000000 0.6891 0.6958 0.7026 0.7078 0.7128
685.000000 0.7180 0.7217 0.7247 0.7275 0.7294
680.000000 0.7311 0.7321 0.7321 0.7314 0.7304
675.000000 0.7293 0.7278 0.7257 0.7236 0.7214
670.000000 0.7197 0.7178 0.7164 0.7158 0.7175
665.000000 0.7199 0.7232 0.7265 0.7300 0.7336
660.000000 0.7371 0.7407 0.7443 0.7478 0.7510
655.000000 0.7538 0.7550 0.7558 0.7553 0.7532
650.000000 0.7499 0.7443 0.7411 0.7412 0.7415
645.000000 0.7515 0.7626 0.7672 0.7717 0.7747
640.000000 0.7768 0.7771 0.7758 0.7746 0.7724
635.000000 0.7697 0.7678 0.7665 0.7681 0.7749
630.000000 0.7798 0.7847 0.7891 0.7924 0.7957
625.000000 0.7990 0.8015 0.8035 0.8056 0.8076
620.000000 0.8101 0.8124 0.8143 0.8161 0.8178
615.000000 0.8191 0.8203 0.8215 0.8228 0.8240
610.000000 0.8251 0.8262 0.8273 0.8284 0.8292
605.000000 0.8301 0.8309 0.8315 0.8316 0.8317
600.000000 0.8318 0.8318 0.8321 0.8324 0.8327
595.000000 0.8332 0.8337 0.8342 0.8344 0.8336
590.000000 0.8321 0.8311 0.8311 0.8318 0.8368
585.000000 0.8497 0.8537 0.8577 0.8601 0.8618
580.000000 0.8637 0.8652 0.8664 0.8675 0.8688
575.000000 0.8700 0.8712 0.8724 0.8736 0.8747
570.000000 0.8758 0.8768 0.8780 0.8791 0.8804
565.000000 0.8818 0.8832 0.8846 0.8859 0.8871
560.000000 0.8878 0.8878 0.8877 0.8858 0.8825
555.000000 0.8775 0.8711 0.8621 0.8524 0.8427
550.000000 0.8330 0.8233 0.8186 0.8178 0.8278
545.000000 0.8373 0.8467 0.8562 0.8656 0.8751
540.000000 0.8846 0.8940 0.9035 0.9128 0.9224
535.000000 0.9297 0.9320 0.9331 0.9338 0.9312
530.000000 0.9281 0.9216 0.7967 0.6544 0.5120
525.000000 0.4950 0.4960 0.5232 0.5567 0.5902
520.000000 0.6238 0.6572 0.6908 0.6996 0.6994
515.000000 0.6858 0.6286 0.5714 0.5188 0.5209
510.000000 0.5195 0.5212 0.5314 0.5330 0.5331
505.000000 0.5334 0.5337 0.5360 0.5460 0.5574
500.000000 0.5743 0.6095 0.6447 0.6893 0.7094
495.000000 0.7208 0.7269 0.7332 0.7394 0.7447
490.000000 0.7498 0.7549 0.7600 0.7638 0.7669
485.000000 0.7701 0.7732 0.7760 0.7788 0.7815
480.000000 0.7837 0.7854 0.7855 0.7857 0.7858
475.000000 0.7858 0.7858 0.7854 0.7850 0.7843
470.000000 0.7834 0.7825 0.7815 0.7805 0.7793
465.000000 0.7780 0.7767 0.7740 0.7712 0.7675
460.000000 0.7631 0.7582 0.7541 0.7508 0.7498
455.000000 0.7499 0.7500 0.7503 0.7506 0.7508
450.000000 0.7511 0.7514 0.7517 0.7517 0.7514
445.000000 0.7511 0.7508 0.7499 0.7490 0.7482
440.000000 0.7472 0.7462 0.7451 0.7440 0.7428
435.000000 0.7417 0.7405 0.7394 0.7382 0.7372
430.000000 0.7364 0.7356 0.7348 0.7340 0.7332
425.000000 0.7325 0.7324 0.7321 0.7318 0.7317
420.000000 0.7315 0.7315 0.7317 0.7318 0.7319
415.000000 0.7321 0.7324 0.7325 0.7336 0.7345
410.000000 0.7355 0.7368 0.7384 0.7399 0.7414
405.000000 0.7431 0.7445 0.7456 0.7465 0.7478
400.000000 0.7490 0.7501
##END=
