##TITLE=PHENOTHIAZINE
##JCAMP-DX=4.24
##DATA TYPE=INFRARED SPECTRUM
##CLASS=COBLENTZ
##ORIGIN=TENNESSEE EASTMAN COMPANY, RESEARCH LABORATORIES
##OWNER=COBLENTZ SOCIETY
Collection (C) 2018 copyright by the U.S. Secretary of Commerce
on behalf of the United States of America. All rights reserved.
##DATE=Not specified, most likely prior to 1970
##NAMES=10H-phenothiazine
##CAS REGISTRY NO=92-84-2
##MOLFORM=C12 H9 N S
##SOURCE REFERENCE=COBLENTZ NO. 2199
##$NIST SOURCE=COBLENTZ
##$NIST IMAGE=cob2199
##SPECTROMETER/DATA SYSTEM=Not specified, most likely a prism, grating, or hybrid spectrometer.
##STATE=SOLID (KBr PELLET)
$$ SEE 697 FOR CHCl3 SOLUTION
##SAMPLING PROCEDURE=TRANSMISSION
##RESOLUTION=4
##DATA PROCESSING=DIGITIZED BY NIST FROM HARD COPY
##XUNITS=MICROMETERS
##YUNITS=TRANSMITTANCE
##XFACTOR=1.000000
##YFACTOR=1
##DELTAX=000.006632
##FIRSTX=2.02
##LASTX=16.013
##FIRSTY=0.468
##MAXX=16.013
##MINX=2.02
##MAXY=1.004
##MINY=0.046
##NPOINTS=2111
##XYDATA=(X++(Y..Y))
2.020000 0.4680 0.4700 0.4700 0.4700 0.4710
2.053175 0.4730 0.4760 0.4800 0.4830 0.4900
2.086000 0.4930 0.4950 0.5000 0.5030 0.5040
2.119175 0.5040 0.5060 0.5060 0.5080 0.5080
2.153000 0.5090 0.5110 0.5130 0.5160 0.5190
2.186175 0.5230 0.5280 0.5330 0.5360 0.5390
2.219000 0.5410 0.5440 0.5480 0.5510 0.5560
2.252175 0.5590 0.5610 0.5620 0.5640 0.5670
2.285000 0.5690 0.5710 0.5720 0.5740 0.5760
2.318175 0.5770 0.5770 0.5790 0.5810 0.5820
2.351000 0.5840 0.5870 0.5890 0.5920 0.5960
2.384175 0.5970 0.5990 0.6000 0.6040 0.6040
2.418000 0.6050 0.6050 0.6070 0.6070 0.6070
2.451175 0.6090 0.6090 0.6100 0.6120 0.6170
2.484000 0.6200 0.6220 0.6240 0.6290 0.6290
2.517175 0.6300 0.6300 0.6320 0.6340 0.6350
2.550000 0.6350 0.6370 0.6370 0.6390 0.6400
2.583175 0.6400 0.6400 0.6400 0.6400 0.6400
2.617000 0.6420 0.6440 0.6470 0.6490 0.6520
2.650175 0.6550 0.6580 0.6620 0.6630 0.6650
2.683000 0.6680 0.6700 0.6720 0.6750 0.6770
2.716175 0.6780 0.6800 0.6820 0.6850 0.6870
2.749000 0.6870 0.6870 0.6850 0.6850 0.6850
2.782175 0.6850 0.6850 0.6850 0.6850 0.6850
2.816000 0.6830 0.6830 0.6820 0.6780 0.6780
2.849175 0.6770 0.6750 0.6750 0.6750 0.6730
2.882000 0.6720 0.6700 0.6700 0.6680 0.6680
2.915175 0.6670 0.6670 0.6670 0.6630 0.6620
2.948000 0.6550 0.6490 0.6370 0.6200 0.5970
2.981175 0.5520 0.5080 0.4630 0.2500 0.1550
3.015000 0.1420 0.1400 0.1440 0.1980 0.2500
3.048175 0.3060 0.3620 0.4200 0.4730 0.5570
3.081000 0.5840 0.5960 0.6050 0.6170 0.6250
3.114175 0.6340 0.6450 0.6550 0.6680 0.6800
3.147000 0.6880 0.6920 0.6920 0.6900 0.6750
3.180175 0.6730 0.6730 0.6750 0.7010 0.7110
3.214000 0.7160 0.7210 0.7260 0.7280 0.7250
3.247175 0.7110 0.6920 0.6700 0.6650 0.6650
3.280000 0.6630 0.6570 0.6350 0.6000 0.5990
3.313175 0.5990 0.6290 0.6720 0.6770 0.6770
3.346000 0.6730 0.6730 0.6730 0.6770 0.6980
3.379175 0.7150 0.7260 0.7360 0.7430 0.7480
3.413000 0.7510 0.7510 0.7500 0.7460 0.7430
3.446175 0.7430 0.7480 0.7580 0.7660 0.7740
3.479000 0.7780 0.7780 0.7790 0.7790 0.7810
3.512175 0.7810 0.7830 0.7860 0.7880 0.7880
3.545000 0.7890 0.7910 0.7930 0.7960 0.7990
3.578175 0.8020 0.8060 0.8070 0.8110 0.8120
3.612000 0.8120 0.8120 0.8120 0.8110 0.8090
3.645175 0.8070 0.8060 0.8060 0.8060 0.8070
3.678000 0.8090 0.8110 0.8110 0.8110 0.8110
3.711175 0.8110 0.8110 0.8110 0.8120 0.8140
3.744000 0.8170 0.8190 0.8220 0.8270 0.8360
3.777175 0.8370 0.8370 0.8390 0.8410 0.8410
3.811000 0.8410 0.8390 0.8370 0.8340 0.8340
3.844175 0.8340 0.8340 0.8360 0.8360 0.8370
3.877000 0.8370 0.8410 0.8440 0.8460 0.8490
3.910175 0.8500 0.8520 0.8520 0.8520 0.8500
3.943000 0.8440 0.8390 0.8340 0.8320 0.8320
3.976175 0.8320 0.8360 0.8390 0.8420 0.8440
4.009000 0.8470 0.8500 0.8540 0.8570 0.8590
4.042175 0.8600 0.8640 0.8650 0.8650 0.8650
4.076000 0.8650 0.8650 0.8650 0.8670 0.8670
4.109175 0.8670 0.8690 0.8700 0.8700 0.8720
4.142000 0.8740 0.8750 0.8750 0.8770 0.8790
4.175175 0.8790 0.8800 0.8800 0.8820 0.8820
4.208000 0.8840 0.8850 0.8850 0.8850 0.8850
4.241175 0.8850 0.8850 0.8850 0.8850 0.8870
4.275000 0.8890 0.8890 0.8900 0.8900 0.8920
4.308175 0.8920 0.8940 0.8950 0.8950 0.8970
4.341000 0.8970 0.8970 0.8970 0.8970 0.8970
4.374175 0.8970 0.8990 0.9000 0.9000 0.9020
4.407000 0.9030 0.9070 0.9080 0.9100 0.9130
4.440175 0.9180 0.9200 0.9220 0.9220 0.9230
4.474000 0.9250 0.9270 0.9280 0.9300 0.9320
4.507175 0.9330 0.9330 0.9330 0.9330 0.9330
4.540000 0.9330 0.9350 0.9350 0.9350 0.9350
4.573175 0.9350 0.9350 0.9350 0.9350 0.9370
4.606000 0.9370 0.9370 0.9350 0.9350 0.9330
4.639175 0.9330 0.9330 0.9350 0.9350 0.9350
4.673000 0.9370 0.9370 0.9370 0.9370 0.9370
4.706175 0.9370 0.9380 0.9400 0.9430 0.9430
4.739000 0.9430 0.9450 0.9470 0.9480 0.9480
4.772175 0.9500 0.9510 0.9510 0.9510 0.9510
4.805000 0.9530 0.9530 0.9530 0.9560 0.9580
4.838175 0.9600 0.9600 0.9600 0.9600 0.9600
4.872000 0.9600 0.9600 0.9600 0.9600 0.9600
4.905175 0.9600 0.9600 0.9600 0.9600 0.9600
4.938000 0.9600 0.9600 0.9600 0.9600 0.9610
4.971175 0.9610 0.9610 0.9610 0.9630 0.9630
5.004000 0.9650 0.9660 0.9660 0.9680 0.9700
5.037175 0.9710 0.9710 0.9700 0.9700 0.9700
5.071000 0.9680 0.9650 0.9650 0.9630 0.9610
5.104175 0.9610 0.9610 0.9630 0.9650 0.9660
5.137000 0.9660 0.9660 0.9650 0.9650 0.9650
5.170175 0.9610 0.9530 0.9380 0.9270 0.9180
5.203000 0.9080 0.9020 0.9020 0.9120 0.9350
5.236175 0.9430 0.9470 0.9470 0.9420 0.9350
5.270000 0.9180 0.9070 0.8990 0.8870 0.8770
5.303175 0.8720 0.8720 0.8740 0.8950 0.9130
5.336000 0.9330 0.9420 0.9470 0.9500 0.9510
5.369175 0.9550 0.9530 0.9530 0.9500 0.9480
5.402000 0.9430 0.9420 0.9420 0.9450 0.9530
5.435175 0.9600 0.9630 0.9650 0.9650 0.9660
5.468000 0.9660 0.9660 0.9680 0.9680 0.9680
5.501175 0.9660 0.9660 0.9650 0.9600 0.9530
5.535000 0.9480 0.9470 0.9470 0.9470 0.9470
5.568175 0.9480 0.9510 0.9560 0.9600 0.9630
5.601000 0.9630 0.9600 0.9370 0.9170 0.9050
5.634175 0.8970 0.8840 0.8800 0.8800 0.8820
5.667000 0.9070 0.9300 0.9470 0.9550 0.9600
5.700175 0.9610 0.9610 0.9630 0.9630 0.9630
5.734000 0.9630 0.9610 0.9600 0.9580 0.9580
5.767175 0.9580 0.9580 0.9600 0.9600 0.9610
5.800000 0.9610 0.9600 0.9600 0.9600 0.9600
5.833175 0.9580 0.9580 0.9560 0.9500 0.9450
5.866000 0.9420 0.9400 0.9400 0.9380 0.9380
5.899175 0.9380 0.9370 0.9350 0.9330 0.9280
5.933000 0.9180 0.9120 0.9080 0.9080 0.9050
5.966175 0.9030 0.9000 0.8940 0.8920 0.8920
5.999000 0.8920 0.8940 0.9130 0.9220 0.9280
6.032175 0.9350 0.9370 0.9370 0.9370 0.9370
6.065000 0.9370 0.9370 0.9370 0.9370 0.9370
6.098175 0.9370 0.9370 0.9370 0.9350 0.9350
6.132000 0.9330 0.9330 0.9330 0.9320 0.9280
6.165175 0.9230 0.9220 0.9200 0.9200 0.9200
6.198000 0.9180 0.9150 0.9130 0.9120 0.9030
6.231175 0.8770 0.8190 0.7250 0.5960 0.4320
6.264000 0.2680 0.1800 0.1770 0.1780 0.3060
6.297175 0.3820 0.4730 0.6730 0.7610 0.7810
6.331000 0.7810 0.7500 0.6850 0.5490 0.4780
6.364175 0.4070 0.4070 0.4200 0.6040 0.6600
6.397000 0.7300 0.7710 0.7790 0.7840 0.7960
6.430175 0.8070 0.8260 0.8360 0.8460 0.8500
6.463000 0.8550 0.8590 0.8620 0.8670 0.8740
6.496175 0.8800 0.8850 0.8870 0.8890 0.8890
6.530000 0.8900 0.8900 0.8900 0.8900 0.8900
6.563175 0.8900 0.8870 0.8700 0.8390 0.7890
6.596000 0.7680 0.7030 0.6870 0.6750 0.6670
6.629175 0.6550 0.6390 0.6100 0.5940 0.5820
6.662000 0.5740 0.5670 0.5620 0.5590 0.5610
6.695175 0.5640 0.5660 0.5640 0.5390 0.5180
6.729000 0.4960 0.4370 0.3670 0.2910 0.2200
6.762175 0.1570 0.1120 0.0860 0.0740 0.0720
6.795000 0.0760 0.1100 0.1600 0.2210 0.2790
6.828175 0.3340 0.3840 0.4320 0.4760 0.5590
6.861000 0.5960 0.6550 0.7010 0.7050 0.6950
6.894175 0.5840 0.5180 0.4510 0.2980 0.1730
6.928000 0.1700 0.1730 0.2760 0.3750 0.4470
6.961175 0.6120 0.6950 0.7560 0.7990 0.8160
6.994000 0.8390 0.8420 0.8440 0.8550 0.8670
7.027175 0.8740 0.8770 0.8770 0.8740 0.8620
7.060000 0.8460 0.8310 0.8270 0.8290 0.8410
7.093175 0.8500 0.8550 0.8620 0.8670 0.8700
7.126000 0.8740 0.8750 0.8750 0.8770 0.8770
7.159175 0.8770 0.8750 0.8700 0.8590 0.8470
7.193000 0.8420 0.8390 0.8370 0.8370 0.8370
7.226175 0.8370 0.8390 0.8470 0.8570 0.8650
7.259000 0.8700 0.8750 0.8820 0.8900 0.9000
7.292175 0.9100 0.9200 0.9270 0.9320 0.9370
7.325000 0.9420 0.9450 0.9480 0.9500 0.9510
7.358175 0.9550 0.9580 0.9610 0.9630 0.9650
7.392000 0.9650 0.9650 0.9630 0.9610 0.9610
7.425175 0.9610 0.9610 0.9630 0.9650 0.9650
7.458000 0.9630 0.9610 0.9580 0.9530 0.9480
7.491175 0.9470 0.9450 0.9450 0.9430 0.9380
7.524000 0.9300 0.9200 0.9080 0.8950 0.8790
7.557175 0.8600 0.8360 0.7940 0.7510 0.6850
7.591000 0.6240 0.5160 0.4480 0.3800 0.2710
7.624175 0.1730 0.1680 0.1720 0.2300 0.2690
7.657000 0.2740 0.3040 0.3040 0.2990 0.2980
7.690175 0.3010 0.3500 0.4080 0.4680 0.5940
7.723000 0.6530 0.6950 0.7300 0.7500 0.7640
7.756175 0.7740 0.7780 0.7760 0.7690 0.7510
7.790000 0.7180 0.6870 0.6300 0.5990 0.5960
7.823175 0.5990 0.6530 0.7060 0.7680 0.8120
7.856000 0.8420 0.8620 0.8840 0.8970 0.9070
7.889175 0.9150 0.9170 0.9130 0.8950 0.8670
7.922000 0.8390 0.8010 0.7960 0.7960 0.8010
7.955175 0.8370 0.8600 0.8720 0.8820 0.8840
7.989000 0.8770 0.8690 0.8550 0.8410 0.8260
8.022175 0.8040 0.7780 0.7410 0.6880 0.6680
8.055000 0.6680 0.6750 0.7180 0.7660 0.7980
8.088175 0.8220 0.8420 0.8590 0.8720 0.8820
8.121000 0.8940 0.9020 0.9030 0.9030 0.9050
8.154175 0.9070 0.9080 0.9100 0.9130 0.9170
8.188000 0.9220 0.9230 0.9250 0.9270 0.9270
8.221175 0.9270 0.9250 0.9250 0.9250 0.9250
8.254000 0.9270 0.9270 0.9270 0.9280 0.9280
8.287175 0.9280 0.9270 0.9180 0.9070 0.8840
8.320000 0.8820 0.8850 0.9080 0.9350 0.9350
8.353175 0.9350 0.9350 0.9350 0.9350 0.9330
8.387000 0.9330 0.9320 0.9300 0.9300 0.9270
8.420175 0.9270 0.9270 0.9270 0.9270 0.9270
8.453000 0.9250 0.9250 0.9230 0.9180 0.9150
8.486175 0.9130 0.9130 0.9150 0.9150 0.9170
8.519000 0.9200 0.9220 0.9250 0.9270 0.9250
8.552175 0.9250 0.9250 0.9230 0.9230 0.9200
8.586000 0.9180 0.9150 0.9120 0.9100 0.8800
8.619175 0.8360 0.7730 0.7160 0.6720 0.6440
8.652000 0.6400 0.6420 0.6700 0.6930 0.7200
8.685175 0.7450 0.7730 0.7910 0.8070 0.8220
8.718000 0.8310 0.8370 0.8410 0.8420 0.8440
8.751175 0.8440 0.8460 0.8460 0.8440 0.8420
8.784000 0.8360 0.8190 0.8040 0.7910 0.7780
8.817175 0.7640 0.7530 0.7430 0.7350 0.7250
8.851000 0.7150 0.7050 0.6950 0.6830 0.6680
8.884175 0.6570 0.6440 0.6300 0.6200 0.6190
8.917000 0.6190 0.6220 0.6440 0.6580 0.6800
8.950175 0.6980 0.7160 0.7380 0.7580 0.7730
8.983000 0.7860 0.7980 0.8110 0.8260 0.8360
9.016175 0.8460 0.8490 0.8520 0.8540 0.8550
9.050000 0.8570 0.8590 0.8600 0.8640 0.8670
9.083175 0.8720 0.8750 0.8800 0.8820 0.8820
9.116000 0.8840 0.8840 0.8840 0.8840 0.8840
9.149175 0.8820 0.8800 0.8800 0.8790 0.8790
9.182000 0.8790 0.8790 0.8800 0.8800 0.8790
9.215175 0.8720 0.8570 0.8420 0.8270 0.8120
9.249000 0.8010 0.8010 0.8010 0.8020 0.8160
9.282175 0.8290 0.8420 0.8500 0.8550 0.8600
9.315000 0.8640 0.8670 0.8690 0.8700 0.8720
9.348175 0.8700 0.8700 0.8690 0.8650 0.8620
9.381000 0.8540 0.8520 0.8520 0.8520 0.8540
9.414175 0.8600 0.8690 0.8750 0.8800 0.8820
9.448000 0.8840 0.8840 0.8840 0.8840 0.8840
9.481175 0.8840 0.8840 0.8850 0.8870 0.8890
9.514000 0.8920 0.8950 0.8990 0.9000 0.9000
9.547175 0.9000 0.9000 0.9000 0.8990 0.8950
9.580000 0.8920 0.8800 0.8720 0.8590 0.8310
9.613175 0.7890 0.7380 0.7000 0.6520 0.6050
9.647000 0.6040 0.6070 0.6390 0.6870 0.7230
9.680175 0.7510 0.7740 0.7910 0.8060 0.8160
9.713000 0.8260 0.8340 0.8440 0.8520 0.8590
9.746175 0.8640 0.8690 0.8750 0.8800 0.8820
9.779000 0.8840 0.8840 0.8850 0.8850 0.8870
9.812175 0.8890 0.8900 0.8900 0.8920 0.8950
9.846000 0.8990 0.9000 0.9030 0.9070 0.9100
9.879175 0.9120 0.9130 0.9130 0.9150 0.9150
9.912000 0.9150 0.9150 0.9130 0.9130 0.9130
9.945175 0.9130 0.9130 0.9130 0.9130 0.9130
9.978000 0.9150 0.9170 0.9200 0.9220 0.9230
10.011175 0.9250 0.9270 0.9270 0.9270 0.9270
10.045000 0.9270 0.9270 0.9270 0.9270 0.9270
10.078175 0.9270 0.9270 0.9280 0.9300 0.9330
10.111000 0.9370 0.9400 0.9420 0.9430 0.9450
10.144175 0.9470 0.9470 0.9470 0.9470 0.9470
10.177000 0.9470 0.9470 0.9470 0.9450 0.9430
10.210175 0.9430 0.9430 0.9430 0.9430 0.9430
10.243000 0.9450 0.9450 0.9470 0.9470 0.9470
10.276175 0.9470 0.9470 0.9470 0.9470 0.9470
10.310000 0.9450 0.9420 0.9350 0.9300 0.9280
10.343175 0.9250 0.9220 0.9180 0.9150 0.9130
10.376000 0.9130 0.9130 0.9150 0.9220 0.9300
10.409175 0.9370 0.9400 0.9430 0.9450 0.9470
10.442000 0.9470 0.9480 0.9480 0.9480 0.9500
10.475175 0.9500 0.9510 0.9530 0.9550 0.9560
10.509000 0.9580 0.9600 0.9610 0.9650 0.9660
10.542175 0.9680 0.9700 0.9700 0.9710 0.9730
10.575000 0.9730 0.9730 0.9730 0.9730 0.9730
10.608175 0.9730 0.9730 0.9710 0.9710 0.9710
10.641000 0.9710 0.9700 0.9700 0.9700 0.9710
10.674175 0.9710 0.9730 0.9730 0.9730 0.9730
10.708000 0.9730 0.9730 0.9730 0.9710 0.9630
10.741175 0.9550 0.9470 0.9380 0.9280 0.9180
10.774000 0.8970 0.8620 0.8110 0.7590 0.6800
10.807175 0.5910 0.5430 0.4930 0.4130 0.3360
10.840000 0.3340 0.3410 0.4100 0.4760 0.6270
10.873175 0.7010 0.7730 0.8460 0.8940 0.9170
10.907000 0.9280 0.9370 0.9480 0.9550 0.9610
10.940175 0.9650 0.9730 0.9760 0.9810 0.9850
10.973000 0.9860 0.9900 0.9910 0.9910 0.9930
11.006175 0.9930 0.9950 0.9950 0.9950 0.9950
11.039000 0.9950 0.9950 0.9950 0.9950 0.9960
11.072175 0.9980 0.9980 1.0000 1.0000 1.0010
11.106000 1.0010 1.0030 1.0040 1.0040 1.0040
11.139175 1.0040 1.0040 1.0040 1.0040 1.0040
11.172000 1.0040 1.0030 1.0030 1.0010 1.0000
11.205175 0.9980 0.9900 0.9860 0.9830 0.9760
11.238000 0.9660 0.9500 0.9280 0.9030 0.8800
11.271175 0.8650 0.8500 0.8470 0.8460 0.8460
11.305000 0.8500 0.8690 0.8820 0.8950 0.9050
11.338175 0.9130 0.9230 0.9300 0.9370 0.9420
11.371000 0.9470 0.9480 0.9510 0.9510 0.9530
11.404175 0.9550 0.9560 0.9580 0.9580 0.9600
11.437000 0.9610 0.9630 0.9630 0.9650 0.9680
11.470175 0.9710 0.9750 0.9760 0.9760 0.9760
11.504000 0.9780 0.9800 0.9800 0.9800 0.9800
11.537175 0.9780 0.9760 0.9750 0.9680 0.9530
11.570000 0.9250 0.8890 0.8360 0.7860 0.7450
11.603175 0.6830 0.6750 0.6720 0.6750 0.7110
11.636000 0.7280 0.7410 0.7590 0.7810 0.7890
11.669175 0.7960 0.8010 0.8070 0.8140 0.8240
11.703000 0.8360 0.8440 0.8520 0.8590 0.8650
11.736175 0.8670 0.8670 0.8620 0.8470 0.8360
11.769000 0.8170 0.7980 0.7790 0.7630 0.7430
11.802175 0.7300 0.7280 0.7280 0.7300 0.7480
11.835000 0.7710 0.7930 0.8110 0.8320 0.8500
11.868175 0.8670 0.8840 0.8990 0.9120 0.9230
11.901000 0.9330 0.9430 0.9500 0.9560 0.9610
11.934175 0.9680 0.9730 0.9760 0.9800 0.9810
11.968000 0.9830 0.9850 0.9860 0.9860 0.9880
12.001175 0.9900 0.9930 0.9950 0.9950 0.9960
12.034000 0.9960 0.9960 0.9980 0.9980 0.9980
12.067175 1.0000 1.0010 1.0010 1.0010 1.0010
12.100000 1.0030 1.0030 1.0030 1.0030 1.0040
12.133175 1.0040 1.0040 1.0040 1.0040 1.0040
12.167000 1.0040 1.0040 1.0040 1.0040 1.0040
12.200175 1.0040 1.0040 1.0040 1.0040 1.0040
12.233000 1.0040 1.0040 1.0040 1.0040 1.0040
12.266175 1.0040 1.0030 1.0030 1.0030 1.0010
12.299000 1.0010 1.0010 1.0010 1.0010 1.0010
12.332175 1.0010 1.0010 1.0010 1.0010 1.0010
12.366000 1.0010 1.0010 1.0010 1.0010 1.0010
12.399175 1.0010 1.0000 1.0000 1.0000 1.0000
12.432000 0.9980 0.9980 0.9960 0.9960 0.9950
12.465175 0.9950 0.9930 0.9930 0.9950 0.9950
12.498000 0.9950 0.9950 0.9950 0.9950 0.9950
12.531175 0.9950 0.9950 0.9950 0.9950 0.9950
12.565000 0.9950 0.9950 0.9950 0.9950 0.9950
12.598175 0.9950 0.9950 0.9950 0.9950 0.9950
12.631000 0.9950 0.9950 0.9950 0.9950 0.9930
12.664175 0.9910 0.9910 0.9910 0.9910 0.9900
12.697000 0.9900 0.9900 0.9900 0.9900 0.9900
12.730175 0.9900 0.9900 0.9910 0.9910 0.9910
12.764000 0.9900 0.9900 0.9880 0.9860 0.9850
12.797175 0.9800 0.9780 0.9760 0.9760 0.9750
12.830000 0.9730 0.9730 0.9730 0.9710 0.9700
12.863175 0.9700 0.9680 0.9660 0.9650 0.9650
12.896000 0.9630 0.9630 0.9610 0.9610 0.9610
12.929175 0.9600 0.9600 0.9560 0.9510 0.9500
12.963000 0.9500 0.9450 0.9400 0.9350 0.9330
12.996175 0.9320 0.9280 0.9270 0.9230 0.9220
13.029000 0.9170 0.9130 0.9080 0.9050 0.9020
13.062175 0.8970 0.8900 0.8840 0.8770 0.8690
13.095000 0.8620 0.8500 0.8370 0.8240 0.8110
13.128175 0.7980 0.7830 0.7640 0.7450 0.7200
13.162000 0.6920 0.6580 0.6200 0.5760 0.5230
13.195175 0.4930 0.4610 0.3920 0.3170 0.2690
13.228000 0.2250 0.1780 0.1400 0.1120 0.0960
13.261175 0.0810 0.0790 0.0790 0.0810 0.0940
13.294000 0.1100 0.1300 0.1500 0.1750 0.2030
13.327175 0.2280 0.2510 0.2640 0.2860 0.2980
13.360000 0.3060 0.3160 0.3190 0.3190 0.3170
13.393175 0.2990 0.2810 0.2480 0.2210 0.2010
13.427000 0.1820 0.1600 0.1300 0.1140 0.0990
13.460175 0.0870 0.0760 0.0670 0.0570 0.0520
13.493000 0.0490 0.0480 0.0480 0.0460 0.0460
13.526175 0.0460 0.0460 0.0480 0.0490 0.0520
13.559000 0.0610 0.0710 0.0870 0.1020 0.1220
13.592175 0.1390 0.1570 0.1920 0.2350 0.2540
13.626000 0.2890 0.3220 0.3540 0.3820 0.4100
13.659175 0.4380 0.4630 0.4860 0.5290 0.5490
13.692000 0.5670 0.5860 0.6000 0.6140 0.6190
13.725175 0.6300 0.6420 0.6520 0.6530 0.6580
13.758000 0.6620 0.6670 0.6700 0.6730 0.6730
13.791175 0.6700 0.6670 0.6600 0.6470 0.6370
13.825000 0.6190 0.6000 0.5720 0.5510 0.5160
13.858175 0.4950 0.4730 0.4270 0.3790 0.3340
13.891000 0.2930 0.2610 0.2410 0.2210 0.2080
13.924175 0.2060 0.2080 0.2210 0.2360 0.2710
13.957000 0.3070 0.3460 0.3850 0.4250 0.4650
13.990175 0.5380 0.5690 0.6020 0.6350 0.6670
14.024000 0.6950 0.7230 0.7430 0.7560 0.7730
14.057175 0.7810 0.7890 0.7980 0.8060 0.8170
14.090000 0.8220 0.8290 0.8390 0.8420 0.8470
14.123175 0.8500 0.8540 0.8600 0.8620 0.8640
14.156000 0.8650 0.8690 0.8720 0.8740 0.8750
14.189175 0.8750 0.8770 0.8790 0.8790 0.8790
14.223000 0.8800 0.8800 0.8820 0.8820 0.8820
14.256175 0.8820 0.8820 0.8820 0.8820 0.8820
14.289000 0.8820 0.8820 0.8820 0.8820 0.8820
14.322175 0.8820 0.8820 0.8820 0.8820 0.8820
14.355000 0.8800 0.8800 0.8790 0.8790 0.8790
14.388175 0.8770 0.8770 0.8770 0.8750 0.8720
14.422000 0.8670 0.8620 0.8590 0.8570 0.8550
14.455175 0.8520 0.8490 0.8460 0.8410 0.8370
14.488000 0.8340 0.8310 0.8240 0.8160 0.8090
14.521175 0.8020 0.7990 0.7930 0.7840 0.7780
14.554000 0.7690 0.7610 0.7530 0.7450 0.7360
14.587175 0.7260 0.7210 0.7180 0.7110 0.6950
14.621000 0.6880 0.6850 0.6820 0.6800 0.6800
14.654175 0.6800 0.6820 0.6880 0.6950 0.7030
14.687000 0.7100 0.7180 0.7250 0.7310 0.7380
14.720175 0.7460 0.7540 0.7640 0.7730 0.7810
14.753000 0.7890 0.7960 0.7990 0.8020 0.8070
14.786175 0.8110 0.8140 0.8170 0.8190 0.8220
14.820000 0.8240 0.8260 0.8270 0.8290 0.8290
14.853175 0.8310 0.8310 0.8310 0.8310 0.8310
14.886000 0.8310 0.8310 0.8310 0.8290 0.8290
14.919175 0.8270 0.8260 0.8240 0.8220 0.8210
14.952000 0.8190 0.8170 0.8140 0.8110 0.8020
14.985175 0.7980 0.7940 0.7860 0.7790 0.7730
15.018000 0.7640 0.7530 0.7430 0.7310 0.7230
15.051175 0.7130 0.7080 0.7030 0.6970 0.6880
15.085000 0.6800 0.6720 0.6630 0.6580 0.6520
15.118175 0.6450 0.6390 0.6290 0.6190 0.6040
15.151000 0.5970 0.5870 0.5790 0.5720 0.5620
15.184175 0.5540 0.5490 0.5430 0.5340 0.5290
15.217000 0.5240 0.5190 0.5180 0.5160 0.5160
15.250175 0.5140 0.5140 0.5140 0.5160 0.5190
15.284000 0.5240 0.5290 0.5360 0.5430 0.5490
15.317175 0.5590 0.5690 0.5790 0.5890 0.5990
15.350000 0.6070 0.6150 0.6240 0.6320 0.6400
15.383175 0.6490 0.6570 0.6630 0.6700 0.6780
15.416000 0.6830 0.6900 0.6970 0.7010 0.7080
15.449175 0.7130 0.7180 0.7210 0.7260 0.7310
15.483000 0.7360 0.7410 0.7450 0.7480 0.7480
15.516175 0.7500 0.7510 0.7510 0.7530 0.7540
15.549000 0.7560 0.7560 0.7560 0.7560 0.7560
15.582175 0.7580 0.7590 0.7590 0.7590 0.7610
15.615000 0.7610 0.7610 0.7610 0.7610 0.7610
15.648175 0.7610 0.7610 0.7610 0.7610 0.7610
15.682000 0.7610 0.7610 0.7590 0.7590 0.7590
15.715175 0.7580 0.7580 0.7580 0.7580 0.7580
15.748000 0.7580 0.7580 0.7560 0.7560 0.7560
15.781175 0.7540 0.7540 0.7530 0.7530 0.7510
15.814000 0.7510 0.7510 0.7510 0.7510 0.7510
15.847175 0.7510 0.7510 0.7510 0.7510 0.7480
15.881000 0.7480 0.7460 0.7430 0.7410 0.7410
15.914175 0.7410 0.7410 0.7410 0.7400 0.7380
15.947000 0.7350 0.7350 0.7330 0.7330 0.7310
15.980175 0.7310 0.7330 0.7330 0.7330 0.7330
16.013000 0.7330
##END=
