##TITLE=3-DECANONE
##JCAMP-DX=4.24
##DATA TYPE=INFRARED SPECTRUM
##CLASS=COBLENTZ II
##ORIGIN=STANDARD OIL OF OHIO
##OWNER=COBLENTZ SOCIETY
Collection (C) 2018 copyright by the U.S. Secretary of Commerce
on behalf of the United States of America. All rights reserved.
##DATE=1969/11/16
##CAS REGISTRY NO=928-80-3
##MOLFORM=C10 H20 O
##SOURCE REFERENCE=COBLENTZ NO. 6058
##$NIST SOURCE=COBLENTZ
##$NIST IMAGE=cob6058
##SPECTROMETER/DATA SYSTEM=PERKIN-ELMER 521 (GRATING)
##INSTRUMENT PARAMETERS=FILTERS AT 3150, 2500, 2000, 1150, 700, 410. GRATING CHANGES: 2000, 630 CM^-^1
##STATE=LIQUID (NEAT) VS. KBr PLATE
$$ 99% PURE
##PATH LENGTH=CAPILLARY
##SAMPLING PROCEDURE=TRANSMISSION
##RESOLUTION=2
##DATA PROCESSING=DIGITIZED BY NIST FROM HARD COPY
##XUNITS=1/CM
##YUNITS=TRANSMITTANCE
##XFACTOR=1.000000
##YFACTOR=1
##DELTAX=001.320528
##FIRSTX=330.972
##LASTX=3896.4
##FIRSTY=0.587
##MAXX=3896.4
##MINX=330.972
##MAXY=1.006
##MINY=0.011
##NPOINTS=2701
##XYDATA=(X++(Y..Y))
330.972000 0.5870 0.5870 0.5970 0.6050 0.6150
337.577088 0.6230 0.6300 0.6330 0.6340 0.6340
344.178000 0.6340 0.6380 0.6640 0.6930 0.7170
350.783088 0.7360 0.7500 0.7610 0.7680 0.7770
357.383000 0.7840 0.7880 0.7940 0.8000 0.8020
363.988088 0.8080 0.8150 0.8200 0.8260 0.8310
370.588000 0.8370 0.8410 0.8450 0.8490 0.8520
377.193088 0.8560 0.8570 0.8600 0.8630 0.8640
383.794000 0.8640 0.8660 0.8660 0.8660 0.8670
390.399088 0.8670 0.8680 0.8680 0.8700 0.8700
396.999000 0.8710 0.8710 0.8730 0.8740 0.8740
403.604088 0.8750 0.8770 0.8800 0.8840 0.8860
410.204000 0.8910 0.8950 0.8990 0.9020 0.9040
416.809088 0.9040 0.9060 0.9060 0.9070 0.9070
423.409000 0.9080 0.9100 0.9140 0.9240 0.9310
430.014088 0.9370 0.9400 0.9430 0.9440 0.9470
436.615000 0.9510 0.9530 0.9540 0.9550 0.9570
443.220088 0.9580 0.9600 0.9610 0.9620 0.9640
449.820000 0.9650 0.9680 0.9690 0.9710 0.9720
456.425088 0.9720 0.9730 0.9730 0.9750 0.9750
463.025000 0.9750 0.9750 0.9750 0.9750 0.9750
469.630088 0.9750 0.9750 0.9750 0.9750 0.9750
476.230000 0.9750 0.9750 0.9750 0.9730 0.9730
482.835088 0.9720 0.9720 0.9710 0.9710 0.9680
489.436000 0.9680 0.9660 0.9650 0.9640 0.9620
496.041088 0.9610 0.9600 0.9580 0.9570 0.9540
502.641000 0.9530 0.9500 0.9480 0.9470 0.9460
509.246088 0.9440 0.9430 0.9430 0.9420 0.9400
515.846000 0.9390 0.9390 0.9370 0.9370 0.9370
522.451088 0.9370 0.9370 0.9370 0.9390 0.9400
529.052000 0.9420 0.9430 0.9470 0.9500 0.9510
535.657088 0.9570 0.9610 0.9650 0.9690 0.9720
542.257000 0.9750 0.9790 0.9820 0.9830 0.9860
548.862088 0.9880 0.9910 0.9930 0.9940 0.9950
555.462000 0.9950 0.9970 0.9970 0.9980 0.9980
562.067088 1.0000 1.0000 1.0000 1.0000 1.0000
568.667000 1.0000 1.0000 1.0000 1.0000 1.0000
575.272088 1.0000 1.0000 1.0000 1.0000 1.0000
581.873000 1.0000 1.0000 1.0000 1.0000 1.0000
588.478088 1.0000 0.9980 0.9980 0.9970 0.9950
595.078000 0.9940 0.9910 0.9900 0.9880 0.9870
601.683088 0.9860 0.9840 0.9820 0.9800 0.9760
608.283000 0.9710 0.9660 0.9610 0.9540 0.9390
614.888088 0.9360 0.9360 0.9360 0.9360 0.9360
621.489000 0.9370 0.9370 0.9370 0.9360 0.9330
628.094088 0.9290 0.9240 0.9220 0.9200 0.9180
634.694000 0.9180 0.9200 0.9210 0.9240 0.9280
641.299088 0.9280 0.9320 0.9360 0.9400 0.9440
647.899000 0.9480 0.9600 0.9770 0.9870 0.9930
654.504088 0.9970 0.9980 1.0000 1.0010 1.0040
661.104000 1.0050 1.0050 1.0060 1.0060 1.0060
667.709088 1.0050 1.0050 1.0040 1.0040 1.0020
674.310000 1.0020 1.0010 0.9980 0.9970 0.9950
680.915088 0.9940 0.9910 0.9900 0.9880 0.9870
687.515000 0.9860 0.9820 0.9770 0.9710 0.9640
694.120088 0.9600 0.9530 0.9470 0.9370 0.9200
700.720000 0.8930 0.8800 0.8630 0.8440 0.8230
707.325088 0.8020 0.7820 0.7600 0.7360 0.7130
713.926000 0.6890 0.6640 0.5930 0.5550 0.5200
720.531088 0.5180 0.5200 0.5210 0.5400 0.5600
727.131000 0.5790 0.6080 0.6530 0.7350 0.7540
733.736088 0.7750 0.7870 0.8000 0.8080 0.8120
740.336000 0.8150 0.8160 0.8160 0.8160 0.8160
746.941088 0.8160 0.8160 0.8160 0.8160 0.8160
753.541000 0.8150 0.8150 0.8130 0.8130 0.8120
760.146088 0.8120 0.8110 0.8090 0.8060 0.8050
766.747000 0.8010 0.7970 0.7870 0.7820 0.7750
773.352088 0.7710 0.7680 0.7680 0.7680 0.7680
779.952000 0.7690 0.7710 0.7720 0.7760 0.7790
786.557088 0.7930 0.8090 0.8220 0.8370 0.8460
793.157000 0.8550 0.8550 0.8550 0.8550 0.8530
799.762088 0.8520 0.8510 0.8490 0.8440 0.8370
806.363000 0.8300 0.8230 0.8160 0.8120 0.8090
812.968088 0.8080 0.8060 0.8050 0.8040 0.8020
819.568000 0.8020 0.8020 0.8020 0.8020 0.8020
826.173088 0.8020 0.8040 0.8050 0.8060 0.8080
832.773000 0.8090 0.8130 0.8170 0.8220 0.8240
839.378088 0.8330 0.8410 0.8440 0.8460 0.8490
845.978000 0.8510 0.8590 0.8630 0.8780 0.8890
852.583088 0.8930 0.8950 0.8960 0.8960 0.8960
859.184000 0.8960 0.8960 0.8960 0.8970 0.8970
865.789088 0.9000 0.9020 0.9030 0.9040 0.9040
872.389000 0.9040 0.9040 0.9030 0.9020 0.9000
878.994088 0.8960 0.8930 0.8850 0.8750 0.8670
885.594000 0.8570 0.8480 0.8350 0.8310 0.8270
892.199088 0.8240 0.8230 0.8230 0.8230 0.8240
898.800000 0.8300 0.8310 0.8340 0.8410 0.8420
905.405088 0.8440 0.8440 0.8440 0.8420 0.8380
912.005000 0.8300 0.8200 0.8110 0.8040 0.8000
918.610088 0.7980 0.7940 0.7880 0.7860 0.7820
925.210000 0.7790 0.7760 0.7690 0.7580 0.7460
931.815088 0.7320 0.7170 0.7000 0.6840 0.6680
938.415000 0.6550 0.6410 0.6300 0.6230 0.6170
945.020088 0.6090 0.6020 0.5980 0.5970 0.5970
951.621000 0.5970 0.5970 0.5980 0.6010 0.6020
958.226088 0.6020 0.6000 0.5950 0.5910 0.5880
964.826000 0.5860 0.5840 0.5800 0.5760 0.5750
971.431088 0.5650 0.5610 0.5580 0.5570 0.5570
978.031000 0.5570 0.5570 0.5580 0.5600 0.5610
984.636088 0.5650 0.5730 0.5840 0.5950 0.6110
991.237000 0.6160 0.6340 0.6550 0.6560 0.6560
997.842088 0.6550 0.6490 0.6440 0.6380 0.6340
1004.442000 0.6280 0.6240 0.6190 0.6130 0.6080
1011.047088 0.6050 0.6040 0.6040 0.6040 0.6050
1017.647000 0.6080 0.6090 0.6150 0.6160 0.6160
1024.252088 0.6160 0.6160 0.6130 0.6050 0.5950
1030.852000 0.5840 0.5690 0.5570 0.5330 0.5310
1037.457088 0.5310 0.5310 0.5320 0.5330 0.5430
1044.058000 0.5840 0.6000 0.6080 0.6150 0.6170
1050.663088 0.6220 0.6270 0.6280 0.6280 0.6280
1057.263000 0.6280 0.6270 0.6280 0.6300 0.6330
1063.868088 0.6370 0.6410 0.6480 0.6560 0.6670
1070.468000 0.6800 0.6920 0.6960 0.7030 0.7040
1077.073088 0.7080 0.7150 0.7170 0.7170 0.7080
1083.673000 0.6960 0.6850 0.6740 0.6630 0.6520
1090.278088 0.6300 0.5800 0.4820 0.4260 0.3680
1096.879000 0.3150 0.2660 0.1880 0.1600 0.1440
1103.484088 0.1330 0.1330 0.1350 0.1530 0.1710
1110.084000 0.1880 0.2010 0.2590 0.3440 0.3470
1116.689088 0.3470 0.3440 0.3320 0.3040 0.2700
1123.289000 0.2620 0.2550 0.2480 0.2410 0.2330
1129.894088 0.2310 0.2330 0.2410 0.2490 0.2570
1136.495000 0.2780 0.3320 0.3860 0.4260 0.4530
1143.100088 0.4670 0.4670 0.4770 0.4800 0.4800
1149.700000 0.4780 0.4770 0.4740 0.4680 0.4660
1156.305088 0.4620 0.4590 0.4560 0.4550 0.4560
1162.905000 0.4600 0.4660 0.4710 0.4800 0.4930
1169.510088 0.5060 0.5200 0.5290 0.5360 0.5370
1176.110000 0.5390 0.5390 0.5390 0.5390 0.5370
1182.715088 0.5370 0.5370 0.5370 0.5390 0.5420
1189.316000 0.5430 0.5460 0.5470 0.5480 0.5500
1195.921088 0.5500 0.5500 0.5500 0.5530 0.5620
1202.521000 0.5730 0.5840 0.5970 0.6080 0.6200
1209.126088 0.6310 0.6480 0.6560 0.6630 0.6660
1215.726000 0.6710 0.6780 0.6820 0.6910 0.7020
1222.331088 0.7080 0.7110 0.7200 0.7210 0.7210
1228.932000 0.7210 0.7180 0.7140 0.7100 0.7070
1235.537088 0.7040 0.6970 0.6930 0.6890 0.6860
1242.137000 0.6820 0.6800 0.6740 0.6670 0.6570
1248.742088 0.6420 0.6240 0.6000 0.5970 0.5910
1255.342000 0.5870 0.5820 0.5770 0.5720 0.5680
1261.947088 0.5620 0.5610 0.5610 0.5680 0.5770
1268.547000 0.5900 0.6050 0.6150 0.6170 0.6270
1275.152088 0.6280 0.6280 0.6280 0.6280 0.6260
1281.753000 0.6220 0.6120 0.6060 0.6050 0.6000
1288.358088 0.5900 0.5690 0.5660 0.5660 0.5660
1294.958000 0.5680 0.5680 0.5710 0.5720 0.5720
1301.563088 0.5710 0.5690 0.5660 0.5620 0.5570
1308.163000 0.5540 0.5530 0.5510 0.5500 0.5470
1314.768088 0.5440 0.5420 0.5370 0.5290 0.5220
1321.369000 0.5130 0.5030 0.4950 0.4860 0.4730
1327.974088 0.4590 0.4440 0.4270 0.4090 0.3910
1334.574000 0.3720 0.3530 0.3330 0.3130 0.2930
1341.179088 0.2750 0.2570 0.2420 0.2270 0.2150
1347.779000 0.2020 0.1640 0.1600 0.1530 0.1460
1354.384088 0.1390 0.1360 0.1360 0.1350 0.1350
1360.984000 0.1330 0.1320 0.1290 0.1200 0.1130
1367.589088 0.1060 0.1000 0.0930 0.0880 0.0810
1374.190000 0.0740 0.0710 0.0710 0.0730 0.0960
1380.795088 0.1200 0.1440 0.2240 0.3030 0.3040
1387.395000 0.3260 0.3620 0.3640 0.3730 0.3840
1394.000088 0.3860 0.3860 0.3770 0.3720 0.3600
1400.600000 0.2820 0.2120 0.1980 0.1690 0.1600
1407.205088 0.1500 0.1400 0.1320 0.1220 0.1130
1413.806000 0.1110 0.1100 0.1110 0.1260 0.1550
1420.411088 0.1650 0.1940 0.2240 0.2590 0.2750
1427.011000 0.2890 0.2910 0.2920 0.2920 0.2910
1433.616088 0.2860 0.2810 0.2750 0.2550 0.2350
1440.216000 0.2220 0.2120 0.2050 0.1900 0.1760
1446.821088 0.1470 0.1110 0.0990 0.0860 0.0740
1453.421000 0.0620 0.0490 0.0450 0.0420 0.0410
1460.026088 0.0410 0.0420 0.0450 0.0450 0.0530
1466.627000 0.0620 0.0680 0.0770 0.0850 0.1030
1473.232088 0.2280 0.3690 0.4230 0.4730 0.5170
1479.832000 0.5550 0.5880 0.6170 0.6440 0.6640
1486.437088 0.6840 0.6990 0.7130 0.7250 0.7350
1493.037000 0.7440 0.7540 0.7620 0.7720 0.7820
1499.642088 0.7910 0.8020 0.8120 0.8220 0.8300
1506.243000 0.8370 0.8450 0.8510 0.8570 0.8630
1512.848088 0.8670 0.8670 0.8700 0.8710 0.8740
1519.448000 0.8780 0.8840 0.8880 0.8910 0.8930
1526.053088 0.8970 0.9000 0.9020 0.9030 0.9060
1532.653000 0.9070 0.9080 0.9100 0.9130 0.9170
1539.258088 0.9180 0.9200 0.9210 0.9220 0.9240
1545.858000 0.9250 0.9250 0.9260 0.9280 0.9280
1552.463088 0.9290 0.9310 0.9310 0.9320 0.9320
1559.064000 0.9320 0.9330 0.9330 0.9330 0.9350
1565.669088 0.9350 0.9350 0.9350 0.9350 0.9350
1572.269000 0.9350 0.9350 0.9330 0.9330 0.9330
1578.874088 0.9330 0.9330 0.9320 0.9320 0.9310
1585.474000 0.9310 0.9310 0.9290 0.9290 0.9280
1592.079088 0.9280 0.9280 0.9260 0.9260 0.9260
1598.680000 0.9250 0.9250 0.9220 0.9210 0.9180
1605.285088 0.9170 0.9150 0.9130 0.9130 0.9110
1611.885000 0.9100 0.9070 0.9040 0.9040 0.9030
1618.490088 0.9000 0.8960 0.8930 0.8920 0.8910
1625.090000 0.8910 0.8880 0.8860 0.8850 0.8820
1631.695088 0.8780 0.8750 0.8710 0.8700 0.8700
1638.295000 0.8680 0.8640 0.8620 0.8560 0.8490
1644.900088 0.8440 0.8400 0.8350 0.8230 0.8130
1651.501000 0.8080 0.8020 0.8010 0.7980 0.7910
1658.106088 0.7820 0.7720 0.7600 0.7510 0.7390
1664.706000 0.7220 0.7030 0.6820 0.6620 0.6410
1671.311088 0.6220 0.6040 0.5820 0.5650 0.5540
1677.911000 0.5460 0.5420 0.5370 0.5280 0.5200
1684.516088 0.5030 0.4930 0.4780 0.4620 0.4080
1691.116000 0.3820 0.3530 0.3220 0.2930 0.2630
1697.721088 0.2340 0.2090 0.1460 0.0410 0.0260
1704.322000 0.0120 0.0110 0.0110 0.0110 0.0110
1710.927088 0.0110 0.0110 0.0110 0.0110 0.0110
1717.527000 0.0110 0.0110 0.0110 0.0110 0.0120
1724.132088 0.0170 0.0230 0.0330 0.0350 0.0460
1730.732000 0.0570 0.0670 0.1750 0.2260 0.2700
1737.337088 0.3130 0.3500 0.3870 0.4220 0.4520
1743.938000 0.4810 0.5070 0.5320 0.5570 0.5770
1750.543088 0.5980 0.6190 0.6370 0.6530 0.6700
1757.143000 0.6860 0.7000 0.7150 0.7280 0.7420
1763.748088 0.7540 0.7660 0.7790 0.7910 0.8040
1770.348000 0.8200 0.8310 0.8460 0.8560 0.8640
1776.953088 0.8680 0.8730 0.8770 0.8840 0.8890
1783.553000 0.8950 0.9000 0.9040 0.9080 0.9130
1790.158088 0.9180 0.9220 0.9290 0.9310 0.9350
1796.759000 0.9370 0.9390 0.9430 0.9460 0.9500
1803.364088 0.9500 0.9530 0.9540 0.9570 0.9580
1809.964000 0.9600 0.9620 0.9640 0.9650 0.9660
1816.569088 0.9680 0.9690 0.9690 0.9710 0.9710
1823.169000 0.9710 0.9720 0.9730 0.9730 0.9750
1829.774088 0.9750 0.9760 0.9760 0.9760 0.9770
1836.375000 0.9770 0.9770 0.9800 0.9800 0.9800
1842.980088 0.9820 0.9820 0.9830 0.9830 0.9830
1849.580000 0.9840 0.9840 0.9840 0.9860 0.9860
1856.185088 0.9860 0.9860 0.9870 0.9870 0.9870
1862.785000 0.9870 0.9870 0.9880 0.9870 0.9880
1869.390088 0.9880 0.9880 0.9880 0.9880 0.9900
1875.990000 0.9900 0.9900 0.9900 0.9900 0.9900
1882.595088 0.9910 0.9900 0.9900 0.9900 0.9900
1889.196000 0.9900 0.9900 0.9900 0.9900 0.9900
1895.801088 0.9900 0.9900 0.9900 0.9900 0.9900
1902.401000 0.9900 0.9900 0.9900 0.9900 0.9900
1909.006088 0.9900 0.9900 0.9900 0.9900 0.9900
1915.606000 0.9900 0.9900 0.9900 0.9900 0.9900
1922.211088 0.9900 0.9900 0.9900 0.9900 0.9900
1928.812000 0.9900 0.9900 0.9900 0.9900 0.9900
1935.417088 0.9900 0.9900 0.9900 0.9900 0.9900
1942.017000 0.9900 0.9900 0.9900 0.9900 0.9900
1948.622088 0.9900 0.9900 0.9900 0.9900 0.9900
1955.222000 0.9900 0.9900 0.9900 0.9900 0.9900
1961.827088 0.9900 0.9900 0.9900 0.9900 0.9900
1968.427000 0.9900 0.9900 0.9900 0.9900 0.9900
1975.032088 0.9900 0.9900 0.9910 0.9930 0.9910
1981.633000 0.9910 0.9910 0.9910 0.9910 0.9910
1988.238088 0.9910 0.9910 0.9910 0.9910 0.9910
1994.838000 0.9900 0.9900 0.9900 0.9900 0.9880
2001.443088 0.9880 0.9880 0.9870 0.9870 0.9860
2008.043000 0.9860 0.9860 0.9840 0.9830 0.9830
2014.648088 0.9830 0.9830 0.9830 0.9830 0.9830
2021.249000 0.9820 0.9820 0.9820 0.9820 0.9820
2027.854088 0.9800 0.9820 0.9820 0.9820 0.9820
2034.454000 0.9830 0.9830 0.9830 0.9830 0.9840
2041.059088 0.9840 0.9840 0.9840 0.9840 0.9840
2047.659000 0.9840 0.9840 0.9840 0.9840 0.9840
2054.264088 0.9840 0.9840 0.9840 0.9840 0.9840
2060.865000 0.9860 0.9860 0.9860 0.9840 0.9840
2067.470088 0.9840 0.9840 0.9840 0.9830 0.9830
2074.070000 0.9830 0.9830 0.9830 0.9830 0.9820
2080.675088 0.9820 0.9820 0.9820 0.9800 0.9800
2087.275000 0.9800 0.9800 0.9800 0.9800 0.9800
2093.880088 0.9800 0.9800 0.9800 0.9800 0.9800
2100.480000 0.9790 0.9790 0.9790 0.9790 0.9790
2107.085088 0.9790 0.9790 0.9790 0.9790 0.9790
2113.686000 0.9790 0.9770 0.9770 0.9770 0.9770
2120.291088 0.9770 0.9770 0.9770 0.9770 0.9770
2126.891000 0.9770 0.9770 0.9770 0.9770 0.9770
2133.496088 0.9770 0.9770 0.9770 0.9760 0.9760
2140.096000 0.9760 0.9760 0.9760 0.9760 0.9770
2146.701088 0.9770 0.9760 0.9760 0.9770 0.9760
2153.302000 0.9760 0.9760 0.9760 0.9760 0.9760
2159.907088 0.9730 0.9730 0.9730 0.9730 0.9730
2166.507000 0.9730 0.9730 0.9730 0.9730 0.9730
2173.112088 0.9730 0.9730 0.9750 0.9750 0.9750
2179.712000 0.9750 0.9750 0.9750 0.9750 0.9760
2186.317088 0.9760 0.9760 0.9770 0.9770 0.9770
2192.917000 0.9770 0.9770 0.9770 0.9770 0.9770
2199.522088 0.9770 0.9770 0.9770 0.9770 0.9770
2206.123000 0.9770 0.9770 0.9770 0.9770 0.9770
2212.728088 0.9770 0.9770 0.9770 0.9770 0.9770
2219.328000 0.9770 0.9770 0.9770 0.9770 0.9790
2225.933088 0.9770 0.9770 0.9770 0.9760 0.9760
2232.533000 0.9760 0.9760 0.9760 0.9760 0.9760
2239.138088 0.9760 0.9760 0.9770 0.9760 0.9760
2245.738000 0.9760 0.9760 0.9760 0.9760 0.9760
2252.343088 0.9760 0.9760 0.9760 0.9760 0.9760
2258.944000 0.9760 0.9760 0.9760 0.9760 0.9760
2265.549088 0.9760 0.9760 0.9760 0.9760 0.9750
2272.149000 0.9750 0.9750 0.9750 0.9750 0.9750
2278.754088 0.9750 0.9750 0.9750 0.9750 0.9750
2285.354000 0.9750 0.9750 0.9750 0.9750 0.9750
2291.959088 0.9730 0.9730 0.9730 0.9730 0.9720
2298.560000 0.9720 0.9720 0.9720 0.9710 0.9690
2305.165088 0.9690 0.9690 0.9690 0.9690 0.9690
2311.765000 0.9680 0.9680 0.9680 0.9680 0.9680
2318.370088 0.9680 0.9680 0.9680 0.9680 0.9680
2324.970000 0.9680 0.9680 0.9680 0.9680 0.9680
2331.575088 0.9680 0.9680 0.9680 0.9680 0.9680
2338.175000 0.9680 0.9680 0.9680 0.9680 0.9680
2344.780088 0.9680 0.9680 0.9690 0.9690 0.9690
2351.381000 0.9690 0.9690 0.9690 0.9690 0.9690
2357.986088 0.9710 0.9710 0.9710 0.9710 0.9710
2364.586000 0.9710 0.9720 0.9720 0.9720 0.9720
2371.191088 0.9720 0.9720 0.9720 0.9720 0.9720
2377.791000 0.9720 0.9730 0.9730 0.9730 0.9730
2384.396088 0.9730 0.9730 0.9750 0.9750 0.9750
2390.997000 0.9750 0.9750 0.9750 0.9760 0.9760
2397.602088 0.9760 0.9760 0.9760 0.9760 0.9770
2404.202000 0.9770 0.9770 0.9770 0.9770 0.9770
2410.807088 0.9770 0.9770 0.9770 0.9770 0.9770
2417.407000 0.9770 0.9770 0.9770 0.9770 0.9770
2424.012088 0.9770 0.9790 0.9770 0.9770 0.9770
2430.612000 0.9770 0.9770 0.9770 0.9770 0.9770
2437.217088 0.9770 0.9770 0.9770 0.9770 0.9770
2443.818000 0.9770 0.9770 0.9770 0.9770 0.9790
2450.423088 0.9770 0.9770 0.9770 0.9770 0.9770
2457.023000 0.9770 0.9770 0.9770 0.9760 0.9760
2463.628088 0.9760 0.9760 0.9760 0.9760 0.9760
2470.228000 0.9760 0.9760 0.9760 0.9760 0.9760
2476.833088 0.9760 0.9760 0.9760 0.9760 0.9750
2483.433000 0.9760 0.9760 0.9760 0.9760 0.9760
2490.038088 0.9770 0.9770 0.9770 0.9770 0.9770
2496.639000 0.9770 0.9770 0.9770 0.9770 0.9770
2503.244088 0.9770 0.9770 0.9770 0.9770 0.9770
2509.844000 0.9770 0.9770 0.9760 0.9760 0.9760
2516.449088 0.9750 0.9730 0.9730 0.9730 0.9730
2523.049000 0.9720 0.9720 0.9710 0.9710 0.9710
2529.654088 0.9710 0.9690 0.9690 0.9690 0.9680
2536.255000 0.9680 0.9660 0.9680 0.9680 0.9680
2542.860088 0.9680 0.9680 0.9680 0.9680 0.9680
2549.460000 0.9680 0.9680 0.9650 0.9650 0.9640
2556.065088 0.9640 0.9620 0.9610 0.9600 0.9600
2562.665000 0.9580 0.9570 0.9550 0.9550 0.9540
2569.270088 0.9530 0.9510 0.9500 0.9480 0.9470
2575.870000 0.9470 0.9460 0.9460 0.9440 0.9440
2582.475088 0.9440 0.9440 0.9430 0.9430 0.9420
2589.076000 0.9400 0.9400 0.9400 0.9400 0.9420
2595.681088 0.9400 0.9400 0.9390 0.9390 0.9370
2602.281000 0.9370 0.9360 0.9360 0.9350 0.9330
2608.886088 0.9330 0.9320 0.9320 0.9310 0.9310
2615.486000 0.9290 0.9280 0.9260 0.9250 0.9240
2622.091088 0.9240 0.9220 0.9210 0.9200 0.9200
2628.692000 0.9180 0.9170 0.9170 0.9150 0.9140
2635.297088 0.9130 0.9110 0.9110 0.9100 0.9080
2641.897000 0.9070 0.9040 0.9030 0.9000 0.8990
2648.502088 0.8970 0.8950 0.8920 0.8910 0.8880
2655.102000 0.8860 0.8820 0.8810 0.8780 0.8770
2661.707088 0.8750 0.8730 0.8710 0.8700 0.8700
2668.307000 0.8700 0.8680 0.8680 0.8680 0.8700
2674.912088 0.8700 0.8700 0.8700 0.8700 0.8700
2681.513000 0.8700 0.8700 0.8700 0.8700 0.8710
2688.118088 0.8710 0.8710 0.8710 0.8710 0.8710
2694.718000 0.8730 0.8730 0.8730 0.8730 0.8730
2701.323088 0.8710 0.8710 0.8700 0.8700 0.8680
2707.923000 0.8660 0.8630 0.8590 0.8560 0.8520
2714.528088 0.8490 0.8450 0.8420 0.8340 0.8310
2721.129000 0.8260 0.8080 0.8050 0.8010 0.7970
2727.734088 0.7930 0.7900 0.7900 0.7900 0.7900
2734.334000 0.7910 0.7930 0.7940 0.8000 0.8020
2740.939088 0.8060 0.8120 0.8150 0.8160 0.8170
2747.539000 0.8170 0.8190 0.8170 0.8170 0.8170
2754.144088 0.8160 0.8160 0.8150 0.8130 0.8110
2760.744000 0.8080 0.8040 0.8020 0.8000 0.7980
2767.349088 0.7950 0.7900 0.7830 0.7770 0.7750
2773.950000 0.7660 0.7600 0.7530 0.7440 0.7370
2780.555088 0.7290 0.7210 0.7140 0.7060 0.6970
2787.155000 0.6890 0.6820 0.6740 0.6660 0.6560
2793.760088 0.6480 0.6380 0.6270 0.6170 0.6060
2800.360000 0.5950 0.5830 0.5710 0.5570 0.5420
2806.965088 0.5310 0.5240 0.5140 0.5060 0.5000
2813.565000 0.4930 0.4860 0.4780 0.4700 0.4590
2820.170088 0.4480 0.4370 0.4240 0.4110 0.3950
2826.771000 0.3790 0.3610 0.3430 0.3220 0.3020
2833.376088 0.2820 0.2630 0.2350 0.2000 0.1500
2839.976000 0.1320 0.1140 0.0860 0.0740 0.0630
2846.581088 0.0510 0.0400 0.0280 0.0200 0.0150
2853.181000 0.0130 0.0120 0.0120 0.0120 0.0120
2859.786088 0.0120 0.0120 0.0120 0.0120 0.0120
2866.387000 0.0120 0.0120 0.0120 0.0120 0.0120
2872.992088 0.0130 0.0130 0.0150 0.0150 0.0150
2879.592000 0.0150 0.0130 0.0130 0.0130 0.0130
2886.197088 0.0130 0.0130 0.0130 0.0130 0.0130
2892.797000 0.0130 0.0130 0.0130 0.0130 0.0130
2899.402088 0.0130 0.0130 0.0130 0.0130 0.0130
2906.002000 0.0130 0.0130 0.0130 0.0130 0.0120
2912.607088 0.0120 0.0120 0.0120 0.0120 0.0120
2919.208000 0.0120 0.0120 0.0120 0.0120 0.0120
2925.813088 0.0120 0.0120 0.0120 0.0120 0.0120
2932.413000 0.0120 0.0120 0.0120 0.0120 0.0120
2939.018088 0.0120 0.0120 0.0120 0.0120 0.0120
2945.618000 0.0120 0.0120 0.0120 0.0130 0.0130
2952.223088 0.0130 0.0130 0.0130 0.0130 0.0130
2958.824000 0.0130 0.0130 0.0130 0.0130 0.0130
2965.429088 0.0150 0.0160 0.0170 0.0190 0.0200
2972.029000 0.0220 0.0230 0.0240 0.0270 0.0270
2978.634088 0.0280 0.0300 0.0340 0.0340 0.0450
2985.234000 0.0560 0.0710 0.0850 0.1040 0.1280
2991.839088 0.1570 0.1880 0.2220 0.2560 0.2910
2998.439000 0.3250 0.3570 0.3870 0.4130 0.4350
3005.044088 0.4520 0.4600 0.4750 0.4910 0.5080
3011.645000 0.5260 0.5440 0.5570 0.5760 0.5840
3018.250088 0.5980 0.6090 0.6200 0.6310 0.6420
3024.850000 0.6520 0.6620 0.6710 0.6810 0.6890
3031.455088 0.6970 0.7060 0.7130 0.7200 0.7280
3038.055000 0.7330 0.7400 0.7470 0.7530 0.7580
3044.660088 0.7640 0.7680 0.7750 0.7870 0.7930
3051.260000 0.7970 0.8000 0.8010 0.8050 0.8110
3057.865088 0.8150 0.8200 0.8270 0.8310 0.8350
3064.466000 0.8420 0.8480 0.8550 0.8570 0.8640
3071.071088 0.8670 0.8680 0.8680 0.8700 0.8730
3077.671000 0.8750 0.8770 0.8780 0.8810 0.8840
3084.276088 0.8880 0.8910 0.8920 0.8930 0.8960
3090.876000 0.8970 0.9000 0.9030 0.9060 0.9070
3097.481088 0.9080 0.9100 0.9130 0.9150 0.9170
3104.082000 0.9180 0.9200 0.9210 0.9220 0.9220
3110.687088 0.9240 0.9250 0.9260 0.9290 0.9310
3117.287000 0.9310 0.9310 0.9320 0.9320 0.9320
3123.892088 0.9330 0.9330 0.9350 0.9350 0.9360
3130.492000 0.9360 0.9370 0.9370 0.9370 0.9370
3137.097088 0.9370 0.9370 0.9370 0.9370 0.9370
3143.698000 0.9370 0.9360 0.9350 0.9350 0.9350
3150.303088 0.9350 0.9350 0.9350 0.9330 0.9330
3156.903000 0.9330 0.9330 0.9330 0.9350 0.9350
3163.508088 0.9350 0.9360 0.9360 0.9360 0.9370
3170.108000 0.9370 0.9370 0.9390 0.9390 0.9390
3176.713088 0.9400 0.9400 0.9400 0.9400 0.9420
3183.313000 0.9420 0.9430 0.9430 0.9440 0.9460
3189.918088 0.9470 0.9470 0.9480 0.9500 0.9500
3196.519000 0.9510 0.9530 0.9550 0.9570 0.9600
3203.124088 0.9610 0.9620 0.9620 0.9640 0.9650
3209.724000 0.9660 0.9680 0.9680 0.9710 0.9720
3216.329088 0.9720 0.9730 0.9730 0.9750 0.9750
3222.929000 0.9760 0.9760 0.9770 0.9790 0.9790
3229.534088 0.9820 0.9820 0.9830 0.9830 0.9840
3236.135000 0.9840 0.9840 0.9860 0.9860 0.9860
3242.740088 0.9870 0.9870 0.9880 0.9880 0.9900
3249.340000 0.9900 0.9900 0.9900 0.9900 0.9910
3255.945088 0.9910 0.9910 0.9910 0.9910 0.9910
3262.545000 0.9930 0.9910 0.9910 0.9910 0.9910
3269.150088 0.9930 0.9930 0.9930 0.9930 0.9930
3275.750000 0.9930 0.9930 0.9930 0.9930 0.9930
3282.355088 0.9930 0.9930 0.9930 0.9930 0.9910
3288.956000 0.9910 0.9910 0.9930 0.9940 0.9930
3295.561088 0.9930 0.9930 0.9930 0.9930 0.9930
3302.161000 0.9910 0.9910 0.9910 0.9910 0.9910
3308.766088 0.9900 0.9900 0.9900 0.9900 0.9900
3315.366000 0.9900 0.9900 0.9900 0.9900 0.9900
3321.971088 0.9880 0.9880 0.9880 0.9870 0.9870
3328.572000 0.9870 0.9860 0.9860 0.9860 0.9840
3335.177088 0.9840 0.9840 0.9840 0.9830 0.9830
3341.777000 0.9830 0.9830 0.9820 0.9820 0.9820
3348.382088 0.9820 0.9800 0.9800 0.9790 0.9790
3354.982000 0.9770 0.9770 0.9760 0.9760 0.9760
3361.587088 0.9750 0.9750 0.9730 0.9730 0.9720
3368.188000 0.9720 0.9710 0.9710 0.9690 0.9680
3374.793088 0.9660 0.9650 0.9640 0.9620 0.9610
3381.393000 0.9580 0.9550 0.9540 0.9510 0.9470
3387.998088 0.9440 0.9400 0.9370 0.9330 0.9310
3394.598000 0.9280 0.9070 0.9030 0.8970 0.8920
3401.203088 0.8860 0.8780 0.8730 0.8680 0.8640
3407.803000 0.8600 0.8560 0.8530 0.8520 0.8510
3414.408088 0.8510 0.8510 0.8510 0.8520 0.8570
3421.009000 0.8630 0.8700 0.8740 0.8860 0.8960
3427.614088 0.9060 0.9140 0.9240 0.9320 0.9370
3434.214000 0.9460 0.9530 0.9580 0.9640 0.9680
3440.819088 0.9720 0.9750 0.9760 0.9790 0.9820
3447.419000 0.9840 0.9870 0.9870 0.9880 0.9900
3454.024088 0.9900 0.9910 0.9910 0.9930 0.9930
3460.624000 0.9930 0.9940 0.9940 0.9940 0.9950
3467.229088 0.9950 0.9950 0.9950 0.9950 0.9950
3473.830000 0.9950 0.9950 0.9950 0.9950 0.9950
3480.435088 0.9950 0.9950 0.9950 0.9950 0.9950
3487.035000 0.9950 0.9950 0.9950 0.9950 0.9950
3493.640088 0.9950 0.9950 0.9950 0.9950 0.9940
3500.240000 0.9940 0.9930 0.9930 0.9910 0.9900
3506.845088 0.9900 0.9900 0.9900 0.9900 0.9900
3513.446000 0.9900 0.9900 0.9900 0.9900 0.9900
3520.051088 0.9900 0.9900 0.9900 0.9900 0.9900
3526.651000 0.9900 0.9900 0.9900 0.9900 0.9900
3533.256088 0.9900 0.9900 0.9900 0.9900 0.9900
3539.856000 0.9900 0.9900 0.9900 0.9900 0.9900
3546.461088 0.9900 0.9900 0.9900 0.9900 0.9910
3553.061000 0.9910 0.9910 0.9910 0.9910 0.9910
3559.666088 0.9910 0.9910 0.9930 0.9930 0.9930
3566.267000 0.9940 0.9950 0.9950 0.9950 0.9970
3572.872088 0.9970 0.9970 0.9970 0.9970 0.9970
3579.472000 0.9970 0.9970 0.9970 0.9970 0.9970
3586.077088 0.9970 0.9950 0.9950 0.9940 0.9940
3592.677000 0.9940 0.9930 0.9930 0.9910 0.9910
3599.282088 0.9900 0.9900 0.9880 0.9870 0.9860
3605.883000 0.9840 0.9840 0.9830 0.9830 0.9830
3612.488088 0.9820 0.9800 0.9800 0.9800 0.9800
3619.088000 0.9800 0.9800 0.9800 0.9800 0.9800
3625.693088 0.9800 0.9820 0.9820 0.9820 0.9830
3632.293000 0.9830 0.9830 0.9840 0.9840 0.9840
3638.898088 0.9840 0.9860 0.9860 0.9860 0.9870
3645.498000 0.9870 0.9870 0.9880 0.9880 0.9900
3652.103088 0.9910 0.9910 0.9930 0.9930 0.9930
3658.704000 0.9930 0.9930 0.9930 0.9930 0.9930
3665.309088 0.9930 0.9930 0.9930 0.9930 0.9940
3671.909000 0.9930 0.9930 0.9930 0.9930 0.9930
3678.514088 0.9930 0.9930 0.9930 0.9930 0.9930
3685.114000 0.9930 0.9930 0.9940 0.9950 0.9970
3691.719088 0.9980 1.0000 1.0010 1.0010 1.0010
3698.320000 1.0020 1.0040 1.0040 1.0040 1.0040
3704.925088 1.0040 1.0040 1.0040 1.0040 1.0040
3711.525000 1.0040 1.0040 1.0040 1.0040 1.0040
3718.130088 1.0040 1.0040 1.0040 1.0040 1.0040
3724.730000 1.0040 1.0020 1.0020 1.0010 1.0010
3731.335088 1.0010 1.0010 1.0010 1.0010 1.0010
3737.935000 1.0010 1.0010 1.0010 1.0020 1.0020
3744.540088 1.0020 1.0020 1.0020 1.0020 1.0020
3751.141000 1.0020 1.0020 1.0020 1.0020 1.0020
3757.746088 1.0040 1.0040 1.0040 1.0040 1.0040
3764.346000 1.0040 1.0040 1.0040 1.0040 1.0040
3770.951088 1.0020 1.0010 1.0010 1.0010 1.0010
3777.551000 1.0020 1.0020 1.0020 1.0010 1.0010
3784.156088 1.0010 1.0010 1.0010 1.0010 1.0010
3790.756000 1.0010 1.0010 1.0010 1.0010 1.0010
3797.361088 1.0010 1.0010 1.0010 1.0010 1.0000
3803.962000 1.0010 0.9980 0.9980 0.9980 0.9980
3810.567088 0.9980 0.9980 0.9980 0.9980 0.9980
3817.167000 0.9980 0.9980 0.9980 0.9980 0.9980
3823.772088 0.9980 0.9980 0.9980 0.9980 0.9980
3830.372000 0.9980 0.9980 1.0000 1.0000 1.0000
3836.977088 0.9980 0.9980 0.9980 0.9980 0.9980
3843.578000 0.9980 0.9980 0.9980 0.9980 0.9980
3850.183088 0.9980 0.9970 0.9970 0.9970 0.9950
3856.783000 0.9940 0.9940 0.9940 0.9930 0.9930
3863.388088 0.9930 0.9910 0.9910 0.9910 0.9910
3869.988000 0.9910 0.9930 0.9930 0.9930 0.9930
3876.593088 0.9930 0.9910 0.9910 0.9910 0.9900
3883.193000 0.9900 0.9900 0.9900 0.9900 0.9900
3889.798088 0.9900 0.9900 0.9900 0.9900 0.9900
3896.399000 0.9900
##END=
