##TITLE=BENZIDINE
##JCAMP-DX=4.24
##DATA TYPE=INFRARED SPECTRUM
##CLASS=COBLENTZ III
##ORIGIN=DOW CORNING CORP.
##OWNER=COBLENTZ SOC.
Collection (C) 2018 copyright by the U.S. Secretary of Commerce
on behalf of the United States of America. All rights reserved.
##DATE=1967/02/27
##NAMES=[1,1'-biphenyl]-4,4'-diamine
4'-amino[1,1'-biphenyl]-4-ylamine
##CAS REGISTRY NO=92-87-5
##MOLFORM=C12 H12 N2
##SOURCE REFERENCE=COBLENTZ NO. 05602
##$NIST SOURCE=COBLENTZ
##$NIST IMAGE=cob5602
##SPECTROMETER/DATA SYSTEM=PERKIN-ELMER 521 (GRATING)
##INSTRUMENT PARAMETERS=FILTERS AT 3150, 2500, 2000, 1150, 700, 410. GRATING CHANGES: 2000, 630
##STATE=SOLID (KBr DISC)
##SAMPLING PROCEDURE=TRANSMISSION
##RESOLUTION=2
##DATA PROCESSING=DIGITIZED BY COBLENTZ SOCIETY (BATCH I) FROM HARD COPY (ADJUSTED \subtractcm-1\10-0-0\)
##XUNITS=1/CM
##YUNITS=TRANSMITTANCE
##XLABEL=Wavenumbers (cm-1)
##YLABEL=Transmittance
##XFACTOR=1
##YFACTOR=1
##DELTAX=0.995854
##FIRSTX=3805.17
##LASTX=244.996
##FIRSTY=0.7917
##MAXX=3805.17
##MINX=244.996
##MAXY=0.926557
##MINY=0.0277
##NPOINTS=3576
##XYDATA=(X++(Y..Y))
3805.174242 0.7917 0.7917 0.7917 0.7924 0.7932
3800.194972 0.7939 0.7947 0.7955 0.7962 0.7971
3795.215701 0.7980 0.7988 0.7997 0.8006 0.8015
3790.236431 0.8021 0.8028 0.8033 0.8038 0.8042
3785.257161 0.8047 0.8051 0.8057 0.8058 0.8061
3780.277890 0.8061 0.8062 0.8064 0.8065 0.8065
3775.298620 0.8065 0.8067 0.8068 0.8068 0.8068
3770.319349 0.8069 0.8071 0.8071 0.8071 0.8071
3765.340079 0.8069 0.8068 0.8068 0.8068 0.8067
3760.360808 0.8065 0.8065 0.8064 0.8062 0.8061
3755.381538 0.8061 0.8058 0.8058 0.8054 0.8050
3750.402267 0.8045 0.8041 0.8037 0.8033 0.8017
3745.422997 0.8001 0.7978 0.7957 0.7949 0.7942
3740.443726 0.7934 0.7926 0.7924 0.7924 0.7922
3735.464456 0.7924 0.7924 0.7925 0.7925 0.7925
3730.485185 0.7925 0.7926 0.7926 0.7928 0.7931
3725.505915 0.7934 0.7938 0.7942 0.7945 0.7949
3720.526644 0.7953 0.7957 0.7960 0.7964 0.7968
3715.547374 0.7971 0.7975 0.7978 0.7982 0.7985
3710.568103 0.7988 0.7991 0.7994 0.7997 0.8000
3705.588833 0.8003 0.8006 0.8008 0.8011 0.8015
3700.609562 0.8018 0.8021 0.8021 0.8022 0.8022
3695.630292 0.8024 0.8024 0.8024 0.8024 0.8025
3690.651022 0.8025 0.8025 0.8025 0.8025 0.8024
3685.671751 0.8024 0.8019 0.8017 0.8012 0.8010
3680.692481 0.8006 0.8001 0.7998 0.7995 0.7992
3675.713210 0.7989 0.7986 0.7983 0.7980 0.7976
3670.733940 0.7974 0.7971 0.7968 0.7965 0.7961
3665.754669 0.7958 0.7956 0.7954 0.7951 0.7951
3660.775399 0.7950 0.7949 0.7956 0.7962 0.7971
3655.796128 0.7982 0.7992 0.8001 0.8003 0.8004
3650.816858 0.8004 0.7987 0.8000 0.7999 0.7997
3645.837587 0.7995 0.7987 0.7979 0.7969 0.7958
3640.858317 0.7947 0.7936 0.7926 0.7917 0.7911
3635.879046 0.7908 0.7903 0.7899 0.7894 0.7890
3630.899776 0.7885 0.7881 0.7875 0.7871 0.7867
3625.920505 0.7862 0.7858 0.7853 0.7847 0.7842
3620.941235 0.7832 0.7820 0.7806 0.7791 0.7776
3615.961964 0.7762 0.7747 0.7733 0.7718 0.7704
3610.982694 0.7688 0.7672 0.7657 0.7642 0.7626
3606.003423 0.7611 0.7595 0.7579 0.7563 0.7549
3601.024153 0.7533 0.7518 0.7504 0.7490 0.7476
3596.044883 0.7462 0.7448 0.7434 0.7419 0.7407
3591.065612 0.7393 0.7379 0.7365 0.7351 0.7337
3586.086342 0.7323 0.7309 0.7296 0.7283 0.7269
3581.107071 0.7257 0.7245 0.7233 0.7220 0.7208
3576.127801 0.7196 0.7183 0.7170 0.7159 0.7147
3571.148530 0.7134 0.7122 0.7109 0.7097 0.7085
3566.169260 0.7072 0.7059 0.7047 0.7033 0.7019
3561.189989 0.7006 0.6993 0.6979 0.6966 0.6952
3556.210719 0.6940 0.6926 0.6912 0.6899 0.6886
3551.231448 0.6872 0.6859 0.6846 0.6833 0.6819
3546.252178 0.6806 0.6793 0.6779 0.6766 0.6752
3541.272907 0.6742 0.6732 0.6720 0.6711 0.6700
3536.293637 0.6690 0.6679 0.6669 0.6658 0.6648
3531.314366 0.6637 0.6626 0.6616 0.6606 0.6595
3526.335096 0.6585 0.6573 0.6563 0.6552 0.6543
3521.355825 0.6532 0.6522 0.6511 0.6501 0.6490
3516.376555 0.6479 0.6472 0.6463 0.6457 0.6450
3511.397285 0.6443 0.6436 0.6429 0.6422 0.6416
3506.418014 0.6409 0.6402 0.6395 0.6388 0.6381
3501.438744 0.6374 0.6367 0.6360 0.6354 0.6344
3496.459473 0.6334 0.6321 0.6308 0.6295 0.6282
3491.480203 0.6269 0.6256 0.6243 0.6230 0.6217
3486.500932 0.6204 0.6191 0.6179 0.6167 0.6156
3481.521662 0.6145 0.6134 0.6123 0.6113 0.6102
3476.542391 0.6091 0.6080 0.6070 0.6059 0.6049
3471.563121 0.6038 0.6027 0.6015 0.6004 0.5991
3466.583850 0.5977 0.5962 0.5949 0.5935 0.5921
3461.604580 0.5907 0.5894 0.5880 0.5866 0.5852
3456.625309 0.5838 0.5825 0.5812 0.5800 0.5789
3451.646039 0.5777 0.5765 0.5754 0.5742 0.5691
3446.666768 0.5636 0.5573 0.5510 0.5480 0.5456
3441.687498 0.5439 0.5423 0.5409 0.5395 0.5381
3436.708227 0.5367 0.5354 0.5342 0.5330 0.5318
3431.728957 0.5306 0.5294 0.5283 0.5271 0.5263
3426.749686 0.5256 0.5249 0.5242 0.5235 0.5228
3421.770416 0.5219 0.5211 0.5200 0.5188 0.5175
3416.791146 0.5162 0.5138 0.5112 0.5072 0.5030
3411.811875 0.4976 0.4920 0.4867 0.4814 0.4758
3406.832605 0.4703 0.4615 0.4521 0.4402 0.4278
3401.853334 0.4063 0.3833 0.3799 0.3800 0.3800
3396.874064 0.3800 0.3800 0.3800 0.3800 0.3802
3391.894793 0.3807 0.3813 0.3819 0.3825 0.3828
3386.915523 0.3830 0.3832 0.3834 0.3842 0.3853
3381.936252 0.3886 0.3923 0.3960 0.4000 0.4064
3376.956982 0.4131 0.4199 0.4269 0.4340 0.4412
3371.977711 0.4483 0.4554 0.4585 0.4610 0.4638
3366.998441 0.4667 0.4674 0.4677 0.4671 0.4663
3362.019170 0.4658 0.4652 0.4645 0.4639 0.4634
3357.039900 0.4630 0.4628 0.4627 0.4626 0.4625
3352.060629 0.4624 0.4623 0.4622 0.4622 0.4622
3347.081359 0.4628 0.4621 0.4617 0.4610 0.4603
3342.102088 0.4577 0.4547 0.4475 0.4397 0.4305
3337.122818 0.4211 0.4085 0.3954 0.3822 0.3690
3332.143547 0.3559 0.3428 0.3297 0.3166 0.3137
3327.164277 0.3129 0.3128 0.3123 0.3181 0.3248
3322.185007 0.3316 0.3384 0.3452 0.3520 0.3588
3317.205736 0.3656 0.3719 0.3783 0.3806 0.3823
3312.226466 0.3839 0.3856 0.3875 0.3894 0.3916
3307.247195 0.3939 0.3968 0.3999 0.4037 0.4075
3302.267925 0.4118 0.4162 0.4226 0.4296 0.4361
3297.288654 0.4425 0.4480 0.4534 0.4589 0.4644
3292.309384 0.4701 0.4760 0.4813 0.4866 0.4912
3287.330113 0.4956 0.5000 0.5044 0.5080 0.5115
3282.350843 0.5150 0.5185 0.5214 0.5242 0.5266
3277.371572 0.5291 0.5315 0.5340 0.5363 0.5386
3272.392302 0.5406 0.5427 0.5447 0.5468 0.5488
3267.413031 0.5508 0.5526 0.5545 0.5558 0.5571
3262.433761 0.5584 0.5596 0.5606 0.5615 0.5619
3257.454490 0.5621 0.5623 0.5625 0.5627 0.5629
3252.475220 0.5632 0.5633 0.5633 0.5633 0.5633
3247.495949 0.5633 0.5633 0.5633 0.5630 0.5627
3242.516679 0.5620 0.5613 0.5602 0.5590 0.5563
3237.537408 0.5534 0.5504 0.5475 0.5444 0.5412
3232.558138 0.5378 0.5345 0.5312 0.5279 0.5247
3227.578868 0.5215 0.5188 0.5161 0.5135 0.5109
3222.599597 0.5083 0.5056 0.5029 0.5001 0.4967
3217.620327 0.4931 0.4895 0.4859 0.4823 0.4787
3212.641056 0.4716 0.4636 0.4574 0.4520 0.4464
3207.661786 0.4409 0.4381 0.4360 0.4349 0.4342
3202.682515 0.4338 0.4332 0.4338 0.4345 0.4355
3197.703245 0.4367 0.4401 0.4441 0.4473 0.4503
3192.723974 0.4533 0.4564 0.4601 0.4639 0.4680
3187.744704 0.4721 0.4753 0.4785 0.4813 0.4841
3182.765433 0.4868 0.4896 0.4935 0.4979 0.5032
3177.786163 0.5089 0.5137 0.5182 0.5224 0.5266
3172.806892 0.5302 0.5339 0.5366 0.5392 0.5417
3167.827622 0.5442 0.5467 0.5493 0.5518 0.5544
3162.848351 0.5569 0.5595 0.5632 0.5673 0.5716
3157.869081 0.5760 0.5802 0.5846 0.5884 0.5922
3152.889810 0.5959 0.5995 0.6032 0.6069 0.6107
3147.910540 0.6145 0.6183 0.6221 0.6259 0.6298
3142.931269 0.6336 0.6374 0.6410 0.6448 0.6484
3137.951999 0.6521 0.6557 0.6594 0.6631 0.6667
3132.972729 0.6699 0.6730 0.6755 0.6781 0.6805
3127.993458 0.6831 0.6855 0.6880 0.6904 0.6928
3123.014188 0.6949 0.6970 0.6990 0.7010 0.7030
3118.034917 0.7050 0.7070 0.7091 0.7110 0.7128
3113.055647 0.7140 0.7152 0.7164 0.7175 0.7188
3108.076376 0.7200 0.7212 0.7223 0.7235 0.7247
3103.097106 0.7258 0.7271 0.7280 0.7289 0.7297
3098.117835 0.7306 0.7313 0.7322 0.7331 0.7340
3093.138565 0.7348 0.7356 0.7365 0.7373 0.7381
3088.159294 0.7389 0.7396 0.7403 0.7409 0.7416
3083.180024 0.7423 0.7431 0.7438 0.7445 0.7452
3078.200753 0.7459 0.7468 0.7478 0.7488 0.7498
3073.221483 0.7508 0.7517 0.7526 0.7536 0.7546
3068.242212 0.7555 0.7560 0.7564 0.7567 0.7580
3063.262942 0.7577 0.7574 0.7490 0.7479 0.7472
3058.283671 0.7467 0.7465 0.7465 0.7465 0.7468
3053.304401 0.7474 0.7482 0.7488 0.7493 0.7497
3048.325130 0.7500 0.7467 0.7418 0.7341 0.7252
3043.345860 0.7163 0.7074 0.6983 0.6893 0.6804
3038.366590 0.6714 0.6624 0.6535 0.6460 0.6381
3033.387319 0.6357 0.6358 0.6358 0.6361 0.6372
3028.408049 0.6387 0.6411 0.6442 0.6493 0.6560
3023.428778 0.6635 0.6720 0.6805 0.6889 0.6973
3018.449508 0.7058 0.7132 0.7199 0.7234 0.7242
3013.470237 0.7249 0.7255 0.7261 0.7267 0.7276
3008.490967 0.7290 0.7303 0.7318 0.7334 0.7352
3003.511696 0.7370 0.7389 0.7410 0.7434 0.7461
2998.532426 0.7489 0.7515 0.7537 0.7558 0.7575
2993.553155 0.7588 0.7596 0.7600 0.7601 0.7602
2988.573885 0.7603 0.7604 0.7604 0.7604 0.7605
2983.594614 0.7608 0.7616 0.7627 0.7642 0.7657
2978.615344 0.7673 0.7687 0.7697 0.7706 0.7715
2973.636073 0.7724 0.7733 0.7742 0.7751 0.7759
2968.656803 0.7766 0.7773 0.7780 0.7786 0.7790
2963.677532 0.7794 0.7796 0.7798 0.7800 0.7802
2958.698262 0.7804 0.7806 0.7807 0.7807 0.7807
2953.718992 0.7807 0.7806 0.7806 0.7805 0.7805
2948.739721 0.7805 0.7804 0.7804 0.7803 0.7801
2943.760451 0.7800 0.7799 0.7798 0.7796 0.7795
2938.781180 0.7794 0.7792 0.7788 0.7784 0.7777
2933.801910 0.7769 0.7759 0.7751 0.7741 0.7732
2928.822639 0.7720 0.7709 0.7699 0.7689 0.7674
2923.843369 0.7642 0.7661 0.7654 0.7646 0.7638
2918.864098 0.7630 0.7622 0.7624 0.7626 0.7637
2913.884828 0.7647 0.7659 0.7672 0.7685 0.7698
2908.905557 0.7711 0.7723 0.7737 0.7750 0.7762
2903.926287 0.7776 0.7789 0.7802 0.7813 0.7826
2898.947016 0.7837 0.7849 0.7860 0.7872 0.7884
2893.967746 0.7896 0.7907 0.7918 0.7931 0.7943
2888.988475 0.7951 0.7961 0.7971 0.7981 0.7990
2884.009205 0.7999 0.8008 0.8018 0.8026 0.8037
2879.029934 0.8046 0.8055 0.8061 0.8069 0.8072
2874.050664 0.8076 0.8080 0.8083 0.8087 0.8090
2869.071393 0.8093 0.8094 0.8095 0.8094 0.8091
2864.092123 0.8088 0.8081 0.8073 0.8065 0.8057
2859.112853 0.8049 0.8041 0.8036 0.8033 0.8029
2854.133582 0.7982 0.8015 0.8019 0.8018 0.8019
2849.154312 0.8027 0.8035 0.8043 0.8050 0.8057
2844.175041 0.8065 0.8073 0.8080 0.8087 0.8094
2839.195771 0.8102 0.8109 0.8129 0.8153 0.8176
2834.216500 0.8198 0.8219 0.8239 0.8256 0.8272
2829.237230 0.8282 0.8290 0.8298 0.8307 0.8315
2824.257959 0.8323 0.8332 0.8340 0.8343 0.8346
2819.278689 0.8348 0.8349 0.8351 0.8352 0.8354
2814.299418 0.8355 0.8357 0.8359 0.8361 0.8363
2809.320148 0.8365 0.8367 0.8369 0.8371 0.8373
2804.340877 0.8375 0.8377 0.8379 0.8381 0.8382
2799.361607 0.8382 0.8383 0.8383 0.8384 0.8384
2794.382336 0.8384 0.8384 0.8385 0.8385 0.8386
2789.403066 0.8386 0.8387 0.8387 0.8387 0.8387
2784.423795 0.8388 0.8388 0.8389 0.8389 0.8390
2779.444525 0.8390 0.8391 0.8391 0.8391 0.8391
2774.465254 0.8392 0.8392 0.8393 0.8393 0.8394
2769.485984 0.8394 0.8395 0.8395 0.8395 0.8395
2764.506714 0.8395 0.8396 0.8396 0.8397 0.8397
2759.527443 0.8398 0.8398 0.8398 0.8398 0.8399
2754.548173 0.8399 0.8400 0.8400 0.8401 0.8401
2749.568902 0.8402 0.8402 0.8402 0.8402 0.8403
2744.589632 0.8403 0.8404 0.8404 0.8405 0.8405
2739.610361 0.8406 0.8407 0.8408 0.8409 0.8410
2734.631091 0.8411 0.8412 0.8413 0.8414 0.8415
2729.651820 0.8416 0.8416 0.8417 0.8418 0.8419
2724.672550 0.8420 0.8421 0.8422 0.8423 0.8424
2719.693279 0.8425 0.8425 0.8426 0.8427 0.8428
2714.714009 0.8429 0.8430 0.8431 0.8432 0.8432
2709.734738 0.8433 0.8434 0.8435 0.8436 0.8437
2704.755468 0.8438 0.8439 0.8439 0.8440 0.8441
2699.776197 0.8442 0.8443 0.8444 0.8445 0.8446
2694.796927 0.8446 0.8447 0.8448 0.8449 0.8450
2689.817656 0.8451 0.8451 0.8452 0.8453 0.8454
2684.838386 0.8455 0.8456 0.8456 0.8457 0.8458
2679.859115 0.8459 0.8460 0.8461 0.8461 0.8462
2674.879845 0.8462 0.8463 0.8464 0.8465 0.8465
2669.900575 0.8466 0.8468 0.8471 0.8476 0.8481
2664.921304 0.8486 0.8491 0.8495 0.8500 0.8504
2659.942034 0.8509 0.8514 0.8520 0.8527 0.8535
2654.962763 0.8543 0.8551 0.8558 0.8566 0.8568
2649.983493 0.8571 0.8573 0.8575 0.8575 0.8578
2645.004222 0.8578 0.8581 0.8582 0.8584 0.8584
2640.024952 0.8584 0.8584 0.8584 0.8584 0.8584
2635.045681 0.8583 0.8583 0.8583 0.8583 0.8583
2630.066411 0.8583 0.8584 0.8585 0.8586 0.8587
2625.087140 0.8588 0.8589 0.8590 0.8591 0.8592
2620.107870 0.8593 0.8595 0.8597 0.8599 0.8602
2615.128599 0.8604 0.8607 0.8610 0.8613 0.8615
2610.149329 0.8618 0.8620 0.8623 0.8625 0.8628
2605.170058 0.8630 0.8633 0.8635 0.8637 0.8640
2600.190788 0.8642 0.8645 0.8647 0.8650 0.8652
2595.211517 0.8655 0.8657 0.8658 0.8659 0.8659
2590.232247 0.8660 0.8660 0.8661 0.8662 0.8663
2585.252976 0.8663 0.8664 0.8665 0.8666 0.8666
2580.273706 0.8667 0.8668 0.8668 0.8669 0.8671
2575.294436 0.8671 0.8671 0.8671 0.8671 0.8671
2570.315165 0.8671 0.8671 0.8670 0.8668 0.8665
2565.335895 0.8662 0.8660 0.8657 0.8655 0.8652
2560.356624 0.8650 0.8646 0.8642 0.8638 0.8634
2555.377354 0.8632 0.8632 0.8632 0.8632 0.8631
2550.398083 0.8631 0.8630 0.8630 0.8629 0.8628
2545.418813 0.8628 0.8628 0.8629 0.8631 0.8632
2540.439542 0.8633 0.8635 0.8636 0.8638 0.8640
2535.460272 0.8642 0.8643 0.8645 0.8646 0.8648
2530.481001 0.8649 0.8651 0.8653 0.8655 0.8656
2525.501731 0.8658 0.8660 0.8662 0.8664 0.8665
2520.522460 0.8667 0.8669 0.8670 0.8672 0.8674
2515.543190 0.8676 0.8677 0.8679 0.8682 0.8684
2510.563919 0.8686 0.8687 0.8689 0.8690 0.8692
2505.584649 0.8693 0.8695 0.8697 0.8699 0.8700
2500.605378 0.8702 0.8703 0.8705 0.8706 0.8708
2495.626108 0.8709 0.8711 0.8713 0.8715 0.8716
2490.646838 0.8717 0.8719 0.8720 0.8722 0.8724
2485.667567 0.8726 0.8727 0.8729 0.8732 0.8735
2480.688297 0.8738 0.8741 0.8743 0.8746 0.8749
2475.709026 0.8752 0.8754 0.8757 0.8760 0.8763
2470.729756 0.8764 0.8764 0.8765 0.8765 0.8764
2465.750485 0.8763 0.8762 0.8762 0.8761 0.8760
2460.771215 0.8759 0.8759 0.8759 0.8759 0.8759
2455.791944 0.8759 0.8759 0.8760 0.8760 0.8761
2450.812674 0.8761 0.8762 0.8762 0.8763 0.8763
2445.833403 0.8764 0.8764 0.8765 0.8766 0.8767
2440.854133 0.8768 0.8768 0.8770 0.8771 0.8771
2435.874862 0.8773 0.8774 0.8775 0.8775 0.8777
2430.895592 0.8778 0.8778 0.8780 0.8781 0.8782
2425.916321 0.8783 0.8784 0.8785 0.8786 0.8787
2420.937051 0.8787 0.8788 0.8789 0.8790 0.8791
2415.957780 0.8793 0.8794 0.8796 0.8797 0.8799
2410.978510 0.8800 0.8801 0.8802 0.8804 0.8805
2405.999239 0.8807 0.8808 0.8810 0.8811 0.8812
2401.019969 0.8813 0.8815 0.8816 0.8818 0.8818
2396.040699 0.8820 0.8821 0.8823 0.8824 0.8825
2391.061428 0.8825 0.8827 0.8828 0.8828 0.8830
2386.082158 0.8831 0.8832 0.8833 0.8834 0.8835
2381.102887 0.8836 0.8837 0.8838 0.8839 0.8840
2376.123617 0.8842 0.8842 0.8843 0.8843 0.8844
2371.144346 0.8845 0.8846 0.8846 0.8847 0.8848
2366.165076 0.8849 0.8849 0.8850 0.8850 0.8851
2361.185805 0.8852 0.8853 0.8853 0.8854 0.8855
2356.206535 0.8856 0.8856 0.8857 0.8857 0.8858
2351.227264 0.8858 0.8859 0.8859 0.8860 0.8860
2346.247994 0.8861 0.8861 0.8862 0.8862 0.8863
2341.268723 0.8863 0.8864 0.8864 0.8865 0.8865
2336.289453 0.8866 0.8866 0.8867 0.8868 0.8868
2331.310182 0.8868 0.8869 0.8870 0.8871 0.8871
2326.330912 0.8871 0.8871 0.8872 0.8873 0.8873
2321.351641 0.8872 0.8871 0.8870 0.8870 0.8869
2316.372371 0.8868 0.8867 0.8867 0.8866 0.8865
2311.393100 0.8864 0.8864 0.8863 0.8862 0.8861
2306.413830 0.8861 0.8861 0.8861 0.8861 0.8861
2301.434560 0.8861 0.8861 0.8861 0.8861 0.8861
2296.455289 0.8861 0.8860 0.8860 0.8860 0.8860
2291.476019 0.8860 0.8860 0.8860 0.8860 0.8860
2286.496748 0.8860 0.8860 0.8860 0.8861 0.8861
2281.517478 0.8862 0.8862 0.8862 0.8862 0.8863
2276.538207 0.8863 0.8864 0.8864 0.8865 0.8865
2271.558937 0.8865 0.8865 0.8866 0.8866 0.8867
2266.579666 0.8867 0.8868 0.8868 0.8868 0.8868
2261.600396 0.8868 0.8869 0.8870 0.8871 0.8872
2256.621125 0.8873 0.8874 0.8875 0.8876 0.8877
2251.641855 0.8878 0.8879 0.8880 0.8881 0.8882
2246.662584 0.8884 0.8885 0.8886 0.8887 0.8888
2241.683314 0.8889 0.8890 0.8891 0.8892 0.8893
2236.704043 0.8894 0.8895 0.8897 0.8898 0.8899
2231.724773 0.8900 0.8902 0.8903 0.8904 0.8905
2226.745502 0.8907 0.8908 0.8909 0.8911 0.8912
2221.766232 0.8913 0.8914 0.8916 0.8917 0.8918
2216.786961 0.8920 0.8921 0.8922 0.8924 0.8925
2211.807691 0.8927 0.8928 0.8930 0.8931 0.8932
2206.828421 0.8933 0.8935 0.8936 0.8938 0.8939
2201.849150 0.8940 0.8941 0.8943 0.8944 0.8946
2196.869880 0.8947 0.8948 0.8948 0.8949 0.8949
2191.890609 0.8950 0.8950 0.8951 0.8951 0.8952
2186.911339 0.8952 0.8953 0.8953 0.8954 0.8954
2181.932068 0.8955 0.8956 0.8957 0.8957 0.8958
2176.952798 0.8958 0.8959 0.8959 0.8960 0.8960
2171.973527 0.8961 0.8961 0.8962 0.8962 0.8963
2166.994257 0.8963 0.8964 0.8964 0.8965 0.8965
2162.014986 0.8966 0.8966 0.8967 0.8967 0.8968
2157.035716 0.8968 0.8968 0.8968 0.8968 0.8968
2152.056445 0.8968 0.8968 0.8970 0.8970 0.8970
2147.077175 0.8970 0.8971 0.8971 0.8971 0.8971
2142.097904 0.8971 0.8971 0.8971 0.8971 0.8971
2137.118634 0.8971 0.8973 0.8973 0.8973 0.8973
2132.139363 0.8973 0.8973 0.8974 0.8974 0.8974
2127.160093 0.8974 0.8974 0.8973 0.8973 0.8973
2122.180822 0.8973 0.8971 0.8971 0.8971 0.8971
2117.201552 0.8970 0.8970 0.8968 0.8968 0.8968
2112.222282 0.8968 0.8968 0.8968 0.8967 0.8967
2107.243011 0.8966 0.8966 0.8965 0.8965 0.8965
2102.263741 0.8965 0.8964 0.8964 0.8963 0.8963
2097.284470 0.8962 0.8962 0.8962 0.8962 0.8961
2092.305200 0.8960 0.8959 0.8959 0.8958 0.8958
2087.325929 0.8957 0.8956 0.8955 0.8955 0.8954
2082.346659 0.8954 0.8953 0.8952 0.8951 0.8951
2077.367388 0.8950 0.8950 0.8949 0.8949 0.8949
2072.388118 0.8949 0.8948 0.8948 0.8948 0.8948
2067.408847 0.8948 0.8948 0.8948 0.8948 0.8949
2062.429577 0.8951 0.8953 0.8954 0.8956 0.8957
2057.450306 0.8959 0.8960 0.8962 0.8964 0.8966
2052.471036 0.8968 0.8970 0.8973 0.8975 0.8977
2047.491765 0.8979 0.8981 0.8983 0.8985 0.8986
2042.512495 0.8988 0.8990 0.8992 0.8991 0.8986
2037.533224 0.8981 0.8976 0.8971 0.8967 0.8964
2032.553954 0.8961 0.8959 0.8956 0.8953 0.8949
2027.574683 0.8946 0.8944 0.8943 0.8942 0.8942
2022.595413 0.8942 0.8942 0.8942 0.8941 0.8940
2017.616143 0.8938 0.8936 0.8934 0.8933 0.8932
2012.636872 0.8931 0.8931 0.8931 0.8932 0.8932
2007.657602 0.8932 0.8932 0.8933 0.8933 0.8934
2002.678331 0.8934 0.8935 0.8936 0.8937 0.8942
1997.699061 0.8958 0.8977 0.8998 0.9013 0.9017
1992.719790 0.9016 0.9015 0.9014 0.9013 0.9012
1987.740520 0.9012 0.9012 0.9011 0.9011 0.9010
1982.761249 0.9010 0.9009 0.9009 0.9009 0.9008
1977.781979 0.9008 0.9009 0.9011 0.9013 0.9015
1972.802708 0.9016 0.9018 0.9020 0.9022 0.9024
1967.823438 0.9026 0.9028 0.9030 0.9032 0.9033
1962.844167 0.9035 0.9036 0.9038 0.9040 0.9041
1957.864897 0.9043 0.9045 0.9046 0.9048 0.9050
1952.885626 0.9051 0.9054 0.9056 0.9059 0.9061
1947.906356 0.9064 0.9066 0.9068 0.9068 0.9068
1942.927085 0.9068 0.9068 0.9068 0.9068 0.9068
1937.947815 0.9068 0.9068 0.9066 0.9065 0.9064
1932.968545 0.9062 0.9061 0.9060 0.9058 0.9057
1927.989274 0.9056 0.9055 0.9055 0.9054 0.9053
1923.010004 0.9053 0.9052 0.9052 0.9052 0.9053
1918.030733 0.9054 0.9054 0.9055 0.9056 0.9057
1913.051463 0.9058 0.9060 0.9062 0.9064 0.9066
1908.072192 0.9068 0.9090 0.9073 0.9071 0.9071
1903.092922 0.9071 0.9070 0.9068 0.9068 0.9062
1898.113651 0.9051 0.9039 0.9020 0.8999 0.8978
1893.134381 0.8950 0.8918 0.8887 0.8852 0.8818
1888.155110 0.8799 0.8783 0.8767 0.8760 0.8755
1883.175840 0.8754 0.8755 0.8755 0.8756 0.8758
1878.196569 0.8773 0.8792 0.8811 0.8831 0.8866
1873.217299 0.8904 0.8937 0.8964 0.8989 0.9011
1868.238028 0.9025 0.9038 0.9051 0.9063 0.9073
1863.258758 0.9082 0.9092 0.9102 0.9111 0.9121
1858.279487 0.9130 0.9140 0.9149 0.9159 0.9168
1853.300217 0.9178 0.9188 0.9197 0.9207 0.9220
1848.320946 0.9233 0.9241 0.9246 0.9250 0.9266
1843.341676 0.9263 0.9258 0.9257 0.9257 0.9256
1838.362406 0.9256 0.9256 0.9255 0.9255 0.9254
1833.383135 0.9254 0.9254 0.9253 0.9253 0.9252
1828.403865 0.9252 0.9252 0.9251 0.9251 0.9251
1823.424594 0.9251 0.9250 0.9250 0.9250 0.9249
1818.445324 0.9249 0.9249 0.9248 0.9248 0.9248
1813.466053 0.9248 0.9247 0.9247 0.9247 0.9246
1808.486783 0.9246 0.9246 0.9246 0.9245 0.9245
1803.507512 0.9245 0.9245 0.9244 0.9244 0.9244
1798.528242 0.9244 0.9243 0.9243 0.9243 0.9243
1793.548971 0.9242 0.9242 0.9242 0.9241 0.9241
1788.569701 0.9241 0.9241 0.9240 0.9240 0.9239
1783.590430 0.9239 0.9238 0.9238 0.9237 0.9237
1778.611160 0.9237 0.9236 0.9236 0.9235 0.9235
1773.631889 0.9234 0.9234 0.9233 0.9233 0.9232
1768.652619 0.9232 0.9232 0.9231 0.9231 0.9231
1763.673348 0.9231 0.9231 0.9231 0.9232 0.9232
1758.694078 0.9232 0.9232 0.9232 0.9232 0.9232
1753.714807 0.9232 0.9233 0.9233 0.9233 0.9234
1748.735537 0.9235 0.9237 0.9238 0.9240 0.9241
1743.756267 0.9242 0.9243 0.9245 0.9246 0.9247
1738.776996 0.9248 0.9248 0.9249 0.9249 0.9250
1733.797726 0.9250 0.9251 0.9251 0.9252 0.9252
1728.818455 0.9253 0.9253 0.9252 0.9249 0.9247
1723.839185 0.9245 0.9242 0.9239 0.9237 0.9234
1718.859914 0.9231 0.9228 0.9224 0.9217 0.9212
1713.880644 0.9207 0.9201 0.9195 0.9189 0.9183
1708.901373 0.9177 0.9171 0.9168 0.9163 0.9159
1703.922103 0.9155 0.9151 0.9146 0.9142 0.9136
1698.942832 0.9128 0.9120 0.9113 0.9105 0.9097
1693.963562 0.9090 0.9082 0.9071 0.9060 0.9049
1688.984291 0.9038 0.9027 0.9016 0.9005 0.8994
1684.005021 0.8981 0.8967 0.8953 0.8936 0.8920
1679.025750 0.8903 0.8887 0.8871 0.8854 0.8837
1674.046480 0.8819 0.8795 0.8769 0.8744 0.8719
1669.067209 0.8693 0.8662 0.8610 0.8557 0.8504
1664.087939 0.8452 0.8397 0.8342 0.8288 0.8234
1659.108668 0.8178 0.8109 0.8037 0.7966 0.7893
1654.129398 0.7800 0.7700 0.7600 0.7498 0.7385
1649.150128 0.7270 0.7159 0.7064 0.6970 0.6877
1644.170857 0.6778 0.6678 0.6576 0.6476 0.6367
1639.191587 0.6257 0.6147 0.6039 0.5932 0.5831
1634.212316 0.5741 0.5654 0.5570 0.5496 0.5425
1629.233046 0.5326 0.5193 0.4997 0.4735 0.4458
1624.253775 0.4181 0.3944 0.3814 0.3726 0.3651
1619.274505 0.3589 0.3548 0.3530 0.3522 0.3517
1614.295234 0.3525 0.3561 0.3607 0.3659 0.3702
1609.315964 0.3745 0.3730 0.3708 0.3680 0.3562
1604.336693 0.3438 0.3368 0.3350 0.3350 0.3496
1599.357423 0.3847 0.4269 0.4690 0.5023 0.5218
1594.378152 0.5528 0.5755 0.5874 0.6005 0.6145
1589.398882 0.6314 0.6551 0.6749 0.6870 0.6972
1584.419611 0.7075 0.7178 0.7277 0.7371 0.7465
1579.440341 0.7560 0.7648 0.7730 0.7811 0.7888
1574.461070 0.7952 0.8007 0.8063 0.8117 0.8168
1569.481800 0.8218 0.8260 0.8289 0.8313 0.8337
1564.502529 0.8361 0.8385 0.8408 0.8429 0.8450
1559.523259 0.8471 0.8493 0.8514 0.8533 0.8551
1554.543989 0.8567 0.8583 0.8601 0.8617 0.8630
1549.564718 0.8641 0.8650 0.8658 0.8666 0.8675
1544.585448 0.8684 0.8693 0.8701 0.8708 0.8711
1539.606177 0.8714 0.8717 0.8720 0.8724 0.8726
1534.626907 0.8729 0.8731 0.8733 0.8735 0.8738
1529.647636 0.8739 0.8740 0.8740 0.8737 0.8731
1524.668366 0.8725 0.8717 0.8706 0.8696 0.8686
1519.689095 0.8672 0.8652 0.8631 0.8610 0.8589
1514.709825 0.8567 0.8542 0.8506 0.8454 0.8390
1509.730554 0.8313 0.8206 0.7951 0.7200 0.5903
1504.751284 0.5721 0.5583 0.5174 0.4185 0.3185
1499.772013 0.2184 0.1184 0.0377 0.0279 0.0277
1494.792743 0.0347 0.0723 0.1264 0.1806 0.2348
1489.813472 0.2888 0.3429 0.3952 0.4335 0.4489
1484.834202 0.4659 0.4848 0.5148 0.5390 0.5505
1479.854931 0.5621 0.5738 0.5863 0.5996 0.6144
1474.875661 0.6338 0.6535 0.6743 0.6935 0.7021
1469.896390 0.7109 0.7198 0.7304 0.7412 0.7502
1464.917120 0.7565 0.7619 0.7664 0.7699 0.7722
1459.937850 0.7743 0.7761 0.7778 0.7784 0.7788
1454.958579 0.7793 0.7799 0.7804 0.7819 0.7847
1449.979309 0.7884 0.7926 0.7968 0.8007 0.8037
1445.000038 0.8054 0.8058 0.8065 0.8080 0.8099
1440.020768 0.8118 0.8140 0.8171 0.8228 0.8290
1435.041497 0.8359 0.8415 0.8441 0.8463 0.8479
1430.062227 0.8494 0.8510 0.8524 0.8541 0.8555
1425.082956 0.8567 0.8579 0.8600 0.8627 0.8659
1420.103686 0.8683 0.8704 0.8703 0.8700 0.8696
1415.124415 0.8689 0.8682 0.8648 0.8600 0.8549
1410.145145 0.8498 0.8455 0.8368 0.8357 0.8357
1405.165874 0.8357 0.8361 0.8366 0.8370 0.8374
1400.186604 0.8386 0.8408 0.8432 0.8463 0.8503
1395.207333 0.8544 0.8591 0.8642 0.8670 0.8691
1390.228063 0.8710 0.8730 0.8742 0.8749 0.8754
1385.248792 0.8760 0.8763 0.8764 0.8764 0.8765
1380.269522 0.8765 0.8765 0.8765 0.8766 0.8766
1375.290252 0.8766 0.8766 0.8766 0.8765 0.8764
1370.310981 0.8764 0.8763 0.8762 0.8761 0.8761
1365.331711 0.8760 0.8759 0.8758 0.8757 0.8756
1360.352440 0.8755 0.8754 0.8753 0.8752 0.8751
1355.373170 0.8750 0.8749 0.8748 0.8748 0.8747
1350.393899 0.8747 0.8747 0.8746 0.8746 0.8745
1345.414629 0.8745 0.8745 0.8748 0.8753 0.8757
1340.435358 0.8762 0.8766 0.8771 0.8776 0.8781
1335.456088 0.8786 0.8792 0.8800 0.8810 0.8819
1330.476817 0.8829 0.8838 0.8847 0.8857 0.8866
1325.497547 0.8876 0.8882 0.8885 0.8889 0.8892
1320.518276 0.8894 0.8894 0.8893 0.8892 0.8890
1315.539006 0.8887 0.8883 0.8878 0.8873 0.8869
1310.559735 0.8865 0.8861 0.8856 0.8851 0.8847
1305.580465 0.8842 0.8835 0.8826 0.8818 0.8810
1300.601194 0.8798 0.8778 0.8756 0.8727 0.8685
1295.621924 0.8633 0.8581 0.8527 0.8473 0.8409
1290.642653 0.8325 0.8240 0.8167 0.8103 0.8037
1285.663383 0.7968 0.7890 0.7792 0.7453 0.6849
1280.684113 0.6711 0.6571 0.6421 0.6248 0.6019
1275.704842 0.5734 0.5380 0.5073 0.4699 0.4325
1270.725572 0.3951 0.3576 0.3202 0.2827 0.2481
1265.746301 0.2251 0.2145 0.2090 0.2050 0.2022
1260.767031 0.2003 0.2008 0.2090 0.2339 0.2724
1255.787760 0.3108 0.3492 0.3877 0.4261 0.4646
1250.808490 0.5030 0.5414 0.5791 0.6093 0.6174
1245.829219 0.6265 0.6397 0.6536 0.6715 0.6900
1240.849949 0.7003 0.7076 0.7151 0.7225 0.7297
1235.870678 0.7364 0.7430 0.7497 0.7561 0.7618
1230.891408 0.7674 0.7721 0.7761 0.7801 0.7837
1225.912137 0.7874 0.7913 0.7952 0.7993 0.8034
1220.932867 0.8073 0.8104 0.8127 0.8152 0.8162
1215.953596 0.8168 0.8175 0.8182 0.8188 0.8194
1210.974326 0.8203 0.8211 0.8220 0.8228 0.8237
1205.995055 0.8245 0.8261 0.8281 0.8302 0.8325
1201.015785 0.8354 0.8382 0.8411 0.8436 0.8457
1196.036514 0.8466 0.8474 0.8481 0.8482 0.8484
1191.057244 0.8486 0.8487 0.8489 0.8490 0.8490
1186.077974 0.8490 0.8489 0.8488 0.8487 0.8484
1181.098703 0.8479 0.8474 0.8465 0.8452 0.8389
1176.119433 0.7700 0.6931 0.6161 0.5392 0.4442
1171.140162 0.4314 0.4320 0.4622 0.5307 0.6050
1166.160892 0.6791 0.7415 0.7595 0.7691 0.7801
1161.181621 0.7917 0.8044 0.8126 0.8192 0.8243
1156.202351 0.8280 0.8308 0.8328 0.8345 0.8353
1151.223080 0.8359 0.8362 0.8363 0.8364 0.8365
1146.243810 0.8365 0.8365 0.8359 0.8345 0.8309
1141.264539 0.8257 0.8181 0.8095 0.8011 0.7940
1136.285269 0.7884 0.7848 0.7817 0.7788 0.7765
1131.305998 0.7758 0.7751 0.7760 0.7768 0.7772
1126.326728 0.7775 0.7779 0.7806 0.7846 0.7887
1121.347457 0.7927 0.7966 0.8003 0.8037 0.8063
1116.368187 0.8084 0.8104 0.8123 0.8137 0.8146
1111.388916 0.8155 0.8160 0.8163 0.8166 0.8168
1106.409646 0.8171 0.8174 0.8178 0.8181 0.8181
1101.430375 0.8181 0.8174 0.8162 0.8151 0.8139
1096.451105 0.8127 0.8112 0.8094 0.8074 0.8050
1091.471835 0.8029 0.8018 0.8013 0.8011 0.7984
1086.492564 0.7996 0.8046 0.8074 0.8099 0.8116
1081.513294 0.8133 0.8149 0.8164 0.8178 0.8193
1076.534023 0.8207 0.8220 0.8234 0.8248 0.8261
1071.554753 0.8274 0.8288 0.8301 0.8314 0.8327
1066.575482 0.8340 0.8352 0.8366 0.8379 0.8392
1061.596212 0.8405 0.8416 0.8427 0.8437 0.8447
1056.616941 0.8458 0.8468 0.8479 0.8489 0.8500
1051.637671 0.8510 0.8521 0.8530 0.8538 0.8545
1046.658400 0.8552 0.8560 0.8567 0.8573 0.8581
1041.679130 0.8589 0.8596 0.8601 0.8605 0.8609
1036.699859 0.8613 0.8617 0.8621 0.8625 0.8629
1031.720589 0.8633 0.8637 0.8639 0.8644 0.8652
1026.741318 0.8644 0.8645 0.8646 0.8646 0.8645
1021.762048 0.8641 0.8631 0.8618 0.8602 0.8573
1016.782777 0.8543 0.8521 0.8531 0.8532 0.8540
1011.803507 0.8548 0.8558 0.8569 0.8580 0.8590
1006.824236 0.8601 0.8610 0.8618 0.8626 0.8634
1001.844966 0.8641 0.8644 0.8649 0.8651 0.8569
996.865696 0.8498 0.8403 0.8375 0.8379 0.8394
991.886425 0.8426 0.8468 0.8512 0.8557 0.8602
986.907155 0.8650 0.8702 0.8753 0.8785 0.8808
981.927884 0.8828 0.8830 0.8830 0.8827 0.8821
976.948614 0.8815 0.8809 0.8807 0.8807 0.8807
971.969343 0.8808 0.8809 0.8809 0.8805 0.8799
966.990073 0.8792 0.8786 0.8778 0.8770 0.8756
962.010802 0.8741 0.8727 0.8713 0.8698 0.8685
957.031532 0.8673 0.8662 0.8650 0.8639 0.8628
952.052261 0.8614 0.8601 0.8589 0.8576 0.8564
947.072991 0.8551 0.8538 0.8526 0.8531 0.8537
942.093720 0.8546 0.8566 0.8587 0.8606 0.8609
937.114450 0.8611 0.8613 0.8614 0.8600 0.8572
932.135179 0.8549 0.8530 0.8519 0.8506 0.8490
927.155909 0.8488 0.8488 0.8496 0.8519 0.8536
922.176638 0.8546 0.8554 0.8562 0.8569 0.8571
917.197368 0.8571 0.8569 0.8567 0.8565 0.8563
912.218098 0.8560 0.8555 0.8544 0.8534 0.8523
907.238827 0.8512 0.8501 0.8490 0.8477 0.8464
902.259557 0.8450 0.8435 0.8421 0.8407 0.8393
897.280286 0.8378 0.8364 0.8350 0.8333 0.8314
892.301016 0.8295 0.8276 0.8257 0.8238 0.8220
887.321745 0.8201 0.8184 0.8167 0.8151 0.8135
882.342475 0.8114 0.8089 0.8063 0.8037 0.8013
877.363204 0.7987 0.7963 0.7931 0.7893 0.7853
872.383934 0.7812 0.7770 0.7723 0.7673 0.7623
867.404663 0.7572 0.7517 0.7455 0.7390 0.7331
862.425393 0.7282 0.7236 0.7191 0.7145 0.7086
857.446122 0.7015 0.6944 0.6882 0.6827 0.6771
852.466852 0.6708 0.6636 0.6510 0.6317 0.6127
847.487581 0.5922 0.5790 0.5777 0.5810 0.5877
842.508311 0.5943 0.6009 0.6075 0.6142 0.6191
837.529040 0.6223 0.6150 0.5926 0.5673 0.5419
832.549770 0.5166 0.4912 0.4659 0.4405 0.4152
827.570499 0.3899 0.3646 0.3392 0.3139 0.2885
822.591229 0.2632 0.2379 0.2125 0.1882 0.1744
817.611959 0.1743 0.1741 0.1812 0.2077 0.2470
812.632688 0.2863 0.3256 0.3649 0.4042 0.4435
807.653418 0.4828 0.5221 0.5614 0.6007 0.6375
802.674147 0.6610 0.6679 0.6744 0.6803 0.6861
797.694877 0.6922 0.6972 0.6991 0.6956 0.6930
792.715606 0.6902 0.6869 0.6828 0.6788 0.6745
787.736336 0.6695 0.6641 0.6587 0.6532 0.6479
782.757065 0.6426 0.6375 0.6323 0.6270 0.6218
777.777795 0.6168 0.6124 0.6081 0.6037 0.5993
772.798524 0.5950 0.5904 0.5846 0.5778 0.5712
767.819254 0.5645 0.5581 0.5534 0.5487 0.5441
762.839983 0.5395 0.5349 0.5301 0.5253 0.5206
757.860713 0.5165 0.5127 0.5090 0.5063 0.5047
752.881442 0.5032 0.5021 0.5018 0.5012 0.4964
747.902172 0.5029 0.5039 0.5055 0.5075 0.5095
742.922901 0.5126 0.5162 0.5206 0.5264 0.5320
737.943631 0.5370 0.5428 0.5526 0.5643 0.5760
732.964360 0.5877 0.5992 0.6016 0.6028 0.5980
727.985090 0.5838 0.5695 0.5552 0.5410 0.5312
723.005820 0.5299 0.5271 0.5288 0.5321 0.5372
718.026549 0.5423 0.5472 0.5523 0.5574 0.5625
713.047279 0.5655 0.5700 0.5668 0.5654 0.5516
708.068008 0.5347 0.5174 0.5005 0.4858 0.4802
703.088738 0.4774 0.4738 0.4756 0.4783 0.4812
698.109467 0.4855 0.4902 0.4944 0.4986 0.5029
693.130197 0.5071 0.5114 0.5156 0.5201 0.5244
688.150926 0.5286 0.5327 0.5370 0.5417 0.5465
683.171656 0.5528 0.5628 0.5687 0.5727 0.5764
678.192385 0.5809 0.5857 0.5900 0.5944 0.5991
673.213115 0.6030 0.6061 0.6082 0.6090 0.6079
668.233844 0.6062 0.6037 0.6007 0.5982 0.5964
663.254574 0.5965 0.5999 0.6037 0.6073 0.6108
658.275303 0.6143 0.6180 0.6220 0.6264 0.6311
653.296033 0.6359 0.6407 0.6435 0.6449 0.6441
648.316762 0.6389 0.6335 0.6304 0.6300 0.6323
643.337492 0.6355 0.6388 0.6422 0.6455 0.6489
638.358221 0.6527 0.6567 0.6607 0.6642 0.6643
633.378951 0.6614 0.6585 0.6575 0.6584 0.6607
628.399681 0.6635 0.6663 0.6692 0.6720 0.6749
623.420410 0.6777 0.6806 0.6835 0.6863 0.6891
618.441140 0.6920 0.6949 0.6976 0.7001 0.7021
613.461869 0.7028 0.7028 0.7029 0.7031 0.7036
608.482599 0.7049 0.7069 0.7090 0.7108 0.7124
603.503328 0.7140 0.7156 0.7172 0.7188 0.7203
598.524058 0.7219 0.7235 0.7250 0.7265 0.7280
593.544787 0.7294 0.7307 0.7321 0.7334 0.7348
588.565517 0.7362 0.7375 0.7390 0.7403 0.7417
583.586246 0.7431 0.7445 0.7459 0.7473 0.7487
578.606976 0.7500 0.7514 0.7529 0.7544 0.7559
573.627705 0.7573 0.7588 0.7601 0.7610 0.7619
568.648435 0.7629 0.7638 0.7647 0.7656 0.7663
563.669164 0.7671 0.7679 0.7688 0.7695 0.7702
558.689894 0.7708 0.7710 0.7710 0.7710 0.7705
553.710623 0.7693 0.7642 0.7530 0.7419 0.7307
548.731353 0.7199 0.7129 0.7120 0.7120 0.7196
543.752082 0.7306 0.7418 0.7520 0.7589 0.7628
538.772812 0.7668 0.7702 0.7730 0.7756 0.7779
533.793542 0.7792 0.7799 0.7811 0.7748 0.7496
528.814271 0.6690 0.5884 0.5078 0.4391 0.4308
523.835001 0.4436 0.4624 0.4813 0.5001 0.5190
518.855730 0.5367 0.5462 0.5466 0.5478 0.5442
513.876460 0.5231 0.4979 0.4726 0.4473 0.4235
508.897189 0.4133 0.4121 0.4202 0.4391 0.4581
503.917919 0.4771 0.4960 0.5150 0.5339 0.5528
498.938648 0.5723 0.5994 0.6188 0.6317 0.6414
493.959378 0.6511 0.6595 0.6656 0.6717 0.6776
488.980107 0.6832 0.6886 0.6940 0.6994 0.7047
484.000837 0.7099 0.7151 0.7201 0.7242 0.7283
479.021566 0.7324 0.7356 0.7386 0.7417 0.7434
474.042296 0.7450 0.7467 0.7484 0.7498 0.7510
469.063025 0.7523 0.7536 0.7546 0.7555 0.7564
464.083755 0.7571 0.7575 0.7580 0.7586 0.7617
459.104484 0.7595 0.7587 0.7563 0.7526 0.7511
454.125214 0.7500 0.7489 0.7489 0.7489 0.7488
449.145943 0.7508 0.7537 0.7570 0.7604 0.7638
444.166673 0.7664 0.7685 0.7705 0.7724 0.7745
439.187403 0.7764 0.7782 0.7798 0.7815 0.7829
434.208132 0.7837 0.7843 0.7849 0.7855 0.7860
429.228862 0.7861 0.7861 0.7861 0.7861 0.7860
424.249591 0.7859 0.7857 0.7854 0.7852 0.7850
419.270321 0.7845 0.7840 0.7833 0.7827 0.7810
414.291050 0.7788 0.7765 0.7722 0.7666 0.7625
409.311780 0.7594 0.7564 0.7535 0.7505 0.7480
404.332509 0.7458 0.7442 0.7417 0.7438 0.7462
399.353239 0.7471 0.7490 0.7525 0.7570 0.7632
394.373968 0.7702 0.7776 0.7833 0.7863 0.7883
389.394698 0.7891 0.7892 0.7891 0.7887 0.7879
384.415427 0.7871 0.7859 0.7843 0.7826 0.7810
379.436157 0.7799 0.7794 0.7792 0.7789 0.7786
374.456886 0.7783 0.7781 0.7779 0.7776 0.7775
369.477616 0.7774 0.7773 0.7771 0.7771 0.7770
364.498345 0.7767 0.7762 0.7755 0.7748 0.7738
359.519075 0.7731 0.7726 0.7719 0.7708 0.7692
354.539805 0.7675 0.7657 0.7639 0.7612 0.7577
349.560534 0.7542 0.7511 0.7487 0.7467 0.7447
344.581264 0.7428 0.7414 0.7403 0.7393 0.7382
339.601993 0.7373 0.7365 0.7358 0.7355 0.7345
334.622723 0.7339 0.7364 0.7373 0.7385 0.7397
329.643452 0.7408 0.7419 0.7431 0.7443 0.7453
324.664182 0.7459 0.7464 0.7469 0.7474 0.7479
319.684911 0.7484 0.7487 0.7487 0.7486 0.7484
314.705641 0.7483 0.7481 0.7479 0.7477 0.7475
309.726370 0.7474 0.7472 0.7471 0.7470 0.7469
304.747100 0.7468 0.7467 0.7465 0.7465 0.7464
299.767829 0.7462 0.7461 0.7459 0.7451 0.7440
294.788559 0.7428 0.7417 0.7406 0.7395 0.7382
289.809288 0.7364 0.7343 0.7321 0.7301 0.7276
284.830018 0.7231 0.7186 0.7140 0.7094 0.7045
279.850747 0.6975 0.6902 0.6844 0.6804 0.6779
274.871477 0.6755 0.6738 0.6722 0.6703 0.6679
269.892206 0.6656 0.6632 0.6600 0.6534 0.6467
264.912936 0.6387 0.6306 0.6236 0.6174 0.6113
259.933666 0.6053 0.6000 0.5945 0.5891 0.5838
254.954395 0.5789 0.5742 0.5695 0.5649 0.5609
249.975125 0.5568 0.5526 0.5367 0.5284 0.5290
244.995854 0.5288
##END=
