##TITLE=NAPHTHALENE, 2-METHOXY-
##JCAMP-DX=4.24
##DATA TYPE=INFRARED SPECTRUM
##CLASS=COBLENTZ III
##ORIGIN=DOW CHEMICAL COMPANY
##OWNER=COBLENTZ SOC.
Collection (C) 2018 copyright by the U.S. Secretary of Commerce
on behalf of the United States of America. All rights reserved.
##DATE=1964/03/25
##NAMES=methyl 2-naphthyl ether
2-methoxynaphthalene
##CAS REGISTRY NO=93-04-9
##MOLFORM=C11 H10 O
##MP=73-74.5 C
##SOURCE REFERENCE=COBLENTZ NO. 06482
##$NIST SOURCE=COBLENTZ
##$NIST IMAGE=cob6482
##SPECTROMETER/DATA SYSTEM=DOW KBr FOREPRISM-GRATING
##INSTRUMENT PARAMETERS=BLAZED AT 3.5, 12.0, 20.0 MICRON AND CHANGED AT 5.0, 7.5, 14.9 MICRON
##STATE=SOLUTION (10% CCl4 FOR 3800-1340, 10% CS2 FOR 1340-450 CM^-^1)
##PATH LENGTH=0.011 CM, 0.011 CM
$$SPECTRAL CONTAMINATION DUE TO CCl4 AROUND 1550 CM^-^1
##SAMPLING PROCEDURE=TRANSMISSION
##RESOLUTION=2
##DATA PROCESSING=DIGITIZED BY COBLENTZ SOCIETY (BATCH I) FROM HARD COPY
##XUNITS=1/CM
##YUNITS=TRANSMITTANCE
##XLABEL=Wavenumbers (cm-1)
##YLABEL=% Transmission
##XFACTOR=1
##YFACTOR=1
##DELTAX=1
##FIRSTX=450
##LASTX=3756
##FIRSTY=0.7437
##MAXX=3756
##MINX=450
##MAXY=0.9046
##MINY=0.0018
##NPOINTS=3307
##XYDATA=(X++(Y..Y))
450.000000 0.7437 0.7431 0.7421 0.7405 0.7389
455.000000 0.7368 0.7347 0.7325 0.7300 0.7275
460.000000 0.7199 0.7076 0.7004 0.6930 0.6815
465.000000 0.6641 0.6439 0.6180 0.5524 0.4700
470.000000 0.3876 0.3052 0.2229 0.1405 0.0889
475.000000 0.0872 0.0880 0.0882 0.0884 0.2306
480.000000 0.4598 0.6661 0.7333 0.7785 0.7894
485.000000 0.7987 0.8048 0.8110 0.8158 0.8189
490.000000 0.8220 0.8224 0.8224 0.8224 0.8223
495.000000 0.8220 0.8213 0.8206 0.8199 0.8187
500.000000 0.8175 0.8151 0.8085 0.7895 0.7782
505.000000 0.7669 0.7555 0.7431 0.7353 0.7354
510.000000 0.7335 0.7431 0.7598 0.7757 0.7938
515.000000 0.8065 0.8146 0.8201 0.8244 0.8286
520.000000 0.8325 0.8361 0.8396 0.8416 0.8437
525.000000 0.8457 0.8473 0.8475 0.8478 0.8481
530.000000 0.8483 0.8478 0.8473 0.8466 0.8460
535.000000 0.8459 0.8474 0.8488 0.8501 0.8513
540.000000 0.8525 0.8530 0.8528 0.8528 0.8528
545.000000 0.8531 0.8536 0.8540 0.8544 0.8550
550.000000 0.8558 0.8566 0.8573 0.8600 0.8628
555.000000 0.8653 0.8678 0.8705 0.8731 0.8758
560.000000 0.8786 0.8813 0.8833 0.8847 0.8861
565.000000 0.8874 0.8888 0.8902 0.8913 0.8923
570.000000 0.8933 0.8942 0.8952 0.8961 0.8970
575.000000 0.8977 0.8984 0.8991 0.8998 0.9005
580.000000 0.9012 0.9016 0.9018 0.9021 0.9025
585.000000 0.9028 0.9032 0.9035 0.9037 0.9039
590.000000 0.9041 0.9043 0.9045 0.9046 0.9045
595.000000 0.9045 0.9045 0.9045 0.9045 0.9045
600.000000 0.9044 0.9039 0.9028 0.9018 0.9009
605.000000 0.8999 0.8986 0.8959 0.8931 0.8903
610.000000 0.8875 0.8825 0.8770 0.8713 0.8625
615.000000 0.8486 0.8332 0.7615 0.7428 0.7171
620.000000 0.5610 0.4049 0.2711 0.3539 0.4855
625.000000 0.6172 0.7488 0.8363 0.8589 0.8671
630.000000 0.8671 0.8671 0.8656 0.8634 0.8600
635.000000 0.8568 0.8513 0.8428 0.8257 0.8137
640.000000 0.8124 0.8158 0.8136 0.8165 0.8198
645.000000 0.8223 0.8243 0.8246 0.8271 0.8233
650.000000 0.8217 0.8128 0.8075 0.8069 0.8067
655.000000 0.8075 0.8142 0.8228 0.8321 0.8409
660.000000 0.8467 0.8525 0.8582 0.8634 0.8681
665.000000 0.8712 0.8744 0.8771 0.8787 0.8802
670.000000 0.8818 0.8833 0.8834 0.8831 0.8821
675.000000 0.8821 0.8823 0.8818 0.8814 0.8809
680.000000 0.8796 0.8783 0.8768 0.8741 0.8703
685.000000 0.8663 0.8613 0.8543 0.8471 0.8377
690.000000 0.8262 0.8092 0.7957 0.7844 0.7730
695.000000 0.6178 0.4762 0.3347 0.2361 0.7653
700.000000 0.7821 0.7967 0.8105 0.8262 0.8358
705.000000 0.8439 0.8482 0.8518 0.8555 0.8575
710.000000 0.8596 0.8607 0.8609 0.8611 0.8606
715.000000 0.8609 0.8603 0.8598 0.8590 0.8565
720.000000 0.8534 0.8503 0.8468 0.8433 0.8397
725.000000 0.8356 0.8309 0.8260 0.7867 0.7718
730.000000 0.7606 0.7471 0.7318 0.7171 0.7030
735.000000 0.6871 0.6695 0.6195 0.4032 0.1952
740.000000 0.0090 0.0086 0.0109 0.0350 0.1635
745.000000 0.2922 0.4208 0.5494 0.6403 0.6540
750.000000 0.6686 0.6933 0.7065 0.7149 0.7176
755.000000 0.7204 0.7222 0.7676 0.7889 0.8003
760.000000 0.8115 0.8213 0.8273 0.8299 0.8325
765.000000 0.8336 0.8339 0.8342 0.8352 0.8365
770.000000 0.8396 0.8511 0.8535 0.8541 0.8540
775.000000 0.8532 0.8532 0.8518 0.8505 0.8489
780.000000 0.8473 0.8457 0.8441 0.8421 0.8404
785.000000 0.8385 0.8361 0.8324 0.8278 0.8218
790.000000 0.8158 0.8099 0.8021 0.7937 0.7845
795.000000 0.7668 0.7506 0.7035 0.6370 0.5705
800.000000 0.5040 0.4375 0.3709 0.3045 0.2380
805.000000 0.1715 0.1050 0.0922 0.0918 0.0937
810.000000 0.1752 0.3079 0.4406 0.5733 0.7060
815.000000 0.7242 0.7239 0.7228 0.7157 0.7032
820.000000 0.6897 0.6700 0.6353 0.6110 0.5855
825.000000 0.5498 0.4975 0.4808 0.3791 0.2193
830.000000 0.0595 0.0116 0.0073 0.0045 0.0018
835.000000 0.0021 0.0048 0.0861 0.1861 0.2861
840.000000 0.3604 0.3623 0.3646 0.3682 0.3755
845.000000 0.4029 0.4542 0.5055 0.5568 0.6080
850.000000 0.6506 0.6576 0.6591 0.6600 0.6600
855.000000 0.6582 0.6582 0.6582 0.6569 0.6536
860.000000 0.5568 0.5583 0.5574 0.5994 0.6367
865.000000 0.6386 0.6292 0.6165 0.6039 0.5901
870.000000 0.5912 0.6848 0.7271 0.7294 0.7312
875.000000 0.7326 0.7336 0.7345 0.7358 0.7406
880.000000 0.7588 0.7840 0.7942 0.7967 0.7980
885.000000 0.7994 0.7988 0.7985 0.7968 0.7939
890.000000 0.7868 0.7794 0.7592 0.7032 0.6007
895.000000 0.4941 0.3876 0.3321 0.3307 0.8148
900.000000 0.8281 0.8371 0.8455 0.8528 0.8560
905.000000 0.8593 0.8618 0.8643 0.8663 0.8671
910.000000 0.8680 0.8688 0.8695 0.8692 0.8681
915.000000 0.8687 0.8685 0.8681 0.8677 0.8673
920.000000 0.8668 0.8659 0.8650 0.8639 0.8624
925.000000 0.8609 0.8587 0.8558 0.8524 0.8481
930.000000 0.8430 0.8371 0.8293 0.8200 0.8098
935.000000 0.7657 0.6796 0.6160 0.6156 0.6244
940.000000 0.6138 0.7275 0.7325 0.7355 0.7133
945.000000 0.6658 0.6182 0.5707 0.5231 0.4756
950.000000 0.4281 0.4009 0.3984 0.4798 0.5510
955.000000 0.6225 0.6938 0.7794 0.8055 0.8208
960.000000 0.8291 0.8349 0.8394 0.8421 0.8450
965.000000 0.8471 0.8489 0.8506 0.8524 0.8568
970.000000 0.8609 0.8640 0.8668 0.8688 0.8707
975.000000 0.8727 0.8739 0.8745 0.8752 0.8758
980.000000 0.8765 0.8765 0.8763 0.8733 0.8760
985.000000 0.8758 0.8753 0.8749 0.8745 0.8740
990.000000 0.8736 0.8731 0.8715 0.8700 0.8684
995.000000 0.8657 0.8627 0.8590 0.8536 0.8482
1000.000000 0.8425 0.8367 0.8307 0.8245 0.8184
1005.000000 0.8115 0.8047 0.7962 0.7865 0.7718
1010.000000 0.7545 0.7381 0.7125 0.6624 0.5891
1015.000000 0.5158 0.4426 0.3693 0.2960 0.2945
1020.000000 0.4153 0.6704 0.6682 0.6162 0.5577
1025.000000 0.4990 0.4403 0.3816 0.3229 0.2642
1030.000000 0.2056 0.1469 0.0882 0.0366 0.0366
1035.000000 0.0365 0.0510 0.1183 0.1854 0.2527
1040.000000 0.3199 0.3871 0.4544 0.5595 0.5834
1045.000000 0.6009 0.6174 0.6386 0.7571 0.7668
1050.000000 0.7764 0.7851 0.7930 0.8008 0.8103
1055.000000 0.8215 0.8280 0.8316 0.8352 0.8377
1060.000000 0.8402 0.8427 0.8440 0.8453 0.8466
1065.000000 0.8478 0.8489 0.8498 0.8508 0.8517
1070.000000 0.8524 0.8531 0.8538 0.8545 0.8552
1075.000000 0.8559 0.8566 0.8574 0.8582 0.8593
1080.000000 0.8598 0.8603 0.8606 0.8610 0.8612
1085.000000 0.8607 0.8602 0.8594 0.8581 0.8568
1090.000000 0.8556 0.8543 0.8530 0.8518 0.8505
1095.000000 0.8492 0.8478 0.8464 0.8449 0.8434
1100.000000 0.8418 0.8392 0.8362 0.8331 0.8271
1105.000000 0.8211 0.8144 0.8068 0.7965 0.7854
1110.000000 0.7743 0.7626 0.7408 0.6150 0.4891
1115.000000 0.3632 0.2373 0.1114 0.0966 0.1059
1120.000000 0.3382 0.5706 0.6105 0.5816 0.5245
1125.000000 0.5245 0.5212 0.6134 0.7157 0.7343
1130.000000 0.7380 0.7347 0.7068 0.6765 0.6465
1135.000000 0.6164 0.5862 0.5560 0.5388 0.5392
1140.000000 0.5497 0.5832 0.6166 0.6471 0.6471
1145.000000 0.6475 0.6487 0.6510 0.6575 0.6575
1150.000000 0.6575 0.6558 0.6501 0.6343 0.6189
1155.000000 0.6015 0.5786 0.5519 0.5278 0.4294
1160.000000 0.3443 0.3280 0.3249 0.3234 0.3218
1165.000000 0.3202 0.3115 0.2608 0.1913 0.1218
1170.000000 0.0523 0.0066 0.0094 0.0617 0.1281
1175.000000 0.1945 0.2610 0.3275 0.3939 0.4604
1180.000000 0.5268 0.5933 0.6597 0.7212 0.7234
1185.000000 0.7068 0.6428 0.5789 0.5149 0.4509
1190.000000 0.3868 0.3230 0.2583 0.2604 0.2599
1195.000000 0.3443 0.4375 0.5307 0.6239 0.6608
1200.000000 0.6622 0.6159 0.5807 0.5455 0.5103
1205.000000 0.4751 0.4399 0.4210 0.4098 0.3950
1210.000000 0.3630 0.2604 0.1576 0.0692 0.0349
1215.000000 0.0246 0.0143 0.0080 0.0047 0.0047
1220.000000 0.0257 0.1082 0.1907 0.2732 0.3558
1225.000000 0.4383 0.5046 0.5060 0.5073 0.5086
1230.000000 0.5774 0.6274 0.6345 0.6374 0.6406
1235.000000 0.6434 0.6458 0.6491 0.6528 0.6561
1240.000000 0.6597 0.6610 0.6493 0.6370 0.6276
1245.000000 0.6187 0.6094 0.5939 0.5678 0.5501
1250.000000 0.4739 0.3984 0.3230 0.2475 0.1426
1255.000000 0.0908 0.0390 0.0057 0.0052 0.0067
1260.000000 0.0113 0.0441 0.0769 0.0926 0.0939
1265.000000 0.0813 0.0690 0.0567 0.0445 0.0360
1270.000000 0.0358 0.0367 0.0924 0.1779 0.2634
1275.000000 0.3490 0.4345 0.5201 0.6182 0.6558
1280.000000 0.6735 0.6886 0.7062 0.7349 0.7543
1285.000000 0.7710 0.7838 0.7919 0.8001 0.8071
1290.000000 0.8124 0.8178 0.8233 0.8289 0.8345
1295.000000 0.8382 0.8420 0.8449 0.8477 0.8490
1300.000000 0.8498 0.8506 0.8506 0.8504 0.8503
1305.000000 0.8501 0.8506 0.8515 0.8524 0.8532
1310.000000 0.8534 0.8535 0.8535 0.8521 0.8505
1315.000000 0.8456 0.8374 0.8292 0.8211 0.8195
1320.000000 0.8189 0.8176 0.8353 0.8448 0.8483
1325.000000 0.8480 0.8457 0.8451 0.8393 0.8306
1330.000000 0.8228 0.8145 0.8007 0.7901 0.7798
1335.000000 0.7693 0.7589 0.7455 0.7301 0.7051
1340.000000 0.6971 0.6890 0.6706 0.6614 0.6525
1345.000000 0.6518 0.6515 0.6560 0.6622 0.6650
1350.000000 0.6651 0.6651 0.6615 0.6528 0.6403
1355.000000 0.6217 0.5226 0.4215 0.3203 0.3025
1360.000000 0.3304 0.4678 0.6051 0.6210 0.6204
1365.000000 0.6226 0.5649 0.5371 0.5093 0.4918
1370.000000 0.4908 0.7358 0.7419 0.7446 0.7457
1375.000000 0.7431 0.7405 0.7349 0.7292 0.7203
1380.000000 0.7075 0.6462 0.6081 0.5553 0.5025
1385.000000 0.4497 0.3752 0.3382 0.2172 0.1289
1390.000000 0.1289 0.1289 0.1289 0.1927 0.2655
1395.000000 0.3066 0.2885 0.2642 0.2397 0.2328
1400.000000 0.2339 0.3499 0.4181 0.4583 0.5025
1405.000000 0.5468 0.5910 0.6352 0.6794 0.7164
1410.000000 0.7393 0.7528 0.7598 0.7636 0.7665
1415.000000 0.7687 0.7706 0.7725 0.7749 0.7774
1420.000000 0.7780 0.7794 0.7767 0.7665 0.7597
1425.000000 0.7517 0.7444 0.7375 0.7254 0.7115
1430.000000 0.6978 0.6865 0.6749 0.6608 0.6455
1435.000000 0.6279 0.4604 0.3742 0.2881 0.2020
1440.000000 0.1719 0.1719 0.1690 0.2050 0.2511
1445.000000 0.2972 0.3432 0.3894 0.4355 0.4447
1450.000000 0.4227 0.3909 0.3591 0.3273 0.3085
1455.000000 0.3141 0.3073 0.4422 0.4633 0.4633
1460.000000 0.4633 0.4190 0.3604 0.3018 0.2713
1465.000000 0.2708 0.2703 0.2699 0.2694 0.2185
1470.000000 0.1471 0.0756 0.0450 0.0451 0.0462
1475.000000 0.0543 0.0605 0.0689 0.0788 0.0880
1480.000000 0.0987 0.2158 0.3100 0.4042 0.4983
1485.000000 0.5935 0.6116 0.6253 0.6349 0.6449
1490.000000 0.6435 0.6433 0.6422 0.6407 0.6377
1495.000000 0.6284 0.6210 0.6141 0.6075 0.6001
1500.000000 0.5904 0.5497 0.4843 0.4190 0.3537
1505.000000 0.2883 0.2128 0.1952 0.1773 0.1636
1510.000000 0.1382 0.0852 0.0412 0.0404 0.0399
1515.000000 0.0379 0.1206 0.2024 0.2842 0.3659
1520.000000 0.4478 0.4940 0.5145 0.5317 0.5468
1525.000000 0.5523 0.5521 0.5527 0.5493 0.5415
1530.000000 0.5337 0.5259 0.5181 0.5103 0.5025
1535.000000 0.4948 0.4870 0.4781 0.4715 0.4646
1540.000000 0.4545 0.4319 0.4218 0.4125 0.4062
1545.000000 0.4036 0.4026 0.4024 0.4021 0.4020
1550.000000 0.4018 0.4018 0.4018 0.4018 0.4052
1555.000000 0.4107 0.4171 0.4242 0.4329 0.4438
1560.000000 0.4557 0.4662 0.4739 0.4795 0.4837
1565.000000 0.4862 0.4870 0.4868 0.4849 0.4684
1570.000000 0.4846 0.4173 0.3918 0.3868 0.3854
1575.000000 0.3872 0.3930 0.3942 0.3936 0.3924
1580.000000 0.3896 0.3845 0.3743 0.3618 0.3530
1585.000000 0.3442 0.3393 0.3388 0.3386 0.3158
1590.000000 0.2962 0.2757 0.2618 0.2494 0.2382
1595.000000 0.2277 0.2141 0.1967 0.1834 0.1539
1600.000000 0.1229 0.0919 0.0609 0.0447 0.0454
1605.000000 0.0439 0.0825 0.1510 0.2195 0.2880
1610.000000 0.3564 0.4250 0.4935 0.5620 0.6125
1615.000000 0.6164 0.6174 0.6210 0.6149 0.5917
1620.000000 0.5372 0.4826 0.4281 0.3734 0.3190
1625.000000 0.2644 0.2099 0.1553 0.1008 0.0463
1630.000000 0.0138 0.0059 0.0039 0.0020 0.0253
1635.000000 0.0822 0.1392 0.1964 0.2534 0.3104
1640.000000 0.3674 0.4245 0.4815 0.5157 0.5375
1645.000000 0.5548 0.5649 0.5750 0.5871 0.5992
1650.000000 0.6142 0.6327 0.6467 0.6817 0.7125
1655.000000 0.7197 0.7261 0.7318 0.7378 0.7451
1660.000000 0.7531 0.7617 0.7688 0.7690 0.7678
1665.000000 0.7651 0.7603 0.7550 0.7500 0.7436
1670.000000 0.7430 0.7430 0.7430 0.7474 0.7525
1675.000000 0.7578 0.7625 0.7644 0.7662 0.7682
1680.000000 0.7690 0.7698 0.7706 0.7715 0.7725
1685.000000 0.7733 0.7739 0.7751 0.7778 0.7841
1690.000000 0.7858 0.7858 0.7858 0.7854 0.7849
1695.000000 0.7831 0.7787 0.7738 0.7690 0.7675
1700.000000 0.7669 0.7669 0.7669 0.7746 0.7818
1705.000000 0.7875 0.7924 0.7971 0.8019 0.8048
1710.000000 0.8068 0.8086 0.8104 0.8122 0.8143
1715.000000 0.8162 0.8183 0.8198 0.8214 0.8225
1720.000000 0.8227 0.8227 0.8225 0.8216 0.8205
1725.000000 0.8195 0.8183 0.8168 0.8153 0.8139
1730.000000 0.8125 0.8135 0.8151 0.8169 0.8184
1735.000000 0.8191 0.8196 0.8201 0.8200 0.8200
1740.000000 0.8195 0.8191 0.8180 0.8169 0.8158
1745.000000 0.8143 0.8121 0.8100 0.8078 0.8067
1750.000000 0.8068 0.8068 0.8081 0.8108 0.8141
1755.000000 0.8178 0.8203 0.8214 0.8217 0.8217
1760.000000 0.8217 0.8217 0.8217 0.8212 0.8208
1765.000000 0.8204 0.8202 0.8215 0.8194 0.8188
1770.000000 0.8180 0.8171 0.8164 0.8150 0.8125
1775.000000 0.8101 0.8041 0.7971 0.7956 0.7958
1780.000000 0.7964 0.8008 0.8143 0.8207 0.8245
1785.000000 0.8258 0.8265 0.8268 0.8271 0.8275
1790.000000 0.8275 0.8274 0.8271 0.8267 0.8264
1795.000000 0.8258 0.8246 0.8234 0.8211 0.8181
1800.000000 0.8139 0.8047 0.7961 0.7908 0.7904
1805.000000 0.7912 0.7951 0.8005 0.8041 0.8064
1810.000000 0.8069 0.8069 0.8065 0.8045 0.7984
1815.000000 0.7912 0.7872 0.7848 0.7848 0.7849
1820.000000 0.7864 0.7903 0.7958 0.8015 0.8055
1825.000000 0.8074 0.8071 0.8071 0.8058 0.7994
1830.000000 0.7958 0.7956 0.7954 0.7984 0.8043
1835.000000 0.8087 0.8128 0.8161 0.8199 0.8253
1840.000000 0.8278 0.8303 0.8327 0.8344 0.8355
1845.000000 0.8366 0.8377 0.8377 0.8377 0.8374
1850.000000 0.8373 0.8371 0.8370 0.8368 0.8367
1855.000000 0.8361 0.8356 0.8350 0.8336 0.8320
1860.000000 0.8304 0.8288 0.8268 0.8247 0.8224
1865.000000 0.8188 0.8144 0.8104 0.8065 0.8028
1870.000000 0.8028 0.8028 0.8035 0.8092 0.8162
1875.000000 0.8198 0.8196 0.8181 0.8161 0.8142
1880.000000 0.8124 0.8105 0.8083 0.8064 0.8050
1885.000000 0.8035 0.8021 0.8007 0.7994 0.7975
1890.000000 0.7935 0.7881 0.7815 0.7738 0.7671
1895.000000 0.7654 0.7662 0.7676 0.7690 0.7718
1900.000000 0.7748 0.7776 0.7781 0.7801 0.7757
1905.000000 0.7701 0.7585 0.7517 0.7460 0.7439
1910.000000 0.7434 0.7391 0.7506 0.7561 0.7618
1915.000000 0.7674 0.7730 0.7786 0.7842 0.7893
1920.000000 0.7958 0.8008 0.8008 0.8008 0.8008
1925.000000 0.8010 0.8011 0.8018 0.8025 0.8032
1930.000000 0.8022 0.7994 0.7931 0.7878 0.7836
1935.000000 0.7811 0.7793 0.7787 0.7790 0.7793
1940.000000 0.7812 0.7861 0.7953 0.8053 0.8107
1945.000000 0.8146 0.8169 0.8168 0.8161 0.8141
1950.000000 0.8130 0.8119 0.8134 0.8160 0.8189
1955.000000 0.8218 0.8247 0.8267 0.8278 0.8275
1960.000000 0.8270 0.8252 0.8232 0.8212 0.8225
1965.000000 0.8252 0.8278 0.8305 0.8331 0.8351
1970.000000 0.8378 0.8381 0.8391 0.8401 0.8410
1975.000000 0.8420 0.8428 0.8439 0.8439 0.8439
1980.000000 0.8440 0.8442 0.8446 0.8449 0.8452
1985.000000 0.8455 0.8457 0.8460 0.8430 0.8397
1990.000000 0.8361 0.8347 0.8350 0.8404 0.8451
1995.000000 0.8484 0.8491 0.8489 0.8486 0.8474
2000.000000 0.8461 0.8444 0.8428 0.8418 0.8410
2005.000000 0.8400 0.8391 0.8381 0.8371 0.8364
2010.000000 0.8358 0.8353 0.8348 0.8343 0.8338
2015.000000 0.8331 0.8324 0.8316 0.8309 0.8300
2020.000000 0.8292 0.8296 0.8301 0.8309 0.8318
2025.000000 0.8328 0.8339 0.8351 0.8363 0.8370
2030.000000 0.8377 0.8374 0.8371 0.8368 0.8367
2035.000000 0.8357 0.8347 0.8337 0.8327 0.8317
2040.000000 0.8308 0.8298 0.8288 0.8277 0.8267
2045.000000 0.8256 0.8246 0.8236 0.8225 0.8210
2050.000000 0.8194 0.8178 0.8161 0.8146 0.8130
2055.000000 0.8110 0.8091 0.8065 0.8042 0.8017
2060.000000 0.7993 0.7971 0.7949 0.7937 0.7925
2065.000000 0.7917 0.7908 0.7900 0.7892 0.7897
2070.000000 0.7901 0.7908 0.7860 0.7933 0.7950
2075.000000 0.7994 0.8039 0.8089 0.8139 0.8189
2080.000000 0.8239 0.8298 0.8358 0.8365 0.8373
2085.000000 0.8378 0.8385 0.8387 0.8390 0.8392
2090.000000 0.8395 0.8397 0.8400 0.8402 0.8405
2095.000000 0.8407 0.8409 0.8411 0.8414 0.8416
2100.000000 0.8417 0.8416 0.8416 0.8414 0.8413
2105.000000 0.8407 0.8402 0.8395 0.8389 0.8381
2110.000000 0.8374 0.8358 0.8343 0.8332 0.8321
2115.000000 0.8324 0.8340 0.8327 0.8328 0.8331
2120.000000 0.8333 0.8343 0.8353 0.8364 0.8375
2125.000000 0.8388 0.8401 0.8407 0.8414 0.8417
2130.000000 0.8420 0.8420 0.8421 0.8421 0.8421
2135.000000 0.8418 0.8416 0.8413 0.8411 0.8408
2140.000000 0.8406 0.8399 0.8393 0.8377 0.8362
2145.000000 0.8338 0.8314 0.8289 0.8265 0.8241
2150.000000 0.8218 0.8192 0.8165 0.8154 0.8143
2155.000000 0.8142 0.8141 0.8147 0.8154 0.8178
2160.000000 0.8205 0.8224 0.8128 0.8245 0.8245
2165.000000 0.8245 0.8243 0.8235 0.8228 0.8225
2170.000000 0.8225 0.8225 0.8227 0.8238 0.8250
2175.000000 0.8268 0.8289 0.8315 0.8341 0.8365
2180.000000 0.8389 0.8414 0.8439 0.8454 0.8470
2185.000000 0.8475 0.8481 0.8480 0.8480 0.8477
2190.000000 0.8475 0.8471 0.8470 0.8466 0.8463
2195.000000 0.8459 0.8456 0.8453 0.8450 0.8446
2200.000000 0.8443 0.8441 0.8439 0.8438 0.8437
2205.000000 0.8435 0.8434 0.8432 0.8431 0.8430
2210.000000 0.8428 0.8432 0.8435 0.8440 0.8446
2215.000000 0.8451 0.8456 0.8463 0.8470 0.8477
2220.000000 0.8485 0.8489 0.8494 0.8492 0.8490
2225.000000 0.8487 0.8485 0.8482 0.8492 0.8477
2230.000000 0.8475 0.8471 0.8470 0.8467 0.8465
2235.000000 0.8461 0.8458 0.8453 0.8448 0.8443
2240.000000 0.8439 0.8434 0.8430 0.8425 0.8421
2245.000000 0.8416 0.8411 0.8406 0.8401 0.8396
2250.000000 0.8392 0.8387 0.8382 0.8377 0.8371
2255.000000 0.8368 0.8364 0.8360 0.8357 0.8353
2260.000000 0.8349 0.8345 0.8341 0.8332 0.8324
2265.000000 0.8315 0.8307 0.8298 0.8290 0.8284
2270.000000 0.8278 0.8271 0.8266 0.8260 0.8255
2275.000000 0.8249 0.8243 0.8237 0.8232 0.8225
2280.000000 0.8218 0.8212 0.8206 0.8199 0.8193
2285.000000 0.8186 0.8178 0.8171 0.8165 0.8158
2290.000000 0.8151 0.8149 0.8139 0.8151 0.8156
2295.000000 0.8164 0.8171 0.8183 0.8195 0.8209
2300.000000 0.8224 0.8239 0.8255 0.8268 0.8284
2305.000000 0.8298 0.8313 0.8318 0.8323 0.8325
2310.000000 0.8325 0.8325 0.8325 0.8317 0.8347
2315.000000 0.8302 0.8296 0.8290 0.8284 0.8278
2320.000000 0.8271 0.8262 0.8253 0.8244 0.8235
2325.000000 0.8240 0.8245 0.8254 0.8224 0.8274
2330.000000 0.8284 0.8294 0.8305 0.8315 0.8325
2335.000000 0.8337 0.8349 0.8360 0.8371 0.8383
2340.000000 0.8394 0.8403 0.8413 0.8423 0.8433
2345.000000 0.8440 0.8448 0.8453 0.8459 0.8461
2350.000000 0.8461 0.8461 0.8460 0.8458 0.8456
2355.000000 0.8453 0.8451 0.8448 0.8446 0.8443
2360.000000 0.8441 0.8438 0.8436 0.8434 0.8432
2365.000000 0.8430 0.8428 0.8425 0.8424 0.8421
2370.000000 0.8421 0.8421 0.8421 0.8423 0.8425
2375.000000 0.8428 0.8428 0.8427 0.8424 0.8418
2380.000000 0.8415 0.8411 0.8407 0.8404 0.8402
2385.000000 0.8407 0.8413 0.8418 0.8425 0.8432
2390.000000 0.8439 0.8445 0.8452 0.8455 0.8459
2395.000000 0.8462 0.8465 0.8465 0.8465 0.8463
2400.000000 0.8461 0.8459 0.8458 0.8456 0.8454
2405.000000 0.8451 0.8449 0.8445 0.8442 0.8438
2410.000000 0.8435 0.8432 0.8428 0.8423 0.8418
2415.000000 0.8411 0.8405 0.8402 0.8400 0.8397
2420.000000 0.8394 0.8391 0.8389 0.8386 0.8384
2425.000000 0.8381 0.8378 0.8384 0.8390 0.8395
2430.000000 0.8401 0.8406 0.8412 0.8421 0.8433
2435.000000 0.8444 0.8456 0.8468 0.8483 0.8497
2440.000000 0.8512 0.8514 0.8517 0.8520 0.8523
2445.000000 0.8523 0.8523 0.8521 0.8521 0.8521
2450.000000 0.8521 0.8520 0.8518 0.8518 0.8517
2455.000000 0.8515 0.8514 0.8513 0.8512 0.8510
2460.000000 0.8509 0.8508 0.8508 0.8509 0.8510
2465.000000 0.8510 0.8511 0.8512 0.8513 0.8513
2470.000000 0.8514 0.8514 0.8515 0.8516 0.8518
2475.000000 0.8520 0.8521 0.8524 0.8525 0.8527
2480.000000 0.8528 0.8530 0.8531 0.8531 0.8531
2485.000000 0.8531 0.8531 0.8531 0.8531 0.8530
2490.000000 0.8530 0.8530 0.8530 0.8532 0.8534
2495.000000 0.8537 0.8540 0.8543 0.8546 0.8548
2500.000000 0.8551 0.8553 0.8555 0.8557 0.8559
2505.000000 0.8561 0.8563 0.8565 0.8565 0.8566
2510.000000 0.8566 0.8564 0.8562 0.8560 0.8559
2515.000000 0.8557 0.8555 0.8553 0.8551 0.8549
2520.000000 0.8548 0.8546 0.8544 0.8542 0.8541
2525.000000 0.8539 0.8537 0.8535 0.8536 0.8536
2530.000000 0.8539 0.8542 0.8546 0.8549 0.8553
2535.000000 0.8556 0.8559 0.8567 0.8575 0.8580
2540.000000 0.8585 0.8584 0.8583 0.8581 0.8580
2545.000000 0.8578 0.8577 0.8575 0.8575 0.8571
2550.000000 0.8570 0.8565 0.8561 0.8557 0.8553
2555.000000 0.8548 0.8544 0.8539 0.8535 0.8531
2560.000000 0.8528 0.8524 0.8520 0.8516 0.8513
2565.000000 0.8509 0.8505 0.8501 0.8498 0.8495
2570.000000 0.8493 0.8491 0.8489 0.8488 0.8488
2575.000000 0.8488 0.8489 0.8490 0.8490 0.8490
2580.000000 0.8490 0.8488 0.8487 0.8485 0.8483
2585.000000 0.8470 0.8457 0.8449 0.8442 0.8435
2590.000000 0.8428 0.8420 0.8413 0.8406 0.8399
2595.000000 0.8392 0.8385 0.8375 0.8367 0.8358
2600.000000 0.8349 0.8344 0.8340 0.8340 0.8340
2605.000000 0.8340 0.8340 0.8340 0.8340 0.8343
2610.000000 0.8346 0.8356 0.8366 0.8389 0.8412
2615.000000 0.8435 0.8458 0.8475 0.8495 0.8502
2620.000000 0.8509 0.8516 0.8524 0.8530 0.8537
2625.000000 0.8537 0.8537 0.8537 0.8537 0.8535
2630.000000 0.8533 0.8528 0.8525 0.8521 0.8518
2635.000000 0.8513 0.8508 0.8502 0.8497 0.8491
2640.000000 0.8486 0.8480 0.8475 0.8470 0.8465
2645.000000 0.8461 0.8457 0.8456 0.8433 0.8453
2650.000000 0.8452 0.8457 0.8463 0.8470 0.8478
2655.000000 0.8485 0.8493 0.8501 0.8509 0.8516
2660.000000 0.8524 0.8530 0.8537 0.8543 0.8550
2665.000000 0.8556 0.8562 0.8568 0.8575 0.8580
2670.000000 0.8585 0.8588 0.8591 0.8594 0.8598
2675.000000 0.8601 0.8604 0.8607 0.8610 0.8611
2680.000000 0.8611 0.8611 0.8610 0.8608 0.8607
2685.000000 0.8605 0.8604 0.8603 0.8602 0.8600
2690.000000 0.8599 0.8597 0.8596 0.8593 0.8591
2695.000000 0.8588 0.8586 0.8583 0.8580 0.8577
2700.000000 0.8575 0.8571 0.8570 0.8567 0.8565
2705.000000 0.8562 0.8560 0.8558 0.8556 0.8553
2710.000000 0.8551 0.8549 0.8547 0.8545 0.8543
2715.000000 0.8541 0.8539 0.8536 0.8534 0.8532
2720.000000 0.8537 0.8528 0.8525 0.8523 0.8521
2725.000000 0.8518 0.8517 0.8515 0.8514 0.8512
2730.000000 0.8511 0.8510 0.8509 0.8507 0.8506
2735.000000 0.8505 0.8504 0.8502 0.8501 0.8500
2740.000000 0.8499 0.8497 0.8497 0.8498 0.8500
2745.000000 0.8503 0.8507 0.8511 0.8515 0.8534
2750.000000 0.8553 0.8567 0.8582 0.8587 0.8592
2755.000000 0.8591 0.8591 0.8590 0.8590 0.8589
2760.000000 0.8589 0.8588 0.8587 0.8586 0.8585
2765.000000 0.8584 0.8583 0.8581 0.8578 0.8575
2770.000000 0.8574 0.8571 0.8568 0.8566 0.8563
2775.000000 0.8559 0.8555 0.8549 0.8544 0.8539
2780.000000 0.8534 0.8528 0.8524 0.8518 0.8513
2785.000000 0.8504 0.8496 0.8487 0.8478 0.8470
2790.000000 0.8462 0.8453 0.8445 0.8430 0.8416
2795.000000 0.8400 0.8384 0.8368 0.8352 0.8336
2800.000000 0.8320 0.8304 0.8289 0.8262 0.8236
2805.000000 0.8208 0.8180 0.8151 0.8125 0.8084
2810.000000 0.8044 0.8000 0.7957 0.7910 0.7864
2815.000000 0.7801 0.7741 0.7678 0.7618 0.7543
2820.000000 0.7468 0.7360 0.7251 0.7040 0.6828
2825.000000 0.6797 0.6765 0.6738 0.6711 0.6674
2830.000000 0.6638 0.6521 0.6405 0.6218 0.6032
2835.000000 0.5914 0.5797 0.5680 0.5562 0.5512
2840.000000 0.5464 0.5464 0.5465 0.5465 0.5465
2845.000000 0.5926 0.6387 0.6876 0.7367 0.7725
2850.000000 0.8084 0.8103 0.8121 0.8131 0.8140
2855.000000 0.8146 0.8153 0.8154 0.8156 0.8157
2860.000000 0.8157 0.8158 0.8089 0.8155 0.8154
2865.000000 0.8147 0.8140 0.8133 0.8126 0.8101
2870.000000 0.8075 0.8015 0.7957 0.7905 0.7854
2875.000000 0.7806 0.7758 0.7706 0.7654 0.7597
2880.000000 0.7541 0.7462 0.7386 0.7068 0.6751
2885.000000 0.6315 0.5881 0.5882 0.5882 0.6007
2890.000000 0.6132 0.6300 0.6468 0.6621 0.6775
2895.000000 0.6771 0.6754 0.6700 0.6632 0.6562
2900.000000 0.6495 0.6425 0.6358 0.6289 0.6215
2905.000000 0.6224 0.6227 0.6264 0.6302 0.6339
2910.000000 0.6377 0.6414 0.6451 0.6489 0.6526
2915.000000 0.6564 0.6601 0.6638 0.6675 0.6690
2920.000000 0.6704 0.6693 0.6683 0.6607 0.6651
2925.000000 0.6175 0.5819 0.5462 0.5106 0.4783
2930.000000 0.4460 0.4443 0.4426 0.4424 0.4423
2935.000000 0.4482 0.4434 0.4601 0.4660 0.4720
2940.000000 0.4780 0.4839 0.4939 0.4907 0.4915
2945.000000 0.4910 0.4906 0.4802 0.4698 0.4538
2950.000000 0.4378 0.4240 0.4103 0.4107 0.4110
2955.000000 0.4120 0.4109 0.4174 0.4218 0.4431
2960.000000 0.4645 0.4880 0.5116 0.5351 0.5587
2965.000000 0.5822 0.6058 0.6293 0.6528 0.6764
2970.000000 0.7000 0.7026 0.7055 0.7056 0.7058
2975.000000 0.7058 0.7058 0.7058 0.7058 0.7049
2980.000000 0.7054 0.7028 0.7015 0.6985 0.6955
2985.000000 0.6907 0.6860 0.6797 0.6734 0.6664
2990.000000 0.6595 0.6534 0.6472 0.6410 0.6347
2995.000000 0.6264 0.6182 0.5846 0.5510 0.5175
3000.000000 0.4840 0.4741 0.4642 0.4642 0.4648
3005.000000 0.4703 0.4762 0.4941 0.5119 0.5297
3010.000000 0.5475 0.5625 0.5776 0.5778 0.5780
3015.000000 0.5781 0.5783 0.5784 0.5786 0.5788
3020.000000 0.5790 0.5793 0.5796 0.5820 0.5845
3025.000000 0.5874 0.5903 0.6000 0.6097 0.6170
3030.000000 0.6244 0.6298 0.6352 0.6394 0.6490
3035.000000 0.6451 0.6465 0.6345 0.6225 0.6066
3040.000000 0.5907 0.5748 0.5590 0.5431 0.5272
3045.000000 0.5112 0.4954 0.4795 0.4636 0.4350
3050.000000 0.4064 0.3991 0.3918 0.3882 0.3848
3055.000000 0.3812 0.3777 0.3744 0.3710 0.3689
3060.000000 0.3666 0.3659 0.3650 0.3655 0.3659
3065.000000 0.3804 0.3666 0.4152 0.4356 0.4560
3070.000000 0.4764 0.4967 0.5171 0.5375 0.5579
3075.000000 0.6076 0.6572 0.6625 0.6678 0.6710
3080.000000 0.6743 0.6778 0.6815 0.6856 0.6897
3085.000000 0.7251 0.7608 0.7640 0.7672 0.7686
3090.000000 0.7699 0.7711 0.7725 0.7737 0.7749
3095.000000 0.7758 0.7767 0.7775 0.7786 0.8034
3100.000000 0.8283 0.8309 0.8336 0.8363 0.8390
3105.000000 0.8408 0.8427 0.8444 0.8461 0.8468
3110.000000 0.8477 0.8483 0.8490 0.8496 0.8503
3115.000000 0.8509 0.8515 0.8521 0.8528 0.8534
3120.000000 0.8540 0.8545 0.8550 0.8553 0.8557
3125.000000 0.8560 0.8564 0.8568 0.8571 0.8575
3130.000000 0.8578 0.8582 0.8586 0.8589 0.8592
3135.000000 0.8595 0.8598 0.8601 0.8604 0.8607
3140.000000 0.8610 0.8612 0.8615 0.8618 0.8621
3145.000000 0.8624 0.8627 0.8630 0.8633 0.8635
3150.000000 0.8637 0.8639 0.8641 0.8643 0.8645
3155.000000 0.8647 0.8649 0.8651 0.8653 0.8655
3160.000000 0.8657 0.8659 0.8662 0.8664 0.8666
3165.000000 0.8668 0.8670 0.8671 0.8674 0.8675
3170.000000 0.8677 0.8678 0.8680 0.8681 0.8683
3175.000000 0.8685 0.8687 0.8688 0.8690 0.8691
3180.000000 0.8693 0.8694 0.8696 0.8697 0.8699
3185.000000 0.8700 0.8702 0.8703 0.8705 0.8706
3190.000000 0.8708 0.8709 0.8710 0.8711 0.8713
3195.000000 0.8714 0.8715 0.8716 0.8717 0.8718
3200.000000 0.8718 0.8720 0.8721 0.8723 0.8724
3205.000000 0.8725 0.8725 0.8727 0.8728 0.8730
3210.000000 0.8731 0.8732 0.8734 0.8736 0.8738
3215.000000 0.8740 0.8743 0.8745 0.8747 0.8749
3220.000000 0.8751 0.8753 0.8756 0.8758 0.8760
3225.000000 0.8762 0.8764 0.8766 0.8768 0.8771
3230.000000 0.8773 0.8775 0.8777 0.8778 0.8780
3235.000000 0.8781 0.8783 0.8784 0.8785 0.8786
3240.000000 0.8788 0.8789 0.8790 0.8791 0.8793
3245.000000 0.8794 0.8795 0.8796 0.8798 0.8799
3250.000000 0.8800 0.8801 0.8803 0.8803 0.8804
3255.000000 0.8804 0.8805 0.8805 0.8806 0.8806
3260.000000 0.8807 0.8808 0.8809 0.8812 0.8815
3265.000000 0.8817 0.8820 0.8823 0.8825 0.8828
3270.000000 0.8832 0.8835 0.8839 0.8844 0.8849
3275.000000 0.8853 0.8858 0.8862 0.8867 0.8871
3280.000000 0.8877 0.8880 0.8884 0.8884 0.8884
3285.000000 0.8884 0.8884 0.8884 0.8884 0.8884
3290.000000 0.8884 0.8884 0.8885 0.8885 0.8885
3295.000000 0.8884 0.8884 0.8883 0.8883 0.8883
3300.000000 0.8883 0.8882 0.8882 0.8881 0.8881
3305.000000 0.8880 0.8880 0.8880 0.8880 0.8878
3310.000000 0.8878 0.8878 0.8878 0.8878 0.8878
3315.000000 0.8877 0.8877 0.8877 0.8877 0.8877
3320.000000 0.8878 0.8878 0.8878 0.8878 0.8878
3325.000000 0.8880 0.8881 0.8881 0.8882 0.8882
3330.000000 0.8883 0.8883 0.8884 0.8884 0.8885
3335.000000 0.8885 0.8886 0.8886 0.8887 0.8887
3340.000000 0.8888 0.8888 0.8889 0.8889 0.8890
3345.000000 0.8890 0.8891 0.8891 0.8892 0.8892
3350.000000 0.8893 0.8893 0.8894 0.8894 0.8895
3355.000000 0.8895 0.8895 0.8895 0.8895 0.8894
3360.000000 0.8894 0.8894 0.8894 0.8894 0.8894
3365.000000 0.8893 0.8893 0.8893 0.8893 0.8893
3370.000000 0.8893 0.8892 0.8892 0.8892 0.8892
3375.000000 0.8891 0.8891 0.8891 0.8891 0.8891
3380.000000 0.8891 0.8890 0.8890 0.8890 0.8890
3385.000000 0.8890 0.8890 0.8889 0.8889 0.8889
3390.000000 0.8889 0.8889 0.8889 0.8888 0.8888
3395.000000 0.8888 0.8888 0.8888 0.8888 0.8887
3400.000000 0.8887 0.8887 0.8887 0.8887 0.8887
3405.000000 0.8887 0.8887 0.8887 0.8887 0.8887
3410.000000 0.8887 0.8887 0.8888 0.8888 0.8888
3415.000000 0.8888 0.8888 0.8888 0.8889 0.8889
3420.000000 0.8889 0.8889 0.8889 0.8889 0.8890
3425.000000 0.8890 0.8890 0.8890 0.8890 0.8890
3430.000000 0.8891 0.8891 0.8891 0.8891 0.8892
3435.000000 0.8892 0.8892 0.8892 0.8892 0.8892
3440.000000 0.8893 0.8893 0.8893 0.8893 0.8893
3445.000000 0.8893 0.8894 0.8894 0.8894 0.8894
3450.000000 0.8894 0.8894 0.8895 0.8895 0.8895
3455.000000 0.8895 0.8895 0.8895 0.8896 0.8896
3460.000000 0.8896 0.8896 0.8896 0.8896 0.8896
3465.000000 0.8896 0.8896 0.8896 0.8897 0.8897
3470.000000 0.8897 0.8897 0.8897 0.8897 0.8897
3475.000000 0.8897 0.8897 0.8897 0.8897 0.8897
3480.000000 0.8897 0.8897 0.8897 0.8897 0.8897
3485.000000 0.8897 0.8897 0.8897 0.8897 0.8897
3490.000000 0.8897 0.8897 0.8898 0.8898 0.8898
3495.000000 0.8898 0.8898 0.8898 0.8898 0.8898
3500.000000 0.8898 0.8898 0.8898 0.8898 0.8898
3505.000000 0.8898 0.8898 0.8898 0.8898 0.8898
3510.000000 0.8898 0.8897 0.8897 0.8896 0.8896
3515.000000 0.8895 0.8895 0.8894 0.8894 0.8893
3520.000000 0.8892 0.8891 0.8891 0.8890 0.8890
3525.000000 0.8889 0.8889 0.8888 0.8887 0.8886
3530.000000 0.8886 0.8885 0.8885 0.8884 0.8884
3535.000000 0.8883 0.8882 0.8881 0.8881 0.8880
3540.000000 0.8880 0.8878 0.8878 0.8878 0.8877
3545.000000 0.8875 0.8875 0.8875 0.8875 0.8874
3550.000000 0.8874 0.8873 0.8873 0.8871 0.8871
3555.000000 0.8870 0.8870 0.8868 0.8868 0.8868
3560.000000 0.8868 0.8867 0.8866 0.8865 0.8865
3565.000000 0.8864 0.8864 0.8864 0.8864 0.8864
3570.000000 0.8864 0.8864 0.8865 0.8865 0.8865
3575.000000 0.8865 0.8865 0.8865 0.8865 0.8865
3580.000000 0.8866 0.8866 0.8866 0.8866 0.8866
3585.000000 0.8866 0.8866 0.8866 0.8867 0.8867
3590.000000 0.8867 0.8867 0.8867 0.8867 0.8867
3595.000000 0.8867 0.8867 0.8867 0.8868 0.8868
3600.000000 0.8868 0.8868 0.8868 0.8868 0.8868
3605.000000 0.8868 0.8868 0.8868 0.8868 0.8868
3610.000000 0.8868 0.8868 0.8868 0.8868 0.8868
3615.000000 0.8868 0.8868 0.8868 0.8868 0.8868
3620.000000 0.8868 0.8868 0.8868 0.8868 0.8868
3625.000000 0.8868 0.8868 0.8868 0.8868 0.8868
3630.000000 0.8868 0.8868 0.8868 0.8868 0.8868
3635.000000 0.8868 0.8868 0.8868 0.8868 0.8868
3640.000000 0.8868 0.8868 0.8868 0.8868 0.8870
3645.000000 0.8870 0.8871 0.8871 0.8871 0.8871
3650.000000 0.8873 0.8874 0.8875 0.8875 0.8875
3655.000000 0.8875 0.8877 0.8877 0.8878 0.8878
3660.000000 0.8878 0.8878 0.8880 0.8880 0.8881
3665.000000 0.8881 0.8882 0.8882 0.8883 0.8884
3670.000000 0.8885 0.8885 0.8886 0.8886 0.8887
3675.000000 0.8887 0.8887 0.8886 0.8886 0.8885
3680.000000 0.8885 0.8884 0.8884 0.8884 0.8884
3685.000000 0.8883 0.8883 0.8882 0.8882 0.8881
3690.000000 0.8881 0.8880 0.8880 0.8878 0.8878
3695.000000 0.8878 0.8878 0.8878 0.8878 0.8877
3700.000000 0.8877 0.8875 0.8875 0.8875 0.8875
3705.000000 0.8875 0.8875 0.8874 0.8874 0.8873
3710.000000 0.8873 0.8873 0.8874 0.8874 0.8875
3715.000000 0.8875 0.8875 0.8875 0.8877 0.8877
3720.000000 0.8878 0.8878 0.8878 0.8878 0.8878
3725.000000 0.8878 0.8880 0.8880 0.8881 0.8881
3730.000000 0.8882 0.8882 0.8883 0.8883 0.8883
3735.000000 0.8883 0.8883 0.8883 0.8883 0.8883
3740.000000 0.8884 0.8884 0.8884 0.8884 0.8884
3745.000000 0.8884 0.8884 0.8884 0.8885 0.8885
3750.000000 0.8885 0.8885 0.8885 0.8885 0.8885
3755.000000 0.8885 0.8885
##END=
