##TITLE=2-ACETONAPHTHONE
##JCAMP-DX=4.24
##DATA TYPE=INFRARED SPECTRUM
##CLASS=COBLENTZ
##ORIGIN=ANDERSON PHYSICAL LABORATORY
##OWNER=COBLENTZ SOCIETY
Collection (C) 2018 copyright by the U.S. Secretary of Commerce
on behalf of the United States of America. All rights reserved.
##DATE=Not specified, most likely prior to 1970
##NAMES=1-(2-naphthyl)ethanone
##CAS REGISTRY NO=93-08-3
##MOLFORM=C12 H10 O
##SOURCE REFERENCE=COBLENTZ NO. 2637
##$NIST SOURCE=COBLENTZ
##$NIST IMAGE=cob2637
##SPECTROMETER/DATA SYSTEM=Not specified, most likely a prism, grating, or hybrid spectrometer.
##STATE=SOLID (1.0% IN KBr PELLET)
##PATH LENGTH=0.0355 CM THICK
##SAMPLING PROCEDURE=TRANSMISSION
##RESOLUTION=4
##DATA PROCESSING=DIGITIZED BY NIST FROM HARD COPY (FROM TWO SEGMENTS)
##XUNITS=1/CM
##YUNITS=TRANSMITTANCE
##XFACTOR=1.000000
##YFACTOR=1
##DELTAX=0.934580
##FIRSTX=672.897
##LASTX=3992.52
##FIRSTY=0.916
##MAXX=3992.52
##MINX=672.897
##MAXY=0.962
##MINY=0.079
##NPOINTS=3553
##XYDATA=(X++(Y..Y))
672.897000 0.9160 0.9160 0.9160 0.9160 0.9160
677.569898 0.9160 0.9160 0.9140 0.9140 0.9140
682.242796 0.9110 0.9110 0.9080 0.9080 0.9070
686.915694 0.9050 0.9040 0.9040 0.9040 0.9040
691.588592 0.9040 0.9040 0.9050 0.9070 0.9070
696.261489 0.9070 0.9080 0.9080 0.9100 0.9100
700.934387 0.9110 0.9110 0.9110 0.9110 0.9110
705.607285 0.9110 0.9110 0.9100 0.9100 0.9080
710.280183 0.9070 0.9070 0.9050 0.9040 0.9040
714.953081 0.9020 0.9020 0.9010 0.8980 0.8980
719.625979 0.8960 0.8930 0.8930 0.8920 0.8890
724.298877 0.8860 0.8830 0.8800 0.8770 0.8720
728.971775 0.8690 0.8660 0.8620 0.8570 0.8530
733.644673 0.8450 0.8380 0.8300 0.8201 0.8081
738.317570 0.7960 0.7750 0.7520 0.7490 0.7430
742.990468 0.7301 0.7061 0.6881 0.6701 0.6531
747.663366 0.6470 0.6370 0.6130 0.5631 0.4992
752.336264 0.3715 0.3232 0.2753 0.2482 0.1765
757.009162 0.1700 0.1690 0.1700 0.2538 0.3218
761.682060 0.4207 0.5405 0.6455 0.7514 0.8146
766.354958 0.8660 0.8720 0.8680 0.8660 0.8510
771.027856 0.8271 0.7762 0.7253 0.7161 0.7150
775.700754 0.7160 0.7330 0.7510 0.7600 0.7640
780.373651 0.8078 0.9125 0.9438 0.9559 0.9610
785.046549 0.9620 0.9620 0.9620 0.9610 0.9590
789.719447 0.9560 0.9490 0.9440 0.9410 0.9380
794.392345 0.9350 0.9340 0.9320 0.9290 0.9280
799.065243 0.9250 0.9250 0.9200 0.9170 0.9130
803.738141 0.9050 0.9020 0.8990 0.8960 0.8900
808.411039 0.8860 0.8810 0.8750 0.8690 0.8620
813.083937 0.8540 0.8470 0.8380 0.8270 0.8170
817.756835 0.8030 0.7911 0.7761 0.7631 0.7521
822.429732 0.7390 0.7240 0.7010 0.6761 0.6501
827.102630 0.6261 0.6021 0.5771 0.5502 0.5202
831.775528 0.4850 0.4450 0.4001 0.3461 0.2842
836.448426 0.2123 0.1423 0.1390 0.1390 0.1430
841.121324 0.1610 0.2359 0.3707 0.4727 0.5916
845.794222 0.6727 0.7357 0.7817 0.8227 0.8538
850.467120 0.8750 0.8920 0.9010 0.9050 0.9080
855.140018 0.9080 0.9080 0.9080 0.9070 0.9010
859.812915 0.8950 0.8840 0.8441 0.7961 0.7481
864.485813 0.7251 0.7011 0.6532 0.6083 0.5871
869.158711 0.5810 0.5271 0.4990 0.3833 0.2833
873.831609 0.2720 0.2710 0.2720 0.3247 0.4005
878.504507 0.5229 0.6109 0.6968 0.8087 0.8658
883.177405 0.8889 0.8960 0.9020 0.9070 0.9100
887.850303 0.9110 0.9110 0.9110 0.9110 0.9100
892.523201 0.9080 0.9010 0.8980 0.8900 0.8830
897.196099 0.8470 0.8140 0.7820 0.7511 0.6622
901.868996 0.6201 0.5812 0.5412 0.4992 0.4970
906.541894 0.4990 0.5390 0.5799 0.5840 0.6159
911.214792 0.7356 0.8256 0.8598 0.8739 0.8829
915.887690 0.8830 0.8840 0.8840 0.8840 0.8830
920.560588 0.8830 0.8780 0.8770 0.8681 0.8660
925.233486 0.8650 0.8570 0.8530 0.8450 0.8440
929.906384 0.8360 0.8270 0.8171 0.8031 0.7901
934.579282 0.7730 0.7570 0.7390 0.7180 0.6582
939.252180 0.6291 0.5712 0.5531 0.5202 0.4882
943.925077 0.4550 0.4220 0.4210 0.4220 0.5357
948.597975 0.5928 0.6528 0.7306 0.8086 0.8796
953.270873 0.8840 0.8870 0.8840 0.8830 0.8660
957.943771 0.8361 0.7932 0.7243 0.6763 0.6462
962.616669 0.6290 0.6200 0.6160 0.6110 0.6100
967.289567 0.6080 0.6070 0.6070 0.6080 0.6229
971.962465 0.6530 0.6760 0.7249 0.7868 0.8468
976.635363 0.8619 0.8690 0.8750 0.8770 0.8770
981.308261 0.8750 0.8740 0.8710 0.8570 0.8420
985.981158 0.8320 0.8200 0.8180 0.8200 0.8319
990.654056 0.8410 0.8530 0.8540 0.8560 0.8560
995.326954 0.8560 0.8540 0.8540 0.8510 0.8500
999.999852 0.8480 0.8480 0.8480 0.8500 0.8510
1004.672750 0.8510 0.8500 0.8500 0.8480 0.8470
1009.345648 0.8440 0.8410 0.8360 0.8300 0.8240
1014.018546 0.8170 0.8120 0.8001 0.7841 0.7631
1018.691444 0.7390 0.7120 0.6531 0.6400 0.6380
1023.364342 0.6380 0.6400 0.6529 0.6679 0.7147
1028.037239 0.7600 0.7700 0.7870 0.8329 0.8350
1032.710137 0.8360 0.8410 0.8410 0.8420 0.8440
1037.383035 0.8440 0.8440 0.8420 0.8420 0.8420
1042.055933 0.8410 0.8410 0.8410 0.8390 0.8380
1046.728831 0.8380 0.8360 0.8360 0.8320 0.8270
1051.401729 0.8230 0.8210 0.8180 0.8120 0.8080
1056.074627 0.8030 0.8000 0.7960 0.7940 0.7880
1060.747525 0.7850 0.7840 0.7810 0.7760 0.7690
1065.420423 0.7600 0.7490 0.7390 0.7270 0.7160
1070.093320 0.7040 0.6891 0.6582 0.6501 0.6470
1074.766218 0.6460 0.6470 0.6860 0.7120 0.7359
1079.439116 0.7519 0.7640 0.7700 0.7720 0.7730
1084.112014 0.7730 0.7730 0.7730 0.7720 0.7720
1088.784912 0.7690 0.7670 0.7660 0.7640 0.7630
1093.457810 0.7580 0.7570 0.7540 0.7490 0.7460
1098.130708 0.7450 0.7420 0.7390 0.7370 0.7340
1102.803606 0.7310 0.7280 0.7250 0.7240 0.7210
1107.476504 0.7180 0.7130 0.7100 0.7040 0.6970
1112.149401 0.6890 0.6820 0.6760 0.6700 0.6640
1116.822299 0.6610 0.6580 0.6461 0.6381 0.6281
1121.495197 0.6200 0.6130 0.5980 0.5770 0.5511
1126.168095 0.5231 0.4901 0.4572 0.4212 0.3862
1130.840993 0.3500 0.3050 0.3010 0.3010 0.3050
1135.513891 0.3160 0.3967 0.5134 0.5975 0.6695
1140.186789 0.6730 0.6710 0.6460 0.6171 0.5891
1144.859687 0.5661 0.5630 0.5600 0.5630 0.5868
1149.532585 0.6110 0.6589 0.7059 0.7090 0.7040
1154.205482 0.6970 0.6671 0.6501 0.6470 0.6460
1158.878380 0.6470 0.6590 0.6710 0.6850 0.6970
1163.551278 0.7030 0.7060 0.7120 0.7120 0.7100
1168.224176 0.7070 0.7030 0.6980 0.6910 0.6820
1172.897074 0.6730 0.6640 0.6531 0.6440 0.6370
1177.569972 0.6280 0.6170 0.6050 0.5980 0.5840
1182.242870 0.5691 0.5561 0.5421 0.5301 0.5151
1186.915768 0.5020 0.4870 0.4700 0.4520 0.4331
1191.588665 0.4121 0.3881 0.3621 0.3342 0.3012
1196.261563 0.2300 0.2120 0.2090 0.2090 0.2110
1200.934461 0.2469 0.3216 0.3996 0.4865 0.5774
1205.607359 0.6880 0.7940 0.8529 0.8590 0.8620
1210.280257 0.8620 0.8590 0.8510 0.8172 0.7852
1214.953155 0.7580 0.7340 0.7120 0.6920 0.6730
1219.626053 0.6551 0.6261 0.5991 0.5741 0.5472
1224.298951 0.5200 0.4930 0.4610 0.4271 0.3861
1228.971849 0.3830 0.3820 0.3830 0.3890 0.3979
1233.644746 0.4070 0.4210 0.4340 0.4480 0.4570
1238.317644 0.4670 0.4849 0.5059 0.5328 0.5618
1242.990542 0.5920 0.6200 0.6469 0.6699 0.6730
1247.663440 0.6740 0.6710 0.6710 0.6501 0.6401
1252.336338 0.6260 0.6140 0.6040 0.5990 0.5980
1257.009236 0.5930 0.5900 0.5870 0.5840 0.5800
1261.682134 0.5740 0.5650 0.5510 0.5380 0.5151
1266.355032 0.4961 0.4751 0.4541 0.4301 0.4071
1271.027930 0.3830 0.3610 0.3370 0.3141 0.2931
1275.700827 0.2721 0.2660 0.2650 0.2660 0.2839
1280.373725 0.2960 0.3200 0.3230 0.3130 0.3010
1285.046623 0.2233 0.1941 0.1701 0.1690 0.1700
1289.719521 0.1720 0.2060 0.2619 0.3318 0.4058
1294.392419 0.4787 0.5407 0.5858 0.6039 0.6725
1299.065317 0.7280 0.7750 0.8110 0.8390 0.8619
1303.738215 0.8770 0.8870 0.8950 0.8990 0.9040
1308.411113 0.9070 0.9080 0.9100 0.9100 0.9100
1313.084011 0.9100 0.9100 0.9080 0.9080 0.9050
1317.756908 0.9040 0.8990 0.8960 0.8920 0.8890
1322.429806 0.8860 0.8800 0.8710 0.8621 0.8541
1327.102704 0.8450 0.8390 0.8320 0.8240 0.8170
1331.775602 0.8080 0.8000 0.7910 0.7821 0.7750
1336.448500 0.7660 0.7570 0.7480 0.7390 0.7280
1341.121398 0.7190 0.7100 0.7001 0.6891 0.6791
1345.794296 0.6680 0.6500 0.6350 0.6220 0.6080
1350.467194 0.5980 0.5860 0.5741 0.5591 0.5441
1355.140092 0.5270 0.5060 0.4810 0.4421 0.4061
1359.812989 0.3741 0.3471 0.3231 0.3041 0.2871
1364.485887 0.2720 0.2600 0.2510 0.2440 0.2380
1369.158785 0.2320 0.2270 0.2240 0.2200 0.2170
1373.831683 0.2170 0.2180 0.2469 0.2749 0.3338
1378.504581 0.3938 0.4179 0.4966 0.5527 0.5917
1383.177479 0.6160 0.6350 0.6520 0.6709 0.6859
1387.850377 0.6940 0.6970 0.6980 0.6970 0.6920
1392.523275 0.6830 0.6620 0.6470 0.6290 0.5602
1397.196173 0.5510 0.5500 0.5500 0.5510 0.5590
1401.869070 0.5660 0.5810 0.5990 0.6469 0.6739
1406.541968 0.6939 0.7010 0.7030 0.7040 0.7060
1411.214866 0.7040 0.7010 0.6950 0.6860 0.6760
1415.887764 0.6680 0.6561 0.6500 0.6440 0.6380
1420.560662 0.6320 0.6290 0.6220 0.6110 0.6010
1425.233560 0.5890 0.5771 0.5651 0.5541 0.5451
1429.906458 0.5390 0.5360 0.5230 0.5170 0.5090
1434.579356 0.5050 0.5030 0.4990 0.4910 0.4840
1439.252254 0.4790 0.4780 0.4780 0.4810 0.5089
1443.925151 0.5419 0.5749 0.6069 0.6368 0.6589
1448.598049 0.6740 0.6790 0.6890 0.6910 0.6920
1453.270947 0.6890 0.6860 0.6850 0.6741 0.6641
1457.943845 0.6520 0.6370 0.6280 0.6190 0.6070
1462.616743 0.6020 0.5930 0.5781 0.5591 0.5381
1467.289641 0.5180 0.5000 0.4870 0.4810 0.4581
1471.962539 0.4490 0.4450 0.4430 0.4450 0.4818
1476.635437 0.5290 0.5800 0.6320 0.6829 0.7279
1481.308335 0.7609 0.7809 0.8079 0.8289 0.8389
1485.981232 0.8450 0.8500 0.8510 0.8510 0.8510
1490.654130 0.8500 0.8480 0.8450 0.8380 0.8360
1495.327028 0.8330 0.8300 0.8240 0.8170 0.8090
1499.999926 0.8020 0.7940 0.7900 0.7870 0.7850
1504.672824 0.7790 0.7700 0.7640 0.7570 0.7540
1509.345722 0.7520 0.7490 0.7480 0.7460 0.7450
1514.018620 0.7430 0.7420 0.7420 0.7390 0.7390
1518.691518 0.7370 0.7360 0.7360 0.7340 0.7310
1523.364415 0.7300 0.7270 0.7250 0.7240 0.7210
1528.037313 0.7190 0.7180 0.7150 0.7150 0.7130
1532.710211 0.7130 0.7120 0.7120 0.7120 0.7100
1537.383109 0.7070 0.7070 0.7040 0.7030 0.7030
1542.056007 0.7010 0.7000 0.6950 0.6920 0.6880
1546.728905 0.6850 0.6820 0.6820 0.6800 0.6800
1551.401803 0.6790 0.6770 0.6770 0.6760 0.6760
1556.074701 0.6760 0.6730 0.6700 0.6680 0.6650
1560.747599 0.6640 0.6590 0.6550 0.6500 0.6470
1565.420496 0.6430 0.6400 0.6370 0.6340 0.6320
1570.093394 0.6310 0.6290 0.6280 0.6250 0.6170
1574.766292 0.6110 0.5991 0.5871 0.5781 0.5681
1579.439190 0.5600 0.5570 0.5560 0.5570 0.5590
1584.112088 0.5710 0.5780 0.5860 0.5920 0.5930
1588.784986 0.5960 0.5980 0.5980 0.5960 0.5781
1593.457884 0.5680 0.5421 0.5231 0.5091 0.5020
1598.130782 0.4970 0.4960 0.4940 0.4960 0.5030
1602.803680 0.5090 0.5229 0.5300 0.5360 0.5479
1607.476577 0.5500 0.5500 0.5500 0.5480 0.5480
1612.149475 0.5470 0.5410 0.5380 0.5350 0.5300
1616.822373 0.5240 0.5150 0.5060 0.4970 0.4870
1621.495271 0.4760 0.4640 0.4540 0.4421 0.4301
1626.168169 0.4190 0.4090 0.3980 0.3910 0.3890
1630.841067 0.3890 0.3920 0.4059 0.4159 0.4269
1635.513965 0.4330 0.4370 0.4420 0.4460 0.4460
1640.186863 0.4490 0.4490 0.4490 0.4490 0.4480
1644.859761 0.4460 0.4420 0.4390 0.4370 0.4280
1649.532658 0.4240 0.4160 0.4070 0.3971 0.3861
1654.205556 0.3760 0.3610 0.3440 0.3290 0.3160
1658.878454 0.3011 0.2891 0.2751 0.2621 0.2501
1663.551352 0.2380 0.2270 0.2150 0.2050 0.1930
1668.224250 0.1820 0.1700 0.1600 0.1491 0.1391
1672.897148 0.1270 0.1160 0.1040 0.0920 0.0800
1677.570046 0.0790 0.0790 0.0790 0.0800 0.0800
1682.242944 0.0880 0.0950 0.1060 0.1309 0.1669
1686.915842 0.2138 0.2658 0.3227 0.3787 0.4307
1691.588739 0.4760 0.5140 0.5499 0.5859 0.6219
1696.261637 0.6559 0.6889 0.7218 0.7538 0.7818
1700.934535 0.8110 0.8360 0.8600 0.8809 0.8989
1705.607433 0.9139 0.9259 0.9340 0.9350 0.9380
1710.280331 0.9380 0.9410 0.9430 0.9440 0.9440
1714.953229 0.9410 0.9380 0.9370 0.9340 0.9340
1719.626127 0.9310 0.9280 0.9250 0.9230 0.9230
1724.299025 0.9220 0.9200 0.9170 0.9140 0.9100
1728.971923 0.9070 0.9040 0.9010 0.8980 0.8950
1733.644820 0.8920 0.8890 0.8860 0.8840 0.8830
1738.317718 0.8810 0.8800 0.8780 0.8780 0.8780
1742.990616 0.8770 0.8740 0.8690 0.8660 0.8650
1747.663514 0.8630 0.8630 0.8620 0.8600 0.8570
1752.336412 0.8540 0.8540 0.8510 0.8470 0.8440
1757.009310 0.8420 0.8420 0.8410 0.8410 0.8380
1761.682208 0.8330 0.8300 0.8260 0.8230 0.8200
1766.355106 0.8170 0.8140 0.8120 0.8110 0.8090
1771.028004 0.8080 0.8080 0.8080 0.8060 0.8060
1775.700901 0.8050 0.8050 0.8050 0.8050 0.8050
1780.373799 0.8050 0.8030 0.8030 0.8030 0.8020
1785.046697 0.7990 0.7970 0.7900 0.7850 0.7790
1789.719595 0.7730 0.7670 0.7580 0.7540 0.7490
1794.392493 0.7430 0.7390 0.7370 0.7360 0.7360
1799.065391 0.7370 0.7420 0.7420 0.7420 0.7430
1803.738289 0.7430 0.7430 0.7430 0.7430 0.7430
1808.411187 0.7420 0.7420 0.7420 0.7390 0.7370
1813.084085 0.7360 0.7360 0.7340 0.7340 0.7340
1817.756982 0.7310 0.7310 0.7300 0.7270 0.7240
1822.429880 0.7210 0.7210 0.7190 0.7180 0.7180
1827.102778 0.7180 0.7190 0.7210 0.7210 0.7240
1831.775676 0.7250 0.7270 0.7270 0.7270 0.7270
1836.448574 0.7270 0.7250 0.7250 0.7240 0.7220
1841.121472 0.7210 0.7190 0.7190 0.7190 0.7180
1845.794370 0.7180 0.7180 0.7160 0.7160 0.7150
1850.467268 0.7130 0.7130 0.7120 0.7100 0.7100
1855.140165 0.7100 0.7100 0.7100 0.7090 0.7090
1859.813063 0.7090 0.7070 0.7070 0.7060 0.7060
1864.485961 0.7060 0.7060 0.7060 0.7070 0.7090
1869.158859 0.7090 0.7090 0.7090 0.7090 0.7070
1873.831757 0.7070 0.7040 0.7030 0.7000 0.6980
1878.504655 0.6970 0.6950 0.6940 0.6940 0.6920
1883.177553 0.6920 0.6910 0.6890 0.6890 0.6890
1887.850451 0.6880 0.6880 0.6880 0.6880 0.6880
1892.523349 0.6880 0.6880 0.6860 0.6860 0.6860
1897.196246 0.6860 0.6860 0.6860 0.6860 0.6860
1901.869144 0.6860 0.6860 0.6860 0.6850 0.6830
1906.542042 0.6830 0.6820 0.6820 0.6820 0.6800
1911.214940 0.6790 0.6790 0.6760 0.6740 0.6740
1915.887838 0.6730 0.6730 0.6710 0.6680 0.6650
1920.560736 0.6620 0.6620 0.6610 0.6590 0.6590
1925.233634 0.6580 0.6580 0.6560 0.6560 0.6550
1929.906532 0.6550 0.6550 0.6550 0.6550 0.6550
1934.579430 0.6550 0.6550 0.6530 0.6530 0.6520
1939.252327 0.6490 0.6470 0.6460 0.6440 0.6430
1943.925225 0.6430 0.6410 0.6380 0.6370 0.6350
1948.598123 0.6320 0.6290 0.6290 0.6280 0.6280
1953.271021 0.6260 0.6260 0.6260 0.6260 0.6260
1957.943919 0.6280 0.6280 0.6290 0.6310 0.6310
1962.616817 0.6310 0.6320 0.6320 0.6320 0.6320
1967.289715 0.6320 0.6320 0.6320 0.6320 0.6320
1971.962613 0.6320 0.6320 0.6320 0.6320 0.6310
1976.635511 0.6310 0.6310 0.6290 0.6290 0.6290
1981.308408 0.6280 0.6280 0.6260 0.6260 0.6260
1985.981306 0.6260 0.6260 0.6280 0.6290 0.6310
1990.654204 0.6320 0.6340 0.6340 0.6370 0.6380
1995.327102 0.6380 0.6400 0.6410 0.6410 0.6410
2000.000000 0.6410 0.6410 0.6410 0.6410 0.6410
2004.672898 0.6408 0.6405 0.6403 0.6400 0.6400
2009.345796 0.6400 0.6400 0.6400 0.6395 0.6390
2014.018694 0.6385 0.6380 0.6378 0.6375 0.6373
2018.691592 0.6370 0.6365 0.6360 0.6355 0.6350
2023.364489 0.6343 0.6335 0.6328 0.6320 0.6313
2028.037387 0.6305 0.6298 0.6290 0.6283 0.6275
2032.710285 0.6268 0.6261 0.6253 0.6245 0.6238
2037.383183 0.6230 0.6230 0.6230 0.6230 0.6230
2042.056081 0.6228 0.6225 0.6223 0.6220 0.6215
2046.728979 0.6210 0.6205 0.6200 0.6198 0.6195
2051.401877 0.6193 0.6190 0.6190 0.6190 0.6190
2056.074775 0.6190 0.6190 0.6190 0.6190 0.6190
2060.747673 0.6185 0.6180 0.6175 0.6170 0.6170
2065.420570 0.6170 0.6170 0.6170 0.6170 0.6170
2070.093468 0.6170 0.6170 0.6168 0.6165 0.6163
2074.766366 0.6160 0.6155 0.6150 0.6145 0.6140
2079.439264 0.6133 0.6125 0.6118 0.6110 0.6110
2084.112162 0.6110 0.6110 0.6110 0.6108 0.6105
2088.785060 0.6103 0.6100 0.6093 0.6085 0.6078
2093.457958 0.6070 0.6063 0.6055 0.6048 0.6040
2098.130856 0.6033 0.6025 0.6018 0.6010 0.6005
2102.803754 0.6000 0.5995 0.5990 0.5988 0.5985
2107.476651 0.5983 0.5980 0.5975 0.5970 0.5965
2112.149549 0.5960 0.5960 0.5960 0.5960 0.5960
2116.822447 0.5958 0.5955 0.5953 0.5950 0.5945
2121.495345 0.5940 0.5935 0.5930 0.5928 0.5925
2126.168243 0.5923 0.5920 0.5920 0.5920 0.5920
2130.841141 0.5920 0.5913 0.5905 0.5898 0.5890
2135.514039 0.5885 0.5880 0.5875 0.5870 0.5861
2140.186937 0.5851 0.5841 0.5831 0.5823 0.5815
2144.859835 0.5808 0.5800 0.5793 0.5785 0.5778
2149.532732 0.5770 0.5765 0.5760 0.5755 0.5750
2154.205630 0.5748 0.5745 0.5743 0.5740 0.5740
2158.878528 0.5740 0.5740 0.5740 0.5733 0.5725
2163.551426 0.5718 0.5710 0.5705 0.5700 0.5695
2168.224324 0.5690 0.5688 0.5685 0.5683 0.5680
2172.897222 0.5675 0.5670 0.5665 0.5660 0.5660
2177.570120 0.5660 0.5660 0.5660 0.5658 0.5655
2182.243018 0.5653 0.5650 0.5650 0.5650 0.5650
2186.915915 0.5650 0.5643 0.5635 0.5628 0.5620
2191.588813 0.5620 0.5620 0.5620 0.5620 0.5615
2196.261711 0.5610 0.5605 0.5600 0.5600 0.5600
2200.934609 0.5600 0.5600 0.5598 0.5595 0.5593
2205.607507 0.5590 0.5590 0.5590 0.5590 0.5590
2210.280405 0.5585 0.5580 0.5575 0.5570 0.5570
2214.953303 0.5570 0.5570 0.5570 0.5563 0.5555
2219.626201 0.5548 0.5541 0.5533 0.5525 0.5518
2224.299099 0.5510 0.5507 0.5505 0.5503 0.5500
2228.971996 0.5495 0.5490 0.5485 0.5480 0.5478
2233.644894 0.5475 0.5473 0.5470 0.5470 0.5470
2238.317792 0.5470 0.5470 0.5465 0.5460 0.5455
2242.990690 0.5450 0.5450 0.5450 0.5450 0.5450
2247.663588 0.5448 0.5445 0.5443 0.5440 0.5435
2252.336486 0.5430 0.5425 0.5420 0.5418 0.5415
2257.009384 0.5413 0.5410 0.5403 0.5395 0.5388
2261.682282 0.5380 0.5373 0.5365 0.5358 0.5350
2266.355180 0.5345 0.5340 0.5335 0.5330 0.5330
2271.028077 0.5330 0.5330 0.5330 0.5328 0.5325
2275.700975 0.5323 0.5320 0.5313 0.5305 0.5298
2280.373873 0.5290 0.5285 0.5280 0.5275 0.5270
2285.046771 0.5263 0.5255 0.5248 0.5240 0.5238
2289.719669 0.5235 0.5233 0.5230 0.5225 0.5220
2294.392567 0.5215 0.5210 0.5208 0.5205 0.5203
2299.065465 0.5200 0.5193 0.5185 0.5178 0.5170
2303.738363 0.5165 0.5160 0.5155 0.5150 0.5143
2308.411261 0.5135 0.5128 0.5120 0.5113 0.5105
2313.084158 0.5098 0.5090 0.5090 0.5090 0.5090
2317.757056 0.5090 0.5088 0.5085 0.5083 0.5080
2322.429954 0.5080 0.5080 0.5080 0.5080 0.5075
2327.102852 0.5070 0.5065 0.5060 0.5060 0.5060
2331.775750 0.5060 0.5060 0.5060 0.5060 0.5060
2336.448648 0.5060 0.5058 0.5055 0.5053 0.5050
2341.121546 0.5050 0.5050 0.5050 0.5050 0.5045
2345.794444 0.5040 0.5035 0.5030 0.5023 0.5015
2350.467342 0.5008 0.5000 0.4993 0.4985 0.4978
2355.140239 0.4970 0.4963 0.4955 0.4948 0.4940
2359.813137 0.4926 0.4911 0.4896 0.4881 0.4880
2364.486035 0.4880 0.4880 0.4880 0.4878 0.4875
2369.158933 0.4873 0.4870 0.4865 0.4860 0.4855
2373.831831 0.4850 0.4850 0.4850 0.4850 0.4850
2378.504729 0.4850 0.4850 0.4850 0.4850 0.4850
2383.177627 0.4850 0.4850 0.4850 0.4850 0.4850
2387.850525 0.4850 0.4850 0.4850 0.4850 0.4850
2392.523423 0.4850 0.4850 0.4850 0.4850 0.4850
2397.196320 0.4850 0.4850 0.4850 0.4850 0.4850
2401.869218 0.4850 0.4850 0.4850 0.4850 0.4850
2406.542116 0.4850 0.4850 0.4855 0.4860 0.4865
2411.215014 0.4870 0.4870 0.4870 0.4870 0.4870
2415.887912 0.4870 0.4870 0.4870 0.4870 0.4870
2420.560810 0.4870 0.4870 0.4870 0.4870 0.4870
2425.233708 0.4870 0.4870 0.4870 0.4870 0.4870
2429.906606 0.4870 0.4870 0.4870 0.4870 0.4870
2434.579504 0.4865 0.4860 0.4855 0.4850 0.4850
2439.252401 0.4850 0.4850 0.4850 0.4850 0.4850
2443.925299 0.4850 0.4850 0.4850 0.4850 0.4850
2448.598197 0.4850 0.4850 0.4850 0.4850 0.4850
2453.271095 0.4850 0.4850 0.4850 0.4850 0.4848
2457.943993 0.4845 0.4843 0.4840 0.4835 0.4830
2462.616891 0.4825 0.4820 0.4818 0.4815 0.4813
2467.289789 0.4810 0.4805 0.4800 0.4795 0.4790
2471.962687 0.4788 0.4785 0.4783 0.4780 0.4775
2476.635585 0.4770 0.4765 0.4760 0.4758 0.4755
2481.308482 0.4753 0.4750 0.4745 0.4740 0.4735
2485.981380 0.4730 0.4730 0.4730 0.4730 0.4730
2490.654278 0.4728 0.4725 0.4723 0.4720 0.4720
2495.327176 0.4720 0.4720 0.4720 0.4715 0.4710
2500.000074 0.4705 0.4700 0.4700 0.4700 0.4700
2504.672972 0.4700 0.4698 0.4695 0.4693 0.4690
2509.345870 0.4690 0.4690 0.4690 0.4690 0.4690
2514.018768 0.4690 0.4690 0.4690 0.4690 0.4690
2518.691665 0.4690 0.4690 0.4685 0.4680 0.4675
2523.364563 0.4670 0.4668 0.4665 0.4663 0.4660
2528.037461 0.4660 0.4660 0.4660 0.4660 0.4655
2532.710359 0.4650 0.4645 0.4640 0.4640 0.4640
2537.383257 0.4640 0.4640 0.4640 0.4640 0.4640
2542.056155 0.4640 0.4638 0.4635 0.4633 0.4630
2546.729053 0.4625 0.4620 0.4615 0.4610 0.4610
2551.401951 0.4610 0.4610 0.4610 0.4603 0.4595
2556.074849 0.4588 0.4581 0.4580 0.4580 0.4580
2560.747746 0.4580 0.4578 0.4575 0.4573 0.4570
2565.420644 0.4570 0.4570 0.4570 0.4570 0.4565
2570.093542 0.4560 0.4555 0.4550 0.4550 0.4550
2574.766440 0.4550 0.4550 0.4548 0.4545 0.4543
2579.439338 0.4540 0.4535 0.4530 0.4525 0.4520
2584.112236 0.4520 0.4520 0.4520 0.4520 0.4518
2588.785134 0.4515 0.4513 0.4510 0.4505 0.4500
2593.458032 0.4495 0.4490 0.4490 0.4490 0.4490
2598.130930 0.4490 0.4483 0.4475 0.4468 0.4460
2602.803827 0.4453 0.4445 0.4438 0.4430 0.4428
2607.476725 0.4425 0.4423 0.4420 0.4415 0.4410
2612.149623 0.4405 0.4400 0.4400 0.4400 0.4400
2616.822521 0.4400 0.4400 0.4400 0.4400 0.4400
2621.495419 0.4400 0.4400 0.4400 0.4400 0.4398
2626.168317 0.4395 0.4393 0.4390 0.4390 0.4390
2630.841215 0.4390 0.4390 0.4390 0.4390 0.4390
2635.514113 0.4390 0.4385 0.4380 0.4375 0.4370
2640.187011 0.4368 0.4365 0.4363 0.4360 0.4355
2644.859908 0.4350 0.4345 0.4340 0.4340 0.4340
2649.532806 0.4340 0.4340 0.4340 0.4340 0.4340
2654.205704 0.4340 0.4338 0.4335 0.4333 0.4330
2658.878602 0.4325 0.4320 0.4315 0.4310 0.4310
2663.551500 0.4310 0.4310 0.4310 0.4308 0.4305
2668.224398 0.4303 0.4300 0.4300 0.4300 0.4300
2672.897296 0.4300 0.4295 0.4290 0.4285 0.4280
2677.570194 0.4278 0.4275 0.4273 0.4270 0.4265
2682.243092 0.4260 0.4255 0.4250 0.4248 0.4245
2686.915989 0.4243 0.4240 0.4235 0.4230 0.4225
2691.588887 0.4220 0.4218 0.4215 0.4213 0.4210
2696.261785 0.4205 0.4200 0.4195 0.4190 0.4188
2700.934683 0.4185 0.4183 0.4180 0.4180 0.4180
2705.607581 0.4180 0.4180 0.4180 0.4180 0.4180
2710.280479 0.4180 0.4180 0.4180 0.4180 0.4180
2714.953377 0.4180 0.4180 0.4180 0.4180 0.4180
2719.626275 0.4180 0.4180 0.4180 0.4180 0.4180
2724.299173 0.4180 0.4180 0.4180 0.4180 0.4180
2728.972070 0.4180 0.4175 0.4170 0.4165 0.4160
2733.644968 0.4160 0.4160 0.4160 0.4160 0.4158
2738.317866 0.4155 0.4153 0.4150 0.4145 0.4140
2742.990764 0.4135 0.4130 0.4123 0.4115 0.4108
2747.663662 0.4100 0.4100 0.4100 0.4100 0.4100
2752.336560 0.4098 0.4095 0.4093 0.4090 0.4085
2757.009458 0.4080 0.4075 0.4070 0.4068 0.4065
2761.682356 0.4063 0.4060 0.4053 0.4045 0.4038
2766.355254 0.4030 0.4030 0.4030 0.4030 0.4030
2771.028151 0.4025 0.4020 0.4015 0.4010 0.4010
2775.701049 0.4010 0.4010 0.4010 0.4008 0.4005
2780.373947 0.4003 0.4000 0.4000 0.4000 0.4000
2785.046845 0.4000 0.3995 0.3990 0.3985 0.3980
2789.719743 0.3980 0.3980 0.3980 0.3980 0.3978
2794.392641 0.3975 0.3973 0.3970 0.3970 0.3970
2799.065539 0.3970 0.3970 0.3970 0.3970 0.3970
2803.738437 0.3970 0.3965 0.3960 0.3955 0.3950
2808.411335 0.3950 0.3950 0.3950 0.3950 0.3948
2813.084232 0.3945 0.3943 0.3940 0.3940 0.3940
2817.757130 0.3940 0.3940 0.3935 0.3930 0.3925
2822.430028 0.3920 0.3920 0.3920 0.3920 0.3920
2827.102926 0.3920 0.3920 0.3920 0.3920 0.3920
2831.775824 0.3920 0.3920 0.3920 0.3920 0.3920
2836.448722 0.3920 0.3920 0.3920 0.3920 0.3920
2841.121620 0.3920 0.3918 0.3915 0.3913 0.3910
2845.794518 0.3910 0.3910 0.3910 0.3910 0.3905
2850.467415 0.3900 0.3895 0.3890 0.3888 0.3885
2855.140313 0.3883 0.3880 0.3873 0.3865 0.3858
2859.813211 0.3850 0.3845 0.3840 0.3835 0.3830
2864.486109 0.3823 0.3815 0.3808 0.3800 0.3793
2869.159007 0.3785 0.3778 0.3770 0.3770 0.3770
2873.831905 0.3770 0.3770 0.3768 0.3765 0.3763
2878.504803 0.3760 0.3755 0.3750 0.3745 0.3740
2883.177701 0.3740 0.3740 0.3740 0.3740 0.3738
2887.850599 0.3735 0.3733 0.3730 0.3725 0.3720
2892.523496 0.3715 0.3710 0.3708 0.3705 0.3703
2897.196394 0.3700 0.3695 0.3690 0.3685 0.3680
2901.869292 0.3678 0.3675 0.3673 0.3670 0.3665
2906.542190 0.3660 0.3655 0.3650 0.3650 0.3650
2911.215088 0.3650 0.3650 0.3655 0.3660 0.3665
2915.887986 0.3670 0.3670 0.3670 0.3670 0.3670
2920.560884 0.3665 0.3660 0.3655 0.3650 0.3650
2925.233782 0.3650 0.3650 0.3650 0.3648 0.3645
2929.906680 0.3643 0.3640 0.3635 0.3630 0.3625
2934.579577 0.3620 0.3613 0.3605 0.3598 0.3590
2939.252475 0.3588 0.3585 0.3583 0.3580 0.3575
2943.925373 0.3570 0.3565 0.3560 0.3553 0.3545
2948.598271 0.3538 0.3530 0.3528 0.3525 0.3523
2953.271169 0.3520 0.3515 0.3510 0.3505 0.3500
2957.944067 0.3493 0.3485 0.3478 0.3470 0.3463
2962.616965 0.3455 0.3448 0.3440 0.3433 0.3425
2967.289863 0.3418 0.3411 0.3401 0.3390 0.3380
2971.962761 0.3370 0.3358 0.3345 0.3333 0.3320
2976.635658 0.3310 0.3300 0.3290 0.3280 0.3275
2981.308556 0.3270 0.3265 0.3260 0.3258 0.3255
2985.981454 0.3253 0.3250 0.3245 0.3240 0.3235
2990.654352 0.3230 0.3230 0.3230 0.3230 0.3230
2995.327250 0.3230 0.3230 0.3230 0.3230 0.3235
3000.000148 0.3240 0.3245 0.3250 0.3250 0.3250
3004.673046 0.3250 0.3250 0.3252 0.3255 0.3257
3009.345944 0.3260 0.3260 0.3260 0.3260 0.3260
3014.018842 0.3265 0.3270 0.3275 0.3280 0.3280
3018.691739 0.3280 0.3280 0.3280 0.3280 0.3280
3023.364637 0.3280 0.3280 0.3280 0.3280 0.3280
3028.037535 0.3280 0.3280 0.3280 0.3280 0.3280
3032.710433 0.3275 0.3270 0.3265 0.3260 0.3253
3037.383331 0.3245 0.3238 0.3230 0.3223 0.3215
3042.056229 0.3208 0.3201 0.3191 0.3180 0.3170
3046.729127 0.3160 0.3145 0.3130 0.3115 0.3100
3051.402025 0.3095 0.3090 0.3085 0.3080 0.3078
3056.074923 0.3075 0.3073 0.3070 0.3065 0.3060
3060.747820 0.3055 0.3050 0.3050 0.3050 0.3050
3065.420718 0.3050 0.3055 0.3060 0.3065 0.3070
3070.093616 0.3072 0.3075 0.3077 0.3080 0.3087
3074.766514 0.3095 0.3102 0.3110 0.3117 0.3125
3079.439412 0.3132 0.3139 0.3154 0.3169 0.3185
3084.112310 0.3200 0.3212 0.3225 0.3237 0.3250
3088.785208 0.3257 0.3265 0.3272 0.3280 0.3287
3093.458106 0.3295 0.3302 0.3310 0.3312 0.3315
3098.131004 0.3317 0.3320 0.3325 0.3330 0.3335
3102.803901 0.3340 0.3342 0.3345 0.3347 0.3350
3107.476799 0.3355 0.3360 0.3365 0.3370 0.3370
3112.149697 0.3370 0.3370 0.3370 0.3370 0.3370
3116.822595 0.3370 0.3370 0.3365 0.3360 0.3355
3121.495493 0.3350 0.3350 0.3350 0.3350 0.3350
3126.168391 0.3350 0.3350 0.3350 0.3350 0.3350
3130.841289 0.3350 0.3350 0.3350 0.3350 0.3350
3135.514187 0.3350 0.3350 0.3350 0.3350 0.3350
3140.187085 0.3350 0.3350 0.3350 0.3350 0.3350
3144.859982 0.3348 0.3345 0.3343 0.3340 0.3340
3149.532880 0.3340 0.3340 0.3340 0.3340 0.3340
3154.205778 0.3340 0.3340 0.3335 0.3330 0.3325
3158.878676 0.3320 0.3317 0.3315 0.3313 0.3310
3163.551574 0.3305 0.3300 0.3295 0.3290 0.3290
3168.224472 0.3290 0.3290 0.3290 0.3288 0.3285
3172.897370 0.3283 0.3280 0.3275 0.3270 0.3265
3177.570268 0.3260 0.3260 0.3260 0.3260 0.3260
3182.243165 0.3260 0.3260 0.3260 0.3260 0.3265
3186.916063 0.3270 0.3275 0.3280 0.3280 0.3280
3191.588961 0.3280 0.3280 0.3280 0.3280 0.3280
3196.261859 0.3280 0.3275 0.3270 0.3265 0.3260
3200.934757 0.3260 0.3260 0.3260 0.3260 0.3253
3205.607655 0.3245 0.3238 0.3230 0.3230 0.3230
3210.280553 0.3230 0.3230 0.3230 0.3230 0.3230
3214.953451 0.3230 0.3235 0.3240 0.3245 0.3250
3219.626349 0.3250 0.3250 0.3250 0.3250 0.3250
3224.299246 0.3250 0.3250 0.3250 0.3245 0.3240
3228.972144 0.3235 0.3230 0.3230 0.3230 0.3230
3233.645042 0.3230 0.3227 0.3225 0.3223 0.3220
3238.317940 0.3213 0.3205 0.3198 0.3190 0.3185
3242.990838 0.3180 0.3175 0.3170 0.3170 0.3170
3247.663736 0.3170 0.3170 0.3170 0.3170 0.3170
3252.336634 0.3170 0.3170 0.3170 0.3170 0.3170
3257.009532 0.3170 0.3170 0.3170 0.3170 0.3175
3261.682430 0.3180 0.3185 0.3190 0.3190 0.3190
3266.355327 0.3190 0.3190 0.3190 0.3190 0.3190
3271.028225 0.3190 0.3185 0.3180 0.3175 0.3170
3275.701123 0.3170 0.3170 0.3170 0.3170 0.3168
3280.374021 0.3165 0.3163 0.3160 0.3153 0.3145
3285.046919 0.3138 0.3130 0.3130 0.3130 0.3130
3289.719817 0.3130 0.3125 0.3120 0.3115 0.3110
3294.392715 0.3110 0.3110 0.3110 0.3110 0.3108
3299.065613 0.3105 0.3103 0.3100 0.3095 0.3090
3303.738511 0.3085 0.3080 0.3078 0.3075 0.3073
3308.411408 0.3070 0.3065 0.3060 0.3055 0.3050
3313.084306 0.3050 0.3050 0.3050 0.3050 0.3048
3317.757204 0.3045 0.3043 0.3040 0.3040 0.3040
3322.430102 0.3040 0.3040 0.3035 0.3030 0.3025
3327.103000 0.3020 0.3018 0.3015 0.3013 0.3010
3331.775898 0.3010 0.3010 0.3010 0.3010 0.3010
3336.448796 0.3010 0.3010 0.3010 0.3010 0.3010
3341.121694 0.3010 0.3010 0.3012 0.3015 0.3017
3345.794592 0.3020 0.3020 0.3020 0.3020 0.3020
3350.467489 0.3020 0.3020 0.3020 0.3020 0.3020
3355.140387 0.3020 0.3020 0.3020 0.3025 0.3030
3359.813285 0.3035 0.3040 0.3040 0.3040 0.3040
3364.486183 0.3040 0.3035 0.3030 0.3025 0.3020
3369.159081 0.3020 0.3020 0.3020 0.3020 0.3020
3373.831979 0.3020 0.3020 0.3020 0.3020 0.3020
3378.504877 0.3020 0.3020 0.3020 0.3020 0.3020
3383.177775 0.3020 0.3020 0.3020 0.3020 0.3020
3387.850673 0.3020 0.3020 0.3020 0.3020 0.3018
3392.523570 0.3015 0.3013 0.3010 0.3010 0.3010
3397.196468 0.3010 0.3010 0.3005 0.3000 0.2995
3401.869366 0.2990 0.2990 0.2990 0.2990 0.2990
3406.542264 0.2988 0.2985 0.2983 0.2980 0.2980
3411.215162 0.2980 0.2980 0.2980 0.2980 0.2980
3415.888060 0.2980 0.2980 0.2980 0.2980 0.2980
3420.560958 0.2980 0.2975 0.2970 0.2965 0.2960
3425.233856 0.2958 0.2955 0.2953 0.2950 0.2945
3429.906754 0.2940 0.2935 0.2930 0.2928 0.2925
3434.579651 0.2923 0.2920 0.2920 0.2920 0.2920
3439.252549 0.2920 0.2920 0.2920 0.2920 0.2920
3443.925447 0.2920 0.2920 0.2920 0.2920 0.2915
3448.598345 0.2910 0.2905 0.2900 0.2898 0.2895
3453.271243 0.2893 0.2890 0.2885 0.2880 0.2875
3457.944141 0.2870 0.2868 0.2865 0.2863 0.2860
3462.617039 0.2860 0.2860 0.2860 0.2860 0.2860
3467.289937 0.2860 0.2860 0.2860 0.2855 0.2850
3471.962835 0.2845 0.2840 0.2840 0.2840 0.2840
3476.635732 0.2840 0.2838 0.2835 0.2833 0.2830
3481.308630 0.2830 0.2830 0.2830 0.2830 0.2830
3485.981528 0.2830 0.2830 0.2830 0.2830 0.2830
3490.654426 0.2830 0.2830 0.2830 0.2830 0.2830
3495.327324 0.2830 0.2825 0.2820 0.2815 0.2810
3500.000222 0.2810 0.2810 0.2810 0.2810 0.2810
3504.673120 0.2810 0.2810 0.2810 0.2810 0.2810
3509.346018 0.2810 0.2810 0.2808 0.2805 0.2803
3514.018915 0.2800 0.2800 0.2800 0.2800 0.2800
3518.691813 0.2800 0.2800 0.2800 0.2800 0.2795
3523.364711 0.2790 0.2785 0.2780 0.2780 0.2780
3528.037609 0.2780 0.2780 0.2780 0.2780 0.2780
3532.710507 0.2780 0.2780 0.2780 0.2780 0.2780
3537.383405 0.2780 0.2780 0.2780 0.2780 0.2780
3542.056303 0.2780 0.2780 0.2780 0.2780 0.2780
3546.729201 0.2780 0.2780 0.2780 0.2780 0.2780
3551.402099 0.2780 0.2780 0.2780 0.2780 0.2780
3556.074996 0.2778 0.2775 0.2773 0.2770 0.2770
3560.747894 0.2770 0.2770 0.2770 0.2770 0.2770
3565.420792 0.2770 0.2770 0.2765 0.2760 0.2755
3570.093690 0.2750 0.2750 0.2750 0.2750 0.2750
3574.766588 0.2750 0.2750 0.2750 0.2750 0.2750
3579.439486 0.2750 0.2750 0.2750 0.2750 0.2750
3584.112384 0.2750 0.2750 0.2750 0.2750 0.2750
3588.785282 0.2750 0.2750 0.2750 0.2750 0.2750
3593.458180 0.2748 0.2745 0.2743 0.2740 0.2740
3598.131077 0.2740 0.2740 0.2740 0.2735 0.2730
3602.803975 0.2725 0.2720 0.2718 0.2715 0.2713
3607.476873 0.2710 0.2710 0.2710 0.2710 0.2710
3612.149771 0.2710 0.2710 0.2710 0.2710 0.2705
3616.822669 0.2700 0.2695 0.2690 0.2690 0.2690
3621.495567 0.2690 0.2690 0.2688 0.2685 0.2683
3626.168465 0.2680 0.2680 0.2680 0.2680 0.2680
3630.841363 0.2675 0.2670 0.2665 0.2660 0.2660
3635.514261 0.2660 0.2660 0.2660 0.2660 0.2660
3640.187158 0.2660 0.2660 0.2660 0.2660 0.2660
3644.860056 0.2660 0.2657 0.2655 0.2653 0.2650
3649.532954 0.2650 0.2650 0.2650 0.2650 0.2650
3654.205852 0.2650 0.2650 0.2650 0.2645 0.2640
3658.878750 0.2635 0.2630 0.2630 0.2630 0.2630
3663.551648 0.2630 0.2630 0.2630 0.2630 0.2630
3668.224546 0.2630 0.2630 0.2630 0.2630 0.2630
3672.897444 0.2630 0.2630 0.2630 0.2630 0.2630
3677.570342 0.2630 0.2630 0.2630 0.2630 0.2630
3682.243239 0.2630 0.2630 0.2630 0.2630 0.2630
3686.916137 0.2630 0.2630 0.2630 0.2630 0.2630
3691.589035 0.2630 0.2630 0.2630 0.2628 0.2625
3696.261933 0.2623 0.2620 0.2620 0.2620 0.2620
3700.934831 0.2620 0.2620 0.2620 0.2620 0.2620
3705.607729 0.2620 0.2620 0.2620 0.2620 0.2620
3710.280627 0.2620 0.2620 0.2620 0.2620 0.2620
3714.953525 0.2620 0.2620 0.2615 0.2610 0.2605
3719.626423 0.2600 0.2600 0.2600 0.2600 0.2600
3724.299320 0.2598 0.2595 0.2593 0.2590 0.2590
3728.972218 0.2590 0.2590 0.2590 0.2585 0.2580
3733.645116 0.2575 0.2570 0.2570 0.2570 0.2570
3738.318014 0.2570 0.2570 0.2570 0.2570 0.2570
3742.990912 0.2570 0.2570 0.2570 0.2570 0.2570
3747.663810 0.2570 0.2570 0.2570 0.2568 0.2565
3752.336708 0.2563 0.2560 0.2560 0.2560 0.2560
3757.009606 0.2560 0.2560 0.2560 0.2560 0.2560
3761.682504 0.2560 0.2560 0.2560 0.2560 0.2560
3766.355401 0.2560 0.2560 0.2560 0.2560 0.2560
3771.028299 0.2560 0.2560 0.2560 0.2560 0.2560
3775.701197 0.2560 0.2560 0.2560 0.2560 0.2560
3780.374095 0.2560 0.2560 0.2560 0.2560 0.2560
3785.046993 0.2560 0.2560 0.2560 0.2560 0.2560
3789.719891 0.2560 0.2560 0.2560 0.2560 0.2560
3794.392789 0.2560 0.2560 0.2560 0.2560 0.2560
3799.065687 0.2555 0.2550 0.2545 0.2540 0.2540
3803.738585 0.2540 0.2540 0.2540 0.2538 0.2535
3808.411482 0.2533 0.2530 0.2530 0.2530 0.2530
3813.084380 0.2530 0.2525 0.2520 0.2515 0.2510
3817.757278 0.2510 0.2510 0.2510 0.2510 0.2510
3822.430176 0.2510 0.2510 0.2510 0.2510 0.2510
3827.103074 0.2510 0.2510 0.2510 0.2510 0.2510
3831.775972 0.2510 0.2508 0.2505 0.2503 0.2500
3836.448870 0.2500 0.2500 0.2500 0.2500 0.2500
3841.121768 0.2500 0.2500 0.2500 0.2500 0.2500
3845.794665 0.2500 0.2500 0.2495 0.2490 0.2485
3850.467563 0.2480 0.2480 0.2480 0.2480 0.2480
3855.140461 0.2480 0.2480 0.2480 0.2480 0.2480
3859.813359 0.2480 0.2480 0.2480 0.2478 0.2475
3864.486257 0.2473 0.2470 0.2470 0.2470 0.2470
3869.159155 0.2470 0.2470 0.2470 0.2470 0.2470
3873.832053 0.2470 0.2470 0.2470 0.2470 0.2465
3878.504951 0.2460 0.2455 0.2450 0.2448 0.2445
3883.177849 0.2443 0.2440 0.2435 0.2430 0.2425
3887.850746 0.2420 0.2413 0.2405 0.2398 0.2390
3892.523644 0.2390 0.2390 0.2390 0.2390 0.2390
3897.196542 0.2390 0.2390 0.2390 0.2388 0.2385
3901.869440 0.2383 0.2380 0.2380 0.2380 0.2380
3906.542338 0.2380 0.2380 0.2380 0.2380 0.2380
3911.215236 0.2380 0.2380 0.2380 0.2380 0.2380
3915.888134 0.2380 0.2380 0.2380 0.2380 0.2380
3920.561032 0.2380 0.2380 0.2380 0.2380 0.2380
3925.233930 0.2380 0.2380 0.2380 0.2380 0.2380
3929.906827 0.2380 0.2380 0.2380 0.2380 0.2380
3934.579725 0.2380 0.2380 0.2380 0.2380 0.2380
3939.252623 0.2380 0.2380 0.2380 0.2380 0.2380
3943.925521 0.2380 0.2380 0.2380 0.2380 0.2380
3948.598419 0.2380 0.2380 0.2380 0.2380 0.2380
3953.271317 0.2380 0.2380 0.2380 0.2380 0.2380
3957.944215 0.2380 0.2380 0.2380 0.2380 0.2380
3962.617113 0.2380 0.2380 0.2380 0.2380 0.2380
3967.290011 0.2375 0.2370 0.2365 0.2360 0.2360
3971.962908 0.2360 0.2360 0.2360 0.2360 0.2360
3976.635806 0.2360 0.2360 0.2360 0.2360 0.2360
3981.308704 0.2360 0.2360 0.2360 0.2360 0.2360
3985.981602 0.2360 0.2360 0.2360 0.2360 0.2360
3990.654500 0.2360 0.2360 0.2360
##END=
