##TITLE=BICYCLO[2.2.2]OCT-2-ENE
##JCAMP-DX=4.24
##DATA TYPE=INFRARED SPECTRUM
##CLASS=COBLENTZ III
##ORIGIN=WESTERN REGIONAL RES. USDA
##OWNER=COBLENTZ SOCIETY
Collection (C) 2018 copyright by the U.S. Secretary of Commerce
on behalf of the United States of America. All rights reserved.
##DATE=1966/04/05
##CAS REGISTRY NO=931-64-6
##MOLFORM=C8 H12
##SOURCE REFERENCE=COBLENTZ NO. 10423
##$NIST SOURCE=COBLENTZ
##$NIST IMAGE=cob10423
##SPECTROMETER/DATA SYSTEM=CARY 90 (GRATING)
##INSTRUMENT PARAMETERS=GRATING CHANGES AT 3000, 2000, 1200 CM^-^1
##STATE=SOLUTION (30% WT/VOL IN CCl4 FOR 4000-1590, 30% WT/VOL IN CS2 FOR 1590-450 CM^-^1) VS. SOLVENT
##PATH LENGTH=0.010, 0.010 CM
$$ SEE ALSO SPECTRA NO. 10422 AND 10476
##SAMPLING PROCEDURE=TRANSMISSION
##RESOLUTION=4
##DATA PROCESSING=DIGITIZED BY NIST FROM HARD COPY (FROM TWO SEGMENTS)
##XUNITS=1/CM
##YUNITS=TRANSMITTANCE
##XFACTOR=1.000000
##YFACTOR=1
##DELTAX=0.907326
##FIRSTX=459.365
##LASTX=3992.49
##FIRSTY=0.713
##MAXX=3992.49
##MINX=459.365
##MAXY=0.966
##MINY=0
##NPOINTS=3895
##XYDATA=(X++(Y..Y))
459.365000 0.7130 0.7140 0.7160 0.7180 0.7190
463.901628 0.7200 0.7220 0.7230 0.7240 0.7250
468.438256 0.7290 0.7320 0.7360 0.7390 0.7420
472.974884 0.7460 0.7480 0.7510 0.7540 0.7570
477.511512 0.7590 0.7630 0.7650 0.7680 0.7710
482.048140 0.7730 0.7740 0.7760 0.7780 0.7810
486.584768 0.7820 0.7830 0.7850 0.7880 0.7890
491.121396 0.7910 0.7920 0.7930 0.7950 0.7960
495.658024 0.7970 0.7990 0.8000 0.8010 0.8040
500.194652 0.8050 0.8060 0.8080 0.8090 0.8100
504.731280 0.8120 0.8130 0.8140 0.8150 0.8160
509.267908 0.8170 0.8180 0.8190 0.8210 0.8220
513.804536 0.8230 0.8240 0.8250 0.8260 0.8270
518.341164 0.8280 0.8300 0.8310 0.8320 0.8330
522.877792 0.8340 0.8350 0.8360 0.8380 0.8390
527.414420 0.8400 0.8410 0.8420 0.8430 0.8440
531.951048 0.8450 0.8470 0.8480 0.8490 0.8500
536.487676 0.8510 0.8520 0.8530 0.8550 0.8560
541.024304 0.8570 0.8570 0.8580 0.8590 0.8600
545.560932 0.8610 0.8620 0.8640 0.8650 0.8650
550.097560 0.8670 0.8680 0.8690 0.8700 0.8720
554.634188 0.8730 0.8740 0.8750 0.8760 0.8760
559.170816 0.8770 0.8770 0.8780 0.8780 0.8790
563.707444 0.8790 0.8810 0.8810 0.8820 0.8820
568.244072 0.8830 0.8830 0.8830 0.8840 0.8840
572.780700 0.8850 0.8850 0.8860 0.8860 0.8870
577.317328 0.8890 0.8900 0.8910 0.8940 0.8950
581.853956 0.8960 0.8960 0.8990 0.9010 0.9020
586.390584 0.9030 0.9030 0.9040 0.9060 0.9060
590.927212 0.9070 0.9080 0.9080 0.9090 0.9090
595.463840 0.9100 0.9100 0.9100 0.9110 0.9120
600.000468 0.9120 0.9120 0.9130 0.9130 0.9130
604.537096 0.9150 0.9150 0.9150 0.9150 0.9150
609.073724 0.9150 0.9150 0.9150 0.9150 0.9150
613.610352 0.9150 0.9150 0.9130 0.9130 0.9130
618.146980 0.9130 0.9130 0.9130 0.9130 0.9120
622.683608 0.9120 0.9110 0.9100 0.9090 0.9090
627.220236 0.9080 0.9040 0.9040 0.9020 0.9000
631.756864 0.8960 0.8940 0.8920 0.8890 0.8890
636.293492 0.8960 0.9020 0.9040 0.9040 0.9070
640.830119 0.9080 0.9080 0.9090 0.9090 0.9090
645.366747 0.9090 0.9090 0.9090 0.9090 0.9080
649.903375 0.9080 0.9070 0.9060 0.9040 0.9010
654.440003 0.8980 0.8940 0.8900 0.8860 0.8820
658.976631 0.8780 0.8750 0.8720 0.8690 0.8670
663.513259 0.8660 0.8640 0.8580 0.8500 0.8420
668.049887 0.8340 0.8280 0.8230 0.8160 0.7950
672.586515 0.7720 0.7700 0.7660 0.7630 0.7610
677.123143 0.7330 0.7050 0.6720 0.6460 0.6200
681.659771 0.5601 0.5061 0.4561 0.4032 0.3452
686.196399 0.3110 0.2770 0.1681 0.0312 0.0180
690.733027 0.0040 0.0000 0.0000 0.0000 0.0000
695.269655 0.0000 0.0000 0.0020 0.0110 0.0300
699.806283 0.0639 0.0969 0.1269 0.1539 0.1739
704.342911 0.1850 0.1860 0.1890 0.1930 0.1990
708.879539 0.2040 0.2170 0.2359 0.2619 0.2919
713.416167 0.3641 0.4040 0.4450 0.4850 0.5260
717.952795 0.5659 0.6019 0.6359 0.6948 0.7199
722.489423 0.7410 0.7610 0.7750 0.7890 0.7990
727.026051 0.8080 0.8160 0.8250 0.8320 0.8340
731.562679 0.8350 0.8360 0.8360 0.8360 0.8360
736.099307 0.8360 0.8360 0.8380 0.8390 0.8420
740.635935 0.8480 0.8550 0.8640 0.8730 0.8790
745.172563 0.8850 0.8920 0.8960 0.9020 0.9080
749.709191 0.9120 0.9170 0.9220 0.9260 0.9300
754.245819 0.9340 0.9350 0.9360 0.9370 0.9380
758.782447 0.9390 0.9390 0.9380 0.9370 0.9360
763.319075 0.9360 0.9350 0.9350 0.9340 0.9330
767.855703 0.9330 0.9340 0.9350 0.9370 0.9390
772.392331 0.9440 0.9470 0.9490 0.9490 0.9490
776.928959 0.9470 0.9460 0.9440 0.9420 0.9380
781.465587 0.9350 0.9320 0.9290 0.9280 0.9260
786.002215 0.9210 0.9160 0.9080 0.8950 0.8810
790.538843 0.8590 0.8331 0.8011 0.7621 0.7142
795.075471 0.6670 0.6180 0.5870 0.5570 0.4512
799.612099 0.3343 0.3121 0.2911 0.2502 0.2500
804.148727 0.3350 0.3730 0.4250 0.4899 0.5589
808.685355 0.6887 0.7319 0.7699 0.7989 0.8229
813.221983 0.8400 0.8520 0.8610 0.8690 0.8760
817.758611 0.8820 0.8870 0.8870 0.8890 0.8890
822.295239 0.8830 0.8690 0.8620 0.8480 0.8350
826.831867 0.8180 0.7851 0.7321 0.6901 0.6472
831.368495 0.6310 0.6311 0.7540 0.8010 0.8420
835.905123 0.8720 0.8940 0.9080 0.9170 0.9270
840.441751 0.9350 0.9420 0.9460 0.9500 0.9520
844.978379 0.9520 0.9530 0.9530 0.9530 0.9520
849.515007 0.9520 0.9470 0.9380 0.9320 0.9170
854.051635 0.8980 0.8830 0.8561 0.8361 0.8131
858.588263 0.7839 0.7449 0.6670 0.6240 0.5790
863.124891 0.4941 0.4112 0.3661 0.3211 0.2314
867.661519 0.0930 0.0930 0.1301 0.2290 0.3639
872.198147 0.4559 0.5349 0.6028 0.7127 0.7558
876.734775 0.7910 0.8210 0.8440 0.8640 0.8780
881.271403 0.8910 0.9010 0.9090 0.9170 0.9270
885.808031 0.9350 0.9430 0.9460 0.9500 0.9510
890.344659 0.9520 0.9520 0.9520 0.9520 0.9520
894.881287 0.9520 0.9510 0.9510 0.9510 0.9510
899.417915 0.9500 0.9500 0.9500 0.9500 0.9500
903.954543 0.9500 0.9500 0.9490 0.9490 0.9470
908.491171 0.9470 0.9460 0.9450 0.9430 0.9410
913.027799 0.9380 0.9370 0.9350 0.9350 0.9300
917.564427 0.9260 0.9200 0.9160 0.9100 0.9060
922.101055 0.9000 0.8950 0.8920 0.8890 0.8850
926.637683 0.8830 0.8820 0.8810 0.8760 0.8740
931.174311 0.8720 0.8700 0.8680 0.8660 0.8620
935.710939 0.8570 0.8490 0.8390 0.8250 0.8071
940.247567 0.7850 0.7580 0.7250 0.6860 0.6220
944.784195 0.5591 0.5221 0.5220 0.5360 0.6675
949.320823 0.7150 0.7360 0.7840 0.7850 0.7840
953.857451 0.7810 0.7451 0.7181 0.6782 0.6561
958.394079 0.6340 0.6340 0.6710 0.7220 0.7310
962.930707 0.7869 0.8479 0.8689 0.8839 0.8950
967.467335 0.9040 0.9100 0.9150 0.9180 0.9210
972.003963 0.9250 0.9270 0.9280 0.9300 0.9320
976.540591 0.9320 0.9320 0.9320 0.9320 0.9320
981.077219 0.9320 0.9320 0.9320 0.9320 0.9300
985.613847 0.9300 0.9300 0.9300 0.9290 0.9290
990.150475 0.9290 0.9290 0.9280 0.9270 0.9270
994.687103 0.9260 0.9250 0.9240 0.9180 0.9120
999.223730 0.9090 0.9070 0.9040 0.9020 0.9010
1003.760358 0.8990 0.8950 0.8920 0.8850 0.8770
1008.296986 0.8680 0.8550 0.8390 0.8191 0.7971
1012.833614 0.7680 0.7530 0.7270 0.7010 0.7010
1017.370242 0.7190 0.7639 0.7899 0.8349 0.8360
1021.906870 0.8640 0.8650 0.8690 0.8700 0.8700
1026.443498 0.8700 0.8690 0.8680 0.8660 0.8620
1030.980126 0.8580 0.8470 0.8410 0.8320 0.8190
1035.516754 0.8020 0.7801 0.7501 0.7131 0.6791
1040.053382 0.6730 0.6570 0.6420 0.6730 0.7210
1044.590010 0.7629 0.7889 0.8099 0.8140 0.8170
1049.126638 0.8210 0.8240 0.8280 0.8330 0.8390
1053.663266 0.8430 0.8520 0.8590 0.8650 0.8690
1058.199894 0.8740 0.8760 0.8780 0.8790 0.8810
1062.736522 0.8820 0.8830 0.8830 0.8820 0.8820
1067.273150 0.8790 0.8780 0.8770 0.8760 0.8750
1071.809778 0.8750 0.8750 0.8760 0.8770 0.8770
1076.346406 0.8770 0.8770 0.8760 0.8760 0.8730
1080.883034 0.8690 0.8670 0.8650 0.8620 0.8590
1085.419662 0.8570 0.8520 0.8480 0.8420 0.8340
1089.956290 0.8300 0.8080 0.7761 0.7371 0.6941
1094.492918 0.6720 0.6500 0.6170 0.6170 0.6360
1099.029546 0.6710 0.7020 0.7070 0.7449 0.7919
1103.566174 0.7970 0.8000 0.8010 0.8020 0.8040
1108.102802 0.8040 0.8020 0.7990 0.7960 0.7910
1112.639430 0.7870 0.7820 0.7780 0.7730 0.7700
1117.176058 0.7660 0.7630 0.7610 0.7590 0.7580
1121.712686 0.7590 0.7620 0.7630 0.7630 0.7620
1126.249314 0.7610 0.7550 0.7490 0.7460 0.7380
1130.785942 0.7300 0.7280 0.7190 0.7190 0.7470
1135.322570 0.7570 0.7660 0.7710 0.7740 0.7820
1139.859198 0.7880 0.7910 0.7950 0.7970 0.8000
1144.395826 0.8010 0.8000 0.7960 0.7900 0.7840
1148.932454 0.7780 0.7720 0.7660 0.7620 0.7560
1153.469082 0.7470 0.7410 0.7330 0.7210 0.7021
1158.005710 0.6710 0.6480 0.6259 0.5300 0.4131
1162.542338 0.3551 0.2971 0.3559 0.3849 0.4079
1167.078966 0.4761 0.5421 0.5820 0.6070 0.6380
1171.615594 0.6400 0.6400 0.6051 0.5831 0.5581
1176.152222 0.5329 0.4979 0.4580 0.4580 0.4690
1180.688850 0.4900 0.5240 0.5579 0.5849 0.6678
1185.225478 0.6990 0.7250 0.7460 0.7640 0.7790
1189.762106 0.7950 0.8020 0.8180 0.8280 0.8360
1194.298734 0.8430 0.8480 0.8510 0.8530 0.8570
1198.835362 0.8590 0.8620 0.8660 0.8670 0.8690
1203.371990 0.8700 0.8720 0.8740 0.8740 0.8750
1207.908618 0.8750 0.8750 0.8750 0.8740 0.8720
1212.445246 0.8680 0.8660 0.8610 0.8570 0.8530
1216.981874 0.8500 0.8470 0.8430 0.8390 0.8330
1221.518502 0.8250 0.8100 0.7900 0.7610 0.7410
1226.055130 0.7180 0.6940 0.6701 0.6700 0.6929
1230.591758 0.7380 0.7390 0.7550 0.7710 0.7840
1235.128386 0.8190 0.8300 0.8380 0.8440 0.8500
1239.665014 0.8550 0.8590 0.8620 0.8650 0.8670
1244.201642 0.8690 0.8700 0.8720 0.8720 0.8730
1248.738270 0.8740 0.8740 0.8750 0.8760 0.8770
1253.274898 0.8770 0.8770 0.8770 0.8760 0.8730
1257.811526 0.8720 0.8690 0.8670 0.8660 0.8650
1262.348154 0.8650 0.8640 0.8640 0.8640 0.8620
1266.884782 0.8600 0.8580 0.8560 0.8550 0.8530
1271.421410 0.8530 0.8550 0.8560 0.8590 0.8610
1275.958038 0.8640 0.8660 0.8680 0.8700 0.8730
1280.494666 0.8760 0.8780 0.8810 0.8810 0.8820
1285.031294 0.8820 0.8830 0.8840 0.8840 0.8850
1289.567922 0.8860 0.8870 0.8870 0.8870 0.8860
1294.104550 0.8860 0.8850 0.8840 0.8840 0.8830
1298.641178 0.8830 0.8820 0.8810 0.8790 0.8770
1303.177806 0.8750 0.8730 0.8680 0.8650 0.8590
1307.714434 0.8530 0.8470 0.8390 0.8300 0.8190
1312.251062 0.8080 0.7950 0.7800 0.7610 0.7460
1316.787690 0.7370 0.7320 0.7300 0.7290 0.7290
1321.324318 0.7280 0.7280 0.7220 0.7210 0.7210
1325.860946 0.7200 0.7200 0.7160 0.7110 0.6990
1330.397574 0.6900 0.6840 0.6810 0.6840 0.7110
1334.934202 0.7500 0.7780 0.8010 0.8210 0.8310
1339.470830 0.8380 0.8440 0.8480 0.8510 0.8510
1344.007458 0.8500 0.8410 0.8310 0.8180 0.7741
1348.544086 0.7590 0.7590 0.7680 0.7950 0.8230
1353.080714 0.8360 0.8500 0.8590 0.8680 0.8690
1357.617341 0.8700 0.8700 0.8700 0.8690 0.8660
1362.153969 0.8580 0.8450 0.8340 0.8130 0.7921
1366.690597 0.7619 0.7269 0.6848 0.5609 0.4370
1371.227225 0.3790 0.3210 0.2621 0.1951 0.1950
1375.763853 0.2271 0.2624 0.4302 0.5261 0.6021
1380.300481 0.7060 0.7390 0.7620 0.7760 0.7850
1384.837109 0.7920 0.7980 0.8050 0.8150 0.8220
1389.373737 0.8270 0.8330 0.8390 0.8430 0.8480
1393.910365 0.8520 0.8560 0.8590 0.8620 0.8650
1398.446993 0.8680 0.8700 0.8730 0.8750 0.8760
1402.983621 0.8780 0.8790 0.8810 0.8820 0.8830
1407.520249 0.8840 0.8840 0.8840 0.8840 0.8830
1412.056877 0.8820 0.8820 0.8810 0.8790 0.8780
1416.593505 0.8770 0.8750 0.8740 0.8730 0.8700
1421.130133 0.8690 0.8670 0.8660 0.8640 0.8610
1425.666761 0.8590 0.8570 0.8530 0.8510 0.8480
1430.203389 0.8440 0.8410 0.8360 0.8320 0.8270
1434.740017 0.8220 0.8150 0.8090 0.8040 0.7960
1439.276645 0.7880 0.7780 0.7640 0.7470 0.7270
1443.813273 0.7010 0.6680 0.6480 0.6290 0.5711
1448.349901 0.4428 0.3818 0.3210 0.3200 0.3170
1452.886529 0.3130 0.2160 0.2010 0.2010 0.2289
1457.423157 0.3532 0.4391 0.5031 0.5520 0.5940
1461.959785 0.6360 0.6390 0.6390 0.6380 0.5483
1466.496413 0.4568 0.3999 0.3700 0.3701 0.4300
1471.033041 0.4760 0.5020 0.6927 0.7249 0.7499
1475.569669 0.7670 0.7820 0.7960 0.8080 0.8190
1480.106297 0.8280 0.8380 0.8440 0.8510 0.8570
1484.642925 0.8610 0.8660 0.8690 0.8730 0.8750
1489.179553 0.8770 0.8790 0.8810 0.8830 0.8850
1493.716181 0.8860 0.8870 0.8910 0.8940 0.8950
1498.252809 0.8960 0.8990 0.9000 0.9020 0.9060
1502.789437 0.9090 0.9110 0.9150 0.9180 0.9200
1507.326065 0.9210 0.9220 0.9240 0.9240 0.9240
1511.862693 0.9240 0.9240 0.9240 0.9250 0.9260
1516.399321 0.9270 0.9280 0.9280 0.9300 0.9300
1520.935949 0.9340 0.9370 0.9410 0.9410 0.9440
1525.472577 0.9450 0.9460 0.9470 0.9490 0.9490
1530.009205 0.9490 0.9500 0.9500 0.9510 0.9510
1534.545833 0.9510 0.9520 0.9520 0.9530 0.9530
1539.082461 0.9530 0.9520 0.9510 0.9510 0.9500
1543.619089 0.9490 0.9460 0.9450 0.9440 0.9430
1548.155717 0.9420 0.9420 0.9410 0.9410 0.9410
1552.692345 0.9410 0.9420 0.9420 0.9430 0.9460
1557.228973 0.9470 0.9530 0.9580 0.9620 0.9630
1561.765601 0.9660 0.9660 0.9640 0.9620 0.9610
1566.302229 0.9600 0.9590 0.9590 0.9560 0.9550
1570.838857 0.9550 0.9540 0.9530 0.9510 0.9470
1575.375485 0.9460 0.9450 0.9440 0.9440 0.9430
1579.912113 0.9420 0.9390 0.9370 0.9350 0.9340
1584.448741 0.9330 0.9300 0.9300 0.9290 0.9270
1588.985369 0.9260 0.9250 0.9220 0.9210 0.9200
1593.521997 0.9180 0.9170 0.9160 0.9110 0.9070
1598.058625 0.9030 0.9000 0.8960 0.8900 0.8770
1602.595253 0.8609 0.8419 0.8240 0.8180 0.8170
1607.131881 0.8150 0.8080 0.7960 0.7760 0.7461
1611.668509 0.7029 0.6709 0.6379 0.5630 0.5150
1616.205137 0.4240 0.4040 0.4040 0.4369 0.4909
1620.741765 0.5341 0.5731 0.6161 0.6760 0.6960
1625.278393 0.7150 0.7300 0.7420 0.7500 0.7560
1629.815021 0.7610 0.7650 0.7630 0.7580 0.7550
1634.351649 0.7510 0.7500 0.7510 0.7580 0.7660
1638.888277 0.7810 0.7920 0.8040 0.8180 0.8310
1643.424905 0.8380 0.8480 0.8560 0.8650 0.8700
1647.961533 0.8750 0.8810 0.8860 0.8930 0.8980
1652.498161 0.9020 0.9030 0.9070 0.9090 0.9120
1657.034789 0.9160 0.9200 0.9220 0.9240 0.9250
1661.571417 0.9250 0.9220 0.9180 0.9160 0.9130
1666.108045 0.9120 0.9110 0.9100 0.9100 0.9090
1670.644673 0.9090 0.9090 0.9100 0.9110 0.9150
1675.181301 0.9160 0.9180 0.9190 0.9210 0.9240
1679.717929 0.9260 0.9270 0.9270 0.9280 0.9280
1684.254557 0.9290 0.9300 0.9300 0.9300 0.9320
1688.791185 0.9320 0.9320 0.9330 0.9330 0.9340
1693.327813 0.9370 0.9390 0.9420 0.9440 0.9460
1697.864441 0.9470 0.9500 0.9500 0.9500 0.9510
1702.401069 0.9510 0.9510 0.9500 0.9500 0.9500
1706.937697 0.9500 0.9490 0.9470 0.9460 0.9440
1711.474325 0.9430 0.9420 0.9410 0.9370 0.9370
1716.010952 0.9340 0.9290 0.9280 0.9260 0.9210
1720.547580 0.9160 0.9150 0.9070 0.9060 0.9060
1725.084208 0.9070 0.9070 0.9090 0.9110 0.9110
1729.620836 0.9150 0.9170 0.9190 0.9210 0.9240
1734.157464 0.9260 0.9280 0.9290 0.9300 0.9300
1738.694092 0.9300 0.9320 0.9320 0.9320 0.9320
1743.230720 0.9330 0.9330 0.9330 0.9340 0.9340
1747.767348 0.9340 0.9350 0.9350 0.9360 0.9370
1752.303976 0.9380 0.9390 0.9410 0.9410 0.9420
1756.840604 0.9420 0.9430 0.9430 0.9440 0.9440
1761.377232 0.9450 0.9450 0.9460 0.9470 0.9470
1765.913860 0.9470 0.9490 0.9490 0.9490 0.9500
1770.450488 0.9500 0.9510 0.9510 0.9520 0.9520
1774.987116 0.9520 0.9520 0.9530 0.9530 0.9530
1779.523744 0.9530 0.9530 0.9520 0.9520 0.9520
1784.060372 0.9520 0.9510 0.9500 0.9500 0.9490
1788.597000 0.9490 0.9470 0.9460 0.9460 0.9460
1793.133628 0.9450 0.9450 0.9450 0.9450 0.9450
1797.670256 0.9450 0.9450 0.9460 0.9460 0.9470
1802.206884 0.9490 0.9490 0.9500 0.9500 0.9510
1806.743512 0.9510 0.9520 0.9520 0.9530 0.9530
1811.280140 0.9540 0.9540 0.9550 0.9560 0.9560
1815.816768 0.9580 0.9580 0.9590 0.9590 0.9600
1820.353396 0.9600 0.9600 0.9600 0.9600 0.9600
1824.890024 0.9590 0.9590 0.9590 0.9580 0.9580
1829.426652 0.9560 0.9560 0.9560 0.9550 0.9540
1833.963280 0.9530 0.9530 0.9520 0.9520 0.9510
1838.499908 0.9510 0.9500 0.9500 0.9490 0.9490
1843.036536 0.9490 0.9490 0.9490 0.9490 0.9490
1847.573164 0.9470 0.9470 0.9470 0.9450 0.9440
1852.109792 0.9430 0.9430 0.9420 0.9420 0.9410
1856.646420 0.9410 0.9410 0.9410 0.9420 0.9420
1861.183048 0.9430 0.9430 0.9430 0.9430 0.9440
1865.719676 0.9440 0.9440 0.9440 0.9450 0.9450
1870.256304 0.9460 0.9460 0.9470 0.9470 0.9470
1874.792932 0.9470 0.9470 0.9470 0.9470 0.9460
1879.329560 0.9460 0.9460 0.9460 0.9460 0.9460
1883.866188 0.9460 0.9460 0.9460 0.9460 0.9460
1888.402816 0.9460 0.9460 0.9460 0.9460 0.9460
1892.939444 0.9460 0.9470 0.9470 0.9490 0.9490
1897.476072 0.9490 0.9500 0.9500 0.9500 0.9510
1902.012700 0.9510 0.9510 0.9510 0.9510 0.9510
1906.549328 0.9510 0.9510 0.9510 0.9510 0.9510
1911.085956 0.9510 0.9510 0.9510 0.9510 0.9520
1915.622584 0.9520 0.9520 0.9520 0.9530 0.9530
1920.159212 0.9530 0.9530 0.9540 0.9540 0.9540
1924.695840 0.9540 0.9540 0.9540 0.9540 0.9540
1929.232468 0.9540 0.9540 0.9540 0.9540 0.9540
1933.769096 0.9540 0.9540 0.9540 0.9540 0.9530
1938.305724 0.9530 0.9530 0.9530 0.9530 0.9520
1942.842352 0.9520 0.9520 0.9520 0.9520 0.9520
1947.378980 0.9510 0.9510 0.9510 0.9510 0.9510
1951.915608 0.9510 0.9500 0.9500 0.9490 0.9490
1956.452236 0.9490 0.9470 0.9470 0.9470 0.9460
1960.988864 0.9460 0.9440 0.9440 0.9440 0.9440
1965.525492 0.9430 0.9430 0.9420 0.9420 0.9420
1970.062120 0.9420 0.9420 0.9420 0.9430 0.9430
1974.598748 0.9430 0.9430 0.9440 0.9440 0.9440
1979.135376 0.9440 0.9450 0.9460 0.9470 0.9470
1983.672004 0.9490 0.9500 0.9500 0.9510 0.9520
1988.208632 0.9520 0.9530 0.9540 0.9540 0.9540
1992.745260 0.9550 0.9550 0.9560 0.9560 0.9580
1997.281888 0.9580 0.9580 0.9580 0.9590 0.9590
2001.818516 0.9590 0.9590 0.9590 0.9590 0.9590
2006.355144 0.9595 0.9600 0.9600 0.9600 0.9600
2010.891772 0.9600 0.9600 0.9600 0.9600 0.9600
2015.428400 0.9600 0.9600 0.9600 0.9600 0.9600
2019.965028 0.9600 0.9600 0.9600 0.9600 0.9600
2024.501656 0.9600 0.9600 0.9600 0.9600 0.9600
2029.038284 0.9600 0.9600 0.9600 0.9600 0.9600
2033.574912 0.9600 0.9600 0.9600 0.9600 0.9600
2038.111540 0.9600 0.9600 0.9600 0.9600 0.9600
2042.648168 0.9595 0.9590 0.9590 0.9590 0.9590
2047.184796 0.9590 0.9590 0.9590 0.9590 0.9590
2051.721424 0.9586 0.9581 0.9580 0.9580 0.9580
2056.258052 0.9580 0.9571 0.9561 0.9560 0.9560
2060.794680 0.9560 0.9560 0.9556 0.9551 0.9546
2065.331308 0.9541 0.9536 0.9531 0.9526 0.9521
2069.867936 0.9516 0.9511 0.9493 0.9473 0.9457
2074.404563 0.9442 0.9411 0.9376 0.9362 0.9352
2078.941191 0.9354 0.9359 0.9389 0.9424 0.9442
2083.477819 0.9457 0.9497 0.9541 0.9570 0.9595
2088.014447 0.9600 0.9600 0.9604 0.9609 0.9610
2092.551075 0.9610 0.9606 0.9601 0.9576 0.9546
2097.087703 0.9532 0.9522 0.9512 0.9502 0.9445
2101.624331 0.9376 0.9329 0.9289 0.9234 0.9174
2106.160959 0.9156 0.9151 0.9158 0.9168 0.9189
2110.697587 0.9214 0.9258 0.9308 0.9335 0.9355
2115.234215 0.9364 0.9369 0.9374 0.9379 0.9384
2119.770843 0.9389 0.9397 0.9407 0.9414 0.9419
2124.307471 0.9427 0.9437 0.9444 0.9449 0.9457
2128.844099 0.9467 0.9477 0.9487 0.9494 0.9499
2133.380727 0.9500 0.9500 0.9504 0.9509 0.9510
2137.917355 0.9510 0.9510 0.9510 0.9510 0.9510
2142.453983 0.9510 0.9510 0.9510 0.9510 0.9510
2146.990611 0.9510 0.9510 0.9510 0.9510 0.9510
2151.527239 0.9510 0.9510 0.9510 0.9510 0.9507
2156.063867 0.9502 0.9500 0.9500 0.9497 0.9492
2160.600495 0.9484 0.9474 0.9467 0.9462 0.9460
2165.137123 0.9460 0.9457 0.9452 0.9447 0.9442
2169.673751 0.9440 0.9440 0.9446 0.9456 0.9469
2174.210379 0.9484 0.9499 0.9514 0.9520 0.9520
2178.747007 0.9523 0.9528 0.9533 0.9538 0.9543
2183.283635 0.9548 0.9553 0.9558 0.9560 0.9560
2187.820263 0.9566 0.9576 0.9580 0.9580 0.9580
2192.356891 0.9580 0.9580 0.9580 0.9580 0.9580
2196.893519 0.9574 0.9564 0.9560 0.9560 0.9557
2201.430147 0.9552 0.9547 0.9542 0.9540 0.9540
2205.966775 0.9534 0.9524 0.9520 0.9520 0.9517
2210.503403 0.9512 0.9499 0.9479 0.9465 0.9455
2215.040031 0.9447 0.9442 0.9437 0.9432 0.9433
2219.576659 0.9438 0.9443 0.9448 0.9453 0.9458
2224.113287 0.9463 0.9468 0.9470 0.9470 0.9475
2228.649915 0.9485 0.9490 0.9490 0.9485 0.9475
2233.186543 0.9468 0.9463 0.9458 0.9453 0.9448
2237.723171 0.9443 0.9435 0.9425 0.9413 0.9398
2242.259799 0.9385 0.9375 0.9363 0.9348 0.9335
2246.796427 0.9325 0.9308 0.9284 0.9259 0.9234
2251.333055 0.9197 0.9148 0.9095 0.9040 0.9008
2255.869683 0.9003 0.9002 0.9007 0.9041 0.9111
2260.406311 0.9161 0.9186 0.9215 0.9250 0.9283
2264.942939 0.9313 0.9336 0.9351 0.9362 0.9367
2269.479567 0.9374 0.9384 0.9390 0.9390 0.9390
2274.016195 0.9390 0.9390 0.9390 0.9390 0.9390
2278.552823 0.9388 0.9383 0.9380 0.9380 0.9378
2283.089451 0.9373 0.9370 0.9370 0.9368 0.9363
2287.626079 0.9360 0.9360 0.9358 0.9353 0.9350
2292.162707 0.9350 0.9350 0.9350 0.9350 0.9350
2296.699335 0.9350 0.9350 0.9350 0.9350 0.9350
2301.235963 0.9350 0.9350 0.9350 0.9350 0.9350
2305.772591 0.9350 0.9350 0.9350 0.9350 0.9350
2310.309219 0.9350 0.9350 0.9350 0.9350 0.9350
2314.845847 0.9350 0.9350 0.9350 0.9350 0.9350
2319.382475 0.9350 0.9348 0.9343 0.9340 0.9340
2323.919103 0.9339 0.9334 0.9323 0.9298 0.9275
2328.455731 0.9260 0.9244 0.9224 0.9204 0.9184
2332.992359 0.9164 0.9144 0.9137 0.9162 0.9188
2337.528987 0.9218 0.9245 0.9265 0.9287 0.9312
2342.065615 0.9330 0.9330 0.9331 0.9336 0.9340
2346.602243 0.9340 0.9340 0.9340 0.9339 0.9334
2351.138871 0.9330 0.9330 0.9330 0.9330 0.9326
2355.675499 0.9312 0.9291 0.9251 0.9208 0.9153
2360.212127 0.9110 0.9110 0.9128 0.9214 0.9281
2364.748755 0.9286 0.9293 0.9308 0.9322 0.9332
2369.285383 0.9342 0.9352 0.9362 0.9372 0.9383
2373.822011 0.9398 0.9411 0.9416 0.9420 0.9420
2378.358639 0.9421 0.9426 0.9430 0.9430 0.9431
2382.895267 0.9436 0.9440 0.9440 0.9441 0.9446
2387.431895 0.9450 0.9450 0.9450 0.9450 0.9450
2391.968523 0.9450 0.9451 0.9456 0.9460 0.9460
2396.505151 0.9460 0.9460 0.9460 0.9460 0.9460
2401.041779 0.9460 0.9460 0.9460 0.9460 0.9460
2405.578407 0.9460 0.9460 0.9460 0.9460 0.9460
2410.115035 0.9460 0.9460 0.9460 0.9460 0.9460
2414.651663 0.9459 0.9455 0.9450 0.9450 0.9449
2419.188291 0.9444 0.9440 0.9440 0.9440 0.9435
2423.724919 0.9430 0.9425 0.9420 0.9415 0.9409
2428.261547 0.9399 0.9389 0.9379 0.9370 0.9370
2432.798174 0.9370 0.9370 0.9370 0.9365 0.9360
2437.334802 0.9360 0.9360 0.9355 0.9350 0.9350
2441.871430 0.9349 0.9340 0.9330 0.9325 0.9320
2446.408058 0.9310 0.9300 0.9295 0.9290 0.9285
2450.944686 0.9280 0.9275 0.9270 0.9265 0.9260
2455.481314 0.9250 0.9240 0.9230 0.9220 0.9215
2460.017942 0.9210 0.9205 0.9200 0.9200 0.9200
2464.554570 0.9205 0.9210 0.9210 0.9210 0.9215
2469.091198 0.9220 0.9230 0.9240 0.9245 0.9250
2473.627826 0.9255 0.9260 0.9265 0.9270 0.9275
2478.164454 0.9280 0.9280 0.9280 0.9280 0.9280
2482.701082 0.9280 0.9280 0.9275 0.9270 0.9265
2487.237710 0.9260 0.9260 0.9260 0.9255 0.9250
2491.774338 0.9245 0.9240 0.9231 0.9221 0.9220
2496.310966 0.9220 0.9229 0.9239 0.9245 0.9250
2500.847594 0.9250 0.9250 0.9255 0.9260 0.9265
2505.384222 0.9270 0.9270 0.9270 0.9270 0.9270
2509.920850 0.9270 0.9270 0.9270 0.9270 0.9265
2514.457478 0.9261 0.9256 0.9251 0.9232 0.9212
2518.994106 0.9188 0.9163 0.9142 0.9123 0.9103
2523.530734 0.9083 0.9076 0.9071 0.9066 0.9061
2528.067362 0.9064 0.9069 0.9083 0.9098 0.9109
2532.603990 0.9119 0.9141 0.9166 0.9174 0.9179
2537.140618 0.9188 0.9198 0.9204 0.9209 0.9214
2541.677246 0.9219 0.9220 0.9220 0.9232 0.9248
2546.213874 0.9250 0.9250 0.9250 0.9250 0.9246
2550.750502 0.9241 0.9240 0.9240 0.9232 0.9222
2555.287130 0.9216 0.9211 0.9210 0.9210 0.9206
2559.823758 0.9201 0.9196 0.9191 0.9190 0.9190
2564.360386 0.9186 0.9181 0.9176 0.9171 0.9162
2568.897014 0.9152 0.9134 0.9114 0.9102 0.9092
2573.433642 0.9078 0.9064 0.9049 0.9034 0.9022
2577.970270 0.9012 0.9002 0.8993 0.8979 0.8964
2582.506898 0.8956 0.8951 0.8950 0.8950 0.8943
2587.043526 0.8933 0.8930 0.8930 0.8926 0.8921
2591.580154 0.8920 0.8920 0.8916 0.8911 0.8903
2596.116782 0.8893 0.8876 0.8856 0.8839 0.8824
2600.653410 0.8809 0.8794 0.8790 0.8790 0.8801
2605.190038 0.8816 0.8834 0.8854 0.8884 0.8919
2609.726666 0.8961 0.9006 0.9034 0.9054 0.9067
2614.263294 0.9077 0.9053 0.9013 0.8966 0.8916
2618.799922 0.8849 0.8774 0.8703 0.8633 0.8513
2623.336550 0.8369 0.8191 0.7996 0.7930 0.7930
2627.873178 0.7969 0.8029 0.8085 0.8140 0.8179
2632.409806 0.8209 0.8312 0.8456 0.8618 0.8789
2636.946434 0.8882 0.8932 0.8950 0.8950 0.8963
2641.483062 0.8983 0.8996 0.9006 0.9013 0.9018
2646.019690 0.9011 0.8996 0.8975 0.8950 0.8889
2650.556318 0.8804 0.8731 0.8667 0.8640 0.8640
2655.092946 0.8655 0.8680 0.8744 0.8833 0.8891
2659.629574 0.8926 0.8969 0.9019 0.9054 0.9079
2664.166202 0.9093 0.9098 0.9097 0.9092 0.9070
2668.702830 0.9035 0.8987 0.8927 0.8883 0.8853
2673.239458 0.8812 0.8762 0.8723 0.8693 0.8677
2677.776086 0.8672 0.8673 0.8678 0.8707 0.8757
2682.312714 0.8815 0.8880 0.8934 0.8979 0.9018
2686.849342 0.9053 0.9083 0.9108 0.9130 0.9150
2691.385970 0.9165 0.9175 0.9185 0.9195 0.9203
2695.922598 0.9208 0.9213 0.9218 0.9220 0.9220
2700.459226 0.9225 0.9235 0.9240 0.9240 0.9233
2704.995854 0.9218 0.9210 0.9210 0.9203 0.9188
2709.532482 0.9165 0.9136 0.9065 0.8950 0.8826
2714.069110 0.8691 0.8557 0.8422 0.8267 0.8087
2718.605738 0.7949 0.7859 0.7810 0.7810 0.7872
2723.142366 0.8012 0.8147 0.8277 0.8403 0.8523
2727.678994 0.8657 0.8807 0.8932 0.9027 0.9084
2732.215622 0.9094 0.9102 0.9107 0.9110 0.9110
2736.752250 0.9108 0.9103 0.9100 0.9100 0.9098
2741.288878 0.9093 0.9088 0.9083 0.9076 0.9066
2745.825506 0.9056 0.9046 0.9038 0.9033 0.9030
2750.362134 0.9030 0.9030 0.9030 0.9032 0.9037
2754.898762 0.9040 0.9040 0.9044 0.9054 0.9060
2759.435390 0.9060 0.9060 0.9060 0.9060 0.9060
2763.972018 0.9056 0.9046 0.9036 0.9026 0.9013
2768.508646 0.8993 0.8968 0.8933 0.8898 0.8863
2773.045274 0.8826 0.8786 0.8750 0.8720 0.8692
2777.581902 0.8667 0.8629 0.8564 0.8506 0.8460
2782.118530 0.8423 0.8403 0.8379 0.8344 0.8309
2786.655158 0.8274 0.8239 0.8204 0.8180 0.8180
2791.191785 0.8182 0.8186 0.8193 0.8203 0.8207
2795.728413 0.8197 0.8180 0.8145 0.8103 0.8043
2800.265041 0.7953 0.7794 0.7653 0.7558 0.7490
2804.801669 0.7490 0.7574 0.7878 0.8104 0.8119
2809.338297 0.8130 0.8130 0.8124 0.8099 0.8075
2813.874925 0.8055 0.8022 0.7947 0.7889 0.7884
2818.411553 0.7859 0.7774 0.7689 0.7604 0.7524
2822.948181 0.7460 0.7402 0.7367 0.7314 0.7199
2827.484809 0.7084 0.6970 0.6864 0.6789 0.6713
2832.021437 0.6633 0.6545 0.6426 0.6297 0.6131
2836.558065 0.5929 0.5595 0.5284 0.5065 0.4847
2841.094693 0.4632 0.4419 0.4209 0.4006 0.3826
2845.631321 0.3646 0.3461 0.3256 0.2957 0.2648
2850.167949 0.2294 0.1949 0.1645 0.1345 0.1068
2854.704577 0.0806 0.0611 0.0424 0.0269 0.0138
2859.241205 0.0123 0.0104 0.0070 0.0039 0.0034
2863.777833 0.0029 0.0024 0.0020 0.0020 0.0021
2868.314461 0.0026 0.0030 0.0030 0.0031 0.0041
2872.851089 0.0055 0.0095 0.0142 0.0237 0.0341
2877.387717 0.0505 0.0696 0.1080 0.1421 0.1431
2881.924345 0.1438 0.1423 0.1392 0.1212 0.1037
2886.460973 0.0897 0.0763 0.0688 0.0620 0.0620
2890.997601 0.0643 0.0883 0.1101 0.1111 0.1119
2895.534229 0.1109 0.1079 0.0820 0.0570 0.0435
2900.070857 0.0307 0.0257 0.0207 0.0168 0.0129
2904.607485 0.0119 0.0110 0.0110 0.0110 0.0115
2909.144113 0.0120 0.0125 0.0130 0.0135 0.0140
2913.680741 0.0135 0.0129 0.0114 0.0099 0.0085
2918.217369 0.0070 0.0055 0.0040 0.0035 0.0030
2922.753997 0.0025 0.0020 0.0015 0.0010 0.0005
2927.290625 0.0000 0.0000 0.0000 0.0000 0.0000
2931.827253 0.0000 0.0000 0.0000 0.0000 0.0000
2936.363881 0.0000 0.0000 0.0000 0.0000 0.0000
2940.900509 0.0000 0.0000 0.0000 0.0000 0.0000
2945.437137 0.0000 0.0005 0.0010 0.0010 0.0010
2949.973765 0.0010 0.0010 0.0015 0.0020 0.0020
2954.510393 0.0020 0.0020 0.0020 0.0025 0.0030
2959.047021 0.0030 0.0030 0.0035 0.0040 0.0045
2963.583649 0.0050 0.0055 0.0060 0.0074 0.0089
2968.120277 0.0095 0.0100 0.0109 0.0119 0.0138
2972.656905 0.0158 0.0329 0.0513 0.0666 0.0815
2977.193533 0.1014 0.1219 0.1468 0.1722 0.1867
2981.730161 0.1997 0.2231 0.2475 0.2912 0.3370
2986.266789 0.3553 0.3703 0.3861 0.4021 0.4123
2990.803417 0.4218 0.4339 0.4464 0.4606 0.4750
2995.340045 0.4826 0.4891 0.4934 0.4974 0.5019
2999.876673 0.5064 0.5225 0.5405 0.5477 0.5532
3004.413301 0.5591 0.5651 0.5681 0.5706 0.5718
3008.949929 0.5728 0.5730 0.5730 0.5730 0.5730
3013.486557 0.5722 0.5712 0.5686 0.5656 0.5597
3018.023185 0.5531 0.5479 0.5429 0.5371 0.5311
3022.559813 0.5215 0.5110 0.4989 0.4865 0.4676
3027.096441 0.4472 0.4255 0.4036 0.3856 0.3686
3031.633069 0.3513 0.3339 0.3090 0.2821 0.2562
3036.169697 0.2305 0.1980 0.1636 0.1369 0.1125
3040.706325 0.0931 0.0752 0.0622 0.0507 0.0415
3045.242953 0.0331 0.0299 0.0284 0.0287 0.0297
3049.779581 0.0356 0.0431 0.0561 0.0710 0.0931
3054.316209 0.1178 0.1464 0.1763 0.2088 0.2422
3058.852837 0.3068 0.3826 0.4168 0.4358 0.4522
3063.389465 0.4677 0.4914 0.5183 0.5345 0.5465
3067.926093 0.5602 0.5747 0.5913 0.6087 0.6207
3072.462721 0.6302 0.6496 0.6730 0.6853 0.6927
3076.999349 0.7037 0.7162 0.7245 0.7310 0.7333
3081.535977 0.7338 0.7374 0.7424 0.7460 0.7490
3086.072605 0.7513 0.7533 0.7593 0.7673 0.7760
3090.609233 0.7850 0.7917 0.7972 0.8053 0.8148
3095.145861 0.8203 0.8238 0.8266 0.8291 0.8355
3099.682489 0.8440 0.8508 0.8568 0.8600 0.8614
3104.219117 0.8620 0.8620 0.8632 0.8652 0.8688
3108.755745 0.8733 0.8769 0.8799 0.8816 0.8826
3113.292373 0.8836 0.8846 0.8856 0.8866 0.8879
3117.829001 0.8894 0.8909 0.8924 0.8936 0.8946
3122.365629 0.8962 0.8982 0.8996 0.9006 0.9019
3126.902257 0.9034 0.9049 0.9064 0.9076 0.9086
3131.438885 0.9093 0.9098 0.9103 0.9108 0.9113
3135.975513 0.9118 0.9120 0.9120 0.9123 0.9128
3140.512141 0.9130 0.9130 0.9135 0.9145 0.9153
3145.048769 0.9158 0.9160 0.9160 0.9160 0.9160
3149.585396 0.9160 0.9160 0.9157 0.9152 0.9142
3154.122024 0.9127 0.9115 0.9105 0.9095 0.9085
3158.658652 0.9075 0.9065 0.9060 0.9060 0.9063
3163.195280 0.9068 0.9073 0.9078 0.9085 0.9095
3167.731908 0.9103 0.9107 0.9120 0.9140 0.9155
3172.268536 0.9165 0.9172 0.9177 0.9180 0.9180
3176.805164 0.9178 0.9173 0.9168 0.9163 0.9160
3181.341792 0.9160 0.9160 0.9160 0.9162 0.9167
3185.878420 0.9170 0.9170 0.9170 0.9170 0.9172
3190.415048 0.9177 0.9180 0.9180 0.9178 0.9173
3194.951676 0.9166 0.9156 0.9144 0.9129 0.9116
3199.488304 0.9106 0.9096 0.9086 0.9076 0.9066
3204.024932 0.9052 0.9032 0.8987 0.8907 0.8841
3208.561560 0.8797 0.8746 0.8686 0.8624 0.8559
3213.098188 0.8506 0.8471 0.8440 0.8415 0.8400
3217.634816 0.8400 0.8426 0.8491 0.8542 0.8572
3222.171444 0.8596 0.8611 0.8633 0.8668 0.8696
3226.708072 0.8711 0.8726 0.8740 0.8764 0.8804
3231.244700 0.8842 0.8877 0.8904 0.8913 0.8927
3235.781328 0.8947 0.8969 0.8994 0.9021 0.9050
3240.317956 0.9077 0.9097 0.9113 0.9123 0.9133
3244.854584 0.9143 0.9150 0.9150 0.9153 0.9163
3249.391212 0.9172 0.9177 0.9180 0.9180 0.9183
3253.927840 0.9193 0.9200 0.9200 0.9202 0.9207
3258.464468 0.9210 0.9210 0.9212 0.9216 0.9223
3263.001096 0.9233 0.9240 0.9240 0.9241 0.9246
3267.537724 0.9251 0.9256 0.9260 0.9260 0.9261
3272.074352 0.9266 0.9270 0.9270 0.9270 0.9270
3276.610980 0.9270 0.9270 0.9270 0.9270 0.9269
3281.147608 0.9264 0.9260 0.9260 0.9260 0.9260
3285.684236 0.9259 0.9254 0.9249 0.9244 0.9238
3290.220864 0.9228 0.9216 0.9201 0.9190 0.9190
3294.757492 0.9189 0.9184 0.9180 0.9180 0.9179
3299.294120 0.9174 0.9170 0.9170 0.9170 0.9170
3303.830748 0.9170 0.9170 0.9169 0.9164 0.9159
3308.367376 0.9154 0.9148 0.9138 0.9129 0.9124
3312.904004 0.9118 0.9108 0.9098 0.9088 0.9079
3317.440632 0.9074 0.9069 0.9064 0.9058 0.9048
3321.977260 0.9039 0.9034 0.9030 0.9030 0.9031
3326.513888 0.9036 0.9042 0.9057 0.9072 0.9082
3331.050516 0.9091 0.9096 0.9101 0.9106 0.9111
3335.587144 0.9121 0.9131 0.9141 0.9151 0.9156
3340.123772 0.9160 0.9160 0.9161 0.9171 0.9181
3344.660400 0.9186 0.9191 0.9196 0.9201 0.9211
3349.197028 0.9222 0.9237 0.9251 0.9261 0.9271
3353.733656 0.9275 0.9280 0.9285 0.9290 0.9295
3358.270284 0.9301 0.9311 0.9320 0.9325 0.9330
3362.806912 0.9330 0.9330 0.9335 0.9340 0.9340
3367.343540 0.9340 0.9340 0.9340 0.9340 0.9340
3371.880168 0.9340 0.9340 0.9340 0.9340 0.9335
3376.416796 0.9330 0.9330 0.9330 0.9325 0.9320
3380.953424 0.9320 0.9320 0.9310 0.9300 0.9290
3385.490052 0.9280 0.9280 0.9280 0.9275 0.9270
3390.026680 0.9265 0.9260 0.9260 0.9260 0.9255
3394.563308 0.9250 0.9250 0.9250 0.9250 0.9250
3399.099936 0.9255 0.9260 0.9260 0.9260 0.9265
3403.636564 0.9270 0.9275 0.9280 0.9285 0.9290
3408.173192 0.9295 0.9300 0.9310 0.9320 0.9325
3412.709820 0.9330 0.9335 0.9340 0.9345 0.9350
3417.246448 0.9350 0.9350 0.9350 0.9350 0.9355
3421.783076 0.9360 0.9360 0.9360 0.9360 0.9360
3426.319704 0.9360 0.9360 0.9365 0.9370 0.9370
3430.856332 0.9370 0.9370 0.9370 0.9370 0.9370
3435.392960 0.9370 0.9370 0.9370 0.9370 0.9370
3439.929588 0.9370 0.9370 0.9370 0.9370 0.9370
3444.466216 0.9370 0.9370 0.9370 0.9370 0.9370
3449.002844 0.9370 0.9366 0.9361 0.9360 0.9360
3453.539472 0.9360 0.9360 0.9360 0.9360 0.9360
3458.076100 0.9360 0.9356 0.9351 0.9350 0.9350
3462.612728 0.9350 0.9350 0.9350 0.9350 0.9346
3467.149356 0.9341 0.9340 0.9340 0.9340 0.9340
3471.685984 0.9336 0.9331 0.9330 0.9330 0.9330
3476.222612 0.9330 0.9326 0.9321 0.9312 0.9302
3480.759240 0.9300 0.9300 0.9300 0.9300 0.9292
3485.295868 0.9282 0.9280 0.9280 0.9280 0.9280
3489.832496 0.9280 0.9280 0.9276 0.9271 0.9270
3494.369124 0.9270 0.9266 0.9261 0.9260 0.9260
3498.905752 0.9264 0.9269 0.9270 0.9270 0.9270
3503.442380 0.9270 0.9270 0.9270 0.9270 0.9270
3507.979007 0.9270 0.9270 0.9270 0.9270 0.9266
3512.515635 0.9261 0.9260 0.9260 0.9260 0.9260
3517.052263 0.9260 0.9260 0.9260 0.9260 0.9260
3521.588891 0.9260 0.9256 0.9251 0.9246 0.9241
3526.125519 0.9240 0.9240 0.9233 0.9223 0.9216
3530.662147 0.9211 0.9206 0.9201 0.9196 0.9191
3535.198775 0.9190 0.9190 0.9186 0.9181 0.9180
3539.735403 0.9180 0.9177 0.9172 0.9170 0.9170
3544.272031 0.9167 0.9162 0.9160 0.9160 0.9160
3548.808659 0.9160 0.9160 0.9160 0.9163 0.9168
3553.345287 0.9170 0.9170 0.9170 0.9170 0.9173
3557.881915 0.9178 0.9180 0.9180 0.9180 0.9180
3562.418543 0.9183 0.9188 0.9190 0.9190 0.9193
3566.955171 0.9198 0.9200 0.9200 0.9203 0.9208
3571.491799 0.9210 0.9210 0.9213 0.9218 0.9220
3576.028427 0.9220 0.9226 0.9236 0.9240 0.9240
3580.565055 0.9243 0.9248 0.9250 0.9250 0.9250
3585.101683 0.9250 0.9250 0.9250 0.9250 0.9250
3589.638311 0.9250 0.9250 0.9250 0.9250 0.9250
3594.174939 0.9250 0.9250 0.9250 0.9247 0.9242
3598.711567 0.9240 0.9240 0.9234 0.9224 0.9217
3603.248195 0.9212 0.9210 0.9210 0.9207 0.9202
3607.784823 0.9197 0.9192 0.9190 0.9190 0.9190
3612.321451 0.9190 0.9187 0.9182 0.9180 0.9180
3616.858079 0.9177 0.9172 0.9170 0.9170 0.9170
3621.394707 0.9170 0.9167 0.9162 0.9163 0.9168
3625.931335 0.9170 0.9170 0.9173 0.9178 0.9180
3630.467963 0.9180 0.9183 0.9187 0.9192 0.9197
3635.004591 0.9200 0.9200 0.9203 0.9207 0.9210
3639.541219 0.9210 0.9210 0.9210 0.9212 0.9217
3644.077847 0.9220 0.9220 0.9220 0.9220 0.9220
3648.614475 0.9220 0.9220 0.9220 0.9218 0.9213
3653.151103 0.9210 0.9210 0.9210 0.9210 0.9210
3657.687731 0.9210 0.9208 0.9203 0.9200 0.9200
3662.224359 0.9200 0.9200 0.9198 0.9193 0.9190
3666.760987 0.9190 0.9190 0.9190 0.9190 0.9190
3671.297615 0.9190 0.9190 0.9188 0.9183 0.9180
3675.834243 0.9180 0.9180 0.9180 0.9178 0.9173
3680.370871 0.9170 0.9170 0.9170 0.9170 0.9170
3684.907499 0.9170 0.9168 0.9163 0.9160 0.9160
3689.444127 0.9160 0.9160 0.9158 0.9153 0.9150
3693.980755 0.9150 0.9146 0.9136 0.9130 0.9130
3698.517383 0.9128 0.9123 0.9118 0.9113 0.9108
3703.054011 0.9103 0.9100 0.9100 0.9098 0.9093
3707.590639 0.9087 0.9077 0.9068 0.9063 0.9057
3712.127267 0.9047 0.9038 0.9033 0.9028 0.9023
3716.663895 0.9018 0.9013 0.9010 0.9010 0.9008
3721.200523 0.9003 0.9000 0.9000 0.8999 0.8994
3725.737151 0.8990 0.8990 0.8990 0.8990 0.8990
3730.273779 0.8990 0.8990 0.8990 0.8991 0.8996
3734.810407 0.9001 0.9006 0.9011 0.9016 0.9021
3739.347035 0.9026 0.9030 0.9030 0.9031 0.9036
3743.883663 0.9043 0.9053 0.9061 0.9066 0.9071
3748.420291 0.9076 0.9081 0.9086 0.9091 0.9096
3752.956919 0.9101 0.9106 0.9110 0.9110 0.9111
3757.493547 0.9116 0.9121 0.9126 0.9130 0.9130
3762.030175 0.9132 0.9142 0.9150 0.9150 0.9150
3766.566803 0.9150 0.9150 0.9150 0.9151 0.9156
3771.103431 0.9160 0.9160 0.9161 0.9166 0.9170
3775.640059 0.9170 0.9170 0.9170 0.9170 0.9170
3780.176687 0.9170 0.9170 0.9170 0.9170 0.9170
3784.713315 0.9170 0.9170 0.9170 0.9170 0.9170
3789.249943 0.9171 0.9176 0.9180 0.9180 0.9181
3793.786571 0.9186 0.9190 0.9190 0.9191 0.9196
3798.323199 0.9200 0.9200 0.9200 0.9200 0.9201
3802.859827 0.9206 0.9210 0.9210 0.9211 0.9216
3807.396455 0.9220 0.9220 0.9221 0.9231 0.9240
3811.933083 0.9240 0.9241 0.9246 0.9250 0.9250
3816.469711 0.9251 0.9256 0.9260 0.9260 0.9261
3821.006339 0.9266 0.9270 0.9270 0.9270 0.9270
3825.542967 0.9270 0.9270 0.9270 0.9275 0.9280
3830.079595 0.9280 0.9280 0.9280 0.9280 0.9280
3834.616223 0.9280 0.9280 0.9280 0.9280 0.9280
3839.152851 0.9280 0.9280 0.9280 0.9280 0.9280
3843.689479 0.9280 0.9275 0.9270 0.9270 0.9270
3848.226107 0.9270 0.9270 0.9270 0.9270 0.9260
3852.762735 0.9250 0.9250 0.9250 0.9245 0.9240
3857.299363 0.9240 0.9240 0.9230 0.9220 0.9220
3861.835991 0.9220 0.9210 0.9200 0.9200 0.9200
3866.372618 0.9195 0.9190 0.9190 0.9190 0.9185
3870.909246 0.9180 0.9180 0.9180 0.9175 0.9170
3875.445874 0.9170 0.9170 0.9165 0.9160 0.9160
3879.982502 0.9160 0.9155 0.9150 0.9150 0.9150
3884.519130 0.9140 0.9130 0.9130 0.9130 0.9125
3889.055758 0.9120 0.9115 0.9110 0.9110 0.9110
3893.592386 0.9101 0.9091 0.9085 0.9080 0.9075
3898.129014 0.9070 0.9065 0.9060 0.9051 0.9041
3902.665642 0.9035 0.9030 0.9025 0.9020 0.9011
3907.202270 0.9001 0.8991 0.8981 0.8971 0.8961
3911.738898 0.8951 0.8941 0.8931 0.8921 0.8911
3916.275526 0.8901 0.8896 0.8891 0.8877 0.8862
3920.812154 0.8851 0.8841 0.8836 0.8831 0.8830
3925.348782 0.8830 0.8830 0.8830 0.8826 0.8821
3929.885410 0.8816 0.8811 0.8801 0.8791 0.8786
3934.422038 0.8781 0.8780 0.8780 0.8780 0.8780
3938.958666 0.8780 0.8780 0.8776 0.8771 0.8770
3943.495294 0.8770 0.8766 0.8761 0.8760 0.8760
3948.031922 0.8760 0.8760 0.8760 0.8760 0.8760
3952.568550 0.8760 0.8760 0.8760 0.8764 0.8769
3957.105178 0.8770 0.8770 0.8770 0.8770 0.8770
3961.641806 0.8770 0.8770 0.8770 0.8770 0.8770
3966.178434 0.8770 0.8770 0.8770 0.8770 0.8770
3970.715062 0.8770 0.8770 0.8770 0.8774 0.8779
3975.251690 0.8780 0.8780 0.8780 0.8780 0.8784
3979.788318 0.8789 0.8790 0.8790 0.8790 0.8790
3984.324946 0.8790 0.8790 0.8797 0.8807 0.8810
3988.861574 0.8810 0.8810 0.8810 0.8810 0.8810
##END=
