##TITLE=BICYCLO[2.2.2]OCT-2-ENE
##JCAMP-DX=4.24
##DATA TYPE=INFRARED SPECTRUM
##CLASS=COBLENTZ
##ORIGIN=WESTERN REGIONAL RES. USDA
##OWNER=COBLENTZ SOCIETY
Collection (C) 2018 copyright by the U.S. Secretary of Commerce
on behalf of the United States of America. All rights reserved.
##DATE=1966/03/09
##CAS REGISTRY NO=931-64-6
##MOLFORM=C8 H12
##SOURCE REFERENCE=COBLENTZ NO. 10476
##$NIST SOURCE=COBLENTZ
##$NIST IMAGE=cob-r10476
##SPECTROMETER/DATA SYSTEM=CARY 90 (GRATING)
##INSTRUMENT PARAMETERS=GRATING CHANGES: 3000, 2000, 1200 CM^-^1
##STATE=GAS (6 TORR VS. EVACUATED CELL)
$$ SEE ALSO SPECTRA NO. 10422 AND 10423
##PATH LENGTH=20 CM CELL
##SAMPLING PROCEDURE=TRANSMISSION
##RESOLUTION=2
##DATA PROCESSING=DIGITIZED BY NIST FROM HARD COPY (FROM TWO SEGMENTS)
##XUNITS=1/CM
##YUNITS=TRANSMITTANCE
##XFACTOR=1.000000
##YFACTOR=1
##DELTAX=1.302612
##FIRSTX=452.505
##LASTX=3986.49
##FIRSTY=0.913
##MAXX=3986.49
##MINX=452.505
##MAXY=0.930999
##MINY=0.00120909
##NPOINTS=2714
##XYDATA=(X++(Y..Y))
452.505000 0.9130 0.9130 0.9130 0.9140 0.9140
459.018062 0.9140 0.9140 0.9140 0.9160 0.9160
465.531125 0.9160 0.9160 0.9160 0.9160 0.9140
472.044187 0.9140 0.9140 0.9140 0.9140 0.9140
478.557250 0.9140 0.9140 0.9140 0.9140 0.9140
485.070312 0.9140 0.9160 0.9160 0.9160 0.9160
491.583374 0.9160 0.9160 0.9160 0.9160 0.9160
498.096437 0.9160 0.9160 0.9160 0.9160 0.9160
504.609499 0.9160 0.9160 0.9160 0.9160 0.9160
511.122561 0.9160 0.9160 0.9160 0.9160 0.9160
517.635624 0.9160 0.9160 0.9160 0.9160 0.9160
524.148686 0.9160 0.9160 0.9160 0.9160 0.9160
530.661749 0.9160 0.9160 0.9160 0.9160 0.9160
537.174811 0.9160 0.9160 0.9160 0.9160 0.9160
543.687873 0.9160 0.9160 0.9160 0.9160 0.9160
550.200936 0.9180 0.9180 0.9180 0.9190 0.9190
556.713998 0.9190 0.9190 0.9190 0.9190 0.9190
563.227060 0.9190 0.9190 0.9190 0.9190 0.9190
569.740123 0.9190 0.9190 0.9190 0.9190 0.9190
576.253185 0.9190 0.9210 0.9210 0.9210 0.9210
582.766248 0.9210 0.9210 0.9210 0.9220 0.9220
589.279310 0.9220 0.9220 0.9220 0.9220 0.9220
595.792372 0.9220 0.9220 0.9220 0.9220 0.9220
602.305435 0.9220 0.9220 0.9220 0.9220 0.9220
608.818497 0.9220 0.9220 0.9220 0.9220 0.9210
615.331559 0.9210 0.9210 0.9210 0.9210 0.9210
621.844622 0.9210 0.9210 0.9210 0.9210 0.9210
628.357684 0.9210 0.9210 0.9210 0.9190 0.9190
634.870747 0.9190 0.9190 0.9190 0.9190 0.9190
641.383809 0.9190 0.9190 0.9190 0.9190 0.9190
647.896871 0.9190 0.9190 0.9190 0.9190 0.9190
654.409934 0.9190 0.9190 0.9180 0.9180 0.9180
660.922996 0.9160 0.9160 0.9140 0.9110 0.9090
667.436058 0.9080 0.9060 0.8980 0.8930 0.8880
673.949121 0.8800 0.8650 0.8400 0.8210 0.7851
680.462183 0.7541 0.7012 0.6771 0.6541 0.6312
686.975246 0.6270 0.6290 0.6390 0.3784 0.3850
693.488308 0.4159 0.4469 0.5306 0.5519 0.6205
700.001370 0.6208 0.4370 0.4470 0.5678 0.6009
706.514433 0.6219 0.6549 0.6719 0.6899 0.7109
713.027495 0.7310 0.7550 0.7720 0.8010 0.8190
719.540557 0.8359 0.8599 0.8779 0.8909 0.8950
726.053620 0.8960 0.8980 0.9010 0.9010 0.9010
732.566682 0.9030 0.9040 0.9060 0.9080 0.9080
739.079745 0.9080 0.9090 0.9090 0.9090 0.9090
745.592807 0.9110 0.9130 0.9130 0.9130 0.9140
752.105869 0.9160 0.9160 0.9160 0.9160 0.9160
758.618932 0.9160 0.9160 0.9160 0.9160 0.9160
765.131994 0.9160 0.9160 0.9160 0.9160 0.9160
771.645056 0.9140 0.9140 0.9140 0.9130 0.9130
778.158119 0.9110 0.9110 0.9110 0.9090 0.9080
784.671181 0.9040 0.9000 0.8950 0.8910 0.8880
791.184244 0.8830 0.8720 0.8630 0.8570 0.8540
797.697306 0.8500 0.8390 0.8370 0.8320 0.8270
804.210368 0.8240 0.8260 0.8620 0.8620 0.8620
810.723431 0.8630 0.8720 0.8750 0.8800 0.8850
817.236493 0.8900 0.8950 0.9030 0.9040 0.9060
823.749555 0.9060 0.9060 0.9060 0.9030 0.8950
830.262618 0.8810 0.8780 0.8810 0.8950 0.9090
836.775680 0.9080 0.9030 0.9000 0.9010 0.9030
843.288743 0.9060 0.9060 0.9080 0.9080 0.9030
849.801805 0.8960 0.8930 0.8900 0.8810 0.8721
856.314867 0.8630 0.8570 0.8550 0.8540 0.8520
862.827930 0.8500 0.8450 0.8191 0.7325 0.8234
869.340992 0.8650 0.8520 0.8440 0.8260 0.8240
875.854054 0.8260 0.8439 0.8500 0.8540 0.8629
882.367117 0.8750 0.8830 0.8900 0.8950 0.9010
888.880179 0.9030 0.9060 0.9080 0.9090 0.9090
895.393242 0.9090 0.9090 0.9110 0.9110 0.9130
901.906304 0.9130 0.9130 0.9130 0.9110 0.9090
908.419366 0.9090 0.9080 0.9080 0.9080 0.9090
914.932429 0.9110 0.9110 0.9110 0.9090 0.9080
921.445491 0.9090 0.9110 0.9110 0.9110 0.9090
927.958553 0.9080 0.9060 0.9030 0.9000 0.8960
934.471616 0.8950 0.8950 0.9000 0.9010 0.8960
940.984678 0.8950 0.8910 0.8810 0.8750 0.8720
947.497741 0.8730 0.8810 0.8850 0.8900 0.8860
954.010803 0.8800 0.8730 0.8720 0.8730 0.8859
960.523865 0.9030 0.9010 0.8980 0.8950 0.8950
967.036928 0.8960 0.9060 0.9080 0.9080 0.9060
973.549990 0.9060 0.9040 0.9040 0.9060 0.9080
980.063052 0.9090 0.9110 0.9130 0.9130 0.9130
986.576115 0.9130 0.9140 0.9140 0.9140 0.9140
993.089177 0.9140 0.9140 0.9140 0.9130 0.9130
999.602240 0.9110 0.9090 0.9060 0.9040 0.9030
1006.115302 0.9030 0.9010 0.9010 0.9000 0.9000
1012.628364 0.8980 0.8930 0.8910 0.8900 0.8910
1019.141427 0.8950 0.8960 0.8960 0.8950 0.8950
1025.654489 0.8930 0.8900 0.8880 0.8860 0.8850
1032.167552 0.8860 0.8900 0.8910 0.8930 0.8930
1038.680614 0.8880 0.8800 0.8770 0.8780 0.8850
1045.193676 0.8880 0.8930 0.8950 0.8980 0.8900
1051.706739 0.8910 0.8930 0.8950 0.8960 0.8980
1058.219801 0.9000 0.9030 0.9040 0.9060 0.9080
1064.732863 0.9090 0.9090 0.9110 0.9110 0.9110
1071.245926 0.9110 0.9130 0.9130 0.9130 0.9140
1077.758988 0.9140 0.9130 0.9110 0.9110 0.9080
1084.272051 0.9080 0.9060 0.9060 0.9080 0.9090
1090.785113 0.9090 0.9090 0.9060 0.9040 0.8960
1097.298175 0.8950 0.8930 0.8960 0.9040 0.9060
1103.811238 0.9060 0.9040 0.9040 0.9040 0.9060
1110.324300 0.9080 0.9090 0.9090 0.9090 0.9110
1116.837362 0.9130 0.9130 0.9140 0.9140 0.9160
1123.350425 0.9180 0.9180 0.9190 0.9190 0.9190
1129.863487 0.9190 0.9190 0.9190 0.9180 0.9180
1136.376550 0.9180 0.9160 0.9140 0.9140 0.9140
1142.889612 0.9130 0.9110 0.9110 0.9090 0.9080
1149.402674 0.9060 0.9000 0.8930 0.8910 0.8880
1155.915737 0.8880 0.8860 0.8850 0.8830 0.8730
1162.428799 0.8620 0.8500 0.8370 0.8221 0.8369
1168.941861 0.8590 0.8730 0.8730 0.8670 0.8630
1175.454924 0.8590 0.8570 0.8550 0.8540 0.8520
1181.967986 0.8520 0.8500 0.8500 0.8680 0.8930
1188.481049 0.8930 0.8850 0.8850 0.8860 0.8930
1194.994111 0.8980 0.9030 0.9080 0.9080 0.9080
1201.507173 0.9080 0.9110 0.9130 0.9180 0.9190
1208.020236 0.9210 0.9210 0.9190 0.9180 0.9160
1214.533298 0.9140 0.9140 0.9140 0.9140 0.9140
1221.046360 0.9130 0.9130 0.9110 0.9060 0.9040
1227.559423 0.9030 0.9030 0.9040 0.9080 0.9110
1234.072485 0.9130 0.9130 0.9130 0.9140 0.9140
1240.585548 0.9160 0.9160 0.9190 0.9190 0.9210
1247.098610 0.9210 0.9220 0.9220 0.9220 0.9220
1253.611672 0.9220 0.9220 0.9220 0.9220 0.9210
1260.124735 0.9210 0.9190 0.9190 0.9220 0.9160
1266.637797 0.9160 0.9160 0.9160 0.9160 0.9160
1273.150859 0.9220 0.9240 0.9210 0.9210 0.9190
1279.663922 0.9190 0.9190 0.9190 0.9210 0.9220
1286.176984 0.9260 0.9290 0.9290 0.9260 0.9220
1292.690047 0.9190 0.9190 0.9190 0.9220 0.9220
1299.203109 0.9210 0.9210 0.9210 0.9190 0.9190
1305.716171 0.9180 0.9160 0.9140 0.9140 0.9140
1312.229234 0.9140 0.9130 0.9130 0.9110 0.9130
1318.742296 0.9110 0.9110 0.9110 0.9110 0.9110
1325.255358 0.9090 0.9090 0.9090 0.9080 0.9060
1331.768421 0.9060 0.9060 0.9060 0.9040 0.9060
1338.281483 0.9060 0.9080 0.9080 0.9090 0.9090
1344.794546 0.9130 0.9140 0.9140 0.9180 0.9190
1351.307608 0.9190 0.9190 0.9190 0.9190 0.9190
1357.820670 0.9180 0.9180 0.9180 0.9140 0.9130
1364.333733 0.9090 0.9030 0.8960 0.8900 0.8850
1370.846795 0.8880 0.8880 0.8880 0.8830 0.8681
1377.359857 0.8589 0.8320 0.8290 0.8321 0.8860
1383.872920 0.8930 0.8960 0.9000 0.8980 0.8960
1390.385982 0.8930 0.8930 0.8950 0.8980 0.9030
1396.899045 0.9060 0.9090 0.9090 0.9130 0.9160
1403.412107 0.9180 0.9190 0.9190 0.9210 0.9210
1409.925169 0.9190 0.9210 0.9210 0.9210 0.9210
1416.438232 0.9140 0.9140 0.9190 0.9210 0.9220
1422.951294 0.9220 0.9160 0.9160 0.9180 0.9190
1429.464356 0.9190 0.9190 0.9210 0.9210 0.9210
1435.977419 0.9190 0.9180 0.9130 0.9110 0.9110
1442.490481 0.9059 0.8929 0.8770 0.8650 0.8600
1449.003544 0.8500 0.8440 0.8420 0.8191 0.7961
1455.516606 0.7930 0.7950 0.8030 0.8110 0.8130
1462.029668 0.8130 0.6911 0.8178 0.8260 0.8180
1468.542731 0.8140 0.8180 0.8240 0.8080 0.7880
1475.055793 0.7850 0.7860 0.8629 0.8810 0.8830
1481.568855 0.8860 0.8900 0.8950 0.9040 0.9080
1488.081918 0.9090 0.9110 0.9140 0.9160 0.9160
1494.594980 0.9160 0.9160 0.9160 0.9180 0.9190
1501.108043 0.9190 0.9190 0.9210 0.9210 0.9210
1507.621105 0.9210 0.9190 0.9190 0.9190 0.9190
1514.134167 0.9180 0.9180 0.9180 0.9190 0.9210
1520.647230 0.9210 0.9210 0.9210 0.9210 0.9210
1527.160292 0.9210 0.9210 0.9210 0.9220 0.9220
1533.673354 0.9210 0.9190 0.9190 0.9210 0.9210
1540.186417 0.9210 0.9210 0.9190 0.9190 0.9210
1546.699479 0.9210 0.9220 0.9240 0.9240 0.9240
1553.212542 0.9220 0.9210 0.9190 0.9190 0.9180
1559.725604 0.9180 0.9180 0.9190 0.9190 0.9190
1566.238666 0.9210 0.9210 0.9210 0.9210 0.9210
1572.751729 0.9210 0.9210 0.9210 0.9210 0.9220
1579.264791 0.9220 0.9220 0.9240 0.9240 0.9240
1585.777854 0.9220 0.9210 0.9190 0.9190 0.9210
1592.290916 0.9220 0.9220 0.9220 0.9220 0.9210
1598.803978 0.9210 0.9180 0.9180 0.9140 0.9090
1605.317041 0.9060 0.9030 0.9000 0.8910 0.8860
1611.830103 0.8810 0.8770 0.8750 0.8750 0.8730
1618.343165 0.8720 0.8670 0.8131 0.8090 0.8130
1624.856228 0.8670 0.8700 0.8700 0.8540 0.8520
1631.369290 0.8520 0.8540 0.8570 0.8620 0.8720
1637.882353 0.8751 0.8950 0.9030 0.9080 0.9090
1644.395415 0.9090 0.9080 0.9080 0.9080 0.9060
1650.908477 0.9060 0.9060 0.9090 0.9130 0.9140
1657.421540 0.9160 0.9160 0.9160 0.9190 0.9190
1663.934602 0.9210 0.9210 0.9220 0.9220 0.9220
1670.447664 0.9240 0.9260 0.9290 0.9290 0.9290
1676.960727 0.9290 0.9290 0.9270 0.9260 0.9240
1683.473789 0.9220 0.9220 0.9240 0.9270 0.9270
1689.986852 0.9270 0.9260 0.9260 0.9240 0.9240
1696.499914 0.9220 0.9240 0.9240 0.9240 0.9260
1703.012976 0.9270 0.9270 0.9290 0.9290 0.9260
1709.526039 0.9220 0.9220 0.9240 0.9260 0.9260
1716.039101 0.9260 0.9240 0.9210 0.9190 0.9210
1722.552163 0.9240 0.9260 0.9260 0.9260 0.9260
1729.065226 0.9240 0.9220 0.9220 0.9220 0.9210
1735.578288 0.9220 0.9260 0.9270 0.9270 0.9260
1742.091351 0.9220 0.9190 0.9190 0.9210 0.9260
1748.604413 0.9290 0.9310 0.9290 0.9240 0.9190
1755.117475 0.9190 0.9190 0.9190 0.9210 0.9220
1761.630538 0.9240 0.9240 0.9260 0.9260 0.9270
1768.143600 0.9260 0.9240 0.9220 0.9210 0.9210
1774.656662 0.9210 0.9260 0.9270 0.9290 0.9290
1781.169725 0.9290 0.9270 0.9260 0.9240 0.9210
1787.682787 0.9210 0.9220 0.9240 0.9260 0.9270
1794.195850 0.9270 0.9270 0.9290 0.9290 0.9290
1800.708912 0.9290 0.9270 0.9270 0.9260 0.9260
1807.221974 0.9240 0.9220 0.9220 0.9210 0.9210
1813.735037 0.9210 0.9220 0.9240 0.9260 0.9260
1820.248099 0.9260 0.9240 0.9220 0.9210 0.9210
1826.761161 0.9180 0.9190 0.9210 0.9220 0.9240
1833.274224 0.9260 0.9270 0.9270 0.9270 0.9270
1839.787286 0.9270 0.9260 0.9260 0.9260 0.9260
1846.300349 0.9240 0.9210 0.9180 0.9180 0.9160
1852.813411 0.9180 0.9220 0.9240 0.9240 0.9210
1859.326473 0.9190 0.9160 0.9130 0.9130 0.9140
1865.839536 0.9160 0.9180 0.9210 0.9220 0.9240
1872.352598 0.9240 0.9220 0.9220 0.9210 0.9190
1878.865660 0.9190 0.9180 0.9180 0.9180 0.9180
1885.378723 0.9160 0.9160 0.9140 0.9130 0.9130
1891.891785 0.9130 0.9130 0.9130 0.9130 0.9140
1898.404848 0.9160 0.9160 0.9160 0.9180 0.9180
1904.917910 0.9190 0.9190 0.9190 0.9190 0.9190
1911.430972 0.9190 0.9190 0.9190 0.9180 0.9180
1917.944035 0.9160 0.9160 0.9140 0.9140 0.9140
1924.457097 0.9140 0.9160 0.9160 0.9160 0.9160
1930.970159 0.9180 0.9180 0.9180 0.9190 0.9190
1937.483222 0.9190 0.9210 0.9210 0.9210 0.9210
1943.996284 0.9210 0.9210 0.9210 0.9210 0.9210
1950.509347 0.9210 0.9210 0.9210 0.9210 0.9210
1957.022409 0.9210 0.9210 0.9210 0.9210 0.9210
1963.535471 0.9210 0.9210 0.9210 0.9190 0.9190
1970.048534 0.9180 0.9180 0.9160 0.9160 0.9140
1976.561596 0.9140 0.9130 0.9130 0.9110 0.9110
1983.074658 0.9110 0.9130 0.9130 0.9140 0.9140
1989.587721 0.9160 0.9180 0.9180 0.9180 0.9180
1996.100783 0.9180 0.9190 0.9190 0.9190 0.9190
2002.613846 0.9190 0.9190 0.9190 0.9190 0.9190
2009.126908 0.9190 0.9190 0.9190 0.9190 0.9190
2015.639970 0.9190 0.9198 0.9207 0.9210 0.9210
2022.153033 0.9210 0.9210 0.9210 0.9210 0.9210
2028.666095 0.9210 0.9210 0.9210 0.9210 0.9210
2035.179157 0.9210 0.9210 0.9210 0.9210 0.9210
2041.692220 0.9210 0.9210 0.9210 0.9210 0.9210
2048.205282 0.9210 0.9210 0.9210 0.9210 0.9210
2054.718345 0.9210 0.9208 0.9198 0.9190 0.9190
2061.231407 0.9190 0.9190 0.9190 0.9190 0.9190
2067.744469 0.9190 0.9190 0.9200 0.9210 0.9210
2074.257532 0.9210 0.9210 0.9210 0.9201 0.9191
2080.770594 0.9190 0.9190 0.9190 0.9190 0.9190
2087.283657 0.9190 0.9190 0.9190 0.9190 0.9190
2093.796719 0.9190 0.9190 0.9190 0.9190 0.9190
2100.309781 0.9190 0.9190 0.9190 0.9190 0.9190
2106.822844 0.9187 0.9182 0.9180 0.9180 0.9180
2113.335906 0.9180 0.9180 0.9180 0.9180 0.9180
2119.848968 0.9182 0.9187 0.9190 0.9190 0.9190
2126.362031 0.9190 0.9192 0.9202 0.9210 0.9210
2132.875093 0.9210 0.9210 0.9210 0.9210 0.9210
2139.388156 0.9210 0.9210 0.9210 0.9210 0.9210
2145.901218 0.9210 0.9210 0.9210 0.9210 0.9210
2152.414280 0.9210 0.9210 0.9210 0.9210 0.9214
2158.927343 0.9219 0.9220 0.9220 0.9220 0.9220
2165.440405 0.9227 0.9237 0.9240 0.9240 0.9240
2171.953467 0.9240 0.9246 0.9256 0.9260 0.9260
2178.466530 0.9260 0.9260 0.9263 0.9267 0.9270
2184.979592 0.9270 0.9270 0.9270 0.9268 0.9263
2191.492655 0.9260 0.9260 0.9257 0.9247 0.9240
2198.005717 0.9240 0.9240 0.9240 0.9240 0.9240
2204.518779 0.9240 0.9240 0.9240 0.9240 0.9239
2211.031842 0.9229 0.9220 0.9220 0.9220 0.9220
2217.544904 0.9220 0.9220 0.9220 0.9220 0.9220
2224.057966 0.9215 0.9210 0.9210 0.9210 0.9210
2230.571029 0.9210 0.9210 0.9210 0.9202 0.9192
2237.084091 0.9197 0.9207 0.9203 0.9193 0.9190
2243.597154 0.9190 0.9187 0.9182 0.9180 0.9180
2250.110216 0.9174 0.9164 0.9160 0.9160 0.9160
2256.623278 0.9160 0.9160 0.9160 0.9160 0.9160
2263.136341 0.9160 0.9160 0.9160 0.9160 0.9160
2269.649403 0.9160 0.9160 0.9160 0.9163 0.9172
2276.162465 0.9180 0.9180 0.9180 0.9180 0.9180
2282.675528 0.9180 0.9180 0.9180 0.9180 0.9180
2289.188590 0.9180 0.9180 0.9180 0.9180 0.9180
2295.701653 0.9180 0.9180 0.9180 0.9180 0.9180
2302.214715 0.9180 0.9180 0.9180 0.9172 0.9162
2308.727777 0.9160 0.9160 0.9160 0.9160 0.9160
2315.240840 0.9160 0.9153 0.9143 0.9140 0.9140
2321.753902 0.9140 0.9140 0.9140 0.9140 0.9140
2328.266964 0.9140 0.9140 0.9140 0.9140 0.9140
2334.780027 0.9140 0.9140 0.9140 0.9140 0.9140
2341.293089 0.9140 0.9140 0.9140 0.9140 0.9140
2347.806152 0.9140 0.9140 0.9140 0.9140 0.9140
2354.319214 0.9140 0.9140 0.9140 0.9140 0.9140
2360.832276 0.9140 0.9140 0.9140 0.9150 0.9160
2367.345339 0.9160 0.9160 0.9160 0.9160 0.9160
2373.858401 0.9160 0.9160 0.9160 0.9160 0.9160
2380.371463 0.9160 0.9160 0.9160 0.9160 0.9160
2386.884526 0.9160 0.9160 0.9160 0.9166 0.9176
2393.397588 0.9180 0.9180 0.9180 0.9180 0.9180
2399.910651 0.9180 0.9180 0.9180 0.9180 0.9180
2406.423713 0.9180 0.9180 0.9180 0.9180 0.9180
2412.936775 0.9180 0.9180 0.9180 0.9180 0.9180
2419.449838 0.9178 0.9168 0.9160 0.9160 0.9160
2425.962900 0.9160 0.9160 0.9160 0.9160 0.9160
2432.475962 0.9160 0.9160 0.9160 0.9160 0.9160
2438.989025 0.9160 0.9160 0.9160 0.9160 0.9160
2445.502087 0.9160 0.9160 0.9160 0.9160 0.9160
2452.015150 0.9160 0.9160 0.9160 0.9160 0.9160
2458.528212 0.9160 0.9160 0.9160 0.9160 0.9160
2465.041274 0.9160 0.9160 0.9160 0.9160 0.9160
2471.554337 0.9160 0.9160 0.9160 0.9160 0.9160
2478.067399 0.9160 0.9160 0.9160 0.9160 0.9160
2484.580461 0.9160 0.9160 0.9160 0.9160 0.9160
2491.093524 0.9160 0.9160 0.9160 0.9160 0.9160
2497.606586 0.9160 0.9160 0.9160 0.9160 0.9160
2504.119649 0.9160 0.9160 0.9160 0.9160 0.9160
2510.632711 0.9160 0.9160 0.9170 0.9180 0.9180
2517.145773 0.9180 0.9180 0.9180 0.9180 0.9180
2523.658836 0.9180 0.9180 0.9184 0.9189 0.9190
2530.171898 0.9190 0.9190 0.9190 0.9190 0.9190
2536.684960 0.9190 0.9190 0.9190 0.9190 0.9190
2543.198023 0.9190 0.9190 0.9190 0.9190 0.9190
2549.711085 0.9190 0.9190 0.9190 0.9190 0.9190
2556.224148 0.9190 0.9190 0.9190 0.9190 0.9190
2562.737210 0.9190 0.9190 0.9190 0.9190 0.9190
2569.250272 0.9190 0.9189 0.9184 0.9180 0.9180
2575.763335 0.9179 0.9169 0.9160 0.9160 0.9160
2582.276397 0.9160 0.9160 0.9160 0.9160 0.9150
2588.789459 0.9141 0.9140 0.9140 0.9140 0.9140
2595.302522 0.9136 0.9131 0.9130 0.9130 0.9122
2601.815584 0.9112 0.9110 0.9110 0.9103 0.9093
2608.328647 0.9090 0.9090 0.9090 0.9090 0.9087
2614.841709 0.9082 0.9080 0.9080 0.9080 0.9080
2621.354771 0.9075 0.9065 0.9060 0.9060 0.9060
2627.867834 0.9060 0.9060 0.9060 0.9060 0.9060
2634.380896 0.9060 0.9060 0.9060 0.9060 0.9060
2640.893959 0.9060 0.9060 0.9060 0.9060 0.9060
2647.407021 0.9061 0.9071 0.9080 0.9080 0.9080
2653.920083 0.9085 0.9090 0.9090 0.9090 0.9100
2660.433146 0.9109 0.9110 0.9110 0.9119 0.9129
2666.946208 0.9134 0.9139 0.9140 0.9140 0.9140
2673.459270 0.9140 0.9136 0.9131 0.9130 0.9130
2679.972333 0.9130 0.9130 0.9130 0.9130 0.9130
2686.485395 0.9130 0.9130 0.9130 0.9133 0.9138
2692.998458 0.9145 0.9155 0.9165 0.9175 0.9180
2699.511520 0.9180 0.9180 0.9180 0.9180 0.9180
2706.024582 0.9177 0.9167 0.9160 0.9160 0.9160
2712.537645 0.9160 0.9158 0.9148 0.9139 0.9134
2719.050707 0.9128 0.9119 0.9110 0.9110 0.9109
2725.563769 0.9099 0.9090 0.9085 0.9080 0.9080
2732.076832 0.9080 0.9080 0.9080 0.9080 0.9080
2738.589894 0.9080 0.9080 0.9080 0.9080 0.9084
2745.102957 0.9089 0.9090 0.9090 0.9090 0.9090
2751.616019 0.9097 0.9107 0.9110 0.9110 0.9110
2758.129081 0.9110 0.9110 0.9110 0.9110 0.9110
2764.642144 0.9110 0.9110 0.9110 0.9110 0.9110
2771.155206 0.9110 0.9110 0.9110 0.9106 0.9096
2777.668268 0.9088 0.9083 0.9077 0.9067 0.9057
2784.181331 0.9047 0.9040 0.9040 0.9040 0.9040
2790.694393 0.9039 0.9034 0.9029 0.9019 0.9010
2797.207456 0.9010 0.9008 0.8978 0.8949 0.8930
2803.720518 0.8910 0.8905 0.8900 0.8900 0.8900
2810.233580 0.8914 0.8928 0.8965 0.9004 0.9018
2816.746643 0.9028 0.9042 0.9057 0.9060 0.9060
2823.259705 0.9067 0.9077 0.9083 0.9088 0.9090
2829.772767 0.9090 0.9090 0.9090 0.9090 0.9090
2836.285830 0.9090 0.9090 0.9090 0.9090 0.9078
2842.798892 0.9054 0.9021 0.8976 0.8904 0.8790
2849.311955 0.8682 0.8584 0.8450 0.8249 0.8023
2855.825017 0.7744 0.7364 0.6717 0.5903 0.4540
2862.338079 0.3438 0.3428 0.3422 0.3431 0.3450
2868.851142 0.3538 0.3620 0.3620 0.3606 0.3223
2875.364204 0.2838 0.2347 0.1857 0.2333 0.2824
2881.877266 0.2924 0.3003 0.3326 0.3674 0.3809
2888.390329 0.3912 0.4011 0.4109 0.4549 0.5078
2894.903391 0.5789 0.6559 0.6780 0.6780 0.6556
2901.416454 0.6223 0.6084 0.6045 0.5905 0.5704
2907.929516 0.5600 0.5566 0.5537 0.5512 0.5408
2914.442578 0.5227 0.4720 0.3842 0.3457 0.3732
2920.955641 0.4003 0.4268 0.4414 0.4341 0.4219
2927.468703 0.3990 0.3695 0.3244 0.2795 0.2354
2933.981765 0.2009 0.2004 0.2029 0.2185 0.2255
2940.494828 0.1799 0.1361 0.1076 0.0803 0.0695
2947.007890 0.0585 0.0399 0.0212 0.0210 0.0210
2953.520953 0.0234 0.0258 0.0159 0.0051 0.0027
2960.034015 0.0012 0.0018 0.0028 0.0122 0.0235
2966.547077 0.0402 0.0583 0.0804 0.1040 0.1695
2973.060140 0.2529 0.3190 0.3764 0.4332 0.4896
2979.573202 0.5676 0.6611 0.7044 0.7103 0.7201
2986.086264 0.7333 0.7500 0.7701 0.7884 0.8046
2992.599327 0.8156 0.8196 0.8281 0.8443 0.8580
2999.112389 0.8668 0.8742 0.8781 0.8822 0.8866
3005.625452 0.8907 0.8936 0.8964 0.8984 0.9001
3012.138514 0.9006 0.9010 0.9010 0.9011 0.9021
3018.651576 0.9030 0.9035 0.9040 0.9040 0.9040
3025.164639 0.9040 0.9040 0.9040 0.9040 0.9040
3031.677701 0.9040 0.8985 0.8920 0.8852 0.8783
3038.190763 0.8548 0.8274 0.7905 0.7508 0.7060
3044.703826 0.6594 0.6142 0.5696 0.5527 0.5508
3051.216888 0.5512 0.5532 0.5636 0.5802 0.4866
3057.729951 0.2968 0.2010 0.2010 0.2496 0.3501
3064.243013 0.4507 0.5512 0.6054 0.5917 0.5737
3070.756075 0.5482 0.5451 0.5883 0.6385 0.7062
3077.269138 0.7670 0.8072 0.8422 0.8574 0.8709
3083.782200 0.8763 0.8816 0.8861 0.8903 0.8927
3090.295262 0.8952 0.8977 0.9000 0.9005 0.9010
3096.808325 0.9020 0.9030 0.9035 0.9040 0.9049
3103.321387 0.9059 0.9069 0.9079 0.9080 0.9080
3109.834450 0.9080 0.9080 0.9084 0.9089 0.9090
3116.347512 0.9090 0.9097 0.9107 0.9110 0.9110
3122.860574 0.9110 0.9110 0.9110 0.9110 0.9110
3129.373637 0.9110 0.9110 0.9110 0.9110 0.9110
3135.886699 0.9110 0.9110 0.9110 0.9110 0.9110
3142.399761 0.9110 0.9110 0.9110 0.9110 0.9110
3148.912824 0.9107 0.9097 0.9090 0.9090 0.9092
3155.425886 0.9102 0.9110 0.9110 0.9109 0.9099
3161.938949 0.9090 0.9090 0.9090 0.9090 0.9090
3168.452011 0.9090 0.9090 0.9090 0.9090 0.9090
3174.965073 0.9090 0.9090 0.9090 0.9090 0.9090
3181.478136 0.9090 0.9090 0.9090 0.9090 0.9090
3187.991198 0.9090 0.9090 0.9090 0.9090 0.9090
3194.504261 0.9090 0.9090 0.9090 0.9090 0.9090
3201.017323 0.9090 0.9087 0.9082 0.9080 0.9080
3207.530385 0.9075 0.9066 0.9056 0.9046 0.9038
3214.043448 0.9033 0.9025 0.9010 0.8989 0.8954
3220.556510 0.8927 0.8917 0.8909 0.8904 0.8901
3227.069572 0.8906 0.8912 0.8922 0.8935 0.8969
3233.582635 0.9002 0.9016 0.9031 0.9046 0.9060
3240.095697 0.9070 0.9080 0.9080 0.9080 0.9085
3246.608760 0.9090 0.9099 0.9109 0.9110 0.9110
3253.121822 0.9118 0.9128 0.9130 0.9130 0.9134
3259.634884 0.9139 0.9147 0.9157 0.9167 0.9177
3266.147947 0.9180 0.9180 0.9180 0.9180 0.9183
3272.661009 0.9188 0.9190 0.9190 0.9190 0.9190
3279.174071 0.9190 0.9190 0.9190 0.9190 0.9190
3285.687134 0.9190 0.9188 0.9183 0.9180 0.9180
3292.200196 0.9180 0.9180 0.9180 0.9180 0.9180
3298.713259 0.9180 0.9180 0.9180 0.9178 0.9168
3305.226321 0.9160 0.9160 0.9160 0.9160 0.9160
3311.739383 0.9160 0.9160 0.9150 0.9140 0.9140
3318.252446 0.9140 0.9135 0.9130 0.9130 0.9130
3324.765508 0.9130 0.9130 0.9130 0.9130 0.9122
3331.278570 0.9112 0.9110 0.9110 0.9110 0.9110
3337.791633 0.9110 0.9110 0.9110 0.9110 0.9116
3344.304695 0.9126 0.9133 0.9138 0.9140 0.9140
3350.817758 0.9140 0.9140 0.9140 0.9140 0.9144
3357.330820 0.9154 0.9160 0.9160 0.9160 0.9160
3363.843882 0.9160 0.9160 0.9163 0.9173 0.9180
3370.356945 0.9180 0.9180 0.9180 0.9180 0.9180
3376.870007 0.9181 0.9186 0.9191 0.9201 0.9210
3383.383069 0.9210 0.9210 0.9215 0.9220 0.9220
3389.896132 0.9220 0.9220 0.9220 0.9220 0.9220
3396.409194 0.9220 0.9220 0.9220 0.9220 0.9220
3402.922257 0.9220 0.9220 0.9220 0.9220 0.9220
3409.435319 0.9220 0.9220 0.9227 0.9237 0.9240
3415.948381 0.9240 0.9240 0.9240 0.9240 0.9240
3422.461444 0.9240 0.9240 0.9240 0.9240 0.9240
3428.974506 0.9240 0.9240 0.9240 0.9240 0.9240
3435.487568 0.9240 0.9240 0.9240 0.9240 0.9240
3442.000631 0.9240 0.9240 0.9240 0.9240 0.9240
3448.513693 0.9240 0.9240 0.9240 0.9240 0.9240
3455.026756 0.9240 0.9240 0.9240 0.9240 0.9240
3461.539818 0.9240 0.9240 0.9240 0.9231 0.9221
3468.052880 0.9220 0.9220 0.9220 0.9220 0.9220
3474.565943 0.9220 0.9220 0.9220 0.9216 0.9211
3481.079005 0.9210 0.9210 0.9210 0.9210 0.9210
3487.592067 0.9210 0.9210 0.9210 0.9210 0.9210
3494.105130 0.9210 0.9210 0.9210 0.9210 0.9205
3500.618192 0.9195 0.9190 0.9190 0.9190 0.9190
3507.131255 0.9190 0.9190 0.9188 0.9183 0.9180
3513.644317 0.9180 0.9180 0.9180 0.9178 0.9168
3520.157379 0.9160 0.9160 0.9160 0.9160 0.9159
3526.670442 0.9149 0.9140 0.9135 0.9130 0.9130
3533.183504 0.9130 0.9130 0.9130 0.9130 0.9130
3539.696566 0.9135 0.9140 0.9149 0.9159 0.9160
3546.209629 0.9160 0.9160 0.9160 0.9160 0.9160
3552.722691 0.9160 0.9160 0.9160 0.9160 0.9167
3559.235754 0.9176 0.9180 0.9180 0.9180 0.9180
3565.748816 0.9183 0.9188 0.9190 0.9190 0.9190
3572.261878 0.9190 0.9195 0.9204 0.9210 0.9210
3578.774941 0.9206 0.9196 0.9190 0.9190 0.9190
3585.288003 0.9190 0.9189 0.9184 0.9180 0.9180
3591.801065 0.9178 0.9168 0.9160 0.9160 0.9160
3598.314128 0.9160 0.9160 0.9160 0.9159 0.9150
3604.827190 0.9140 0.9140 0.9140 0.9140 0.9140
3611.340253 0.9140 0.9140 0.9140 0.9140 0.9140
3617.853315 0.9140 0.9140 0.9140 0.9140 0.9140
3624.366377 0.9148 0.9157 0.9160 0.9160 0.9160
3630.879440 0.9160 0.9167 0.9176 0.9180 0.9180
3637.392502 0.9180 0.9180 0.9183 0.9188 0.9190
3643.905564 0.9190 0.9190 0.9190 0.9190 0.9190
3650.418627 0.9190 0.9190 0.9190 0.9190 0.9190
3656.931689 0.9190 0.9193 0.9203 0.9210 0.9210
3663.444752 0.9210 0.9210 0.9210 0.9210 0.9210
3669.957814 0.9210 0.9210 0.9210 0.9210 0.9210
3676.470876 0.9210 0.9215 0.9220 0.9220 0.9220
3682.983939 0.9220 0.9220 0.9220 0.9220 0.9220
3689.497001 0.9220 0.9220 0.9220 0.9220 0.9220
3696.010063 0.9216 0.9211 0.9210 0.9210 0.9210
3702.523126 0.9210 0.9210 0.9210 0.9204 0.9194
3709.036188 0.9190 0.9190 0.9190 0.9190 0.9187
3715.549251 0.9182 0.9180 0.9180 0.9176 0.9166
3722.062313 0.9160 0.9160 0.9160 0.9160 0.9156
3728.575375 0.9147 0.9140 0.9140 0.9140 0.9140
3735.088438 0.9139 0.9134 0.9130 0.9130 0.9130
3741.601500 0.9130 0.9130 0.9130 0.9130 0.9130
3748.114563 0.9130 0.9135 0.9140 0.9150 0.9160
3754.627625 0.9170 0.9180 0.9180 0.9180 0.9185
3761.140687 0.9189 0.9190 0.9190 0.9190 0.9190
3767.653750 0.9190 0.9190 0.9190 0.9190 0.9197
3774.166812 0.9207 0.9210 0.9210 0.9210 0.9210
3780.679874 0.9210 0.9210 0.9210 0.9210 0.9210
3787.192937 0.9210 0.9210 0.9210 0.9210 0.9210
3793.705999 0.9210 0.9210 0.9210 0.9210 0.9212
3800.219062 0.9217 0.9220 0.9220 0.9220 0.9220
3806.732124 0.9220 0.9220 0.9220 0.9220 0.9220
3813.245186 0.9220 0.9220 0.9220 0.9220 0.9220
3819.758249 0.9220 0.9220 0.9220 0.9220 0.9220
3826.271311 0.9220 0.9220 0.9220 0.9220 0.9220
3832.784373 0.9220 0.9220 0.9220 0.9220 0.9220
3839.297436 0.9220 0.9220 0.9220 0.9220 0.9220
3845.810498 0.9220 0.9220 0.9220 0.9220 0.9220
3852.323561 0.9220 0.9220 0.9220 0.9220 0.9220
3858.836623 0.9220 0.9217 0.9212 0.9210 0.9210
3865.349685 0.9210 0.9210 0.9210 0.9210 0.9210
3871.862748 0.9210 0.9210 0.9210 0.9207 0.9197
3878.375810 0.9190 0.9190 0.9190 0.9190 0.9190
3884.888872 0.9190 0.9189 0.9184 0.9180 0.9180
3891.401935 0.9180 0.9180 0.9180 0.9180 0.9180
3897.914997 0.9180 0.9180 0.9180 0.9180 0.9180
3904.428060 0.9180 0.9180 0.9180 0.9171 0.9161
3910.941122 0.9160 0.9160 0.9160 0.9160 0.9160
3917.454184 0.9160 0.9153 0.9143 0.9140 0.9140
3923.967247 0.9140 0.9140 0.9140 0.9140 0.9137
3930.480309 0.9132 0.9130 0.9130 0.9130 0.9130
3936.993371 0.9125 0.9115 0.9110 0.9110 0.9106
3943.506434 0.9096 0.9090 0.9090 0.9090 0.9090
3950.019496 0.9090 0.9090 0.9090 0.9090 0.9090
3956.532559 0.9090 0.9090 0.9090 0.9090 0.9090
3963.045621 0.9090 0.9090 0.9090 0.9090 0.9090
3969.558683 0.9090 0.9090 0.9090 0.9090 0.9090
3976.071746 0.9090 0.9099 0.9109 0.9110 0.9110
3982.584808 0.9110 0.9110 0.9110 0.9110
##END=
