##TITLE=BICYCLO[2.2.2]OCT-2-ENE
##JCAMP-DX=4.24
##DATA TYPE=INFRARED SPECTRUM
##CLASS=COBLENTZ III
##ORIGIN=WESTERN REGIONAL RES. USDA
##OWNER=COBLENTZ SOCIETY
Collection (C) 2018 copyright by the U.S. Secretary of Commerce
on behalf of the United States of America. All rights reserved.
##DATE=1966/02/23
##CAS REGISTRY NO=931-64-6
##MOLFORM=C8 H12
##SOURCE REFERENCE=COBLENTZ NO. 10422
##$NIST SOURCE=COBLENTZ
##$NIST IMAGE=cob10422
##SPECTROMETER/DATA SYSTEM=CARY 90 (GRATING)
##INSTRUMENT PARAMETERS=GRATING CHANGES AT 3000, 2000, 1200 CM^-^1
##STATE=SOLUTION (10% WT/VOL IN CCl4 FOR 4000-1570, 10% WT/VOL IN CS2 FOR 1570-450 CM^-^1) VS. SOLVENT
##PATH LENGTH=0.010, 0.011 CM
$$ SEE ALSO SPECTRA NO. 10423 AND 10476
##SAMPLING PROCEDURE=TRANSMISSION
##RESOLUTION=4
##DATA PROCESSING=DIGITIZED BY NIST FROM HARD COPY (FROM TWO SEGMENTS)
##XUNITS=1/CM
##YUNITS=TRANSMITTANCE
##XFACTOR=1.000000
##YFACTOR=1
##DELTAX=0.907913
##FIRSTX=452.918
##LASTX=3990.15
##FIRSTY=0.543
##MAXX=3990.15
##MINX=452.918
##MAXY=0.916
##MINY=0
##NPOINTS=3897
##XYDATA=(X++(Y..Y))
452.918000 0.5430 0.5450 0.5460 0.5490 0.5490
457.457565 0.5500 0.5520 0.5540 0.5570 0.5590
461.997130 0.5610 0.5630 0.5660 0.5680 0.5690
466.536695 0.5710 0.5740 0.5760 0.5780 0.5800
471.076260 0.5830 0.5850 0.5870 0.5890 0.5900
475.615825 0.5930 0.5950 0.5970 0.6000 0.6020
480.155390 0.6040 0.6060 0.6100 0.6110 0.6120
484.694956 0.6140 0.6150 0.6180 0.6190 0.6210
489.234521 0.6220 0.6240 0.6250 0.6280 0.6290
493.774086 0.6310 0.6320 0.6350 0.6360 0.6380
498.313651 0.6390 0.6400 0.6410 0.6420 0.6450
502.853216 0.6460 0.6470 0.6480 0.6490 0.6510
507.392781 0.6530 0.6540 0.6550 0.6570 0.6580
511.932346 0.6590 0.6610 0.6630 0.6640 0.6650
516.471911 0.6670 0.6680 0.6710 0.6720 0.6730
521.011476 0.6750 0.6760 0.6770 0.6800 0.6810
525.551041 0.6820 0.6830 0.6850 0.6870 0.6880
530.090606 0.6890 0.6910 0.6920 0.6930 0.6940
534.630171 0.6960 0.6970 0.6980 0.6990 0.7000
539.169737 0.7010 0.7020 0.7020 0.7030 0.7050
543.709302 0.7060 0.7070 0.7080 0.7090 0.7100
548.248867 0.7110 0.7110 0.7120 0.7140 0.7150
552.788432 0.7160 0.7170 0.7170 0.7180 0.7190
557.327997 0.7200 0.7220 0.7220 0.7230 0.7240
561.867562 0.7250 0.7260 0.7270 0.7280 0.7290
566.407127 0.7310 0.7320 0.7330 0.7340 0.7340
570.946692 0.7350 0.7360 0.7370 0.7380 0.7400
575.486257 0.7410 0.7420 0.7430 0.7440 0.7450
580.025822 0.7460 0.7490 0.7500 0.7520 0.7530
584.565387 0.7540 0.7570 0.7590 0.7610 0.7610
589.104952 0.7640 0.7660 0.7670 0.7680 0.7690
593.644518 0.7700 0.7720 0.7740 0.7760 0.7770
598.184083 0.7780 0.7790 0.7790 0.7800 0.7800
602.723648 0.7810 0.7830 0.7830 0.7840 0.7850
607.263213 0.7860 0.7870 0.7880 0.7890 0.7900
611.802778 0.7920 0.7930 0.7940 0.7950 0.7960
616.342343 0.7970 0.7970 0.7980 0.7980 0.8000
620.881908 0.8000 0.8010 0.8020 0.8020 0.8020
625.421473 0.8020 0.8020 0.8030 0.8030 0.8030
629.961038 0.8030 0.8030 0.8040 0.8040 0.8050
634.500603 0.8050 0.8050 0.8060 0.8090 0.8110
639.040168 0.8130 0.8140 0.8150 0.8160 0.8180
643.579733 0.8190 0.8190 0.8200 0.8200 0.8210
648.119298 0.8210 0.8210 0.8210 0.8210 0.8210
652.658864 0.8210 0.8200 0.8190 0.8180 0.8160
657.198429 0.8140 0.8120 0.8110 0.8100 0.8090
661.737994 0.8070 0.8060 0.8050 0.8020 0.7980
666.277559 0.7960 0.7940 0.7920 0.7890 0.7870
670.817124 0.7850 0.7830 0.7780 0.7750 0.7690
675.356689 0.7630 0.7580 0.7500 0.7400 0.7271
679.896254 0.7110 0.6930 0.6720 0.6450 0.6151
684.435819 0.5791 0.5381 0.4922 0.3715 0.2566
688.975384 0.1680 0.0830 0.0091 0.0060 0.0070
693.514949 0.0200 0.0320 0.0450 0.0530 0.1187
698.054514 0.1970 0.2450 0.2580 0.3159 0.3599
702.594079 0.3889 0.4389 0.4470 0.4510 0.4530
707.133645 0.4550 0.4570 0.4580 0.4680 0.4889
711.673210 0.5169 0.5479 0.5769 0.5969 0.6358
716.212775 0.6660 0.6900 0.7090 0.7250 0.7360
720.752340 0.7460 0.7570 0.7670 0.7779 0.7800
725.291905 0.7810 0.7860 0.7900 0.7970 0.7980
729.831470 0.8010 0.8030 0.8050 0.8070 0.8070
734.371035 0.8090 0.8090 0.8100 0.8100 0.8110
738.910600 0.8110 0.8130 0.8150 0.8160 0.8180
743.450165 0.8200 0.8230 0.8250 0.8290 0.8310
747.989730 0.8330 0.8360 0.8380 0.8400 0.8420
752.529295 0.8450 0.8460 0.8470 0.8490 0.8500
757.068860 0.8500 0.8510 0.8510 0.8510 0.8530
761.608426 0.8530 0.8540 0.8540 0.8540 0.8530
766.147991 0.8530 0.8510 0.8510 0.8500 0.8500
770.687556 0.8500 0.8510 0.8510 0.8530 0.8530
775.227121 0.8530 0.8530 0.8530 0.8540 0.8540
779.766686 0.8530 0.8530 0.8510 0.8500 0.8490
784.306251 0.8480 0.8470 0.8460 0.8450 0.8420
788.845816 0.8400 0.8370 0.8320 0.8270 0.8190
793.385381 0.8100 0.7980 0.7851 0.7691 0.7252
797.924946 0.6760 0.6490 0.6140 0.5801 0.5082
802.464511 0.5060 0.5080 0.5409 0.5738 0.6058
807.004076 0.6320 0.6540 0.6980 0.7329 0.7609
811.543641 0.7829 0.7999 0.8120 0.8200 0.8250
816.083206 0.8290 0.8320 0.8330 0.8360 0.8390
820.622772 0.8400 0.8400 0.8390 0.8370 0.8320
825.162337 0.8280 0.8220 0.8150 0.8060 0.7960
829.701902 0.7840 0.7571 0.7381 0.7370 0.7609
834.241467 0.7620 0.8150 0.8160 0.8250 0.8330
838.781032 0.8490 0.8540 0.8560 0.8570 0.8630
843.320597 0.8670 0.8680 0.8700 0.8700 0.8710
847.860162 0.8730 0.8730 0.8740 0.8740 0.8720
852.399727 0.8680 0.8610 0.8530 0.8470 0.8390
856.939292 0.8300 0.8210 0.8100 0.7970 0.7831
861.478857 0.7590 0.6511 0.5501 0.4482 0.3981
866.018422 0.3492 0.3490 0.3629 0.3849 0.4546
870.557987 0.5070 0.5490 0.6309 0.7158 0.7449
875.097553 0.7679 0.7879 0.8029 0.8159 0.8269
879.637118 0.8350 0.8400 0.8470 0.8510 0.8570
884.176683 0.8630 0.8660 0.8670 0.8680 0.8700
888.716248 0.8710 0.8710 0.8720 0.8720 0.8720
893.255813 0.8720 0.8720 0.8720 0.8710 0.8710
897.795378 0.8700 0.8680 0.8670 0.8670 0.8660
902.334943 0.8660 0.8660 0.8670 0.8670 0.8680
906.874508 0.8700 0.8710 0.8710 0.8710 0.8700
911.414073 0.8700 0.8680 0.8670 0.8660 0.8640
915.953638 0.8620 0.8610 0.8580 0.8570 0.8560
920.493203 0.8550 0.8540 0.8530 0.8510 0.8490
925.032768 0.8470 0.8460 0.8450 0.8450 0.8450
929.572334 0.8450 0.8440 0.8440 0.8420 0.8420
934.111899 0.8400 0.8390 0.8360 0.8350 0.8300
938.651464 0.8230 0.8130 0.8001 0.7801 0.7551
943.191029 0.7240 0.6910 0.6910 0.7200 0.7340
947.730594 0.7430 0.7629 0.7660 0.7859 0.8069
952.270159 0.8070 0.8050 0.7890 0.7750 0.7670
956.809724 0.7540 0.7440 0.7440 0.7609 0.7630
961.349289 0.7790 0.7960 0.8140 0.8290 0.8400
965.888854 0.8540 0.8570 0.8620 0.8640 0.8660
970.428419 0.8670 0.8670 0.8680 0.8700 0.8700
974.967984 0.8710 0.8710 0.8720 0.8720 0.8720
979.507549 0.8720 0.8720 0.8720 0.8720 0.8720
984.047115 0.8720 0.8720 0.8720 0.8730 0.8730
988.586680 0.8730 0.8730 0.8740 0.8750 0.8750
993.126245 0.8750 0.8750 0.8750 0.8740 0.8730
997.665810 0.8730 0.8720 0.8720 0.8710 0.8700
1002.205375 0.8680 0.8670 0.8670 0.8650 0.8640
1006.744940 0.8620 0.8590 0.8560 0.8510 0.8470
1011.284505 0.8410 0.8330 0.8210 0.8130 0.8031
1015.824070 0.7890 0.7880 0.7890 0.8060 0.8230
1020.363635 0.8360 0.8440 0.8490 0.8570 0.8610
1024.903200 0.8630 0.8630 0.8640 0.8640 0.8630
1029.442765 0.8630 0.8630 0.8620 0.8610 0.8540
1033.982330 0.8500 0.8470 0.8380 0.8270 0.8230
1038.521895 0.8070 0.7970 0.7880 0.7681 0.7670
1043.061461 0.7690 0.7880 0.8130 0.8220 0.8300
1047.601026 0.8360 0.8410 0.8460 0.8480 0.8510
1052.140591 0.8540 0.8550 0.8560 0.8580 0.8580
1056.680156 0.8610 0.8620 0.8630 0.8650 0.8680
1061.219721 0.8710 0.8720 0.8720 0.8730 0.8730
1065.759286 0.8730 0.8730 0.8720 0.8720 0.8720
1070.298851 0.8700 0.8680 0.8680 0.8670 0.8670
1074.838416 0.8670 0.8670 0.8680 0.8680 0.8680
1079.377981 0.8680 0.8680 0.8670 0.8670 0.8660
1083.917546 0.8630 0.8610 0.8590 0.8580 0.8570
1088.457111 0.8550 0.8530 0.8480 0.8410 0.8320
1092.996676 0.8200 0.8041 0.7841 0.7591 0.7570
1097.536242 0.7570 0.7640 0.7770 0.7870 0.8100
1102.075807 0.8110 0.8240 0.8330 0.8360 0.8370
1106.615372 0.8370 0.8370 0.8360 0.8350 0.8350
1111.154937 0.8330 0.8320 0.8300 0.8280 0.8230
1115.694502 0.8210 0.8200 0.8190 0.8160 0.8160
1120.234067 0.8150 0.8150 0.8140 0.8130 0.8130
1124.773632 0.8130 0.8120 0.8110 0.8110 0.8090
1129.313197 0.8060 0.8020 0.8000 0.8000 0.8020
1133.852762 0.8110 0.8160 0.8230 0.8270 0.8290
1138.392327 0.8310 0.8330 0.8330 0.8330 0.8320
1142.931892 0.8320 0.8300 0.8280 0.8270 0.8240
1147.471457 0.8230 0.8220 0.8210 0.8200 0.8180
1152.011023 0.8160 0.8150 0.8130 0.8110 0.8060
1156.550588 0.8010 0.7920 0.7790 0.7631 0.7052
1161.090153 0.6399 0.5850 0.5850 0.6440 0.6650
1165.629718 0.6770 0.7099 0.7479 0.7610 0.7710
1170.169283 0.7740 0.7740 0.7680 0.7620 0.7540
1174.708848 0.7360 0.7191 0.6891 0.6810 0.6810
1179.248413 0.6960 0.7090 0.7150 0.7380 0.7520
1183.787978 0.7660 0.7810 0.7930 0.8020 0.8040
1188.327543 0.8100 0.8200 0.8240 0.8290 0.8350
1192.867108 0.8360 0.8360 0.8360 0.8370 0.8370
1197.406673 0.8370 0.8370 0.8370 0.8370 0.8370
1201.946238 0.8360 0.8360 0.8350 0.8350 0.8350
1206.485803 0.8330 0.8320 0.8320 0.8310 0.8310
1211.025369 0.8310 0.8300 0.8280 0.8270 0.8250
1215.564934 0.8240 0.8230 0.8230 0.8210 0.8190
1220.104499 0.8120 0.8090 0.8040 0.7970 0.7900
1224.644064 0.7840 0.7740 0.7530 0.7510 0.7530
1229.183629 0.7740 0.7830 0.7880 0.8000 0.8090
1233.723194 0.8140 0.8190 0.8220 0.8240 0.8270
1238.262759 0.8270 0.8280 0.8290 0.8310 0.8330
1242.802324 0.8330 0.8350 0.8360 0.8360 0.8360
1247.341889 0.8360 0.8360 0.8360 0.8350 0.8350
1251.881454 0.8350 0.8350 0.8330 0.8330 0.8330
1256.421019 0.8350 0.8350 0.8350 0.8350 0.8360
1260.960584 0.8370 0.8370 0.8370 0.8360 0.8360
1265.500150 0.8360 0.8330 0.8320 0.8310 0.8300
1270.039715 0.8300 0.8300 0.8310 0.8350 0.8360
1274.579280 0.8380 0.8400 0.8410 0.8410 0.8420
1279.118845 0.8440 0.8440 0.8450 0.8460 0.8470
1283.658410 0.8470 0.8470 0.8480 0.8480 0.8470
1288.197975 0.8470 0.8470 0.8470 0.8460 0.8460
1292.737540 0.8450 0.8450 0.8450 0.8450 0.8450
1297.277105 0.8450 0.8440 0.8440 0.8440 0.8440
1301.816670 0.8440 0.8440 0.8440 0.8440 0.8420
1306.356235 0.8420 0.8410 0.8390 0.8370 0.8330
1310.895800 0.8290 0.8190 0.8120 0.8060 0.8030
1315.435365 0.8010 0.8000 0.7980 0.7960 0.7960
1319.974931 0.7950 0.7940 0.7930 0.7930 0.7920
1324.514496 0.7920 0.7900 0.7890 0.7880 0.7860
1329.054061 0.7810 0.7770 0.7760 0.7780 0.7889
1333.593626 0.8070 0.8180 0.8270 0.8310 0.8370
1338.133191 0.8390 0.8450 0.8450 0.8460 0.8460
1342.672756 0.8450 0.8380 0.8380 0.8290 0.8210
1347.212321 0.8140 0.8130 0.8140 0.8289 0.8360
1351.751886 0.8370 0.8400 0.8470 0.8510 0.8530
1356.291451 0.8530 0.8530 0.8510 0.8500 0.8490
1360.831016 0.8470 0.8420 0.8360 0.8290 0.8190
1365.370581 0.8090 0.7970 0.7771 0.7332 0.6762
1369.910146 0.6239 0.5640 0.5050 0.5050 0.5270
1374.449711 0.6029 0.6918 0.7369 0.7679 0.7889
1378.989277 0.8030 0.8120 0.8190 0.8240 0.8270
1383.528842 0.8290 0.8300 0.8310 0.8360 0.8390
1388.068407 0.8420 0.8450 0.8470 0.8480 0.8490
1392.607972 0.8500 0.8510 0.8510 0.8530 0.8540
1397.147537 0.8570 0.8580 0.8590 0.8620 0.8630
1401.687102 0.8640 0.8650 0.8660 0.8660 0.8660
1406.226667 0.8660 0.8660 0.8670 0.8670 0.8670
1410.766232 0.8670 0.8670 0.8660 0.8660 0.8660
1415.305797 0.8650 0.8650 0.8640 0.8640 0.8630
1419.845362 0.8630 0.8620 0.8610 0.8610 0.8590
1424.384927 0.8590 0.8580 0.8570 0.8560 0.8540
1428.924492 0.8500 0.8480 0.8460 0.8450 0.8420
1433.464058 0.8390 0.8380 0.8370 0.8370 0.8330
1438.003623 0.8310 0.8280 0.8240 0.8200 0.8130
1442.543188 0.8030 0.7890 0.7720 0.7500 0.7230
1447.082753 0.6881 0.6631 0.6311 0.6051 0.6020
1451.622318 0.5950 0.5880 0.5860 0.5010 0.5010
1456.161883 0.5799 0.6718 0.7119 0.7369 0.7519
1460.701448 0.7710 0.7750 0.7750 0.7440 0.7180
1465.241013 0.6890 0.6591 0.6301 0.6300 0.6639
1469.780578 0.7000 0.7250 0.7690 0.7960 0.8120
1474.320143 0.8190 0.8240 0.8300 0.8350 0.8380
1478.859708 0.8410 0.8450 0.8470 0.8490 0.8510
1483.399273 0.8530 0.8540 0.8540 0.8550 0.8560
1487.938839 0.8570 0.8580 0.8610 0.8620 0.8620
1492.478404 0.8620 0.8630 0.8630 0.8630 0.8640
1497.017969 0.8640 0.8650 0.8660 0.8670 0.8670
1501.557534 0.8670 0.8680 0.8680 0.8700 0.8700
1506.097099 0.8710 0.8720 0.8720 0.8720 0.8730
1510.636664 0.8730 0.8730 0.8740 0.8740 0.8740
1515.176229 0.8750 0.8750 0.8750 0.8750 0.8760
1519.715794 0.8770 0.8770 0.8770 0.8790 0.8790
1524.255359 0.8790 0.8800 0.8800 0.8800 0.8800
1528.794924 0.8800 0.8800 0.8800 0.8800 0.8800
1533.334489 0.8790 0.8790 0.8790 0.8770 0.8770
1537.874054 0.8750 0.8750 0.8740 0.8730 0.8720
1542.413619 0.8710 0.8700 0.8700 0.8700 0.8680
1546.953185 0.8680 0.8670 0.8670 0.8670 0.8680
1551.492750 0.8680 0.8700 0.8700 0.8710 0.8720
1556.032315 0.8730 0.8740 0.8750 0.8760 0.8770
1560.571880 0.8790 0.8800 0.8800 0.8810 0.8810
1565.111445 0.8810 0.8810 0.8810 0.8800 0.8800
1569.651010 0.8800 0.8790 0.8790 0.8770 0.8770
1574.190575 0.8760 0.8760 0.8760 0.8760 0.8760
1578.730140 0.8760 0.8760 0.8760 0.8760 0.8760
1583.269705 0.8750 0.8740 0.8730 0.8720 0.8720
1587.809270 0.8720 0.8730 0.8740 0.8750 0.8760
1592.348835 0.8770 0.8770 0.8790 0.8790 0.8770
1596.888400 0.8760 0.8750 0.8730 0.8700 0.8630
1601.427966 0.8550 0.8470 0.8400 0.8380 0.8380
1605.967531 0.8370 0.8360 0.8350 0.8330 0.8300
1610.507096 0.8290 0.8230 0.8120 0.7791 0.7362
1615.046661 0.7049 0.6710 0.6560 0.6560 0.6760
1619.586226 0.6980 0.7190 0.7529 0.7759 0.7900
1624.125791 0.8000 0.8050 0.8070 0.8110 0.8160
1628.665356 0.8240 0.8300 0.8310 0.8310 0.8300
1633.204921 0.8290 0.8270 0.8250 0.8250 0.8270
1637.744486 0.8280 0.8310 0.8350 0.8370 0.8450
1642.284051 0.8500 0.8540 0.8570 0.8610 0.8620
1646.823616 0.8640 0.8660 0.8680 0.8730 0.8760
1651.363181 0.8790 0.8810 0.8830 0.8840 0.8850
1655.902747 0.8870 0.8880 0.8890 0.8890 0.8900
1660.442312 0.8910 0.8920 0.8920 0.8930 0.8940
1664.981877 0.8960 0.8960 0.8970 0.8970 0.8970
1669.521442 0.8970 0.8980 0.8980 0.8980 0.8980
1674.061007 0.8980 0.8980 0.8980 0.8980 0.8980
1678.600572 0.8980 0.8980 0.8980 0.8980 0.8990
1683.140137 0.8990 0.8990 0.8990 0.8990 0.8990
1687.679702 0.8990 0.8990 0.9000 0.9000 0.9000
1692.219267 0.9010 0.9010 0.9010 0.9010 0.9020
1696.758832 0.9020 0.9020 0.9020 0.9030 0.9030
1701.298397 0.9030 0.9030 0.9030 0.9030 0.9030
1705.837962 0.9030 0.9030 0.9030 0.9020 0.9020
1710.377527 0.9010 0.9010 0.9000 0.8990 0.8990
1714.917093 0.8990 0.8990 0.8980 0.8970 0.8970
1719.456658 0.8960 0.8940 0.8930 0.8930 0.8920
1723.996223 0.8920 0.8920 0.8930 0.8930 0.8930
1728.535788 0.8940 0.8940 0.8940 0.8960 0.8970
1733.075353 0.8970 0.8970 0.8980 0.8980 0.8980
1737.614918 0.8980 0.8980 0.8980 0.8980 0.8980
1742.154483 0.8980 0.8980 0.8980 0.8980 0.8980
1746.694048 0.8990 0.8990 0.8990 0.8990 0.8990
1751.233613 0.8990 0.8990 0.8990 0.8990 0.8990
1755.773178 0.8990 0.8990 0.8990 0.8990 0.8990
1760.312743 0.8990 0.9000 0.9000 0.9010 0.9010
1764.852308 0.9010 0.9010 0.9010 0.9020 0.9020
1769.391874 0.9020 0.9030 0.9030 0.9050 0.9050
1773.931439 0.9060 0.9060 0.9060 0.9060 0.9060
1778.471004 0.9060 0.9050 0.9050 0.9030 0.9030
1783.010569 0.9020 0.9020 0.9020 0.9010 0.9010
1787.550134 0.9010 0.9010 0.9010 0.9010 0.9010
1792.089699 0.9010 0.9000 0.9000 0.9000 0.9000
1796.629264 0.9000 0.9000 0.9000 0.9000 0.9000
1801.168829 0.9010 0.9010 0.9010 0.9020 0.9020
1805.708394 0.9020 0.9020 0.9030 0.9030 0.9030
1810.247959 0.9030 0.9030 0.9050 0.9050 0.9060
1814.787524 0.9060 0.9060 0.9060 0.9060 0.9060
1819.327089 0.9060 0.9060 0.9070 0.9070 0.9070
1823.866655 0.9070 0.9070 0.9070 0.9080 0.9080
1828.406220 0.9080 0.9080 0.9080 0.9080 0.9080
1832.945785 0.9080 0.9080 0.9080 0.9080 0.9070
1837.485350 0.9070 0.9070 0.9070 0.9060 0.9060
1842.024915 0.9060 0.9060 0.9060 0.9060 0.9060
1846.564480 0.9060 0.9060 0.9050 0.9050 0.9050
1851.104045 0.9050 0.9030 0.9030 0.9030 0.9020
1855.643610 0.9020 0.9020 0.9020 0.9010 0.9010
1860.183175 0.9010 0.9000 0.9000 0.9010 0.9010
1864.722740 0.9020 0.9020 0.9030 0.9030 0.9050
1869.262305 0.9050 0.9050 0.9050 0.9050 0.9050
1873.801870 0.9050 0.9050 0.9050 0.9050 0.9050
1878.341435 0.9050 0.9050 0.9060 0.9060 0.9060
1882.881001 0.9060 0.9060 0.9060 0.9060 0.9060
1887.420566 0.9060 0.9060 0.9060 0.9060 0.9060
1891.960131 0.9060 0.9060 0.9060 0.9060 0.9060
1896.499696 0.9060 0.9070 0.9070 0.9070 0.9070
1901.039261 0.9080 0.9080 0.9080 0.9080 0.9090
1905.578826 0.9090 0.9090 0.9090 0.9090 0.9090
1910.118391 0.9090 0.9090 0.9090 0.9090 0.9090
1914.657956 0.9090 0.9090 0.9090 0.9100 0.9100
1919.197521 0.9100 0.9100 0.9100 0.9100 0.9100
1923.737086 0.9100 0.9100 0.9100 0.9100 0.9110
1928.276651 0.9110 0.9110 0.9110 0.9110 0.9110
1932.816216 0.9100 0.9100 0.9100 0.9100 0.9100
1937.355782 0.9100 0.9100 0.9100 0.9100 0.9100
1941.895347 0.9100 0.9100 0.9100 0.9100 0.9100
1946.434912 0.9100 0.9100 0.9100 0.9100 0.9100
1950.974477 0.9100 0.9100 0.9100 0.9100 0.9100
1955.514042 0.9100 0.9100 0.9100 0.9100 0.9100
1960.053607 0.9090 0.9090 0.9090 0.9080 0.9080
1964.593172 0.9080 0.9080 0.9080 0.9080 0.9070
1969.132737 0.9070 0.9070 0.9070 0.9070 0.9070
1973.672302 0.9070 0.9070 0.9070 0.9070 0.9060
1978.211867 0.9060 0.9060 0.9060 0.9060 0.9060
1982.751432 0.9060 0.9060 0.9050 0.9050 0.9050
1987.290997 0.9030 0.9030 0.9030 0.9030 0.9020
1991.830563 0.9020 0.9020 0.9020 0.9010 0.9010
1996.370128 0.9010 0.9010 0.9000 0.9000 0.9000
2000.909693 0.9000 0.9000 0.8995 0.8990 0.8990
2005.449258 0.8990 0.8985 0.8980 0.8980 0.8980
2009.988823 0.8980 0.8980 0.8980 0.8980 0.8980
2014.528388 0.8980 0.8980 0.8980 0.8980 0.8980
2019.067953 0.8980 0.8980 0.8980 0.8980 0.8980
2023.607518 0.8980 0.8980 0.8980 0.8985 0.8990
2028.147083 0.8990 0.8990 0.8990 0.8990 0.8990
2032.686648 0.8990 0.8990 0.8990 0.8990 0.8990
2037.226213 0.8990 0.8990 0.8990 0.8990 0.8994
2041.765778 0.8999 0.9000 0.9000 0.9000 0.9000
2046.305344 0.9000 0.9000 0.9000 0.9000 0.9000
2050.844909 0.9000 0.9000 0.9000 0.9000 0.9000
2055.384474 0.9000 0.9000 0.9000 0.9000 0.9000
2059.924039 0.9000 0.9000 0.9000 0.8996 0.8991
2064.463604 0.8990 0.8990 0.8990 0.8990 0.8986
2069.003169 0.8981 0.8980 0.8980 0.8980 0.8980
2073.542734 0.8976 0.8971 0.8970 0.8970 0.8970
2078.082299 0.8970 0.8970 0.8970 0.8970 0.8970
2082.621864 0.8974 0.8979 0.8980 0.8980 0.8984
2087.161429 0.8989 0.8994 0.8999 0.9004 0.9009
2091.700994 0.9010 0.9010 0.9010 0.9010 0.9006
2096.240559 0.9002 0.8997 0.8992 0.8987 0.8982
2100.780124 0.8977 0.8972 0.8967 0.8962 0.8960
2105.319690 0.8960 0.8953 0.8943 0.8937 0.8932
2109.859255 0.8930 0.8930 0.8930 0.8930 0.8930
2114.398820 0.8930 0.8933 0.8938 0.8940 0.8940
2118.938385 0.8946 0.8956 0.8963 0.8968 0.8970
2123.477950 0.8970 0.8973 0.8978 0.8980 0.8980
2128.017515 0.8983 0.8988 0.8993 0.8998 0.9000
2132.557080 0.9000 0.9003 0.9008 0.9010 0.9010
2137.096645 0.9010 0.9010 0.9010 0.9010 0.9010
2141.636210 0.9010 0.9007 0.9002 0.9000 0.9000
2146.175775 0.9000 0.9000 0.9000 0.9000 0.9000
2150.715340 0.9000 0.9000 0.9000 0.9000 0.9000
2155.254905 0.9000 0.9000 0.9000 0.9000 0.9002
2159.794471 0.9007 0.9010 0.9010 0.9010 0.9010
2164.334036 0.9012 0.9017 0.9020 0.9020 0.9020
2168.873601 0.9020 0.9022 0.9027 0.9035 0.9045
2173.413166 0.9050 0.9050 0.9050 0.9050 0.9050
2177.952731 0.9050 0.9050 0.9050 0.9050 0.9050
2182.492296 0.9050 0.9050 0.9050 0.9050 0.9050
2187.031861 0.9050 0.9050 0.9050 0.9050 0.9050
2191.571426 0.9050 0.9050 0.9050 0.9050 0.9050
2196.110991 0.9050 0.9050 0.9050 0.9050 0.9050
2200.650556 0.9050 0.9050 0.9050 0.9050 0.9050
2205.190121 0.9050 0.9046 0.9036 0.9030 0.9030
2209.729686 0.9030 0.9030 0.9028 0.9023 0.9020
2214.269252 0.9020 0.9020 0.9020 0.9020 0.9020
2218.808817 0.9020 0.9020 0.9020 0.9020 0.9020
2223.348382 0.9020 0.9018 0.9014 0.9010 0.9010
2227.887947 0.9010 0.9010 0.9010 0.9010 0.9010
2232.427512 0.9010 0.9009 0.9004 0.9000 0.9000
2236.967077 0.9000 0.9000 0.9000 0.9000 0.9000
2241.506642 0.9000 0.8999 0.8994 0.8990 0.8990
2246.046207 0.8990 0.8990 0.8990 0.8990 0.8990
2250.585772 0.8990 0.8989 0.8984 0.8980 0.8980
2255.125337 0.8980 0.8980 0.8980 0.8980 0.8980
2259.664902 0.8980 0.8979 0.8974 0.8970 0.8970
2264.204467 0.8970 0.8970 0.8970 0.8970 0.8970
2268.744032 0.8970 0.8970 0.8970 0.8970 0.8970
2273.283598 0.8970 0.8970 0.8970 0.8970 0.8970
2277.823163 0.8970 0.8970 0.8970 0.8970 0.8970
2282.362728 0.8970 0.8970 0.8970 0.8970 0.8970
2286.902293 0.8970 0.8970 0.8970 0.8970 0.8970
2291.441858 0.8970 0.8970 0.8970 0.8970 0.8970
2295.981423 0.8970 0.8970 0.8970 0.8970 0.8975
2300.520988 0.8980 0.8980 0.8980 0.8980 0.8980
2305.060553 0.8980 0.8980 0.8980 0.8980 0.8980
2309.600118 0.8980 0.8980 0.8980 0.8980 0.8980
2314.139683 0.8980 0.8980 0.8985 0.8990 0.8990
2318.679248 0.8990 0.8990 0.8990 0.8990 0.8990
2323.218813 0.8990 0.8990 0.8990 0.8990 0.8990
2327.758379 0.8990 0.8990 0.8990 0.8990 0.8990
2332.297944 0.8995 0.9000 0.9000 0.9000 0.9000
2336.837509 0.9000 0.9000 0.9000 0.9000 0.9000
2341.377074 0.9000 0.9000 0.9000 0.9000 0.9000
2345.916639 0.9000 0.9000 0.9000 0.9000 0.9000
2350.456204 0.9000 0.9000 0.9000 0.9000 0.9004
2354.995769 0.9009 0.9010 0.9010 0.9010 0.9010
2359.535334 0.9010 0.9010 0.9010 0.9010 0.9014
2364.074899 0.9019 0.9020 0.9020 0.9020 0.9020
2368.614464 0.9024 0.9029 0.9030 0.9030 0.9030
2373.154029 0.9030 0.9030 0.9030 0.9030 0.9030
2377.693594 0.9030 0.9030 0.9030 0.9030 0.9038
2382.233160 0.9048 0.9050 0.9050 0.9050 0.9050
2386.772725 0.9050 0.9050 0.9050 0.9050 0.9050
2391.312290 0.9050 0.9050 0.9050 0.9050 0.9050
2395.851855 0.9050 0.9050 0.9050 0.9050 0.9050
2400.391420 0.9050 0.9050 0.9050 0.9050 0.9050
2404.930985 0.9050 0.9050 0.9050 0.9050 0.9050
2409.470550 0.9050 0.9050 0.9050 0.9050 0.9050
2414.010115 0.9050 0.9050 0.9043 0.9033 0.9030
2418.549680 0.9030 0.9030 0.9030 0.9030 0.9030
2423.089245 0.9027 0.9022 0.9020 0.9020 0.9020
2427.628810 0.9020 0.9017 0.9012 0.9010 0.9010
2432.168375 0.9010 0.9010 0.9007 0.9002 0.9000
2436.707940 0.9000 0.9000 0.9000 0.9000 0.9000
2441.247506 0.8997 0.8992 0.8990 0.8990 0.8990
2445.787071 0.8990 0.8987 0.8982 0.8980 0.8980
2450.326636 0.8980 0.8980 0.8980 0.8980 0.8980
2454.866201 0.8980 0.8983 0.8988 0.8990 0.8990
2459.405766 0.8993 0.8998 0.9000 0.9000 0.9003
2463.945331 0.9008 0.9010 0.9010 0.9013 0.9018
2468.484896 0.9020 0.9020 0.9020 0.9020 0.9020
2473.024461 0.9020 0.9020 0.9020 0.9020 0.9020
2477.564026 0.9020 0.9020 0.9020 0.9020 0.9020
2482.103591 0.9020 0.9020 0.9020 0.9020 0.9020
2486.643156 0.9020 0.9020 0.9020 0.9020 0.9020
2491.182721 0.9020 0.9020 0.9020 0.9018 0.9013
2495.722287 0.9010 0.9010 0.9010 0.9010 0.9010
2500.261852 0.9010 0.9010 0.9010 0.9008 0.9003
2504.801417 0.9000 0.9000 0.9000 0.9000 0.9000
2509.340982 0.9000 0.9000 0.9000 0.9000 0.9000
2513.880547 0.9000 0.9000 0.9000 0.9000 0.9000
2518.420112 0.9000 0.9000 0.9000 0.9002 0.9007
2522.959677 0.9010 0.9010 0.9010 0.9010 0.9010
2527.499242 0.9010 0.9012 0.9017 0.9020 0.9020
2532.038807 0.9020 0.9020 0.9020 0.9020 0.9020
2536.578372 0.9020 0.9022 0.9027 0.9030 0.9030
2541.117937 0.9030 0.9030 0.9030 0.9030 0.9030
2545.657502 0.9030 0.9030 0.9030 0.9030 0.9030
2550.197068 0.9029 0.9024 0.9020 0.9020 0.9020
2554.736633 0.9020 0.9020 0.9020 0.9019 0.9014
2559.276198 0.9010 0.9010 0.9010 0.9010 0.9009
2563.815763 0.9004 0.9000 0.9000 0.8999 0.8994
2568.355328 0.8990 0.8990 0.8989 0.8984 0.8980
2572.894893 0.8980 0.8979 0.8974 0.8970 0.8970
2577.434458 0.8969 0.8964 0.8960 0.8960 0.8960
2581.974023 0.8960 0.8960 0.8960 0.8960 0.8960
2586.513588 0.8960 0.8960 0.8960 0.8960 0.8961
2591.053153 0.8966 0.8970 0.8970 0.8971 0.8976
2595.592718 0.8981 0.8986 0.8990 0.8990 0.8991
2600.132283 0.8996 0.9000 0.9000 0.9000 0.9000
2604.671848 0.8999 0.8989 0.8980 0.8980 0.8979
2609.211414 0.8969 0.8958 0.8943 0.8930 0.8925
2613.750979 0.8919 0.8904 0.8889 0.8879 0.8867
2618.290544 0.8832 0.8797 0.8768 0.8733 0.8643
2622.830109 0.8560 0.8555 0.8550 0.8555 0.8562
2627.369674 0.8602 0.8642 0.8682 0.8722 0.8772
2631.909239 0.8820 0.8825 0.8830 0.8840 0.8850
2636.448804 0.8860 0.8870 0.8875 0.8880 0.8880
2640.988369 0.8880 0.8885 0.8890 0.8890 0.8890
2645.527934 0.8895 0.8900 0.8900 0.8900 0.8900
2650.067499 0.8900 0.8900 0.8900 0.8900 0.8900
2654.607064 0.8900 0.8900 0.8900 0.8900 0.8900
2659.146629 0.8900 0.8895 0.8890 0.8890 0.8890
2663.686195 0.8890 0.8890 0.8885 0.8880 0.8880
2668.225760 0.8880 0.8866 0.8851 0.8845 0.8840
2672.765325 0.8835 0.8830 0.8835 0.8840 0.8845
2677.304890 0.8850 0.8877 0.8907 0.8941 0.8976
2681.844455 0.8984 0.8989 0.8994 0.8999 0.9009
2686.384020 0.9019 0.9033 0.9048 0.9050 0.9050
2690.923585 0.9054 0.9059 0.9060 0.9060 0.9064
2695.463150 0.9069 0.9070 0.9070 0.9066 0.9061
2700.002715 0.9048 0.9033 0.9022 0.9012 0.9002
2704.542280 0.8992 0.8982 0.8972 0.8950 0.8925
2709.081845 0.8900 0.8875 0.8846 0.8816 0.8758
2713.621410 0.8694 0.8633 0.8573 0.8560 0.8560
2718.160976 0.8618 0.8693 0.8756 0.8816 0.8834
2722.700541 0.8839 0.8859 0.8884 0.8894 0.8899
2727.240106 0.8904 0.8909 0.8917 0.8927 0.8934
2731.779671 0.8939 0.8947 0.8957 0.8960 0.8960
2736.319236 0.8964 0.8969 0.8970 0.8970 0.8970
2740.858801 0.8970 0.8970 0.8970 0.8970 0.8970
2745.398366 0.8970 0.8970 0.8970 0.8970 0.8970
2749.937931 0.8970 0.8967 0.8962 0.8960 0.8960
2754.477496 0.8953 0.8943 0.8937 0.8932 0.8930
2759.017061 0.8930 0.8927 0.8922 0.8920 0.8920
2763.556626 0.8914 0.8904 0.8897 0.8892 0.8887
2768.096191 0.8882 0.8877 0.8872 0.8861 0.8846
2772.635756 0.8837 0.8832 0.8821 0.8806 0.8788
2777.175322 0.8768 0.8754 0.8744 0.8731 0.8716
2781.714887 0.8701 0.8686 0.8677 0.8672 0.8664
2786.254452 0.8654 0.8647 0.8642 0.8640 0.8640
2790.794017 0.8635 0.8625 0.8604 0.8574 0.8544
2795.333582 0.8514 0.8479 0.8439 0.8417 0.8412
2799.873147 0.8420 0.8440 0.8458 0.8473 0.8488
2804.412712 0.8503 0.8518 0.8533 0.8542 0.8547
2808.952277 0.8552 0.8557 0.8560 0.8560 0.8558
2813.491842 0.8553 0.8548 0.8543 0.8538 0.8533
2818.031407 0.8523 0.8508 0.8493 0.8478 0.8456
2822.570972 0.8426 0.8392 0.8352 0.8310 0.8265
2827.110537 0.8216 0.8161 0.8102 0.8037 0.7966
2831.650103 0.7887 0.7803 0.7713 0.7617 0.7513
2836.189668 0.7406 0.7295 0.7177 0.7047 0.6910
2840.729233 0.6760 0.6609 0.6455 0.6290 0.6111
2845.268798 0.5883 0.5574 0.5215 0.4771 0.4312
2849.808363 0.3823 0.3341 0.2867 0.2436 0.2082
2854.347928 0.1790 0.1614 0.1431 0.1237 0.0986
2858.887493 0.0627 0.0358 0.0263 0.0202 0.0207
2863.427058 0.0289 0.0533 0.0717 0.0772 0.0927
2867.966623 0.1306 0.1683 0.2056 0.2479 0.3016
2872.506188 0.3400 0.3400 0.3468 0.3697 0.3977
2877.045753 0.4380 0.4671 0.4676 0.4528 0.3975
2881.585318 0.3551 0.3482 0.3430 0.3430 0.3463
2886.124884 0.3592 0.3705 0.3764 0.3825 0.3890
2890.664449 0.3965 0.4076 0.4160 0.4160 0.4059
2895.204014 0.3625 0.3162 0.2600 0.2097 0.1808
2899.743579 0.1518 0.1224 0.0992 0.1002 0.1043
2904.283144 0.1213 0.1353 0.1368 0.1438 0.1757
2908.822709 0.2019 0.2014 0.1974 0.1780 0.1582
2913.362274 0.1368 0.1173 0.1073 0.0977 0.0897
2917.901839 0.0813 0.0703 0.0608 0.0593 0.0575
2922.441404 0.0540 0.0505 0.0470 0.0434 0.0390
2926.980969 0.0344 0.0294 0.0244 0.0194 0.0145
2931.520534 0.0105 0.0067 0.0042 0.0019 0.0009
2936.060099 0.0000 0.0000 0.0000 0.0000 0.0000
2940.599664 0.0000 0.0000 0.0000 0.0000 0.0000
2945.139230 0.0000 0.0000 0.0001 0.0011 0.0021
2949.678795 0.0036 0.0054 0.0129 0.0204 0.0289
2954.218360 0.0374 0.0479 0.0585 0.0714 0.0848
2958.757925 0.1142 0.1432 0.1537 0.1640 0.1675
2963.297490 0.1710 0.1755 0.1803 0.1972 0.2143
2967.837055 0.2522 0.2900 0.3224 0.3548 0.3753
2972.376620 0.3957 0.4102 0.4247 0.4357 0.4467
2976.916185 0.4731 0.5000 0.5236 0.5470 0.5618
2981.455750 0.5763 0.5937 0.6113 0.6259 0.6403
2985.995315 0.6524 0.6643 0.6754 0.6863 0.6945
2990.534880 0.7024 0.7099 0.7174 0.7231 0.7285
2995.074445 0.7331 0.7376 0.7416 0.7456 0.7487
2999.614011 0.7517 0.7542 0.7568 0.7588 0.7608
3004.153576 0.7632 0.7657 0.7673 0.7688 0.7694
3008.693141 0.7699 0.7700 0.7700 0.7700 0.7700
3013.232706 0.7696 0.7691 0.7652 0.7607 0.7579
3017.772271 0.7554 0.7525 0.7495 0.7439 0.7380
3022.311836 0.7299 0.7214 0.7113 0.7008 0.6879
3026.851401 0.6745 0.6573 0.6394 0.6187 0.5972
3031.390966 0.5718 0.5454 0.5131 0.4792 0.4449
3035.930531 0.4106 0.3669 0.3207 0.2834 0.2485
3040.470096 0.2406 0.2401 0.2609 0.2878 0.3024
3045.009661 0.3134 0.3289 0.3458 0.3665 0.3884
3049.549226 0.4159 0.4453 0.4732 0.5006 0.5291
3054.088792 0.5580 0.5791 0.5972 0.6236 0.6530
3058.628357 0.6769 0.6988 0.7114 0.7204 0.7290
3063.167922 0.7375 0.7449 0.7519 0.7592 0.7667
3067.707487 0.7731 0.7791 0.7851 0.7911 0.7964
3072.247052 0.8013 0.8060 0.8105 0.8150 0.8195
3076.786617 0.8237 0.8277 0.8313 0.8348 0.8376
3081.326182 0.8401 0.8429 0.8459 0.8483 0.8503
3085.865747 0.8526 0.8551 0.8569 0.8584 0.8605
3090.405312 0.8630 0.8646 0.8656 0.8672 0.8692
3094.944877 0.8709 0.8724 0.8736 0.8746 0.8762
3099.484442 0.8782 0.8796 0.8806 0.8819 0.8834
3104.024007 0.8852 0.8871 0.8889 0.8903 0.8913
3108.563573 0.8918 0.8926 0.8936 0.8946 0.8956
3113.103138 0.8963 0.8968 0.8973 0.8978 0.8983
3117.642703 0.8988 0.8993 0.8998 0.9003 0.9008
3122.182268 0.9013 0.9018 0.9020 0.9020 0.9023
3126.721833 0.9028 0.9030 0.9030 0.9035 0.9045
3131.261398 0.9053 0.9057 0.9062 0.9067 0.9070
3135.800963 0.9070 0.9070 0.9070 0.9070 0.9070
3140.340528 0.9068 0.9063 0.9058 0.9053 0.9046
3144.880093 0.9036 0.9028 0.9023 0.9020 0.9020
3149.419658 0.9020 0.9020 0.9018 0.9013 0.9010
3153.959223 0.9010 0.9010 0.9010 0.9010 0.9010
3158.498788 0.9012 0.9017 0.9020 0.9020 0.9020
3163.038353 0.9020 0.9020 0.9020 0.9020 0.9020
3167.577919 0.9020 0.9020 0.9020 0.9020 0.9022
3172.117484 0.9027 0.9034 0.9044 0.9050 0.9050
3176.657049 0.9050 0.9050 0.9050 0.9050 0.9050
3181.196614 0.9050 0.9050 0.9050 0.9047 0.9037
3185.736179 0.9030 0.9030 0.9028 0.9023 0.9020
3190.275744 0.9020 0.9018 0.9013 0.9010 0.9010
3194.815309 0.9009 0.9004 0.9000 0.9000 0.8997
3199.354874 0.8987 0.8979 0.8974 0.8969 0.8964
3203.894439 0.8957 0.8947 0.8937 0.8927 0.8917
3208.434004 0.8907 0.8896 0.8881 0.8865 0.8845
3212.973569 0.8825 0.8805 0.8785 0.8765 0.8749
3217.513134 0.8744 0.8741 0.8746 0.8755 0.8774
3222.052700 0.8797 0.8826 0.8854 0.8874 0.8891
3226.592265 0.8896 0.8901 0.8906 0.8911 0.8916
3231.131830 0.8922 0.8932 0.8942 0.8952 0.8961
3235.671395 0.8966 0.8971 0.8976 0.8980 0.8980
3240.210960 0.8980 0.8980 0.8981 0.8986 0.8990
3244.750525 0.8990 0.8991 0.8996 0.9001 0.9006
3249.290090 0.9011 0.9016 0.9022 0.9037 0.9051
3253.829655 0.9056 0.9061 0.9066 0.9070 0.9070
3258.369220 0.9070 0.9070 0.9071 0.9075 0.9080
3262.908785 0.9080 0.9080 0.9080 0.9080 0.9080
3267.448350 0.9080 0.9080 0.9080 0.9080 0.9080
3271.987915 0.9075 0.9070 0.9070 0.9070 0.9070
3276.527481 0.9070 0.9065 0.9060 0.9060 0.9060
3281.067046 0.9060 0.9060 0.9055 0.9050 0.9050
3285.606611 0.9050 0.9050 0.9050 0.9040 0.9030
3290.146176 0.9030 0.9030 0.9025 0.9020 0.9020
3294.685741 0.9020 0.9020 0.9020 0.9020 0.9020
3299.225306 0.9015 0.9010 0.9010 0.9010 0.9010
3303.764871 0.9010 0.9005 0.9000 0.9000 0.9000
3308.304436 0.9000 0.9000 0.8995 0.8990 0.8990
3312.844001 0.8990 0.8990 0.8990 0.8990 0.8990
3317.383566 0.8990 0.8990 0.8990 0.8990 0.8995
3321.923131 0.9000 0.9000 0.9000 0.9004 0.9009
3326.462696 0.9010 0.9010 0.9014 0.9019 0.9020
3331.002261 0.9020 0.9020 0.9020 0.9020 0.9020
3335.541827 0.9024 0.9029 0.9030 0.9030 0.9030
3340.081392 0.9030 0.9030 0.9030 0.9038 0.9048
3344.620957 0.9050 0.9050 0.9050 0.9050 0.9054
3349.160522 0.9059 0.9060 0.9060 0.9060 0.9060
3353.700087 0.9060 0.9060 0.9060 0.9060 0.9060
3358.239652 0.9060 0.9060 0.9060 0.9060 0.9060
3362.779217 0.9060 0.9060 0.9060 0.9060 0.9060
3367.318782 0.9060 0.9060 0.9060 0.9060 0.9060
3371.858347 0.9060 0.9060 0.9060 0.9060 0.9060
3376.397912 0.9060 0.9060 0.9060 0.9060 0.9060
3380.937477 0.9060 0.9060 0.9060 0.9060 0.9060
3385.477042 0.9060 0.9060 0.9060 0.9060 0.9060
3390.016608 0.9063 0.9068 0.9070 0.9070 0.9070
3394.556173 0.9070 0.9070 0.9070 0.9073 0.9078
3399.095738 0.9080 0.9080 0.9080 0.9080 0.9080
3403.635303 0.9080 0.9083 0.9088 0.9090 0.9090
3408.174868 0.9090 0.9090 0.9090 0.9090 0.9093
3412.714433 0.9098 0.9100 0.9100 0.9103 0.9108
3417.253998 0.9110 0.9110 0.9110 0.9110 0.9113
3421.793563 0.9118 0.9120 0.9120 0.9126 0.9136
3426.333128 0.9140 0.9140 0.9140 0.9140 0.9143
3430.872693 0.9148 0.9150 0.9150 0.9153 0.9158
3435.412258 0.9160 0.9160 0.9160 0.9160 0.9160
3439.951823 0.9160 0.9160 0.9160 0.9160 0.9160
3444.491389 0.9160 0.9160 0.9160 0.9160 0.9160
3449.030954 0.9160 0.9160 0.9160 0.9160 0.9160
3453.570519 0.9160 0.9160 0.9160 0.9160 0.9160
3458.110084 0.9160 0.9160 0.9160 0.9160 0.9160
3462.649649 0.9160 0.9160 0.9160 0.9160 0.9160
3467.189214 0.9160 0.9160 0.9160 0.9160 0.9160
3471.728779 0.9160 0.9160 0.9158 0.9153 0.9150
3476.268344 0.9150 0.9150 0.9150 0.9150 0.9150
3480.807909 0.9150 0.9150 0.9148 0.9143 0.9140
3485.347474 0.9140 0.9140 0.9140 0.9140 0.9140
3489.887039 0.9140 0.9140 0.9136 0.9126 0.9120
3494.426604 0.9120 0.9120 0.9120 0.9118 0.9113
3498.966169 0.9110 0.9110 0.9110 0.9110 0.9110
3503.505735 0.9110 0.9108 0.9103 0.9100 0.9100
3508.045300 0.9100 0.9100 0.9098 0.9093 0.9090
3512.584865 0.9090 0.9090 0.9090 0.9090 0.9090
3517.124430 0.9088 0.9084 0.9080 0.9080 0.9080
3521.663995 0.9080 0.9079 0.9074 0.9070 0.9070
3526.203560 0.9070 0.9070 0.9070 0.9070 0.9069
3530.743125 0.9064 0.9060 0.9060 0.9059 0.9054
3535.282690 0.9050 0.9050 0.9050 0.9050 0.9050
3539.822255 0.9050 0.9050 0.9050 0.9050 0.9050
3544.361820 0.9050 0.9050 0.9050 0.9050 0.9050
3548.901385 0.9050 0.9050 0.9050 0.9050 0.9050
3553.440950 0.9050 0.9050 0.9048 0.9038 0.9030
3557.980516 0.9030 0.9030 0.9030 0.9030 0.9030
3562.520081 0.9030 0.9030 0.9030 0.9030 0.9030
3567.059646 0.9030 0.9030 0.9030 0.9030 0.9030
3571.599211 0.9030 0.9030 0.9030 0.9030 0.9030
3576.138776 0.9030 0.9030 0.9030 0.9030 0.9030
3580.678341 0.9030 0.9030 0.9030 0.9030 0.9030
3585.217906 0.9030 0.9030 0.9030 0.9030 0.9030
3589.757471 0.9030 0.9030 0.9030 0.9030 0.9030
3594.297036 0.9030 0.9030 0.9030 0.9030 0.9030
3598.836601 0.9030 0.9030 0.9030 0.9030 0.9030
3603.376166 0.9030 0.9030 0.9025 0.9020 0.9020
3607.915731 0.9020 0.9020 0.9020 0.9020 0.9020
3612.455297 0.9020 0.9020 0.9020 0.9020 0.9020
3616.994862 0.9020 0.9020 0.9020 0.9020 0.9020
3621.534427 0.9020 0.9020 0.9020 0.9020 0.9020
3626.073992 0.9020 0.9020 0.9020 0.9020 0.9020
3630.613557 0.9020 0.9020 0.9020 0.9020 0.9020
3635.153122 0.9020 0.9020 0.9020 0.9020 0.9020
3639.692687 0.9020 0.9020 0.9020 0.9020 0.9020
3644.232252 0.9020 0.9020 0.9020 0.9024 0.9029
3648.771817 0.9030 0.9030 0.9039 0.9049 0.9050
3653.311382 0.9050 0.9050 0.9050 0.9050 0.9050
3657.850947 0.9050 0.9050 0.9050 0.9050 0.9050
3662.390512 0.9050 0.9050 0.9050 0.9050 0.9050
3666.930077 0.9050 0.9050 0.9050 0.9050 0.9050
3671.469643 0.9050 0.9050 0.9050 0.9050 0.9050
3676.009208 0.9042 0.9032 0.9030 0.9030 0.9030
3680.548773 0.9030 0.9030 0.9030 0.9030 0.9030
3685.088338 0.9026 0.9021 0.9020 0.9020 0.9020
3689.627903 0.9020 0.9020 0.9020 0.9020 0.9020
3694.167468 0.9016 0.9011 0.9010 0.9010 0.9010
3698.707033 0.9010 0.9006 0.9001 0.9000 0.9000
3703.246598 0.9000 0.9000 0.9000 0.9000 0.9000
3707.786163 0.9000 0.9000 0.9000 0.9000 0.9000
3712.325728 0.9000 0.9000 0.9000 0.9000 0.9000
3716.865293 0.9000 0.8997 0.8992 0.8990 0.8990
3721.404858 0.8990 0.8990 0.8990 0.8990 0.8990
3725.944424 0.8990 0.8987 0.8982 0.8980 0.8980
3730.483989 0.8980 0.8980 0.8977 0.8972 0.8973
3735.023554 0.8978 0.8980 0.8980 0.8980 0.8980
3739.563119 0.8980 0.8980 0.8980 0.8980 0.8980
3744.102684 0.8980 0.8980 0.8980 0.8980 0.8980
3748.642249 0.8980 0.8980 0.8983 0.8988 0.8990
3753.181814 0.8990 0.8990 0.8990 0.8990 0.8990
3757.721379 0.8990 0.8990 0.8990 0.8990 0.8990
3762.260944 0.8990 0.8990 0.8990 0.8990 0.8990
3766.800509 0.8990 0.8990 0.8990 0.8990 0.8990
3771.340074 0.8990 0.8990 0.8990 0.8990 0.8990
3775.879639 0.8990 0.8990 0.8990 0.8990 0.8990
3780.419205 0.8990 0.8990 0.8990 0.8990 0.8990
3784.958770 0.8990 0.8990 0.8990 0.8990 0.8990
3789.498335 0.8990 0.8990 0.8990 0.8990 0.8990
3794.037900 0.8990 0.8990 0.8992 0.8997 0.9000
3798.577465 0.9000 0.9002 0.9007 0.9010 0.9010
3803.117030 0.9010 0.9010 0.9012 0.9017 0.9020
3807.656595 0.9020 0.9020 0.9020 0.9022 0.9027
3812.196160 0.9030 0.9030 0.9030 0.9030 0.9034
3816.735725 0.9044 0.9050 0.9050 0.9052 0.9057
3821.275290 0.9060 0.9060 0.9060 0.9060 0.9062
3825.814855 0.9067 0.9070 0.9070 0.9070 0.9070
3830.354420 0.9072 0.9077 0.9080 0.9080 0.9080
3834.893985 0.9080 0.9082 0.9087 0.9090 0.9090
3839.433551 0.9090 0.9090 0.9090 0.9090 0.9090
3843.973116 0.9090 0.9090 0.9090 0.9090 0.9090
3848.512681 0.9090 0.9090 0.9090 0.9090 0.9090
3853.052246 0.9090 0.9090 0.9090 0.9090 0.9090
3857.591811 0.9090 0.9090 0.9090 0.9090 0.9089
3862.131376 0.9084 0.9080 0.9080 0.9080 0.9080
3866.670941 0.9080 0.9080 0.9080 0.9080 0.9080
3871.210506 0.9080 0.9080 0.9080 0.9080 0.9080
3875.750071 0.9080 0.9080 0.9080 0.9080 0.9080
3880.289636 0.9080 0.9079 0.9074 0.9070 0.9070
3884.829201 0.9070 0.9070 0.9070 0.9070 0.9069
3889.368766 0.9064 0.9060 0.9060 0.9060 0.9060
3893.908332 0.9059 0.9054 0.9050 0.9050 0.9050
3898.447897 0.9050 0.9049 0.9039 0.9030 0.9030
3902.987462 0.9030 0.9030 0.9030 0.9025 0.9020
3907.527027 0.9020 0.9020 0.9020 0.9020 0.9015
3912.066592 0.9010 0.9010 0.9010 0.9010 0.9010
3916.606157 0.9005 0.9000 0.8995 0.8990 0.8990
3921.145722 0.8990 0.8990 0.8990 0.8990 0.8990
3925.685287 0.8990 0.8990 0.8990 0.8990 0.8990
3930.224852 0.8990 0.8990 0.8990 0.8990 0.8990
3934.764417 0.8990 0.8990 0.8990 0.8990 0.8990
3939.303982 0.8990 0.8990 0.8990 0.8990 0.8990
3943.843547 0.8990 0.8990 0.8990 0.8990 0.8990
3948.383113 0.8990 0.8990 0.8990 0.8990 0.8990
3952.922678 0.8985 0.8980 0.8980 0.8980 0.8980
3957.462243 0.8980 0.8980 0.8980 0.8980 0.8980
3962.001808 0.8975 0.8970 0.8970 0.8970 0.8970
3966.541373 0.8970 0.8970 0.8970 0.8965 0.8960
3971.080938 0.8960 0.8960 0.8960 0.8960 0.8960
3975.620503 0.8960 0.8960 0.8960 0.8960 0.8960
3980.160068 0.8960 0.8960 0.8960 0.8960 0.8960
3984.699633 0.8960 0.8960 0.8960 0.8960 0.8960
3989.239198 0.8952 0.8942
##END=
