##TITLE=Beta-NAPHTHALENE-SULFONYL-CHLORIDE
##JCAMP-DX=4.24
##DATA TYPE=INFRARED SPECTRUM
##CLASS=COBLENTZ
##ORIGIN=ANDERSON PHYSICAL LABORATORY
##OWNER=COBLENTZ SOCIETY
Collection (C) 2018 copyright by the U.S. Secretary of Commerce
on behalf of the United States of America. All rights reserved.
##DATE=Not specified, most likely prior to 1970
##NAMES=2-naphthalenesulfonyl chloride
##CAS REGISTRY NO=93-11-8
##MOLFORM=C10 H7 Cl O2 S
##SOURCE REFERENCE=COBLENTZ NO. 2619
##$NIST SOURCE=COBLENTZ
##$NIST IMAGE=cob2619
##SPECTROMETER/DATA SYSTEM=Not specified, most likely a prism, grating, or hybrid spectrometer.
##STATE=SOLID (1.0% IN KBr PELLET)
##PATH LENGTH=0.0355 CM THICK
##SAMPLING PROCEDURE=TRANSMISSION
##RESOLUTION=4
##DATA PROCESSING=DIGITIZED BY NIST FROM HARD COPY (FROM TWO SEGMENTS)
##XUNITS=1/CM
##YUNITS=TRANSMITTANCE
##XFACTOR=1.000000
##YFACTOR=1
##DELTAX=0.936331
##FIRSTX=667.603
##LASTX=3992.51
##FIRSTY=0.799
##MAXX=3992.51
##MINX=667.603
##MAXY=0.935
##MINY=0.155
##NPOINTS=3552
##XYDATA=(X++(Y..Y))
667.603000 0.7990 0.8020 0.8030 0.8030 0.8050
672.284655 0.8060 0.8090 0.8110 0.8110 0.8110
676.966310 0.8120 0.8140 0.8140 0.8150 0.8170
681.647964 0.8200 0.8210 0.8240 0.8290 0.8320
686.329619 0.8380 0.8450 0.8530 0.8570 0.8650
691.011274 0.8720 0.8810 0.8870 0.8920 0.9009
695.692929 0.9050 0.9130 0.9190 0.9230 0.9250
700.374584 0.9280 0.9290 0.9320 0.9340 0.9340
705.056239 0.9350 0.9350 0.9350 0.9340 0.9340
709.737893 0.9320 0.9320 0.9280 0.9260 0.9230
714.419548 0.9200 0.9190 0.9160 0.9160 0.9140
719.101203 0.9130 0.9100 0.9070 0.9040 0.9010
723.782858 0.8960 0.8930 0.8890 0.8860 0.8810
728.464513 0.8770 0.8690 0.8630 0.8531 0.8451
733.146168 0.8390 0.8350 0.8230 0.8110 0.8000
737.827822 0.7930 0.7820 0.7691 0.7551 0.7272
742.509477 0.6930 0.6810 0.6450 0.6210 0.6100
747.191132 0.5731 0.5501 0.5261 0.5081 0.4652
751.872787 0.4340 0.4320 0.4310 0.4320 0.4340
756.554442 0.4470 0.4739 0.5227 0.5667 0.6087
761.236097 0.6390 0.6690 0.6900 0.7030 0.7170
765.917751 0.7509 0.7749 0.7899 0.8178 0.8299
770.599406 0.8380 0.8500 0.8560 0.8630 0.8680
775.281061 0.8740 0.8810 0.8860 0.8890 0.8930
779.962716 0.8960 0.8980 0.9010 0.9010 0.8980
784.644371 0.8960 0.8950 0.8930 0.8900 0.8860
789.326026 0.8840 0.8800 0.8770 0.8720 0.8680
794.007680 0.8660 0.8650 0.8600 0.8560 0.8510
798.689335 0.8420 0.8330 0.8210 0.8110 0.8030
803.370990 0.7900 0.7751 0.7571 0.7500 0.7202
808.052645 0.7000 0.6780 0.6540 0.6340 0.6120
812.734300 0.5771 0.5441 0.5171 0.4852 0.4621
817.415954 0.4500 0.4460 0.4460 0.4490 0.4560
822.097609 0.4949 0.5229 0.5489 0.6007 0.6358
826.779264 0.6610 0.6870 0.7000 0.7150 0.7300
831.460919 0.7499 0.7580 0.7699 0.7819 0.7969
836.142574 0.8020 0.8090 0.8110 0.8110 0.8120
840.824229 0.8110 0.8110 0.8090 0.8060 0.8000
845.505883 0.7990 0.7900 0.7760 0.7670 0.7570
850.187538 0.7520 0.7361 0.7201 0.7031 0.6941
854.869193 0.6880 0.6810 0.6780 0.6780 0.6840
859.550848 0.6970 0.7199 0.7658 0.7690 0.7690
864.232503 0.7690 0.7670 0.7660 0.7580 0.7570
868.914158 0.7550 0.7550 0.7550 0.7580 0.7660
873.595812 0.7910 0.8060 0.8180 0.8260 0.8320
878.277467 0.8360 0.8380 0.8390 0.8410 0.8410
882.959122 0.8410 0.8410 0.8410 0.8390 0.8380
887.640777 0.8360 0.8350 0.8330 0.8320 0.8300
892.322432 0.8290 0.8260 0.8230 0.8200 0.8150
897.004087 0.8090 0.8020 0.7960 0.7880 0.7810
901.685741 0.7730 0.7640 0.7610 0.7600 0.7570
906.367396 0.7520 0.7291 0.7001 0.6900 0.6810
911.049051 0.6790 0.6780 0.6790 0.6850 0.6970
915.730706 0.7020 0.7289 0.7509 0.7699 0.7839
920.412361 0.7850 0.7880 0.7900 0.7910 0.7910
925.094016 0.7910 0.7910 0.7910 0.7900 0.7880
929.775670 0.7880 0.7870 0.7840 0.7810 0.7790
934.457325 0.7790 0.7780 0.7760 0.7750 0.7730
939.138980 0.7690 0.7660 0.7640 0.7630 0.7610
943.820635 0.7570 0.7550 0.7520 0.7470 0.7420
948.502290 0.7380 0.7290 0.7240 0.7210 0.7210
953.183945 0.7200 0.7200 0.7180 0.7140 0.7060
957.865599 0.7020 0.6940 0.6910 0.6900 0.6880
962.547254 0.6900 0.6940 0.6940 0.7020 0.7050
967.228909 0.7140 0.7200 0.7240 0.7260 0.7270
971.910564 0.7270 0.7260 0.7230 0.7180 0.7140
976.592219 0.7120 0.7110 0.7090 0.7090 0.7110
981.273873 0.7120 0.7120 0.7170 0.7200 0.7230
985.955528 0.7230 0.7240 0.7240 0.7240 0.7230
990.637183 0.7230 0.7230 0.7230 0.7230 0.7210
995.318838 0.7200 0.7180 0.7150 0.7120 0.7060
1000.000493 0.7050 0.7030 0.7020 0.6990 0.6930
1004.682148 0.6870 0.6840 0.6700 0.6640 0.6570
1009.363802 0.6520 0.6480 0.6450 0.6420 0.6400
1014.045457 0.6360 0.6310 0.6250 0.6190 0.6130
1018.727112 0.6090 0.6090 0.6070 0.6060 0.6060
1023.408767 0.6070 0.6090 0.6180 0.6250 0.6360
1028.090422 0.6390 0.6400 0.6400 0.6400 0.6390
1032.772077 0.6390 0.6340 0.6330 0.6310 0.6250
1037.453731 0.6210 0.6190 0.6180 0.6180 0.6180
1042.135386 0.6180 0.6180 0.6180 0.6180 0.6180
1046.817041 0.6190 0.6210 0.6210 0.6210 0.6210
1051.498696 0.6210 0.6210 0.6210 0.6190 0.6180
1056.180351 0.6130 0.6100 0.6030 0.6000 0.5970
1060.862006 0.5850 0.5800 0.5740 0.5680 0.5590
1065.543660 0.5500 0.5400 0.5261 0.5141 0.5050
1070.225315 0.5020 0.4940 0.4890 0.4850 0.4850
1074.906970 0.4890 0.5169 0.5369 0.5380 0.5609
1079.588625 0.5850 0.6000 0.6030 0.6040 0.6040
1084.270280 0.6030 0.6030 0.6010 0.6010 0.6000
1088.951935 0.5980 0.5950 0.5910 0.5910 0.5850
1093.633589 0.5770 0.5700 0.5640 0.5590 0.5500
1098.315244 0.5430 0.5410 0.5370 0.5320 0.5320
1102.996899 0.5340 0.5340 0.5350 0.5370 0.5380
1107.678554 0.5380 0.5400 0.5400 0.5400 0.5400
1112.360209 0.5380 0.5380 0.5370 0.5310 0.5250
1117.041863 0.5190 0.5130 0.5050 0.5040 0.5020
1121.723518 0.4950 0.4890 0.4820 0.4770 0.4730
1126.405173 0.4680 0.4640 0.4620 0.4560 0.4520
1131.086828 0.4490 0.4440 0.4430 0.4340 0.4280
1135.768483 0.4200 0.4160 0.4140 0.4100 0.4070
1140.450138 0.4070 0.4070 0.4100 0.4110 0.4110
1145.131792 0.4130 0.4130 0.4110 0.4080 0.4050
1149.813447 0.3990 0.3870 0.3810 0.3750 0.3710
1154.495102 0.3690 0.3680 0.3630 0.3500 0.3330
1159.176757 0.3120 0.3000 0.2791 0.2631 0.2521
1163.858412 0.2420 0.2260 0.2140 0.2050 0.2030
1168.540067 0.2000 0.1930 0.1850 0.1780 0.1661
1173.221721 0.1610 0.1570 0.1550 0.1550 0.1570
1177.903376 0.1660 0.1700 0.1760 0.1989 0.2169
1182.585031 0.2330 0.2570 0.2750 0.2930 0.3090
1187.266686 0.3240 0.3439 0.3619 0.3809 0.4009
1191.948341 0.4170 0.4320 0.4460 0.4580 0.4710
1196.629996 0.4830 0.5009 0.5110 0.5219 0.5290
1201.311650 0.5380 0.5440 0.5490 0.5530 0.5560
1205.993305 0.5560 0.5590 0.5590 0.5640 0.5680
1210.674960 0.5730 0.5770 0.5800 0.5850 0.5850
1215.356615 0.5860 0.5860 0.5860 0.5860 0.5880
1220.038270 0.5880 0.5880 0.5880 0.5880 0.5860
1224.719925 0.5860 0.5860 0.5860 0.5860 0.5880
1229.401579 0.5880 0.5890 0.5940 0.5970 0.5980
1234.083234 0.6000 0.6030 0.6030 0.6030 0.6070
1238.764889 0.6090 0.6090 0.6100 0.6120 0.6150
1243.446544 0.6190 0.6220 0.6250 0.6250 0.6270
1248.128199 0.6270 0.6270 0.6270 0.6300 0.6340
1252.809854 0.6420 0.6490 0.6540 0.6570 0.6670
1257.491508 0.6700 0.6730 0.6780 0.6810 0.6820
1262.173163 0.6820 0.6820 0.6820 0.6810 0.6810
1266.854818 0.6790 0.6780 0.6760 0.6720 0.6690
1271.536473 0.6640 0.6600 0.6580 0.6570 0.6570
1276.218128 0.6570 0.6630 0.6640 0.6700 0.6790
1280.899782 0.6940 0.7000 0.7060 0.7140 0.7150
1285.581437 0.7150 0.7150 0.7150 0.7140 0.7120
1290.263092 0.7120 0.7110 0.7080 0.7080 0.7060
1294.944747 0.7050 0.7050 0.7030 0.7020 0.7000
1299.626402 0.6960 0.6910 0.6870 0.6870 0.6840
1304.308057 0.6810 0.6790 0.6760 0.6690 0.6630
1308.989711 0.6570 0.6540 0.6520 0.6520 0.6480
1313.671366 0.6430 0.6370 0.6360 0.6340 0.6300
1318.353021 0.6250 0.6210 0.6130 0.6120 0.6070
1323.034676 0.6030 0.6000 0.5980 0.5980 0.5920
1327.716331 0.5910 0.5890 0.5860 0.5850 0.5820
1332.397986 0.5760 0.5700 0.5640 0.5560 0.5520
1337.079640 0.5460 0.5430 0.5380 0.5370 0.5310
1341.761295 0.5230 0.5110 0.5010 0.4830 0.4790
1346.442950 0.4431 0.4041 0.3831 0.3661 0.3481
1351.124605 0.3380 0.3260 0.3210 0.3200 0.3210
1355.806260 0.3230 0.3260 0.3360 0.3479 0.3619
1360.487915 0.3770 0.3900 0.4070 0.4220 0.4250
1365.169569 0.4280 0.4310 0.4280 0.4250 0.4200
1369.851224 0.4050 0.3990 0.3780 0.3570 0.3540
1374.532879 0.3480 0.3440 0.3420 0.3380 0.3360
1379.214534 0.3350 0.3230 0.3050 0.2820 0.2640
1383.896189 0.2630 0.2610 0.2610 0.2630 0.2779
1388.577844 0.2900 0.2940 0.3200 0.3410 0.3650
1393.259498 0.4019 0.4339 0.4738 0.5049 0.5488
1397.941153 0.5970 0.6240 0.6640 0.6840 0.7050
1402.622808 0.7240 0.7409 0.7520 0.7639 0.7839
1407.304463 0.7880 0.7940 0.7990 0.8030 0.8090
1411.986118 0.8110 0.8140 0.8180 0.8200 0.8200
1416.667772 0.8210 0.8210 0.8210 0.8210 0.8210
1421.349427 0.8210 0.8210 0.8230 0.8230 0.8210
1426.031082 0.8210 0.8200 0.8180 0.8180 0.8170
1430.712737 0.8150 0.8140 0.8140 0.8140 0.8120
1435.394392 0.8120 0.8120 0.8120 0.8110 0.8110
1440.076047 0.8090 0.8030 0.8030 0.8000 0.7990
1444.757701 0.7970 0.7970 0.7940 0.7930 0.7900
1449.439356 0.7880 0.7870 0.7840 0.7810 0.7780
1454.121011 0.7750 0.7700 0.7640 0.7580 0.7570
1458.802666 0.7550 0.7550 0.7580 0.7610 0.7670
1463.484321 0.7700 0.7790 0.7820 0.7960 0.8050
1468.165976 0.8140 0.8210 0.8230 0.8240 0.8260
1472.847630 0.8260 0.8260 0.8260 0.8240 0.8240
1477.529285 0.8230 0.8230 0.8210 0.8180 0.8170
1482.210940 0.8140 0.8110 0.8080 0.8060 0.8050
1486.892595 0.8030 0.8030 0.8020 0.8020 0.8020
1491.574250 0.7990 0.7970 0.7940 0.7840 0.7840
1496.255905 0.7700 0.7550 0.7500 0.7420 0.7350
1500.937559 0.7300 0.7260 0.7240 0.7200 0.7120
1505.619214 0.7030 0.6960 0.6930 0.6930 0.6930
1510.300869 0.6930 0.6990 0.7050 0.7120 0.7320
1514.982524 0.7510 0.7689 0.7879 0.7989 0.8000
1519.664179 0.8020 0.8020 0.8020 0.8020 0.8000
1524.345834 0.8000 0.7990 0.7960 0.7900 0.7870
1529.027488 0.7870 0.7870 0.7850 0.7850 0.7850
1533.709143 0.7850 0.7850 0.7850 0.7840 0.7820
1538.390798 0.7790 0.7760 0.7730 0.7700 0.7690
1543.072453 0.7690 0.7690 0.7690 0.7690 0.7670
1547.754108 0.7660 0.7630 0.7600 0.7580 0.7570
1552.435763 0.7550 0.7550 0.7540 0.7540 0.7520
1557.117417 0.7520 0.7510 0.7480 0.7440 0.7410
1561.799072 0.7390 0.7350 0.7320 0.7300 0.7290
1566.480727 0.7270 0.7240 0.7230 0.7210 0.7200
1571.162382 0.7180 0.7170 0.7140 0.7090 0.7080
1575.844037 0.7030 0.6990 0.6940 0.6900 0.6840
1580.525691 0.6810 0.6780 0.6670 0.6551 0.6490
1585.207346 0.6330 0.6240 0.6180 0.6090 0.6000
1589.889001 0.5920 0.5860 0.5820 0.5800 0.5790
1594.570656 0.5800 0.5820 0.5880 0.5970 0.6160
1599.252311 0.6420 0.6580 0.6779 0.6900 0.7019
1603.933966 0.7090 0.7200 0.7230 0.7240 0.7240
1608.615620 0.7230 0.7230 0.7180 0.7170 0.7150
1613.297275 0.7050 0.6970 0.6900 0.6840 0.6730
1617.978930 0.6640 0.6550 0.6460 0.6400 0.6340
1622.660585 0.6250 0.6220 0.6210 0.6190 0.6210
1627.342240 0.6270 0.6330 0.6430 0.6510 0.6550
1632.023895 0.6730 0.6910 0.7030 0.7140 0.7150
1636.705549 0.7170 0.7170 0.7170 0.7170 0.7170
1641.387204 0.7170 0.7170 0.7170 0.7170 0.7170
1646.068859 0.7170 0.7170 0.7170 0.7170 0.7170
1650.750514 0.7150 0.7140 0.7090 0.7090 0.7060
1655.432169 0.7060 0.7060 0.7060 0.7060 0.7060
1660.113824 0.7060 0.7050 0.7050 0.7030 0.7020
1664.795478 0.7000 0.7000 0.7000 0.7000 0.7000
1669.477133 0.7000 0.7000 0.7020 0.7020 0.7020
1674.158788 0.7020 0.7020 0.7000 0.7000 0.7000
1678.840443 0.7000 0.7000 0.7000 0.7000 0.7000
1683.522098 0.7000 0.7000 0.7000 0.6990 0.6990
1688.203753 0.6990 0.6990 0.6990 0.6990 0.6990
1692.885407 0.6990 0.6970 0.6970 0.6970 0.6970
1697.567062 0.6970 0.6970 0.6970 0.6970 0.6970
1702.248717 0.6960 0.6960 0.6960 0.6940 0.6930
1706.930372 0.6900 0.6900 0.6900 0.6900 0.6880
1711.612027 0.6880 0.6880 0.6880 0.6880 0.6880
1716.293681 0.6880 0.6880 0.6880 0.6880 0.6880
1720.975336 0.6870 0.6870 0.6870 0.6870 0.6870
1725.656991 0.6870 0.6870 0.6870 0.6880 0.6900
1730.338646 0.6910 0.6930 0.6940 0.6960 0.6960
1735.020301 0.6960 0.6970 0.6970 0.6970 0.6970
1739.701956 0.6970 0.6970 0.6970 0.6970 0.6970
1744.383610 0.6970 0.6960 0.6960 0.6940 0.6940
1749.065265 0.6940 0.6940 0.6940 0.6940 0.6940
1753.746920 0.6940 0.6940 0.6940 0.6930 0.6910
1758.428575 0.6900 0.6880 0.6870 0.6850 0.6840
1763.110230 0.6840 0.6810 0.6780 0.6780 0.6780
1767.791885 0.6780 0.6780 0.6780 0.6780 0.6790
1772.473539 0.6790 0.6810 0.6820 0.6820 0.6840
1777.155194 0.6840 0.6840 0.6840 0.6840 0.6840
1781.836849 0.6840 0.6840 0.6850 0.6850 0.6870
1786.518504 0.6870 0.6870 0.6870 0.6870 0.6870
1791.200159 0.6870 0.6870 0.6870 0.6870 0.6870
1795.881814 0.6850 0.6850 0.6840 0.6820 0.6820
1800.563468 0.6810 0.6790 0.6790 0.6790 0.6790
1805.245123 0.6790 0.6760 0.6750 0.6750 0.6730
1809.926778 0.6700 0.6690 0.6660 0.6660 0.6660
1814.608433 0.6660 0.6660 0.6660 0.6670 0.6690
1819.290088 0.6700 0.6750 0.6760 0.6810 0.6820
1823.971743 0.6840 0.6840 0.6850 0.6850 0.6850
1828.653397 0.6850 0.6850 0.6850 0.6850 0.6850
1833.335052 0.6870 0.6880 0.6900 0.6900 0.6900
1838.016707 0.6910 0.6910 0.6930 0.6930 0.6930
1842.698362 0.6910 0.6910 0.6910 0.6910 0.6910
1847.380017 0.6910 0.6910 0.6910 0.6910 0.6930
1852.061672 0.6910 0.6910 0.6910 0.6910 0.6910
1856.743326 0.6910 0.6900 0.6900 0.6900 0.6900
1861.424981 0.6900 0.6900 0.6900 0.6880 0.6880
1866.106636 0.6880 0.6900 0.6900 0.6880 0.6870
1870.788291 0.6870 0.6870 0.6870 0.6870 0.6870
1875.469946 0.6870 0.6880 0.6880 0.6880 0.6880
1880.151600 0.6880 0.6870 0.6870 0.6870 0.6870
1884.833255 0.6880 0.6870 0.6870 0.6870 0.6850
1889.514910 0.6840 0.6820 0.6820 0.6820 0.6810
1894.196565 0.6790 0.6790 0.6790 0.6790 0.6780
1898.878220 0.6760 0.6750 0.6730 0.6730 0.6730
1903.559875 0.6730 0.6730 0.6730 0.6730 0.6730
1908.241529 0.6730 0.6720 0.6720 0.6720 0.6720
1912.923184 0.6700 0.6700 0.6700 0.6700 0.6660
1917.604839 0.6630 0.6610 0.6600 0.6580 0.6580
1922.286494 0.6580 0.6580 0.6580 0.6580 0.6580
1926.968149 0.6580 0.6580 0.6600 0.6610 0.6610
1931.649804 0.6610 0.6630 0.6630 0.6630 0.6610
1936.331458 0.6610 0.6600 0.6600 0.6600 0.6600
1941.013113 0.6600 0.6600 0.6600 0.6600 0.6610
1945.694768 0.6610 0.6660 0.6670 0.6690 0.6690
1950.376423 0.6690 0.6690 0.6690 0.6690 0.6690
1955.058078 0.6690 0.6690 0.6690 0.6690 0.6690
1959.739733 0.6690 0.6690 0.6690 0.6690 0.6690
1964.421387 0.6670 0.6660 0.6640 0.6640 0.6640
1969.103042 0.6640 0.6640 0.6640 0.6660 0.6660
1973.784697 0.6660 0.6670 0.6670 0.6670 0.6690
1978.466352 0.6690 0.6700 0.6720 0.6720 0.6720
1983.148007 0.6720 0.6720 0.6720 0.6720 0.6720
1987.829662 0.6730 0.6730 0.6730 0.6750 0.6760
1992.511316 0.6760 0.6760 0.6760 0.6760 0.6750
1997.192971 0.6700 0.6690 0.6690 0.6690 0.6685
2001.874626 0.6680 0.6675 0.6670 0.6668 0.6665
2006.556281 0.6663 0.6660 0.6655 0.6650 0.6645
2011.237936 0.6640 0.6633 0.6625 0.6618 0.6610
2015.919590 0.6610 0.6610 0.6610 0.6610 0.6608
2020.601245 0.6605 0.6603 0.6600 0.6600 0.6600
2025.282900 0.6600 0.6600 0.6600 0.6600 0.6600
2029.964555 0.6600 0.6600 0.6600 0.6600 0.6600
2034.646210 0.6600 0.6600 0.6600 0.6600 0.6600
2039.327865 0.6600 0.6600 0.6600 0.6595 0.6590
2044.009519 0.6585 0.6580 0.6578 0.6575 0.6573
2048.691174 0.6570 0.6565 0.6560 0.6555 0.6550
2053.372829 0.6550 0.6550 0.6550 0.6550 0.6550
2058.054484 0.6550 0.6550 0.6550 0.6550 0.6550
2062.736139 0.6550 0.6550 0.6548 0.6545 0.6543
2067.417794 0.6540 0.6540 0.6540 0.6540 0.6540
2072.099448 0.6540 0.6540 0.6540 0.6540 0.6535
2076.781103 0.6530 0.6525 0.6520 0.6518 0.6515
2081.462758 0.6513 0.6510 0.6503 0.6495 0.6488
2086.144413 0.6480 0.6475 0.6470 0.6465 0.6460
2090.826068 0.6453 0.6445 0.6438 0.6430 0.6428
2095.507723 0.6425 0.6423 0.6420 0.6415 0.6410
2100.189377 0.6405 0.6400 0.6400 0.6400 0.6400
2104.871032 0.6400 0.6391 0.6381 0.6371 0.6361
2109.552687 0.6360 0.6360 0.6360 0.6360 0.6355
2114.234342 0.6350 0.6345 0.6340 0.6338 0.6335
2118.915997 0.6333 0.6330 0.6330 0.6330 0.6330
2123.597652 0.6330 0.6330 0.6330 0.6330 0.6330
2128.279306 0.6330 0.6330 0.6330 0.6330 0.6330
2132.960961 0.6330 0.6330 0.6330 0.6330 0.6330
2137.642616 0.6330 0.6330 0.6330 0.6330 0.6330
2142.324271 0.6330 0.6330 0.6330 0.6330 0.6330
2147.005926 0.6330 0.6330 0.6330 0.6330 0.6330
2151.687581 0.6330 0.6330 0.6330 0.6325 0.6320
2156.369235 0.6315 0.6310 0.6310 0.6310 0.6310
2161.050890 0.6310 0.6310 0.6310 0.6310 0.6310
2165.732545 0.6303 0.6295 0.6288 0.6280 0.6278
2170.414200 0.6275 0.6273 0.6270 0.6265 0.6260
2175.095855 0.6255 0.6250 0.6250 0.6250 0.6250
2179.777509 0.6250 0.6248 0.6245 0.6243 0.6240
2184.459164 0.6240 0.6240 0.6240 0.6240 0.6240
2189.140819 0.6240 0.6240 0.6240 0.6240 0.6240
2193.822474 0.6240 0.6240 0.6240 0.6240 0.6240
2198.504129 0.6240 0.6240 0.6240 0.6240 0.6240
2203.185784 0.6240 0.6240 0.6240 0.6240 0.6240
2207.867438 0.6240 0.6240 0.6240 0.6235 0.6230
2212.549093 0.6225 0.6220 0.6220 0.6220 0.6220
2217.230748 0.6220 0.6218 0.6215 0.6213 0.6210
2221.912403 0.6203 0.6195 0.6188 0.6180 0.6172
2226.594058 0.6165 0.6158 0.6150 0.6143 0.6135
2231.275713 0.6128 0.6120 0.6113 0.6105 0.6098
2235.957367 0.6090 0.6090 0.6090 0.6090 0.6090
2240.639022 0.6090 0.6090 0.6090 0.6090 0.6085
2245.320677 0.6080 0.6075 0.6070 0.6070 0.6070
2250.002332 0.6070 0.6070 0.6056 0.6041 0.6026
2254.683987 0.6011 0.6010 0.6010 0.6010 0.6010
2259.365642 0.6010 0.6010 0.6010 0.6010 0.6010
2264.047296 0.6010 0.6010 0.6010 0.6010 0.6010
2268.728951 0.6010 0.6010 0.6010 0.6010 0.6010
2273.410606 0.6010 0.6010 0.6010 0.6010 0.6010
2278.092261 0.6010 0.6010 0.6010 0.6010 0.6008
2282.773916 0.6005 0.6003 0.6000 0.6000 0.6000
2287.455571 0.6000 0.6000 0.6000 0.6000 0.6000
2292.137225 0.6000 0.6000 0.6000 0.6000 0.6000
2296.818880 0.5995 0.5990 0.5985 0.5980 0.5978
2301.500535 0.5975 0.5973 0.5970 0.5970 0.5970
2306.182190 0.5970 0.5970 0.5970 0.5970 0.5970
2310.863845 0.5970 0.5970 0.5970 0.5970 0.5970
2315.545499 0.5970 0.5970 0.5970 0.5970 0.5970
2320.227154 0.5970 0.5970 0.5970 0.5970 0.5970
2324.908809 0.5970 0.5970 0.5970 0.5970 0.5970
2329.590464 0.5970 0.5965 0.5960 0.5955 0.5950
2334.272119 0.5948 0.5945 0.5943 0.5940 0.5925
2338.953774 0.5910 0.5895 0.5880 0.5875 0.5870
2343.635428 0.5865 0.5860 0.5860 0.5860 0.5860
2348.317083 0.5860 0.5858 0.5855 0.5853 0.5850
2352.998738 0.5850 0.5850 0.5850 0.5850 0.5845
2357.680393 0.5840 0.5835 0.5830 0.5830 0.5830
2362.362048 0.5830 0.5830 0.5830 0.5830 0.5830
2367.043703 0.5830 0.5830 0.5830 0.5830 0.5830
2371.725357 0.5828 0.5825 0.5823 0.5820 0.5820
2376.407012 0.5820 0.5820 0.5820 0.5820 0.5820
2381.088667 0.5820 0.5820 0.5820 0.5820 0.5820
2385.770322 0.5820 0.5820 0.5820 0.5820 0.5820
2390.451977 0.5820 0.5820 0.5820 0.5820 0.5822
2395.133632 0.5825 0.5827 0.5830 0.5828 0.5825
2399.815286 0.5823 0.5820 0.5820 0.5820 0.5820
2404.496941 0.5820 0.5820 0.5820 0.5820 0.5820
2409.178596 0.5815 0.5810 0.5805 0.5800 0.5797
2413.860251 0.5795 0.5793 0.5790 0.5785 0.5780
2418.541906 0.5775 0.5770 0.5768 0.5765 0.5763
2423.223561 0.5760 0.5755 0.5750 0.5745 0.5740
2427.905215 0.5738 0.5735 0.5733 0.5730 0.5730
2432.586870 0.5730 0.5730 0.5730 0.5730 0.5730
2437.268525 0.5730 0.5730 0.5730 0.5730 0.5730
2441.950180 0.5730 0.5730 0.5730 0.5730 0.5730
2446.631835 0.5725 0.5720 0.5715 0.5710 0.5710
2451.313490 0.5710 0.5710 0.5710 0.5710 0.5710
2455.995144 0.5710 0.5710 0.5710 0.5710 0.5710
2460.676799 0.5710 0.5710 0.5710 0.5710 0.5710
2465.358454 0.5710 0.5710 0.5710 0.5710 0.5710
2470.040109 0.5710 0.5710 0.5710 0.5715 0.5720
2474.721764 0.5725 0.5730 0.5730 0.5730 0.5730
2479.403418 0.5730 0.5730 0.5730 0.5730 0.5730
2484.085073 0.5730 0.5730 0.5730 0.5730 0.5730
2488.766728 0.5730 0.5730 0.5730 0.5730 0.5730
2493.448383 0.5730 0.5730 0.5725 0.5720 0.5715
2498.130038 0.5710 0.5703 0.5695 0.5688 0.5680
2502.811693 0.5673 0.5665 0.5658 0.5650 0.5640
2507.493347 0.5630 0.5620 0.5610 0.5610 0.5610
2512.175002 0.5610 0.5610 0.5605 0.5600 0.5595
2516.856657 0.5590 0.5590 0.5590 0.5590 0.5590
2521.538312 0.5590 0.5590 0.5590 0.5590 0.5590
2526.219967 0.5590 0.5590 0.5590 0.5590 0.5590
2530.901622 0.5590 0.5590 0.5590 0.5590 0.5590
2535.583276 0.5590 0.5590 0.5590 0.5590 0.5590
2540.264931 0.5590 0.5590 0.5590 0.5590 0.5590
2544.946586 0.5590 0.5590 0.5590 0.5588 0.5585
2549.628241 0.5583 0.5580 0.5575 0.5570 0.5565
2554.309896 0.5560 0.5558 0.5555 0.5553 0.5550
2558.991551 0.5545 0.5540 0.5535 0.5530 0.5527
2563.673205 0.5525 0.5523 0.5520 0.5515 0.5510
2568.354860 0.5505 0.5500 0.5500 0.5500 0.5500
2573.036515 0.5500 0.5498 0.5495 0.5493 0.5490
2577.718170 0.5490 0.5490 0.5490 0.5490 0.5483
2582.399825 0.5475 0.5468 0.5460 0.5460 0.5460
2587.081480 0.5460 0.5460 0.5455 0.5450 0.5445
2591.763134 0.5440 0.5440 0.5440 0.5440 0.5440
2596.444789 0.5438 0.5435 0.5433 0.5430 0.5430
2601.126444 0.5430 0.5430 0.5430 0.5425 0.5420
2605.808099 0.5415 0.5410 0.5410 0.5410 0.5410
2610.489754 0.5410 0.5410 0.5410 0.5410 0.5410
2615.171408 0.5408 0.5405 0.5403 0.5400 0.5395
2619.853063 0.5390 0.5385 0.5380 0.5378 0.5375
2624.534718 0.5373 0.5370 0.5370 0.5370 0.5370
2629.216373 0.5370 0.5365 0.5360 0.5355 0.5350
2633.898028 0.5350 0.5350 0.5350 0.5350 0.5348
2638.579683 0.5345 0.5343 0.5340 0.5340 0.5340
2643.261337 0.5340 0.5340 0.5340 0.5340 0.5340
2647.942992 0.5340 0.5340 0.5340 0.5340 0.5340
2652.624647 0.5335 0.5330 0.5325 0.5320 0.5320
2657.306302 0.5320 0.5320 0.5320 0.5320 0.5320
2661.987957 0.5320 0.5320 0.5320 0.5320 0.5320
2666.669612 0.5320 0.5325 0.5330 0.5335 0.5340
2671.351266 0.5340 0.5340 0.5340 0.5340 0.5335
2676.032921 0.5330 0.5325 0.5320 0.5318 0.5315
2680.714576 0.5313 0.5310 0.5298 0.5285 0.5273
2685.396231 0.5260 0.5253 0.5245 0.5238 0.5230
2690.077886 0.5228 0.5225 0.5223 0.5220 0.5215
2694.759541 0.5210 0.5205 0.5200 0.5198 0.5195
2699.441195 0.5193 0.5190 0.5185 0.5180 0.5175
2704.122850 0.5170 0.5170 0.5170 0.5170 0.5170
2708.804505 0.5170 0.5170 0.5170 0.5170 0.5170
2713.486160 0.5170 0.5170 0.5170 0.5170 0.5170
2718.167815 0.5170 0.5170 0.5170 0.5170 0.5170
2722.849470 0.5170 0.5168 0.5165 0.5163 0.5160
2727.531124 0.5160 0.5160 0.5160 0.5160 0.5155
2732.212779 0.5150 0.5145 0.5140 0.5138 0.5135
2736.894434 0.5133 0.5130 0.5130 0.5130 0.5130
2741.576089 0.5130 0.5130 0.5130 0.5130 0.5130
2746.257744 0.5125 0.5120 0.5115 0.5110 0.5102
2750.939399 0.5095 0.5088 0.5080 0.5070 0.5060
2755.621053 0.5050 0.5040 0.5040 0.5040 0.5040
2760.302708 0.5040 0.5035 0.5030 0.5025 0.5020
2764.984363 0.5018 0.5015 0.5013 0.5010 0.5008
2769.666018 0.5005 0.5003 0.5000 0.5000 0.5000
2774.347673 0.5000 0.5000 0.5000 0.5000 0.5000
2779.029327 0.5000 0.5000 0.5000 0.5000 0.5000
2783.710982 0.5000 0.5000 0.5000 0.5000 0.5000
2788.392637 0.5000 0.5000 0.5000 0.5000 0.5000
2793.074292 0.5000 0.5000 0.5000 0.5000 0.5000
2797.755947 0.5000 0.4995 0.4990 0.4985 0.4980
2802.437602 0.4980 0.4980 0.4980 0.4980 0.4980
2807.119256 0.4980 0.4980 0.4980 0.4980 0.4980
2811.800911 0.4980 0.4980 0.4980 0.4980 0.4980
2816.482566 0.4980 0.4978 0.4975 0.4973 0.4970
2821.164221 0.4970 0.4970 0.4970 0.4970 0.4965
2825.845876 0.4960 0.4955 0.4950 0.4943 0.4935
2830.527531 0.4928 0.4920 0.4920 0.4920 0.4920
2835.209185 0.4920 0.4920 0.4920 0.4920 0.4920
2839.890840 0.4918 0.4915 0.4913 0.4910 0.4898
2844.572495 0.4885 0.4873 0.4861 0.4858 0.4855
2849.254150 0.4853 0.4850 0.4845 0.4840 0.4835
2853.935805 0.4830 0.4828 0.4825 0.4823 0.4820
2858.617460 0.4815 0.4810 0.4805 0.4800 0.4800
2863.299114 0.4800 0.4800 0.4800 0.4798 0.4795
2867.980769 0.4793 0.4790 0.4790 0.4790 0.4790
2872.662424 0.4790 0.4790 0.4790 0.4790 0.4790
2877.344079 0.4790 0.4790 0.4790 0.4790 0.4790
2882.025734 0.4790 0.4790 0.4790 0.4790 0.4790
2886.707389 0.4790 0.4790 0.4790 0.4790 0.4790
2891.389043 0.4790 0.4790 0.4790 0.4790 0.4790
2896.070698 0.4790 0.4790 0.4790 0.4790 0.4790
2900.752353 0.4790 0.4790 0.4790 0.4790 0.4790
2905.434008 0.4790 0.4790 0.4790 0.4790 0.4790
2910.115663 0.4790 0.4790 0.4790 0.4790 0.4790
2914.797317 0.4790 0.4790 0.4790 0.4790 0.4785
2919.478972 0.4780 0.4775 0.4770 0.4770 0.4770
2924.160627 0.4770 0.4770 0.4770 0.4770 0.4770
2928.842282 0.4770 0.4770 0.4770 0.4770 0.4770
2933.523937 0.4768 0.4765 0.4763 0.4760 0.4760
2938.205592 0.4760 0.4760 0.4760 0.4748 0.4735
2942.887246 0.4723 0.4710 0.4703 0.4695 0.4688
2947.568901 0.4680 0.4678 0.4675 0.4673 0.4670
2952.250556 0.4670 0.4670 0.4670 0.4670 0.4665
2956.932211 0.4660 0.4655 0.4650 0.4650 0.4650
2961.613866 0.4650 0.4650 0.4650 0.4650 0.4650
2966.295521 0.4650 0.4648 0.4645 0.4643 0.4640
2970.977175 0.4635 0.4630 0.4625 0.4620 0.4620
2975.658830 0.4620 0.4620 0.4620 0.4618 0.4615
2980.340485 0.4613 0.4610 0.4598 0.4585 0.4573
2985.022140 0.4560 0.4553 0.4545 0.4538 0.4530
2989.703795 0.4528 0.4525 0.4523 0.4520 0.4515
2994.385450 0.4510 0.4505 0.4500 0.4486 0.4471
2999.067104 0.4456 0.4441 0.4433 0.4425 0.4418
3003.748759 0.4410 0.4403 0.4395 0.4388 0.4380
3008.430414 0.4378 0.4375 0.4373 0.4370 0.4365
3013.112069 0.4360 0.4355 0.4350 0.4350 0.4350
3017.793724 0.4350 0.4350 0.4343 0.4335 0.4328
3022.475379 0.4320 0.4318 0.4315 0.4313 0.4310
3027.157033 0.4305 0.4300 0.4295 0.4290 0.4283
3031.838688 0.4275 0.4268 0.4260 0.4250 0.4240
3036.520343 0.4230 0.4220 0.4215 0.4210 0.4205
3041.201998 0.4200 0.4200 0.4200 0.4200 0.4200
3045.883653 0.4200 0.4200 0.4200 0.4200 0.4197
3050.565308 0.4195 0.4193 0.4190 0.4190 0.4190
3055.246962 0.4190 0.4190 0.4190 0.4190 0.4190
3059.928617 0.4190 0.4190 0.4190 0.4190 0.4190
3064.610272 0.4192 0.4195 0.4197 0.4200 0.4200
3069.291927 0.4200 0.4200 0.4200 0.4200 0.4200
3073.973582 0.4200 0.4200 0.4205 0.4210 0.4215
3078.655236 0.4220 0.4234 0.4249 0.4264 0.4279
3083.336891 0.4282 0.4285 0.4287 0.4290 0.4295
3088.018546 0.4300 0.4305 0.4310 0.4325 0.4340
3092.700201 0.4355 0.4370 0.4377 0.4385 0.4392
3097.381856 0.4400 0.4407 0.4415 0.4422 0.4430
3102.063511 0.4430 0.4430 0.4430 0.4430 0.4430
3106.745165 0.4430 0.4430 0.4430 0.4430 0.4430
3111.426820 0.4430 0.4430 0.4425 0.4420 0.4415
3116.108475 0.4410 0.4408 0.4405 0.4403 0.4400
3120.790130 0.4393 0.4385 0.4378 0.4370 0.4370
3125.471785 0.4370 0.4370 0.4370 0.4363 0.4355
3130.153440 0.4348 0.4340 0.4335 0.4330 0.4325
3134.835094 0.4320 0.4318 0.4315 0.4313 0.4310
3139.516749 0.4310 0.4310 0.4310 0.4310 0.4305
3144.198404 0.4300 0.4295 0.4290 0.4288 0.4285
3148.880059 0.4283 0.4280 0.4275 0.4270 0.4265
3153.561714 0.4260 0.4260 0.4260 0.4260 0.4260
3158.243369 0.4258 0.4255 0.4253 0.4250 0.4250
3162.925023 0.4250 0.4250 0.4250 0.4250 0.4250
3167.606678 0.4250 0.4250 0.4250 0.4250 0.4250
3172.288333 0.4250 0.4250 0.4250 0.4250 0.4250
3176.969988 0.4252 0.4255 0.4257 0.4260 0.4260
3181.651643 0.4260 0.4260 0.4260 0.4260 0.4260
3186.333298 0.4260 0.4260 0.4258 0.4255 0.4253
3191.014952 0.4250 0.4250 0.4250 0.4250 0.4250
3195.696607 0.4250 0.4250 0.4250 0.4250 0.4245
3200.378262 0.4240 0.4235 0.4230 0.4230 0.4230
3205.059917 0.4230 0.4230 0.4228 0.4225 0.4223
3209.741572 0.4220 0.4215 0.4210 0.4205 0.4200
3214.423226 0.4200 0.4200 0.4200 0.4200 0.4198
3219.104881 0.4195 0.4193 0.4190 0.4183 0.4175
3223.786536 0.4168 0.4160 0.4155 0.4150 0.4145
3228.468191 0.4140 0.4140 0.4140 0.4140 0.4140
3233.149846 0.4138 0.4135 0.4133 0.4130 0.4125
3237.831501 0.4120 0.4115 0.4110 0.4110 0.4110
3242.513155 0.4110 0.4110 0.4108 0.4105 0.4103
3247.194810 0.4100 0.4095 0.4090 0.4085 0.4080
3251.876465 0.4080 0.4080 0.4080 0.4080 0.4080
3256.558120 0.4080 0.4080 0.4080 0.4078 0.4075
3261.239775 0.4073 0.4070 0.4065 0.4060 0.4055
3265.921430 0.4050 0.4048 0.4045 0.4043 0.4040
3270.603084 0.4040 0.4040 0.4040 0.4040 0.4035
3275.284739 0.4030 0.4025 0.4020 0.4018 0.4015
3279.966394 0.4013 0.4010 0.4010 0.4010 0.4010
3284.648049 0.4010 0.4005 0.4000 0.3995 0.3990
3289.329704 0.3983 0.3975 0.3968 0.3960 0.3960
3294.011359 0.3960 0.3960 0.3960 0.3960 0.3960
3298.693013 0.3960 0.3960 0.3958 0.3955 0.3953
3303.374668 0.3950 0.3945 0.3940 0.3935 0.3930
3308.056323 0.3920 0.3910 0.3900 0.3890 0.3882
3312.737978 0.3875 0.3868 0.3860 0.3855 0.3850
3317.419633 0.3845 0.3840 0.3833 0.3825 0.3818
3322.101288 0.3810 0.3808 0.3805 0.3803 0.3800
3326.782942 0.3795 0.3790 0.3785 0.3780 0.3770
3331.464597 0.3760 0.3750 0.3740 0.3740 0.3740
3336.146252 0.3740 0.3740 0.3740 0.3740 0.3740
3340.827907 0.3740 0.3735 0.3730 0.3725 0.3720
3345.509562 0.3720 0.3720 0.3720 0.3720 0.3720
3350.191217 0.3720 0.3720 0.3720 0.3720 0.3720
3354.872871 0.3720 0.3720 0.3720 0.3720 0.3720
3359.554526 0.3720 0.3720 0.3720 0.3720 0.3720
3364.236181 0.3720 0.3720 0.3720 0.3720 0.3720
3368.917836 0.3720 0.3720 0.3720 0.3720 0.3720
3373.599491 0.3720 0.3720 0.3720 0.3720 0.3720
3378.281145 0.3720 0.3720 0.3720 0.3720 0.3720
3382.962800 0.3720 0.3720 0.3720 0.3720 0.3720
3387.644455 0.3720 0.3720 0.3720 0.3718 0.3715
3392.326110 0.3713 0.3710 0.3705 0.3700 0.3695
3397.007765 0.3690 0.3688 0.3685 0.3683 0.3680
3401.689420 0.3675 0.3670 0.3665 0.3660 0.3660
3406.371074 0.3660 0.3660 0.3660 0.3660 0.3660
3411.052729 0.3660 0.3660 0.3660 0.3660 0.3660
3415.734384 0.3660 0.3660 0.3660 0.3660 0.3660
3420.416039 0.3660 0.3660 0.3660 0.3660 0.3660
3425.097694 0.3660 0.3660 0.3660 0.3660 0.3660
3429.779349 0.3660 0.3660 0.3665 0.3670 0.3675
3434.461003 0.3680 0.3682 0.3685 0.3687 0.3690
3439.142658 0.3690 0.3690 0.3690 0.3690 0.3690
3443.824313 0.3690 0.3690 0.3690 0.3690 0.3690
3448.505968 0.3690 0.3690 0.3690 0.3690 0.3690
3453.187623 0.3690 0.3690 0.3690 0.3690 0.3690
3457.869278 0.3690 0.3690 0.3690 0.3690 0.3690
3462.550932 0.3690 0.3690 0.3690 0.3695 0.3700
3467.232587 0.3705 0.3710 0.3712 0.3715 0.3717
3471.914242 0.3720 0.3725 0.3730 0.3735 0.3740
3476.595897 0.3750 0.3760 0.3770 0.3780 0.3787
3481.277552 0.3795 0.3802 0.3810 0.3815 0.3820
3485.959207 0.3825 0.3830 0.3830 0.3830 0.3830
3490.640861 0.3830 0.3832 0.3835 0.3837 0.3840
3495.322516 0.3845 0.3850 0.3855 0.3860 0.3863
3500.004171 0.3865 0.3867 0.3870 0.3875 0.3880
3504.685826 0.3885 0.3890 0.3890 0.3890 0.3890
3509.367481 0.3890 0.3892 0.3895 0.3897 0.3900
3514.049135 0.3900 0.3900 0.3900 0.3900 0.3900
3518.730790 0.3900 0.3900 0.3900 0.3900 0.3900
3523.412445 0.3900 0.3900 0.3900 0.3900 0.3900
3528.094100 0.3900 0.3912 0.3924 0.3937 0.3949
3532.775755 0.3952 0.3955 0.3957 0.3960 0.3968
3537.457410 0.3975 0.3982 0.3990 0.3990 0.3990
3542.139064 0.3990 0.3990 0.3995 0.4000 0.4005
3546.820719 0.4010 0.4010 0.4010 0.4010 0.4010
3551.502374 0.4017 0.4025 0.4032 0.4040 0.4040
3556.184029 0.4040 0.4040 0.4040 0.4047 0.4055
3560.865684 0.4062 0.4070 0.4079 0.4089 0.4099
3565.547339 0.4109 0.4115 0.4120 0.4125 0.4130
3570.228993 0.4130 0.4130 0.4130 0.4130 0.4133
3574.910648 0.4135 0.4138 0.4140 0.4140 0.4140
3579.592303 0.4140 0.4140 0.4140 0.4140 0.4140
3584.273958 0.4140 0.4147 0.4155 0.4162 0.4170
3588.955613 0.4182 0.4195 0.4207 0.4220 0.4227
3593.637268 0.4235 0.4242 0.4250 0.4260 0.4270
3598.318922 0.4280 0.4290 0.4295 0.4300 0.4305
3603.000577 0.4310 0.4312 0.4315 0.4317 0.4320
3607.682232 0.4320 0.4320 0.4320 0.4320 0.4320
3612.363887 0.4320 0.4320 0.4320 0.4320 0.4320
3617.045542 0.4320 0.4320 0.4320 0.4320 0.4320
3621.727197 0.4320 0.4320 0.4320 0.4320 0.4320
3626.408851 0.4325 0.4330 0.4335 0.4340 0.4340
3631.090506 0.4340 0.4340 0.4340 0.4342 0.4345
3635.772161 0.4347 0.4350 0.4355 0.4360 0.4365
3640.453816 0.4370 0.4372 0.4375 0.4377 0.4380
3645.135471 0.4385 0.4390 0.4395 0.4400 0.4400
3649.817126 0.4400 0.4400 0.4400 0.4400 0.4400
3654.498780 0.4400 0.4400 0.4402 0.4405 0.4407
3659.180435 0.4410 0.4410 0.4410 0.4410 0.4410
3663.862090 0.4410 0.4410 0.4410 0.4410 0.4410
3668.543745 0.4410 0.4410 0.4410 0.4410 0.4410
3673.225400 0.4410 0.4410 0.4410 0.4410 0.4410
3677.907054 0.4410 0.4410 0.4410 0.4410 0.4410
3682.588709 0.4410 0.4410 0.4410 0.4410 0.4410
3687.270364 0.4410 0.4410 0.4410 0.4410 0.4410
3691.952019 0.4410 0.4410 0.4410 0.4410 0.4410
3696.633674 0.4410 0.4410 0.4410 0.4410 0.4410
3701.315329 0.4410 0.4410 0.4410 0.4410 0.4408
3705.996983 0.4405 0.4403 0.4400 0.4400 0.4400
3710.678638 0.4400 0.4400 0.4400 0.4400 0.4400
3715.360293 0.4400 0.4400 0.4400 0.4400 0.4400
3720.041948 0.4395 0.4390 0.4385 0.4380 0.4380
3724.723603 0.4380 0.4380 0.4380 0.4380 0.4380
3729.405258 0.4380 0.4380 0.4380 0.4380 0.4380
3734.086912 0.4380 0.4380 0.4380 0.4380 0.4380
3738.768567 0.4380 0.4380 0.4380 0.4380 0.4380
3743.450222 0.4380 0.4380 0.4380 0.4380 0.4380
3748.131877 0.4380 0.4380 0.4380 0.4380 0.4380
3752.813532 0.4380 0.4385 0.4390 0.4395 0.4400
3757.495187 0.4400 0.4400 0.4400 0.4400 0.4403
3762.176841 0.4405 0.4408 0.4410 0.4410 0.4410
3766.858496 0.4410 0.4410 0.4410 0.4410 0.4410
3771.540151 0.4410 0.4410 0.4410 0.4410 0.4410
3776.221806 0.4410 0.4410 0.4410 0.4410 0.4415
3780.903461 0.4420 0.4425 0.4430 0.4430 0.4430
3785.585116 0.4430 0.4430 0.4430 0.4430 0.4430
3790.266770 0.4430 0.4430 0.4430 0.4430 0.4430
3794.948425 0.4430 0.4430 0.4430 0.4430 0.4422
3799.630080 0.4415 0.4408 0.4400 0.4395 0.4390
3804.311735 0.4385 0.4380 0.4373 0.4365 0.4358
3808.993390 0.4350 0.4350 0.4350 0.4350 0.4350
3813.675044 0.4350 0.4350 0.4350 0.4350 0.4350
3818.356699 0.4350 0.4350 0.4350 0.4348 0.4345
3823.038354 0.4343 0.4340 0.4340 0.4340 0.4340
3827.720009 0.4340 0.4340 0.4340 0.4340 0.4340
3832.401664 0.4335 0.4330 0.4325 0.4320 0.4320
3837.083319 0.4320 0.4320 0.4320 0.4320 0.4320
3841.764973 0.4320 0.4320 0.4318 0.4315 0.4313
3846.446628 0.4310 0.4305 0.4300 0.4295 0.4290
3851.128283 0.4288 0.4285 0.4283 0.4280 0.4280
3855.809938 0.4280 0.4280 0.4280 0.4280 0.4280
3860.491593 0.4280 0.4280 0.4280 0.4280 0.4280
3865.173248 0.4280 0.4280 0.4280 0.4280 0.4280
3869.854902 0.4275 0.4270 0.4265 0.4260 0.4260
3874.536557 0.4260 0.4260 0.4260 0.4258 0.4255
3879.218212 0.4253 0.4250 0.4243 0.4235 0.4228
3883.899867 0.4220 0.4215 0.4210 0.4205 0.4200
3888.581522 0.4200 0.4200 0.4200 0.4200 0.4200
3893.263177 0.4200 0.4200 0.4200 0.4200 0.4200
3897.944831 0.4200 0.4200 0.4198 0.4195 0.4193
3902.626486 0.4190 0.4190 0.4190 0.4190 0.4190
3907.308141 0.4190 0.4190 0.4190 0.4190 0.4190
3911.989796 0.4190 0.4190 0.4190 0.4190 0.4190
3916.671451 0.4190 0.4190 0.4190 0.4190 0.4190
3921.353106 0.4190 0.4190 0.4190 0.4190 0.4190
3926.034760 0.4190 0.4190 0.4190 0.4190 0.4190
3930.716415 0.4190 0.4190 0.4190 0.4190 0.4190
3935.398070 0.4190 0.4190 0.4190 0.4190 0.4190
3940.079725 0.4190 0.4190 0.4190 0.4190 0.4190
3944.761380 0.4190 0.4190 0.4190 0.4190 0.4190
3949.443034 0.4190 0.4190 0.4190 0.4190 0.4190
3954.124689 0.4190 0.4190 0.4185 0.4180 0.4175
3958.806344 0.4170 0.4168 0.4165 0.4163 0.4160
3963.487999 0.4160 0.4160 0.4160 0.4160 0.4160
3968.169654 0.4160 0.4160 0.4160 0.4160 0.4160
3972.851309 0.4160 0.4160 0.4160 0.4160 0.4160
3977.532963 0.4160 0.4160 0.4160 0.4160 0.4160
3982.214618 0.4160 0.4160 0.4160 0.4160 0.4160
3986.896273 0.4160 0.4160 0.4160 0.4155 0.4150
3991.577928 0.4145 0.4140
##END=
