##TITLE=Benzofuranone, 2(3H)-, 3-(3-bromopropyl)-3-phenyl-,
##JCAMP-DX=4.24
##DATA TYPE=INFRARED SPECTRUM
##CLASS=COBLENTZ
##ORIGIN=ABBOTT LABORATORIES
##OWNER=Copyright (C) 1987 by the Coblentz Society
Collection (C) 2018 copyright by the U.S. Secretary of Commerce
on behalf of the United States of America. All rights reserved.
##DATE=1960/01/15
##NAMES=3-(3-bromopropyl)-3-phenyl-1-benzofuran-2(3H)-one
VALERIC ACID,5-BROMO-2-(o-HYDROXYPHENYL)-2-PHENYL-,Gamma-LACTONE
##CAS REGISTRY NO=93323-03-6
##MOLFORM=C17 H15 Br O2
##SOURCE REFERENCE=COBLENTZ NO. 5265
##$NIST SOURCE=COBLENTZ
##$NIST IMAGE=cob5265
##SPECTROMETER/DATA SYSTEM=PERKIN-ELMER 21 (GRATING)
$$ INACTIVE (CHCl3) AROUND 650-800 AND 1200-1250 CM^-^1
##INSTRUMENT PARAMETERS=FILTER AT ABOUT 10 MICRONS
$$ SPECTRAL FEATURE AT 997 CM^-^1 IS AFFECTED BY AN ARTIFACT CAUSED BY FILTER CHANGE
##STATE=SOLUTION 7% (CHCl3 FOR 2-15 microns)
##PATH LENGTH=0.01 CM
##RESOLUTION=2
##XUNITS=1/CM
##YUNITS=TRANSMITTANCE
##XFACTOR=1.0
##YFACTOR=1
##FIRSTX=797
##LASTX=4000
##FIRSTY=0.8798
##MAXX=4000
##MINX=797
##MAXY=0.9842
##MINY=0.2403
##NPOINTS=3204
##XYDATA=(X++(Y..Y))
797.000000 0.8798 0.8791 0.8808 0.8822 0.8839
802.000000 0.8856 0.8879 0.8901 0.8924 0.8948
807.000000 0.8975 0.9002 0.9029 0.9050 0.9072
812.000000 0.9094 0.9125 0.9153 0.9170 0.9187
817.000000 0.9205 0.9221 0.9227 0.9235 0.9241
822.000000 0.9245 0.9245 0.9245 0.9243 0.9245
827.000000 0.9227 0.9206 0.9168 0.9133 0.9125
832.000000 0.9118 0.9111 0.9115 0.9125 0.9137
837.000000 0.9148 0.9159 0.9170 0.9182 0.9188
842.000000 0.9193 0.9199 0.9204 0.9195 0.9185
847.000000 0.9173 0.9147 0.9120 0.9087 0.9053
852.000000 0.9018 0.8956 0.8889 0.8817 0.8735
857.000000 0.8680 0.8664 0.8648 0.8629 0.8611
862.000000 0.8593 0.8519 0.8440 0.8245 0.8031
867.000000 0.7729 0.7405 0.7151 0.7006 0.6954
872.000000 0.7069 0.7219 0.7408 0.7613 0.7784
877.000000 0.8000 0.8157 0.8209 0.8244 0.8188
882.000000 0.8129 0.8059 0.7983 0.7928 0.7876
887.000000 0.7845 0.7829 0.7819 0.7819 0.7820
892.000000 0.7824 0.7829 0.7834 0.7833 0.7827
897.000000 0.7810 0.7767 0.7719 0.7656 0.7593
902.000000 0.7531 0.7468 0.7405 0.7324 0.7240
907.000000 0.7157 0.7074 0.6985 0.6878 0.6781
912.000000 0.6750 0.6753 0.6700 0.6776 0.6807
917.000000 0.6866 0.7008 0.7284 0.7441 0.7580
922.000000 0.7747 0.7947 0.7972 0.7985 0.7990
927.000000 0.7975 0.7956 0.7936 0.7915 0.7888
932.000000 0.7854 0.7820 0.7787 0.7718 0.7781
937.000000 0.7838 0.8068 0.8260 0.8417 0.8606
942.000000 0.8879 0.9048 0.9089 0.9122 0.9135
947.000000 0.9143 0.9146 0.9149 0.9151 0.9154
952.000000 0.9156 0.9158 0.9161 0.9158 0.9169
957.000000 0.9145 0.9139 0.9132 0.9127 0.9118
962.000000 0.9109 0.9099 0.9088 0.9078 0.9068
967.000000 0.9058 0.9046 0.9026 0.9008 0.8989
972.000000 0.8958 0.8913 0.8869 0.8812 0.8735
977.000000 0.8658 0.8581 0.8498 0.8414 0.8331
982.000000 0.8248 0.8157 0.8062 0.7967 0.7872
987.000000 0.7787 0.7708 0.7629 0.7574 0.7530
992.000000 0.7487 0.7464 0.7450 0.7240 0.6951
997.000000 0.6825 0.6839 0.7138 0.7336 0.7342
1002.000000 0.7368 0.7539 0.7674 0.7713 0.7754
1007.000000 0.7681 0.7452 0.7225 0.6998 0.6771
1012.000000 0.6545 0.6320 0.6094 0.5869 0.5645
1017.000000 0.5421 0.5197 0.4974 0.4753 0.4727
1022.000000 0.4730 0.4729 0.4773 0.4817 0.4838
1027.000000 0.4838 0.4866 0.4828 0.4817 0.4803
1032.000000 0.4781 0.4750 0.4701 0.4630 0.4527
1037.000000 0.4419 0.4286 0.4146 0.3996 0.3979
1042.000000 0.3963 0.3961 0.3933 0.3993 0.4018
1047.000000 0.4043 0.4053 0.4076 0.3997 0.3949
1052.000000 0.3900 0.3818 0.3729 0.3641 0.3582
1057.000000 0.3534 0.3513 0.3510 0.3544 0.3534
1062.000000 0.3555 0.3582 0.3722 0.3889 0.4056
1067.000000 0.4222 0.4389 0.4555 0.4720 0.4886
1072.000000 0.5051 0.5216 0.5380 0.5544 0.5698
1077.000000 0.5834 0.6001 0.6158 0.6236 0.6281
1082.000000 0.6316 0.6383 0.6723 0.7394 0.7852
1087.000000 0.8007 0.8154 0.8269 0.8379 0.8450
1092.000000 0.8514 0.8552 0.8575 0.8580 0.8585
1097.000000 0.8597 0.8591 0.8581 0.8571 0.8561
1102.000000 0.8548 0.8526 0.8504 0.8481 0.8452
1107.000000 0.8402 0.8352 0.8297 0.8208 0.8116
1112.000000 0.7969 0.7737 0.7347 0.6948 0.6549
1117.000000 0.6151 0.5753 0.5357 0.4961 0.4673
1122.000000 0.4659 0.4666 0.5040 0.5297 0.5555
1127.000000 0.5811 0.6068 0.6324 0.6580 0.6835
1132.000000 0.7089 0.7343 0.7597 0.7768 0.7839
1137.000000 0.7859 0.7878 0.7889 0.7867 0.7841
1142.000000 0.7803 0.7759 0.7710 0.7641 0.7570
1147.000000 0.7505 0.7454 0.7444 0.7434 0.7431
1152.000000 0.7440 0.7410 0.7460 0.7480 0.7502
1157.000000 0.7523 0.7549 0.7584 0.7619 0.7654
1162.000000 0.7691 0.7738 0.7787 0.7833 0.7851
1167.000000 0.7868 0.7885 0.7911 0.7886 0.7882
1172.000000 0.7879 0.7868 0.7855 0.7843 0.7830
1177.000000 0.7818 0.7806 0.7789 0.7770 0.7750
1182.000000 0.7730 0.7710 0.7691 0.7671 0.7644
1187.000000 0.7597 0.7549 0.7469 0.7328 0.7247
1192.000000 0.7167 0.7086 0.7005 0.6925 0.6845
1197.000000 0.6765 0.6685 0.6605 0.6526 0.6446
1202.000000 0.6366 0.6287 0.6208 0.6129 0.6050
1207.000000 0.5972 0.5893 0.5814 0.5736 0.5658
1212.000000 0.5580 0.5502 0.5424 0.5347 0.5269
1217.000000 0.5191 0.5114 0.5060 0.5026 0.5011
1222.000000 0.4997 0.4983 0.4983 0.4987 0.4994
1227.000000 0.5011 0.5040 0.5158 0.5362 0.5572
1232.000000 0.5780 0.5989 0.6197 0.6405 0.6612
1237.000000 0.6819 0.7004 0.7117 0.7198 0.7263
1242.000000 0.7322 0.7372 0.7412 0.7419 0.7425
1247.000000 0.7430 0.7421 0.7411 0.7402 0.7389
1252.000000 0.7373 0.7358 0.7367 0.7399 0.7446
1257.000000 0.7530 0.7611 0.7675 0.7760 0.7945
1262.000000 0.8037 0.8068 0.8086 0.8085 0.8111
1267.000000 0.8066 0.8053 0.8026 0.7999 0.7971
1272.000000 0.7922 0.7858 0.7790 0.7717 0.7638
1277.000000 0.7469 0.7284 0.7101 0.6917 0.6734
1282.000000 0.6550 0.6367 0.6184 0.6051 0.6038
1287.000000 0.6096 0.6300 0.6531 0.6762 0.6993
1292.000000 0.7223 0.7438 0.7546 0.7658 0.7758
1297.000000 0.7840 0.7893 0.7918 0.7938 0.7947
1302.000000 0.7957 0.7966 0.7975 0.7983 0.7985
1307.000000 0.7985 0.7985 0.7985 0.7985 0.7985
1312.000000 0.7984 0.7981 0.7977 0.7974 0.7970
1317.000000 0.7966 0.7963 0.7959 0.7957 0.7958
1322.000000 0.7958 0.7959 0.7960 0.7973 0.8019
1327.000000 0.8069 0.8255 0.8408 0.8547 0.8699
1332.000000 0.8880 0.8957 0.8967 0.8977 0.8988
1337.000000 0.8998 0.9003 0.9006 0.9010 0.9014
1342.000000 0.9018 0.9022 0.9025 0.9029 0.9033
1347.000000 0.9037 0.9040 0.9044 0.9045 0.9039
1352.000000 0.9033 0.9027 0.9022 0.9017 0.9011
1357.000000 0.9006 0.9000 0.8995 0.8990 0.8991
1362.000000 0.8991 0.8979 0.8993 0.8994 0.8994
1367.000000 0.8996 0.8996 0.8997 0.8998 0.8999
1372.000000 0.9000 0.9002 0.9006 0.9010 0.9013
1377.000000 0.9017 0.9021 0.9024 0.9028 0.9031
1382.000000 0.9035 0.9038 0.9038 0.9037 0.9035
1387.000000 0.9034 0.9033 0.9031 0.9029 0.9028
1392.000000 0.9026 0.9025 0.9024 0.9023 0.9018
1397.000000 0.9009 0.9000 0.8991 0.8982 0.8973
1402.000000 0.8964 0.8955 0.8946 0.8931 0.8906
1407.000000 0.8880 0.8855 0.8829 0.8803 0.8779
1412.000000 0.8761 0.8742 0.8723 0.8704 0.8685
1417.000000 0.8668 0.8653 0.8639 0.8626 0.8607
1422.000000 0.8558 0.8500 0.8436 0.8351 0.8252
1427.000000 0.8050 0.7910 0.7799 0.7687 0.7576
1432.000000 0.7464 0.7353 0.7243 0.7131 0.7021
1437.000000 0.6910 0.6800 0.6689 0.6580 0.6473
1442.000000 0.6416 0.6412 0.6402 0.6555 0.6653
1447.000000 0.6751 0.6849 0.6749 0.6892 0.6080
1452.000000 0.5733 0.5386 0.5040 0.4695 0.4349
1457.000000 0.4005 0.3660 0.3317 0.2973 0.2630
1462.000000 0.2403 0.2452 0.3002 0.4249 0.5495
1467.000000 0.6208 0.6278 0.6263 0.6042 0.5841
1472.000000 0.5640 0.5438 0.5238 0.5038 0.4838
1477.000000 0.4661 0.4597 0.4641 0.4939 0.5323
1482.000000 0.5708 0.6091 0.6474 0.6857 0.7182
1487.000000 0.7270 0.7232 0.7125 0.7015 0.6904
1492.000000 0.6794 0.6684 0.6573 0.6463 0.6388
1497.000000 0.6371 0.6706 0.7041 0.7376 0.7711
1502.000000 0.8062 0.8297 0.8456 0.8626 0.8693
1507.000000 0.8746 0.8800 0.8851 0.8898 0.8944
1512.000000 0.8990 0.9035 0.9072 0.9100 0.9126
1517.000000 0.9152 0.9178 0.9203 0.9228 0.9250
1522.000000 0.9269 0.9289 0.9308 0.9327 0.9347
1527.000000 0.9366 0.9385 0.9404 0.9417 0.9429
1532.000000 0.9442 0.9455 0.9467 0.9480 0.9492
1537.000000 0.9505 0.9517 0.9529 0.9539 0.9547
1542.000000 0.9553 0.9559 0.9565 0.9572 0.9578
1547.000000 0.9584 0.9651 0.9597 0.9603 0.9609
1552.000000 0.9616 0.9622 0.9628 0.9634 0.9637
1557.000000 0.9639 0.9641 0.9643 0.9645 0.9647
1562.000000 0.9649 0.9652 0.9654 0.9656 0.9658
1567.000000 0.9660 0.9662 0.9664 0.9666 0.9667
1572.000000 0.9668 0.9668 0.9668 0.9668 0.9668
1577.000000 0.9668 0.9668 0.9668 0.9668 0.9668
1582.000000 0.9668 0.9668 0.9668 0.9668 0.9668
1587.000000 0.9668 0.9668 0.9668 0.9668 0.9668
1592.000000 0.9668 0.9669 0.9673 0.9676 0.9680
1597.000000 0.9684 0.9688 0.9691 0.9695 0.9698
1602.000000 0.9702 0.9705 0.9709 0.9712 0.9713
1607.000000 0.9715 0.9717 0.9719 0.9721 0.9723
1612.000000 0.9724 0.9726 0.9728 0.9730 0.9731
1617.000000 0.9732 0.9734 0.9736 0.9738 0.9740
1622.000000 0.9742 0.9743 0.9744 0.9744 0.9744
1627.000000 0.9744 0.9744 0.9744 0.9744 0.9744
1632.000000 0.9744 0.9745 0.9745 0.9745 0.9745
1637.000000 0.9745 0.9745 0.9745 0.9745 0.9745
1642.000000 0.9746 0.9746 0.9746 0.9746 0.9746
1647.000000 0.9746 0.9746 0.9746 0.9746 0.9746
1652.000000 0.9747 0.9747 0.9747 0.9747 0.9748
1657.000000 0.9749 0.9750 0.9751 0.9751 0.9752
1662.000000 0.9753 0.9754 0.9755 0.9756 0.9757
1667.000000 0.9758 0.9759 0.9760 0.9760 0.9761
1672.000000 0.9762 0.9763 0.9764 0.9765 0.9766
1677.000000 0.9767 0.9768 0.9769 0.9769 0.9770
1682.000000 0.9771 0.9772 0.9773 0.9774 0.9775
1687.000000 0.9776 0.9776 0.9777 0.9778 0.9779
1692.000000 0.9780 0.9781 0.9782 0.9783 0.9783
1697.000000 0.9785 0.9786 0.9787 0.9788 0.9789
1702.000000 0.9790 0.9791 0.9791 0.9792 0.9793
1707.000000 0.9794 0.9794 0.9795 0.9795 0.9795
1712.000000 0.9796 0.9796 0.9797 0.9797 0.9798
1717.000000 0.9798 0.9798 0.9799 0.9800 0.9800
1722.000000 0.9801 0.9801 0.9801 0.9802 0.9802
1727.000000 0.9803 0.9803 0.9804 0.9804 0.9804
1732.000000 0.9805 0.9806 0.9806 0.9807 0.9807
1737.000000 0.9808 0.9808 0.9809 0.9809 0.9810
1742.000000 0.9810 0.9811 0.9811 0.9812 0.9813
1747.000000 0.9813 0.9813 0.9814 0.9815 0.9815
1752.000000 0.9816 0.9816 0.9817 0.9817 0.9818
1757.000000 0.9819 0.9819 0.9819 0.9820 0.9821
1762.000000 0.9821 0.9821 0.9821 0.9821 0.9820
1767.000000 0.9819 0.9819 0.9819 0.9818 0.9818
1772.000000 0.9817 0.9817 0.9816 0.9816 0.9815
1777.000000 0.9815 0.9815 0.9814 0.9813 0.9813
1782.000000 0.9812 0.9812 0.9812 0.9811 0.9810
1787.000000 0.9810 0.9810 0.9809 0.9809 0.9808
1792.000000 0.9808 0.9807 0.9807 0.9806 0.9805
1797.000000 0.9805 0.9805 0.9804 0.9804 0.9804
1802.000000 0.9803 0.9802 0.9802 0.9802 0.9801
1807.000000 0.9801 0.9801 0.9801 0.9801 0.9801
1812.000000 0.9801 0.9801 0.9801 0.9801 0.9801
1817.000000 0.9801 0.9801 0.9802 0.9802 0.9802
1822.000000 0.9802 0.9802 0.9802 0.9802 0.9802
1827.000000 0.9803 0.9803 0.9803 0.9803 0.9803
1832.000000 0.9803 0.9803 0.9803 0.9804 0.9804
1837.000000 0.9804 0.9804 0.9804 0.9804 0.9804
1842.000000 0.9804 0.9805 0.9805 0.9805 0.9805
1847.000000 0.9805 0.9805 0.9805 0.9805 0.9805
1852.000000 0.9806 0.9806 0.9806 0.9806 0.9806
1857.000000 0.9806 0.9806 0.9806 0.9806 0.9807
1862.000000 0.9807 0.9807 0.9807 0.9807 0.9807
1867.000000 0.9807 0.9807 0.9807 0.9806 0.9806
1872.000000 0.9806 0.9805 0.9805 0.9805 0.9804
1877.000000 0.9804 0.9804 0.9803 0.9803 0.9803
1882.000000 0.9802 0.9802 0.9801 0.9801 0.9801
1887.000000 0.9800 0.9800 0.9799 0.9799 0.9799
1892.000000 0.9798 0.9798 0.9797 0.9797 0.9797
1897.000000 0.9796 0.9796 0.9796 0.9795 0.9795
1902.000000 0.9795 0.9794 0.9794 0.9794 0.9793
1907.000000 0.9793 0.9793 0.9792 0.9791 0.9791
1912.000000 0.9791 0.9790 0.9790 0.9790 0.9789
1917.000000 0.9789 0.9789 0.9788 0.9788 0.9788
1922.000000 0.9787 0.9787 0.9787 0.9786 0.9786
1927.000000 0.9786 0.9785 0.9785 0.9785 0.9784
1932.000000 0.9784 0.9784 0.9783 0.9782 0.9782
1937.000000 0.9782 0.9781 0.9781 0.9780 0.9780
1942.000000 0.9780 0.9779 0.9779 0.9778 0.9778
1947.000000 0.9778 0.9777 0.9776 0.9776 0.9776
1952.000000 0.9775 0.9775 0.9774 0.9774 0.9774
1957.000000 0.9773 0.9772 0.9772 0.9772 0.9771
1962.000000 0.9771 0.9770 0.9770 0.9770 0.9769
1967.000000 0.9768 0.9768 0.9768 0.9768 0.9767
1972.000000 0.9766 0.9766 0.9766 0.9765 0.9765
1977.000000 0.9764 0.9764 0.9764 0.9763 0.9762
1982.000000 0.9762 0.9762 0.9762 0.9761 0.9761
1987.000000 0.9762 0.9763 0.9765 0.9765 0.9766
1992.000000 0.9767 0.9769 0.9770 0.9771 0.9772
1997.000000 0.9774 0.9775 0.9776 0.9777 0.9778
2002.000000 0.9779 0.9780 0.9781 0.9783 0.9784
2007.000000 0.9785 0.9785 0.9787 0.9788 0.9789
2012.000000 0.9790 0.9792 0.9793 0.9794 0.9795
2017.000000 0.9796 0.9797 0.9798 0.9799 0.9800
2022.000000 0.9802 0.9803 0.9804 0.9805 0.9806
2027.000000 0.9807 0.9808 0.9808 0.9809 0.9811
2032.000000 0.9811 0.9812 0.9812 0.9813 0.9814
2037.000000 0.9815 0.9816 0.9816 0.9817 0.9818
2042.000000 0.9818 0.9819 0.9820 0.9821 0.9822
2047.000000 0.9822 0.9823 0.9824 0.9825 0.9826
2052.000000 0.9826 0.9827 0.9827 0.9828 0.9830
2057.000000 0.9830 0.9831 0.9831 0.9832 0.9832
2062.000000 0.9834 0.9835 0.9835 0.9836 0.9836
2067.000000 0.9838 0.9839 0.9839 0.9840 0.9840
2072.000000 0.9841 0.9842 0.9842 0.9842 0.9842
2077.000000 0.9841 0.9841 0.9841 0.9840 0.9840
2082.000000 0.9839 0.9839 0.9838 0.9838 0.9838
2087.000000 0.9837 0.9837 0.9836 0.9836 0.9835
2092.000000 0.9835 0.9835 0.9834 0.9834 0.9833
2097.000000 0.9833 0.9832 0.9832 0.9832 0.9831
2102.000000 0.9831 0.9830 0.9830 0.9829 0.9829
2107.000000 0.9829 0.9828 0.9828 0.9827 0.9827
2112.000000 0.9826 0.9826 0.9826 0.9826 0.9825
2117.000000 0.9824 0.9824 0.9823 0.9823 0.9823
2122.000000 0.9823 0.9822 0.9822 0.9821 0.9820
2127.000000 0.9820 0.9819 0.9819 0.9819 0.9819
2132.000000 0.9818 0.9818 0.9817 0.9816 0.9816
2137.000000 0.9816 0.9816 0.9815 0.9815 0.9814
2142.000000 0.9814 0.9814 0.9814 0.9814 0.9814
2147.000000 0.9814 0.9814 0.9814 0.9814 0.9814
2152.000000 0.9814 0.9814 0.9814 0.9814 0.9814
2157.000000 0.9814 0.9813 0.9813 0.9813 0.9813
2162.000000 0.9813 0.9813 0.9813 0.9813 0.9813
2167.000000 0.9813 0.9813 0.9813 0.9813 0.9813
2172.000000 0.9813 0.9813 0.9813 0.9813 0.9812
2177.000000 0.9812 0.9812 0.9812 0.9812 0.9812
2182.000000 0.9812 0.9812 0.9812 0.9812 0.9812
2187.000000 0.9812 0.9812 0.9812 0.9812 0.9812
2192.000000 0.9812 0.9812 0.9812 0.9811 0.9811
2197.000000 0.9811 0.9811 0.9811 0.9811 0.9811
2202.000000 0.9811 0.9811 0.9811 0.9811 0.9811
2207.000000 0.9811 0.9811 0.9810 0.9810 0.9809
2212.000000 0.9809 0.9808 0.9808 0.9807 0.9807
2217.000000 0.9806 0.9806 0.9806 0.9806 0.9805
2222.000000 0.9805 0.9804 0.9804 0.9803 0.9803
2227.000000 0.9802 0.9802 0.9801 0.9801 0.9800
2232.000000 0.9800 0.9800 0.9800 0.9799 0.9799
2237.000000 0.9798 0.9798 0.9797 0.9797 0.9796
2242.000000 0.9796 0.9795 0.9795 0.9794 0.9794
2247.000000 0.9794 0.9794 0.9793 0.9793 0.9792
2252.000000 0.9792 0.9791 0.9791 0.9790 0.9790
2257.000000 0.9789 0.9789 0.9788 0.9788 0.9788
2262.000000 0.9788 0.9787 0.9787 0.9786 0.9786
2267.000000 0.9785 0.9783 0.9781 0.9779 0.9777
2272.000000 0.9775 0.9773 0.9771 0.9769 0.9767
2277.000000 0.9765 0.9763 0.9761 0.9759 0.9758
2282.000000 0.9756 0.9754 0.9752 0.9750 0.9748
2287.000000 0.9746 0.9744 0.9742 0.9740 0.9738
2292.000000 0.9737 0.9735 0.9733 0.9731 0.9729
2297.000000 0.9727 0.9725 0.9723 0.9721 0.9719
2302.000000 0.9718 0.9716 0.9714 0.9712 0.9710
2307.000000 0.9708 0.9706 0.9704 0.9701 0.9698
2312.000000 0.9693 0.9689 0.9685 0.9681 0.9676
2317.000000 0.9671 0.9667 0.9663 0.9659 0.9655
2322.000000 0.9650 0.9646 0.9642 0.9638 0.9634
2327.000000 0.9630 0.9627 0.9625 0.9623 0.9622
2332.000000 0.9621 0.9619 0.9617 0.9615 0.9613
2337.000000 0.9612 0.9610 0.9609 0.9607 0.9605
2342.000000 0.9603 0.9602 0.9600 0.9599 0.9597
2347.000000 0.9595 0.9594 0.9592 0.9591 0.9589
2352.000000 0.9587 0.9585 0.9584 0.9582 0.9581
2357.000000 0.9579 0.9577 0.9576 0.9574 0.9572
2362.000000 0.9570 0.9568 0.9566 0.9564 0.9562
2367.000000 0.9560 0.9558 0.9556 0.9554 0.9552
2372.000000 0.9550 0.9548 0.9546 0.9544 0.9542
2377.000000 0.9540 0.9538 0.9536 0.9534 0.9532
2382.000000 0.9531 0.9529 0.9527 0.9525 0.9523
2387.000000 0.9521 0.9519 0.9517 0.9515 0.9513
2392.000000 0.9511 0.9509 0.9507 0.9505 0.9503
2397.000000 0.9500 0.9499 0.9497 0.9496 0.9494
2402.000000 0.9499 0.9509 0.9520 0.9531 0.9542
2407.000000 0.9554 0.9566 0.9580 0.9596 0.9612
2412.000000 0.9627 0.9643 0.9651 0.9659 0.9665
2417.000000 0.9669 0.9673 0.9677 0.9681 0.9685
2422.000000 0.9689 0.9692 0.9696 0.9700 0.9702
2427.000000 0.9705 0.9707 0.9709 0.9710 0.9712
2432.000000 0.9714 0.9715 0.9716 0.9718 0.9719
2437.000000 0.9721 0.9723 0.9724 0.9726 0.9728
2442.000000 0.9729 0.9731 0.9733 0.9735 0.9736
2447.000000 0.9738 0.9739 0.9740 0.9740 0.9741
2452.000000 0.9741 0.9741 0.9742 0.9743 0.9744
2457.000000 0.9744 0.9744 0.9745 0.9745 0.9746
2462.000000 0.9747 0.9747 0.9748 0.9748 0.9749
2467.000000 0.9749 0.9750 0.9750 0.9751 0.9752
2472.000000 0.9752 0.9753 0.9753 0.9753 0.9753
2477.000000 0.9753 0.9753 0.9753 0.9753 0.9752
2482.000000 0.9752 0.9752 0.9752 0.9752 0.9752
2487.000000 0.9752 0.9752 0.9752 0.9752 0.9751
2492.000000 0.9751 0.9751 0.9751 0.9751 0.9751
2497.000000 0.9751 0.9750 0.9750 0.9750 0.9750
2502.000000 0.9750 0.9749 0.9749 0.9749 0.9748
2507.000000 0.9748 0.9747 0.9746 0.9746 0.9745
2512.000000 0.9745 0.9744 0.9743 0.9743 0.9742
2517.000000 0.9742 0.9741 0.9740 0.9740 0.9739
2522.000000 0.9739 0.9738 0.9737 0.9737 0.9736
2527.000000 0.9736 0.9735 0.9735 0.9734 0.9733
2532.000000 0.9733 0.9732 0.9732 0.9732 0.9731
2537.000000 0.9730 0.9730 0.9729 0.9729 0.9728
2542.000000 0.9726 0.9725 0.9724 0.9722 0.9721
2547.000000 0.9720 0.9718 0.9717 0.9715 0.9714
2552.000000 0.9712 0.9711 0.9710 0.9708 0.9707
2557.000000 0.9706 0.9704 0.9703 0.9702 0.9700
2562.000000 0.9699 0.9697 0.9696 0.9694 0.9693
2567.000000 0.9692 0.9691 0.9689 0.9688 0.9686
2572.000000 0.9685 0.9684 0.9684 0.9683 0.9682
2577.000000 0.9682 0.9681 0.9681 0.9680 0.9680
2582.000000 0.9679 0.9678 0.9678 0.9678 0.9677
2587.000000 0.9676 0.9675 0.9675 0.9674 0.9673
2592.000000 0.9673 0.9673 0.9672 0.9671 0.9671
2597.000000 0.9670 0.9670 0.9669 0.9669 0.9668
2602.000000 0.9667 0.9666 0.9666 0.9665 0.9665
2607.000000 0.9664 0.9664 0.9663 0.9662 0.9662
2612.000000 0.9662 0.9661 0.9660 0.9660 0.9659
2617.000000 0.9658 0.9657 0.9657 0.9657 0.9656
2622.000000 0.9655 0.9655 0.9654 0.9654 0.9654
2627.000000 0.9653 0.9652 0.9651 0.9651 0.9650
2632.000000 0.9649 0.9649 0.9649 0.9648 0.9647
2637.000000 0.9647 0.9646 0.9646 0.9645 0.9645
2642.000000 0.9644 0.9643 0.9643 0.9642 0.9641
2647.000000 0.9641 0.9641 0.9640 0.9639 0.9639
2652.000000 0.9638 0.9638 0.9637 0.9637 0.9636
2657.000000 0.9635 0.9635 0.9634 0.9633 0.9633
2662.000000 0.9633 0.9632 0.9631 0.9631 0.9630
2667.000000 0.9630 0.9630 0.9629 0.9628 0.9627
2672.000000 0.9627 0.9626 0.9625 0.9625 0.9625
2677.000000 0.9624 0.9624 0.9623 0.9622 0.9622
2682.000000 0.9622 0.9621 0.9620 0.9620 0.9619
2687.000000 0.9618 0.9618 0.9617 0.9617 0.9617
2692.000000 0.9616 0.9615 0.9614 0.9614 0.9614
2697.000000 0.9613 0.9613 0.9612 0.9585 0.9611
2702.000000 0.9610 0.9609 0.9609 0.9609 0.9608
2707.000000 0.9608 0.9607 0.9606 0.9606 0.9606
2712.000000 0.9605 0.9604 0.9604 0.9603 0.9603
2717.000000 0.9603 0.9602 0.9601 0.9601 0.9600
2722.000000 0.9599 0.9599 0.9598 0.9598 0.9598
2727.000000 0.9597 0.9596 0.9596 0.9595 0.9595
2732.000000 0.9595 0.9594 0.9593 0.9593 0.9591
2737.000000 0.9590 0.9589 0.9588 0.9587 0.9586
2742.000000 0.9584 0.9581 0.9579 0.9577 0.9574
2747.000000 0.9572 0.9570 0.9568 0.9566 0.9564
2752.000000 0.9562 0.9559 0.9557 0.9555 0.9553
2757.000000 0.9550 0.9547 0.9544 0.9540 0.9537
2762.000000 0.9533 0.9529 0.9526 0.9522 0.9519
2767.000000 0.9515 0.9511 0.9508 0.9504 0.9501
2772.000000 0.9497 0.9494 0.9490 0.9486 0.9482
2777.000000 0.9479 0.9474 0.9470 0.9465 0.9461
2782.000000 0.9456 0.9451 0.9446 0.9442 0.9437
2787.000000 0.9433 0.9428 0.9424 0.9419 0.9415
2792.000000 0.9410 0.9405 0.9400 0.9396 0.9391
2797.000000 0.9387 0.9382 0.9377 0.9373 0.9368
2802.000000 0.9364 0.9359 0.9353 0.9347 0.9341
2807.000000 0.9335 0.9328 0.9321 0.9315 0.9309
2812.000000 0.9302 0.9296 0.9289 0.9283 0.9276
2817.000000 0.9269 0.9263 0.9256 0.9250 0.9243
2822.000000 0.9236 0.9230 0.9224 0.9218 0.9211
2827.000000 0.9204 0.9198 0.9191 0.9185 0.9178
2832.000000 0.9170 0.9161 0.9152 0.9143 0.9134
2837.000000 0.9125 0.9116 0.9106 0.9097 0.9088
2842.000000 0.9079 0.9070 0.9061 0.9052 0.9043
2847.000000 0.9035 0.9026 0.9018 0.9010 0.9004
2852.000000 0.9001 0.8999 0.8996 0.8995 0.8994
2857.000000 0.8993 0.8993 0.8993 0.8993 0.8994
2862.000000 0.8995 0.8996 0.8997 0.8998 0.8999
2867.000000 0.9000 0.9000 0.9001 0.9002 0.9003
2872.000000 0.9003 0.9003 0.9003 0.9003 0.9003
2877.000000 0.9002 0.9000 0.8999 0.8997 0.8994
2882.000000 0.8990 0.8986 0.8977 0.8961 0.8946
2887.000000 0.8930 0.8916 0.8901 0.8887 0.8873
2892.000000 0.8860 0.8846 0.8835 0.8825 0.8815
2897.000000 0.8805 0.8795 0.8786 0.8776 0.8766
2902.000000 0.8756 0.8746 0.8735 0.8721 0.8707
2907.000000 0.8693 0.8679 0.8665 0.8652 0.8637
2912.000000 0.8623 0.8609 0.8596 0.8586 0.8575
2917.000000 0.8565 0.8556 0.8547 0.8538 0.8530
2922.000000 0.8521 0.8512 0.8503 0.8495 0.8486
2927.000000 0.8478 0.8470 0.8464 0.8457 0.8451
2932.000000 0.8445 0.8439 0.8433 0.8428 0.8422
2937.000000 0.8417 0.8412 0.8408 0.8404 0.8400
2942.000000 0.8396 0.8393 0.8389 0.8385 0.8383
2947.000000 0.8380 0.8377 0.8374 0.8371 0.8368
2952.000000 0.8365 0.8362 0.8360 0.8357 0.8357
2957.000000 0.8357 0.8357 0.8357 0.8357 0.8357
2962.000000 0.8357 0.8358 0.8358 0.8358 0.8359
2967.000000 0.8360 0.8362 0.8363 0.8368 0.8374
2972.000000 0.8380 0.8385 0.8390 0.8394 0.8399
2977.000000 0.8402 0.8404 0.8407 0.8408 0.8405
2982.000000 0.8402 0.8398 0.8395 0.8392 0.8389
2987.000000 0.8385 0.8378 0.8370 0.8362 0.8351
2992.000000 0.8337 0.8323 0.8310 0.8295 0.8280
2997.000000 0.8265 0.8249 0.8230 0.8211 0.8191
3002.000000 0.8181 0.8172 0.8163 0.8155 0.8147
3007.000000 0.8140 0.8132 0.8125 0.8120 0.8114
3012.000000 0.8109 0.8106 0.8103 0.8100 0.8098
3017.000000 0.8095 0.8092 0.8089 0.8087 0.8084
3022.000000 0.8081 0.8091 0.8079 0.8080 0.8081
3027.000000 0.8082 0.8084 0.8085 0.8087 0.8089
3032.000000 0.8091 0.8093 0.8095 0.8097 0.8099
3037.000000 0.8101 0.8103 0.8105 0.8108 0.8110
3042.000000 0.8113 0.8117 0.8121 0.8125 0.8130
3047.000000 0.8135 0.8140 0.8147 0.8161 0.8175
3052.000000 0.8188 0.8204 0.8220 0.8236 0.8253
3057.000000 0.8271 0.8290 0.8308 0.8327 0.8349
3062.000000 0.8372 0.8394 0.8417 0.8440 0.8463
3067.000000 0.8485 0.8508 0.8531 0.8555 0.8578
3072.000000 0.8596 0.8612 0.8628 0.8644 0.8659
3077.000000 0.8674 0.8688 0.8703 0.8718 0.8732
3082.000000 0.8747 0.8761 0.8776 0.8790 0.8804
3087.000000 0.8819 0.8833 0.8848 0.8862 0.8876
3092.000000 0.8890 0.8905 0.8919 0.8930 0.8941
3097.000000 0.8952 0.8964 0.8975 0.8986 0.8996
3102.000000 0.9007 0.9019 0.9030 0.9041 0.9052
3107.000000 0.9063 0.9074 0.9085 0.9098 0.9110
3112.000000 0.9123 0.9136 0.9147 0.9157 0.9167
3117.000000 0.9177 0.9183 0.9188 0.9192 0.9197
3122.000000 0.9202 0.9206 0.9211 0.9216 0.9220
3127.000000 0.9225 0.9229 0.9234 0.9239 0.9244
3132.000000 0.9248 0.9253 0.9255 0.9257 0.9259
3137.000000 0.9261 0.9263 0.9266 0.9268 0.9270
3142.000000 0.9272 0.9274 0.9276 0.9278 0.9281
3147.000000 0.9283 0.9285 0.9287 0.9289 0.9291
3152.000000 0.9292 0.9294 0.9295 0.9297 0.9298
3157.000000 0.9299 0.9300 0.9302 0.9303 0.9304
3162.000000 0.9305 0.9307 0.9308 0.9309 0.9309
3167.000000 0.9310 0.9310 0.9311 0.9311 0.9312
3172.000000 0.9312 0.9313 0.9313 0.9314 0.9314
3177.000000 0.9315 0.9315 0.9316 0.9316 0.9317
3182.000000 0.9317 0.9317 0.9317 0.9318 0.9318
3187.000000 0.9318 0.9318 0.9318 0.9318 0.9318
3192.000000 0.9318 0.9319 0.9319 0.9319 0.9319
3197.000000 0.9320 0.9320 0.9320 0.9320 0.9320
3202.000000 0.9320 0.9320 0.9320 0.9320 0.9319
3207.000000 0.9317 0.9316 0.9314 0.9312 0.9311
3212.000000 0.9309 0.9307 0.9306 0.9304 0.9303
3217.000000 0.9301 0.9300 0.9298 0.9296 0.9295
3222.000000 0.9293 0.9291 0.9290 0.9288 0.9286
3227.000000 0.9285 0.9284 0.9283 0.9281 0.9281
3232.000000 0.9280 0.9279 0.9278 0.9276 0.9275
3237.000000 0.9274 0.9273 0.9272 0.9271 0.9270
3242.000000 0.9269 0.9268 0.9267 0.9266 0.9265
3247.000000 0.9264 0.9263 0.9262 0.9261 0.9259
3252.000000 0.9259 0.9258 0.9257 0.9256 0.9255
3257.000000 0.9255 0.9255 0.9255 0.9254 0.9254
3262.000000 0.9254 0.9254 0.9253 0.9253 0.9253
3267.000000 0.9253 0.9252 0.9252 0.9252 0.9252
3272.000000 0.9252 0.9251 0.9251 0.9250 0.9250
3277.000000 0.9278 0.9249 0.9249 0.9249 0.9249
3282.000000 0.9249 0.9249 0.9249 0.9249 0.9250
3287.000000 0.9250 0.9250 0.9250 0.9251 0.9251
3292.000000 0.9251 0.9251 0.9252 0.9252 0.9252
3297.000000 0.9252 0.9252 0.9253 0.9253 0.9253
3302.000000 0.9253 0.9254 0.9254 0.9254 0.9254
3307.000000 0.9255 0.9255 0.9255 0.9255 0.9255
3312.000000 0.9256 0.9257 0.9257 0.9258 0.9259
3317.000000 0.9260 0.9262 0.9263 0.9264 0.9266
3322.000000 0.9267 0.9268 0.9269 0.9270 0.9272
3327.000000 0.9273 0.9274 0.9276 0.9277 0.9278
3332.000000 0.9279 0.9280 0.9281 0.9283 0.9284
3337.000000 0.9285 0.9287 0.9288 0.9289 0.9290
3342.000000 0.9291 0.9293 0.9294 0.9295 0.9297
3347.000000 0.9298 0.9299 0.9300 0.9301 0.9302
3352.000000 0.9304 0.9305 0.9306 0.9308 0.9309
3357.000000 0.9310 0.9312 0.9313 0.9314 0.9316
3362.000000 0.9318 0.9319 0.9321 0.9323 0.9324
3367.000000 0.9326 0.9328 0.9329 0.9331 0.9332
3372.000000 0.9334 0.9335 0.9337 0.9338 0.9340
3377.000000 0.9341 0.9343 0.9344 0.9346 0.9348
3382.000000 0.9349 0.9351 0.9352 0.9354 0.9355
3387.000000 0.9357 0.9358 0.9360 0.9361 0.9363
3392.000000 0.9364 0.9366 0.9367 0.9369 0.9370
3397.000000 0.9372 0.9374 0.9375 0.9377 0.9379
3402.000000 0.9381 0.9383 0.9385 0.9387 0.9389
3407.000000 0.9390 0.9392 0.9394 0.9395 0.9397
3412.000000 0.9399 0.9401 0.9403 0.9405 0.9407
3417.000000 0.9408 0.9410 0.9412 0.9414 0.9415
3422.000000 0.9417 0.9419 0.9421 0.9423 0.9425
3427.000000 0.9426 0.9428 0.9430 0.9431 0.9431
3432.000000 0.9431 0.9431 0.9431 0.9432 0.9432
3437.000000 0.9432 0.9432 0.9433 0.9433 0.9433
3442.000000 0.9433 0.9433 0.9433 0.9433 0.9433
3447.000000 0.9433 0.9433 0.9434 0.9434 0.9434
3452.000000 0.9434 0.9434 0.9434 0.9433 0.9433
3457.000000 0.9432 0.9431 0.9430 0.9428 0.9427
3462.000000 0.9425 0.9424 0.9423 0.9422 0.9420
3467.000000 0.9419 0.9418 0.9417 0.9415 0.9414
3472.000000 0.9413 0.9412 0.9410 0.9409 0.9408
3477.000000 0.9407 0.9405 0.9404 0.9403 0.9402
3482.000000 0.9400 0.9399 0.9398 0.9397 0.9395
3487.000000 0.9394 0.9393 0.9391 0.9390 0.9388
3492.000000 0.9387 0.9386 0.9385 0.9383 0.9382
3497.000000 0.9381 0.9380 0.9378 0.9377 0.9376
3502.000000 0.9375 0.9373 0.9372 0.9370 0.9369
3507.000000 0.9368 0.9366 0.9365 0.9364 0.9363
3512.000000 0.9361 0.9360 0.9359 0.9357 0.9356
3517.000000 0.9354 0.9353 0.9352 0.9350 0.9349
3522.000000 0.9347 0.9346 0.9345 0.9344 0.9343
3527.000000 0.9341 0.9340 0.9338 0.9337 0.9336
3532.000000 0.9334 0.9333 0.9331 0.9330 0.9329
3537.000000 0.9327 0.9326 0.9324 0.9323 0.9322
3542.000000 0.9321 0.9320 0.9319 0.9318 0.9317
3547.000000 0.9317 0.9317 0.9317 0.9317 0.9317
3552.000000 0.9318 0.9318 0.9318 0.9318 0.9318
3557.000000 0.9318 0.9318 0.9318 0.9318 0.9318
3562.000000 0.9319 0.9319 0.9319 0.9319 0.9319
3567.000000 0.9319 0.9319 0.9319 0.9319 0.9319
3572.000000 0.9320 0.9320 0.9320 0.9320 0.9320
3577.000000 0.9321 0.9322 0.9324 0.9325 0.9327
3582.000000 0.9328 0.9330 0.9332 0.9334 0.9336
3587.000000 0.9338 0.9340 0.9342 0.9344 0.9346
3592.000000 0.9348 0.9350 0.9351 0.9353 0.9355
3597.000000 0.9357 0.9360 0.9362 0.9364 0.9366
3602.000000 0.9369 0.9372 0.9375 0.9378 0.9382
3607.000000 0.9385 0.9388 0.9391 0.9394 0.9397
3612.000000 0.9400 0.9403 0.9406 0.9409 0.9413
3617.000000 0.9416 0.9419 0.9422 0.9425 0.9428
3622.000000 0.9431 0.9434 0.9436 0.9438 0.9440
3627.000000 0.9442 0.9445 0.9446 0.9448 0.9450
3632.000000 0.9452 0.9453 0.9455 0.9457 0.9458
3637.000000 0.9460 0.9462 0.9463 0.9465 0.9467
3642.000000 0.9469 0.9470 0.9472 0.9473 0.9474
3647.000000 0.9475 0.9475 0.9476 0.9477 0.9478
3652.000000 0.9478 0.9479 0.9480 0.9481 0.9481
3657.000000 0.9482 0.9483 0.9484 0.9484 0.9485
3662.000000 0.9486 0.9486 0.9487 0.9488 0.9489
3667.000000 0.9489 0.9490 0.9490 0.9491 0.9491
3672.000000 0.9492 0.9493 0.9494 0.9494 0.9495
3677.000000 0.9495 0.9495 0.9495 0.9494 0.9494
3682.000000 0.9493 0.9493 0.9493 0.9492 0.9492
3687.000000 0.9492 0.9491 0.9491 0.9491 0.9490
3692.000000 0.9490 0.9489 0.9489 0.9489 0.9489
3697.000000 0.9489 0.9489 0.9489 0.9489 0.9489
3702.000000 0.9489 0.9489 0.9489 0.9489 0.9489
3707.000000 0.9489 0.9489 0.9489 0.9489 0.9489
3712.000000 0.9489 0.9489 0.9489 0.9488 0.9488
3717.000000 0.9488 0.9488 0.9488 0.9488 0.9488
3722.000000 0.9488 0.9488 0.9488 0.9488 0.9487
3727.000000 0.9487 0.9487 0.9487 0.9487 0.9487
3732.000000 0.9486 0.9486 0.9486 0.9486 0.9486
3737.000000 0.9486 0.9486 0.9486 0.9486 0.9486
3742.000000 0.9486 0.9485 0.9485 0.9485 0.9485
3747.000000 0.9485 0.9485 0.9484 0.9484 0.9484
3752.000000 0.9484 0.9484 0.9483 0.9483 0.9483
3757.000000 0.9482 0.9482 0.9482 0.9481 0.9481
3762.000000 0.9481 0.9481 0.9481 0.9481 0.9480
3767.000000 0.9480 0.9480 0.9480 0.9480 0.9479
3772.000000 0.9479 0.9479 0.9479 0.9479 0.9479
3777.000000 0.9478 0.9478 0.9478 0.9477 0.9477
3782.000000 0.9477 0.9476 0.9476 0.9476 0.9476
3787.000000 0.9476 0.9475 0.9475 0.9475 0.9474
3792.000000 0.9474 0.9474 0.9473 0.9473 0.9473
3797.000000 0.9473 0.9473 0.9473 0.9472 0.9472
3802.000000 0.9472 0.9472 0.9472 0.9472 0.9471
3807.000000 0.9471 0.9471 0.9470 0.9470 0.9469
3812.000000 0.9469 0.9469 0.9469 0.9469 0.9469
3817.000000 0.9468 0.9468 0.9468 0.9467 0.9467
3822.000000 0.9467 0.9466 0.9466 0.9466 0.9466
3827.000000 0.9466 0.9466 0.9465 0.9465 0.9465
3832.000000 0.9464 0.9464 0.9464 0.9463 0.9463
3837.000000 0.9463 0.9463 0.9463 0.9463 0.9462
3842.000000 0.9462 0.9462 0.9461 0.9461 0.9461
3847.000000 0.9460 0.9460 0.9460 0.9460 0.9460
3852.000000 0.9460 0.9459 0.9459 0.9459 0.9458
3857.000000 0.9458 0.9458 0.9457 0.9457 0.9457
3862.000000 0.9457 0.9457 0.9456 0.9456 0.9456
3867.000000 0.9455 0.9455 0.9455 0.9454 0.9454
3872.000000 0.9454 0.9454 0.9454 0.9454 0.9453
3877.000000 0.9453 0.9453 0.9452 0.9452 0.9452
3882.000000 0.9451 0.9451 0.9451 0.9451 0.9451
3887.000000 0.9451 0.9451 0.9450 0.9450 0.9450
3892.000000 0.9449 0.9449 0.9449 0.9448 0.9448
3897.000000 0.9448 0.9448 0.9448 0.9448 0.9447
3902.000000 0.9447 0.9447 0.9446 0.9446 0.9446
3907.000000 0.9445 0.9445 0.9445 0.9444 0.9444
3912.000000 0.9444 0.9443 0.9443 0.9443 0.9443
3917.000000 0.9443 0.9443 0.9442 0.9442 0.9441
3922.000000 0.9441 0.9440 0.9440 0.9439 0.9439
3927.000000 0.9438 0.9437 0.9437 0.9436 0.9435
3932.000000 0.9435 0.9434 0.9434 0.9433 0.9433
3937.000000 0.9433 0.9432 0.9431 0.9431 0.9430
3942.000000 0.9429 0.9429 0.9428 0.9427 0.9427
3947.000000 0.9426 0.9425 0.9425 0.9424 0.9424
3952.000000 0.9423 0.9423 0.9422 0.9422 0.9421
3957.000000 0.9421 0.9420 0.9419 0.9419 0.9418
3962.000000 0.9417 0.9417 0.9416 0.9416 0.9415
3967.000000 0.9414 0.9414 0.9413 0.9413 0.9412
3972.000000 0.9412 0.9411 0.9411 0.9410 0.9410
3977.000000 0.9409 0.9408 0.9408 0.9407 0.9406
3982.000000 0.9406 0.9406 0.9405 0.9405 0.9404
3987.000000 0.9404 0.9403 0.9402 0.9402 0.9401
3992.000000 0.9401 0.9400 0.9399 0.9398 0.9398
3997.000000 0.9397 0.9396 0.9395 0.9395
##END=
