##TITLE=PROPANOIC ACID, 2-(2,4,5-TRICHLOROPHENOXY)-
##JCAMP-DX=4.24
##DATA TYPE=INFRARED SPECTRUM
##CLASS=COBLENTZ III
##ORIGIN=DOW CHEMICAL COMPANY
##OWNER=COBLENTZ SOCIETY
Collection (C) 2018 copyright by the U.S. Secretary of Commerce
on behalf of the United States of America. All rights reserved.
##DATE=1977/02/22
##NAMES=2-(2,4,5-trichlorophenoxy)propanoic acid
SILVEX
##CAS REGISTRY NO=93-72-1
##MOLFORM=C9 H7 Cl3 O3
##MP=180 C
##SOURCE REFERENCE=COBLENTZ NO. 10664
##$NIST SOURCE=COBLENTZ
##$NIST IMAGE=cob10664
##SPECTROMETER/DATA SYSTEM=PERKIN-ELMER 283
##STATE=SOLID (KBr DISC)
##PATH LENGTH=
$$SPECTRAL CONTAMINATION DUE TO H2O AROUND 3430 CM^-^1
##SAMPLING PROCEDURE=TRANSMISSION
##RESOLUTION=4
##DATA PROCESSING=DIGITIZED BY NIST FROM HARD COPY (FROM TWO SEGMENTS)
##XUNITS=1/CM
##YUNITS=TRANSMITTANCE
##XFACTOR=1.000000
##YFACTOR=1
##DELTAX=1.128125
##FIRSTX=403.707
##LASTX=4012.58
##FIRSTY=0.625
##MAXX=4012.58
##MINX=403.707
##MAXY=1.004
##MINY=0.141
##NPOINTS=3200
##XYDATA=(X++(Y..Y))
403.707000 0.6250 0.6330 0.6480 0.6540 0.6680
409.347624 0.6730 0.6810 0.6870 0.6959 0.7000
414.988248 0.7100 0.7140 0.7210 0.7280 0.7320
420.628872 0.7410 0.7440 0.7480 0.7520 0.7580
426.269496 0.7640 0.7700 0.7740 0.7750 0.7740
431.910120 0.7710 0.7680 0.7660 0.7610 0.7530
437.550744 0.7350 0.7220 0.7220 0.7460 0.7899
443.191368 0.8199 0.8409 0.8480 0.8510 0.8570
448.831992 0.8630 0.8700 0.8710 0.8720 0.8740
454.472616 0.8780 0.8820 0.8870 0.8880 0.8900
460.113240 0.8910 0.8910 0.8910 0.8910 0.8900
465.753864 0.8900 0.8880 0.8870 0.8870 0.8900
471.394488 0.8930 0.9020 0.9060 0.9080 0.9100
477.035112 0.9140 0.9170 0.9200 0.9270 0.9300
482.675736 0.9310 0.9320 0.9370 0.9410 0.9470
488.316361 0.9510 0.9580 0.9620 0.9630 0.9680
493.956985 0.9700 0.9720 0.9730 0.9740 0.9750
499.597609 0.9760 0.9760 0.9770 0.9780 0.9800
505.238233 0.9800 0.9810 0.9820 0.9820 0.9830
510.878857 0.9830 0.9840 0.9850 0.9860 0.9870
516.519481 0.9880 0.9900 0.9910 0.9920 0.9930
522.160105 0.9950 0.9960 0.9970 0.9970 0.9970
527.800729 0.9980 0.9980 0.9980 0.9980 0.9980
533.441353 0.9970 0.9970 0.9960 0.9960 0.9940
539.081977 0.9920 0.9900 0.9870 0.9850 0.9810
544.722601 0.9780 0.9700 0.9610 0.9202 0.8872
550.363225 0.8870 0.8940 0.9060 0.9180 0.9330
556.003849 0.9779 0.9919 0.9970 1.0000 1.0010
561.644473 1.0020 1.0020 1.0040 1.0040 1.0040
567.285097 1.0040 1.0030 1.0030 1.0020 1.0020
572.925721 1.0020 1.0010 1.0010 1.0000 0.9980
578.566345 0.9960 0.9950 1.0000 1.0010 1.0010
584.206969 1.0000 1.0000 1.0000 0.9980 0.9940
589.847593 0.9920 0.9910 0.9870 0.9810 0.9760
595.488217 0.9740 0.9720 0.9660 0.9310 0.9200
601.128841 0.9200 0.9320 0.9330 0.9330 0.9340
606.769465 0.9340 0.9340 0.9350 0.9360 0.9380
612.410089 0.9400 0.9400 0.9400 0.9400 0.9410
618.050713 0.9410 0.9410 0.9420 0.9430 0.9430
623.691337 0.9440 0.9450 0.9440 0.9430 0.9410
629.331961 0.9380 0.9370 0.9370 0.9370 0.9370
634.972585 0.9370 0.9370 0.9380 0.9380 0.9380
640.613209 0.9380 0.9360 0.9340 0.9320 0.9320
646.253833 0.9320 0.9270 0.9240 0.9210 0.9180
651.894457 0.9130 0.9080 0.9030 0.8980 0.8880
657.535082 0.8740 0.8620 0.8461 0.8341 0.8280
663.175706 0.8230 0.7980 0.7480 0.7470 0.7769
668.816330 0.7820 0.7860 0.8019 0.8239 0.8280
674.456954 0.8240 0.8200 0.8120 0.8050 0.7860
680.097578 0.7182 0.6712 0.6710 0.7297 0.7330
685.738202 0.7360 0.7420 0.8410 0.8939 0.9150
691.378826 0.9220 0.9300 0.9320 0.9350 0.9400
697.019450 0.9420 0.9470 0.9540 0.9560 0.9560
702.660074 0.9560 0.9550 0.9540 0.9540 0.9520
708.300698 0.9520 0.9510 0.9500 0.9480 0.9480
713.941322 0.9470 0.9420 0.9380 0.9330 0.9300
719.581946 0.9280 0.9270 0.9260 0.9240 0.9150
725.222570 0.9110 0.9000 0.8781 0.8611 0.8461
730.863194 0.8450 0.8460 0.8470 0.8470 0.8460
736.503818 0.8440 0.8420 0.8360 0.8310 0.8051
742.144442 0.7850 0.7670 0.7450 0.7160 0.6860
747.785066 0.6561 0.6161 0.6160 0.6369 0.6708
753.425690 0.7000 0.7310 0.7720 0.7900 0.8519
759.066314 0.8719 0.8899 0.9000 0.9060 0.9149
764.706938 0.9200 0.9230 0.9300 0.9330 0.9330
770.347562 0.9340 0.9350 0.9350 0.9360 0.9360
775.988186 0.9350 0.9340 0.9340 0.9340 0.9340
781.628810 0.9330 0.9330 0.9320 0.9310 0.9310
787.269434 0.9320 0.9350 0.9370 0.9380 0.9400
792.910058 0.9400 0.9370 0.9340 0.9330 0.9330
798.550682 0.9320 0.9310 0.9310 0.9320 0.9330
804.191306 0.9330 0.9330 0.9330 0.9320 0.9320
809.831930 0.9310 0.9300 0.9270 0.9230 0.9170
815.472554 0.9100 0.9070 0.9000 0.8900 0.8751
821.113178 0.8650 0.8500 0.8380 0.8270 0.7671
826.753803 0.6672 0.6670 0.7367 0.8495 0.8679
832.394427 0.8700 0.8710 0.8710 0.8710 0.8680
838.035051 0.8680 0.8740 0.8899 0.9039 0.9139
843.675675 0.9170 0.9230 0.9250 0.9260 0.9260
849.316299 0.9270 0.9280 0.9280 0.9260 0.9240
854.956923 0.9210 0.9180 0.9130 0.9050 0.9000
860.597547 0.8930 0.8870 0.8810 0.8641 0.8521
866.238171 0.8420 0.8350 0.8280 0.8040 0.7172
871.878795 0.6133 0.5073 0.5070 0.6344 0.7305
877.519419 0.8380 0.8470 0.8480 0.8460 0.8420
883.160043 0.8370 0.8350 0.8320 0.8280 0.8220
888.800667 0.8140 0.8010 0.7910 0.7880 0.7810
894.441291 0.7710 0.7620 0.7530 0.7351 0.7211
900.081915 0.7180 0.7170 0.7160 0.7120 0.7080
905.722539 0.7000 0.6940 0.6781 0.6700 0.6660
911.363163 0.6660 0.6650 0.6640 0.6700 0.6780
917.003787 0.6840 0.6999 0.7110 0.7299 0.7340
922.644411 0.7480 0.7580 0.7700 0.7810 0.7900
928.285035 0.7980 0.8040 0.8150 0.8180 0.8210
933.925659 0.8240 0.8280 0.8330 0.8380 0.8440
939.566283 0.8540 0.8580 0.8620 0.8700 0.8740
945.206907 0.8770 0.8780 0.8810 0.8820 0.8820
950.847531 0.8820 0.8810 0.8810 0.8800 0.8770
956.488155 0.8710 0.8640 0.8510 0.8410 0.8310
962.128779 0.8101 0.8020 0.7920 0.7820 0.7820
967.769403 0.7850 0.8040 0.8440 0.8730 0.8810
973.410027 0.8900 0.9000 0.9010 0.9100 0.9120
979.050651 0.9150 0.9180 0.9210 0.9230 0.9240
984.691275 0.9230 0.9220 0.9210 0.9180 0.9170
990.331899 0.9160 0.9150 0.9140 0.9130 0.9120
995.972524 0.9120 0.9140 0.9150 0.9160 0.9140
1001.613148 0.9140 0.9130 0.9110 0.9110 0.9100
1007.253772 0.9100 0.9070 0.9050 0.9030 0.9000
1012.894396 0.9000 0.8980 0.8970 0.8960 0.8940
1018.535020 0.8920 0.8880 0.8860 0.8830 0.8820
1024.175644 0.8820 0.8800 0.8770 0.8750 0.8710
1029.816268 0.8670 0.8580 0.8500 0.8410 0.8330
1035.456892 0.8310 0.8270 0.8110 0.7960 0.7730
1041.097516 0.7451 0.7280 0.7081 0.6951 0.6771
1046.738140 0.6469 0.6169 0.5670 0.5670 0.6859
1052.378764 0.7179 0.7599 0.8108 0.8240 0.8280
1058.019388 0.8280 0.8270 0.8230 0.8170 0.8110
1063.660012 0.8080 0.8010 0.7920 0.7870 0.7830
1069.300636 0.7700 0.7580 0.7400 0.6860 0.6710
1074.941260 0.6550 0.6251 0.5582 0.4913 0.3845
1080.581884 0.3842 0.5051 0.5840 0.5920 0.7149
1086.222508 0.7150 0.7110 0.7010 0.6881 0.6761
1091.863132 0.6630 0.6480 0.6310 0.5910 0.5480
1097.503756 0.5081 0.4861 0.4641 0.4202 0.4200
1103.144380 0.4400 0.4570 0.4750 0.5110 0.5639
1108.785004 0.6039 0.7236 0.7599 0.7650 0.7650
1114.425628 0.7620 0.7570 0.7380 0.7250 0.7150
1120.066252 0.7000 0.6681 0.6600 0.6510 0.6311
1125.706876 0.5739 0.5250 0.5130 0.5060 0.4980
1131.347500 0.4840 0.4082 0.3322 0.3111 0.3478
1136.988124 0.3580 0.3750 0.4050 0.4060 0.4120
1142.628748 0.4150 0.4300 0.5835 0.6747 0.7447
1148.269372 0.7900 0.8060 0.8410 0.8540 0.8570
1153.909996 0.8580 0.8600 0.8640 0.8680 0.8710
1159.550620 0.8740 0.8780 0.8810 0.8820 0.8840
1165.191245 0.8860 0.8870 0.8880 0.8900 0.8920
1170.831869 0.8940 0.8960 0.8960 0.8960 0.8960
1176.472493 0.8950 0.8950 0.8930 0.8930 0.8920
1182.113117 0.8910 0.8880 0.8850 0.8820 0.8810
1187.753741 0.8800 0.8740 0.8710 0.8670 0.8630
1193.394365 0.8620 0.8610 0.8600 0.8580 0.8570
1199.034989 0.8510 0.8420 0.8370 0.8320 0.8240
1204.675613 0.8210 0.8100 0.8030 0.7980 0.7880
1210.316237 0.7750 0.7700 0.7541 0.7500 0.7410
1215.956861 0.7300 0.7210 0.7120 0.7000 0.6810
1221.597485 0.6720 0.6630 0.6500 0.6351 0.6181
1227.238109 0.5909 0.5600 0.5460 0.5030 0.4580
1232.878733 0.4141 0.3711 0.3231 0.2752 0.2183
1238.519357 0.1620 0.1450 0.1410 0.1410 0.1530
1244.159981 0.1780 0.2119 0.2639 0.3527 0.3898
1249.800605 0.4281 0.5200 0.5650 0.6100 0.6220
1255.441229 0.6479 0.6809 0.7029 0.7299 0.7599
1261.081853 0.7770 0.7900 0.7950 0.8010 0.8070
1266.722477 0.8110 0.8120 0.8130 0.8120 0.8080
1272.363101 0.8000 0.7910 0.7740 0.7600 0.7470
1278.003725 0.7111 0.6751 0.6561 0.6361 0.5982
1283.644349 0.5559 0.5150 0.5150 0.5350 0.5620
1289.284973 0.5970 0.7118 0.7629 0.8009 0.8070
1294.925597 0.8130 0.8160 0.8170 0.8170 0.8130
1300.566221 0.8100 0.8080 0.8070 0.8060 0.8050
1306.206845 0.8040 0.8030 0.8020 0.8020 0.8030
1311.847469 0.8030 0.8050 0.8060 0.8060 0.8080
1317.488093 0.8140 0.8220 0.8400 0.8500 0.8520
1323.128717 0.8530 0.8530 0.8500 0.8480 0.8380
1328.769342 0.8310 0.8220 0.8140 0.8010 0.7900
1334.409966 0.7750 0.7610 0.7401 0.7251 0.7101
1340.050590 0.6900 0.6770 0.6640 0.6480 0.5940
1345.691214 0.5940 0.6060 0.6100 0.6738 0.6680
1351.331838 0.6600 0.6510 0.6320 0.6150 0.5661
1356.972462 0.5071 0.4482 0.5068 0.5399 0.6893
1362.613086 0.7101 0.7641 0.8100 0.8300 0.8310
1368.253710 0.8310 0.8300 0.8200 0.8120 0.8040
1373.894334 0.7800 0.7800 0.7950 0.8470 0.8600
1379.534958 0.8610 0.8610 0.8610 0.8620 0.8680
1385.175582 0.8800 0.8830 0.8870 0.8880 0.8880
1390.816206 0.8910 0.8910 0.8900 0.8880 0.8840
1396.456830 0.8830 0.8780 0.8740 0.8710 0.8640
1402.097454 0.8610 0.8600 0.8540 0.8450 0.8380
1407.738078 0.8260 0.8130 0.8040 0.7970 0.7880
1413.378702 0.7780 0.7680 0.7620 0.7570 0.7560
1419.019326 0.7570 0.7700 0.7810 0.7830 0.7880
1424.659950 0.7900 0.7920 0.7940 0.7970 0.7970
1430.300574 0.7920 0.7880 0.7800 0.7700 0.7540
1435.941198 0.7370 0.7240 0.7021 0.6831 0.6651
1441.581822 0.6459 0.6199 0.5809 0.5300 0.4770
1447.222446 0.4281 0.4280 0.4759 0.5498 0.5908
1452.863070 0.5940 0.5900 0.5710 0.5600 0.5520
1458.503694 0.5410 0.5350 0.5250 0.5180 0.5041
1464.144318 0.5010 0.4970 0.4750 0.4340 0.3880
1469.784942 0.3321 0.2751 0.2182 0.1612 0.1839
1475.425566 0.2211 0.2581 0.3530 0.3910 0.5079
1481.066190 0.5310 0.5410 0.5699 0.6139 0.6250
1486.706814 0.6711 0.7120 0.7200 0.7220 0.7230
1492.347438 0.7310 0.7400 0.7500 0.7729 0.7800
1497.988063 0.8041 0.8470 0.8520 0.8540 0.8600
1503.628687 0.8610 0.8630 0.8680 0.8720 0.8740
1509.269311 0.8800 0.8810 0.8820 0.8850 0.8880
1514.909935 0.8880 0.8900 0.8900 0.8910 0.8910
1520.550559 0.8920 0.8920 0.8920 0.8920 0.8930
1526.191183 0.8940 0.8950 0.8950 0.8960 0.8970
1531.831807 0.8980 0.8980 0.9000 0.9000 0.8980
1537.472431 0.8940 0.8940 0.8980 0.9000 0.9000
1543.113055 0.8980 0.8980 0.8950 0.8940 0.8910
1548.753679 0.8880 0.8810 0.8780 0.8710 0.8670
1554.394303 0.8620 0.8560 0.8550 0.8570 0.8620
1560.034927 0.8670 0.8710 0.8720 0.8700 0.8680
1565.675551 0.8620 0.8580 0.8510 0.8480 0.8450
1571.316175 0.8410 0.8350 0.8300 0.8111 0.7981
1576.956799 0.7830 0.7649 0.7310 0.7150 0.6870
1582.597423 0.6740 0.6610 0.6660 0.6780 0.6900
1588.238047 0.7021 0.7250 0.7410 0.7780 0.8000
1593.878671 0.8150 0.8400 0.8520 0.8550 0.8610
1599.519295 0.8630 0.8630 0.8640 0.8650 0.8650
1605.159919 0.8650 0.8650 0.8650 0.8650 0.8650
1610.800543 0.8650 0.8650 0.8650 0.8650 0.8650
1616.441167 0.8640 0.8640 0.8640 0.8630 0.8630
1622.081791 0.8630 0.8630 0.8630 0.8630 0.8630
1627.722415 0.8630 0.8620 0.8620 0.8620 0.8620
1633.363039 0.8620 0.8620 0.8620 0.8620 0.8620
1639.003663 0.8620 0.8620 0.8620 0.8620 0.8610
1644.644287 0.8610 0.8610 0.8610 0.8610 0.8610
1650.284911 0.8610 0.8620 0.8620 0.8630 0.8630
1655.925535 0.8630 0.8630 0.8630 0.8630 0.8630
1661.566159 0.8620 0.8610 0.8610 0.8610 0.8600
1667.206784 0.8580 0.8570 0.8560 0.8550 0.8530
1672.847408 0.8520 0.8500 0.8470 0.8430 0.8410
1678.488032 0.8380 0.8340 0.8330 0.8310 0.8300
1684.128656 0.8280 0.8230 0.8210 0.8140 0.8080
1689.769280 0.8000 0.7920 0.7800 0.7680 0.7480
1695.409904 0.7330 0.7160 0.6930 0.6760 0.6601
1701.050528 0.6209 0.6039 0.5810 0.5810 0.5900
1706.691152 0.5940 0.5970 0.6180 0.6399 0.6470
1712.331776 0.6510 0.6530 0.6530 0.6500 0.6470
1717.972400 0.6380 0.6320 0.6170 0.6080 0.5881
1723.613024 0.5700 0.5520 0.5370 0.5150 0.4930
1729.253648 0.4710 0.4211 0.3901 0.3631 0.3441
1734.894272 0.3240 0.3140 0.3030 0.2880 0.2840
1740.534896 0.2840 0.2860 0.2880 0.2930 0.3020
1746.175520 0.3141 0.3371 0.3621 0.3910 0.4230
1751.816144 0.5000 0.5479 0.5779 0.5999 0.6658
1757.456768 0.7011 0.7280 0.7460 0.7580 0.7670
1763.097392 0.7740 0.7830 0.7900 0.8000 0.8070
1768.738016 0.8150 0.8210 0.8370 0.8400 0.8420
1774.378640 0.8420 0.8430 0.8450 0.8450 0.8510
1780.019264 0.8560 0.8570 0.8580 0.8580 0.8600
1785.659888 0.8600 0.8600 0.8610 0.8630 0.8640
1791.300512 0.8650 0.8670 0.8670 0.8680 0.8680
1796.941136 0.8680 0.8680 0.8680 0.8680 0.8680
1802.581760 0.8700 0.8700 0.8710 0.8720 0.8730
1808.222384 0.8730 0.8730 0.8730 0.8730 0.8730
1813.863008 0.8730 0.8740 0.8780 0.8780 0.8800
1819.503632 0.8810 0.8820 0.8840 0.8860 0.8870
1825.144256 0.8880 0.8900 0.8900 0.8910 0.8910
1830.784880 0.8910 0.8920 0.8920 0.8930 0.8940
1836.425505 0.8950 0.8960 0.8980 0.8980 0.9000
1842.066129 0.9000 0.9000 0.9000 0.9000 0.9000
1847.706753 0.9000 0.9000 0.9000 0.9000 0.9000
1853.347377 0.9000 0.9000 0.9000 0.9000 0.9000
1858.988001 0.9000 0.9000 0.9000 0.9000 0.9000
1864.628625 0.9000 0.9000 0.9000 0.9000 0.9010
1870.269249 0.9010 0.9010 0.9020 0.9020 0.9020
1875.909873 0.9020 0.9020 0.9020 0.9020 0.9020
1881.550497 0.9020 0.9030 0.9030 0.9030 0.9030
1887.191121 0.9030 0.9030 0.9030 0.9030 0.9030
1892.831745 0.9030 0.9040 0.9040 0.9050 0.9050
1898.472369 0.9050 0.9050 0.9050 0.9050 0.9050
1904.112993 0.9050 0.9050 0.9060 0.9060 0.9060
1909.753617 0.9070 0.9080 0.9080 0.9100 0.9110
1915.394241 0.9110 0.9100 0.9080 0.9080 0.9060
1921.034865 0.9040 0.9040 0.9050 0.9070 0.9080
1926.675489 0.9100 0.9100 0.9080 0.9070 0.9070
1932.316113 0.9060 0.9060 0.9050 0.9050 0.9050
1937.956737 0.9060 0.9070 0.9070 0.9070 0.9060
1943.597361 0.9050 0.9050 0.9060 0.9070 0.9070
1949.237985 0.9070 0.9070 0.9060 0.9050 0.9050
1954.878609 0.9050 0.9060 0.9070 0.9100 0.9100
1960.519233 0.9080 0.9080 0.9070 0.9060 0.9040
1966.159857 0.9040 0.9030 0.9030 0.9040 0.9040
1971.800481 0.9050 0.9050 0.9040 0.9040 0.9040
1977.441105 0.9050 0.9050 0.9060 0.9070 0.9070
1983.081729 0.9060 0.9050 0.9040 0.9040 0.9020
1988.722353 0.9020 0.9010 0.9010 0.9000 0.8980
1994.362977 0.8930 0.8930 0.8910 0.8880 0.8840
2000.003601 0.8810 0.8805 0.8800 0.8800 0.8800
2005.644226 0.8805 0.8810 0.8825 0.8840 0.8855
2011.284850 0.8870 0.8875 0.8880 0.8880 0.8880
2016.925474 0.8875 0.8870 0.8860 0.8850 0.8840
2022.566098 0.8830 0.8825 0.8820 0.8815 0.8810
2028.206722 0.8810 0.8810 0.8815 0.8820 0.8825
2033.847346 0.8830 0.8835 0.8840 0.8845 0.8850
2039.487970 0.8855 0.8860 0.8865 0.8870 0.8870
2045.128594 0.8870 0.8875 0.8880 0.8880 0.8880
2050.769218 0.8880 0.8880 0.8880 0.8880 0.8880
2056.409842 0.8880 0.8880 0.8880 0.8880 0.8880
2062.050466 0.8880 0.8880 0.8875 0.8870 0.8865
2067.691090 0.8860 0.8860 0.8859 0.8854 0.8850
2073.331714 0.8850 0.8851 0.8856 0.8861 0.8871
2078.972338 0.8881 0.8891 0.8901 0.8906 0.8910
2084.612962 0.8910 0.8910 0.8910 0.8911 0.8916
2090.253586 0.8920 0.8920 0.8920 0.8920 0.8920
2095.894210 0.8920 0.8919 0.8909 0.8897 0.8877
2101.534834 0.8859 0.8854 0.8850 0.8850 0.8850
2107.175458 0.8850 0.8850 0.8850 0.8850 0.8850
2112.816082 0.8850 0.8850 0.8850 0.8850 0.8851
2118.456706 0.8856 0.8860 0.8860 0.8859 0.8854
2124.097330 0.8850 0.8850 0.8850 0.8850 0.8850
2129.737954 0.8850 0.8849 0.8844 0.8839 0.8834
2135.378578 0.8829 0.8824 0.8819 0.8814 0.8809
2141.019202 0.8804 0.8800 0.8800 0.8800 0.8800
2146.659826 0.8801 0.8806 0.8811 0.8816 0.8820
2152.300450 0.8820 0.8820 0.8820 0.8820 0.8820
2157.941074 0.8819 0.8814 0.8810 0.8810 0.8809
2163.581698 0.8804 0.8800 0.8800 0.8797 0.8787
2169.222323 0.8780 0.8780 0.8780 0.8780 0.8779
2174.862947 0.8774 0.8770 0.8770 0.8770 0.8770
2180.503571 0.8771 0.8776 0.8780 0.8780 0.8784
2186.144195 0.8799 0.8810 0.8810 0.8811 0.8816
2191.784819 0.8820 0.8820 0.8820 0.8820 0.8820
2197.425443 0.8820 0.8820 0.8820 0.8822 0.8827
2203.066067 0.8830 0.8830 0.8832 0.8837 0.8840
2208.706691 0.8840 0.8838 0.8833 0.8830 0.8830
2214.347315 0.8830 0.8830 0.8828 0.8823 0.8820
2219.987939 0.8820 0.8818 0.8813 0.8808 0.8803
2225.628563 0.8800 0.8800 0.8800 0.8800 0.8796
2231.269187 0.8786 0.8780 0.8780 0.8780 0.8780
2236.909811 0.8780 0.8780 0.8780 0.8780 0.8780
2242.550435 0.8780 0.8780 0.8780 0.8780 0.8780
2248.191059 0.8778 0.8773 0.8762 0.8742 0.8724
2253.831683 0.8709 0.8696 0.8686 0.8678 0.8673
2259.472307 0.8670 0.8670 0.8670 0.8670 0.8670
2265.112931 0.8670 0.8670 0.8670 0.8670 0.8670
2270.753555 0.8670 0.8670 0.8670 0.8670 0.8670
2276.394179 0.8670 0.8670 0.8670 0.8668 0.8663
2282.034803 0.8660 0.8660 0.8658 0.8653 0.8650
2287.675427 0.8650 0.8650 0.8650 0.8650 0.8650
2293.316051 0.8650 0.8650 0.8650 0.8650 0.8645
2298.956675 0.8635 0.8628 0.8623 0.8620 0.8620
2304.597299 0.8618 0.8613 0.8608 0.8603 0.8595
2310.237923 0.8585 0.8580 0.8580 0.8578 0.8573
2315.878547 0.8570 0.8570 0.8570 0.8570 0.8565
2321.519171 0.8555 0.8550 0.8550 0.8547 0.8542
2327.159795 0.8540 0.8540 0.8540 0.8540 0.8537
2332.800419 0.8532 0.8527 0.8522 0.8520 0.8520
2338.441044 0.8517 0.8512 0.8510 0.8510 0.8507
2344.081668 0.8502 0.8500 0.8500 0.8495 0.8485
2349.722292 0.8472 0.8457 0.8447 0.8442 0.8437
2355.362916 0.8432 0.8430 0.8430 0.8427 0.8422
2361.003540 0.8420 0.8420 0.8420 0.8420 0.8420
2366.644164 0.8420 0.8417 0.8412 0.8410 0.8410
2372.284788 0.8407 0.8402 0.8388 0.8368 0.8360
2377.925412 0.8360 0.8357 0.8352 0.8350 0.8350
2383.566036 0.8350 0.8350 0.8347 0.8342 0.8337
2389.206660 0.8332 0.8327 0.8322 0.8314 0.8304
2394.847284 0.8294 0.8284 0.8274 0.8264 0.8257
2400.487908 0.8252 0.8247 0.8242 0.8240 0.8240
2406.128532 0.8240 0.8240 0.8237 0.8232 0.8227
2411.769156 0.8222 0.8217 0.8212 0.8207 0.8202
2417.409780 0.8200 0.8200 0.8194 0.8184 0.8180
2423.050404 0.8180 0.8180 0.8180 0.8173 0.8163
2428.691028 0.8146 0.8126 0.8113 0.8103 0.8093
2434.331652 0.8083 0.8073 0.8063 0.8050 0.8035
2439.972276 0.8023 0.8013 0.8007 0.8002 0.7976
2445.612900 0.7941 0.7920 0.7905 0.7893 0.7883
2451.253524 0.7880 0.7880 0.7887 0.7897 0.7900
2456.894148 0.7900 0.7907 0.7917 0.7927 0.7937
2462.534772 0.7940 0.7940 0.7933 0.7923 0.7916
2468.175396 0.7911 0.7906 0.7901 0.7893 0.7883
2473.816020 0.7873 0.7863 0.7856 0.7851 0.7839
2479.456644 0.7824 0.7816 0.7811 0.7810 0.7810
2485.097268 0.7806 0.7801 0.7792 0.7782 0.7776
2490.737892 0.7771 0.7766 0.7761 0.7760 0.7760
2496.378516 0.7756 0.7751 0.7746 0.7741 0.7736
2502.019140 0.7731 0.7718 0.7703 0.7680 0.7655
2507.659765 0.7634 0.7614 0.7598 0.7583 0.7560
2513.300389 0.7535 0.7518 0.7503 0.7460 0.7409
2518.941013 0.7384 0.7364 0.7344 0.7324 0.7312
2524.581637 0.7302 0.7279 0.7254 0.7234 0.7214
2530.222261 0.7210 0.7210 0.7222 0.7237 0.7252
2535.862885 0.7267 0.7287 0.7307 0.7318 0.7329
2541.503509 0.7339 0.7349 0.7350 0.7350 0.7354
2547.144133 0.7359 0.7360 0.7360 0.7351 0.7341
2552.784757 0.7310 0.7275 0.7261 0.7251 0.7250
2558.425381 0.7250 0.7263 0.7278 0.7298 0.7318
2564.066005 0.7342 0.7367 0.7374 0.7379 0.7389
2569.706629 0.7399 0.7400 0.7400 0.7387 0.7372
2575.347253 0.7361 0.7351 0.7337 0.7322 0.7302
2580.987877 0.7282 0.7275 0.7270 0.7265 0.7260
2586.628501 0.7260 0.7260 0.7255 0.7250 0.7250
2592.269125 0.7250 0.7245 0.7240 0.7235 0.7230
2597.909749 0.7225 0.7220 0.7215 0.7210 0.7215
2603.550373 0.7220 0.7225 0.7230 0.7235 0.7240
2609.190997 0.7245 0.7250 0.7250 0.7250 0.7245
2614.831621 0.7240 0.7235 0.7230 0.7225 0.7220
2620.472245 0.7220 0.7220 0.7215 0.7210 0.7205
2626.112869 0.7200 0.7200 0.7200 0.7200 0.7200
2631.753493 0.7205 0.7210 0.7220 0.7230 0.7235
2637.394117 0.7240 0.7260 0.7280 0.7290 0.7300
2643.034741 0.7305 0.7310 0.7315 0.7320 0.7330
2648.675365 0.7340 0.7340 0.7340 0.7345 0.7350
2654.315989 0.7355 0.7360 0.7365 0.7370 0.7370
2659.956613 0.7370 0.7365 0.7360 0.7350 0.7340
2665.597237 0.7330 0.7320 0.7315 0.7310 0.7305
2671.237861 0.7300 0.7300 0.7300 0.7289 0.7280
2676.878486 0.7275 0.7270 0.7265 0.7260 0.7255
2682.519110 0.7250 0.7250 0.7250 0.7255 0.7260
2688.159734 0.7265 0.7270 0.7270 0.7270 0.7270
2693.800358 0.7268 0.7243 0.7219 0.7209 0.7198
2699.440982 0.7178 0.7158 0.7143 0.7128 0.7113
2705.081606 0.7098 0.7078 0.7059 0.7049 0.7040
2710.722230 0.7040 0.7041 0.7046 0.7051 0.7061
2716.362854 0.7071 0.7076 0.7081 0.7091 0.7100
2722.003478 0.7100 0.7100 0.7100 0.7099 0.7089
2727.644102 0.7079 0.7074 0.7071 0.7076 0.7081
2733.284726 0.7091 0.7101 0.7106 0.7110 0.7110
2738.925350 0.7110 0.7110 0.7109 0.7104 0.7098
2744.565974 0.7088 0.7079 0.7074 0.7070 0.7070
2750.206598 0.7071 0.7076 0.7080 0.7080 0.7080
2755.847222 0.7080 0.7082 0.7092 0.7100 0.7100
2761.487846 0.7098 0.7088 0.7080 0.7080 0.7075
2767.128470 0.7050 0.7028 0.7018 0.7009 0.7004
2772.769094 0.6998 0.6988 0.6974 0.6944 0.6918
2778.409718 0.6908 0.6900 0.6900 0.6898 0.6888
2784.050342 0.6880 0.6880 0.6880 0.6880 0.6879
2789.690966 0.6874 0.6868 0.6858 0.6849 0.6844
2795.331590 0.6835 0.6815 0.6798 0.6787 0.6780
2800.972214 0.6780 0.6777 0.6767 0.6757 0.6747
2806.612838 0.6737 0.6727 0.6719 0.6714 0.6709
2812.253462 0.6704 0.6693 0.6668 0.6644 0.6624
2817.894086 0.6602 0.6572 0.6547 0.6537 0.6529
2823.534710 0.6524 0.6519 0.6514 0.6509 0.6504
2829.175334 0.6497 0.6487 0.6480 0.6480 0.6478
2834.815958 0.6473 0.6467 0.6457 0.6444 0.6424
2840.456583 0.6408 0.6403 0.6397 0.6387 0.6374
2846.097207 0.6354 0.6338 0.6333 0.6327 0.6317
2851.737831 0.6310 0.6310 0.6303 0.6283 0.6270
2857.378455 0.6270 0.6268 0.6263 0.6258 0.6253
2863.019079 0.6246 0.6236 0.6228 0.6223 0.6220
2868.659703 0.6220 0.6220 0.6220 0.6218 0.6213
2874.300327 0.6210 0.6210 0.6210 0.6210 0.6210
2879.940951 0.6210 0.6212 0.6217 0.6220 0.6220
2885.581575 0.6220 0.6220 0.6220 0.6220 0.6220
2891.222199 0.6220 0.6222 0.6227 0.6230 0.6230
2896.862823 0.6230 0.6230 0.6232 0.6237 0.6240
2902.503447 0.6240 0.6240 0.6240 0.6240 0.6240
2908.144071 0.6240 0.6240 0.6240 0.6240 0.6240
2913.784695 0.6240 0.6238 0.6233 0.6228 0.6223
2919.425319 0.6220 0.6220 0.6220 0.6220 0.6220
2925.065943 0.6220 0.6220 0.6220 0.6222 0.6227
2930.706567 0.6232 0.6237 0.6240 0.6240 0.6240
2936.347191 0.6240 0.6238 0.6233 0.6230 0.6230
2941.987815 0.6228 0.6223 0.6220 0.6220 0.6220
2947.628439 0.6220 0.6222 0.6227 0.6232 0.6237
2953.269063 0.6240 0.6240 0.6242 0.6247 0.6257
2958.909687 0.6272 0.6287 0.6302 0.6312 0.6318
2964.550311 0.6323 0.6328 0.6335 0.6345 0.6350
2970.190935 0.6350 0.6353 0.6358 0.6363 0.6368
2975.831559 0.6373 0.6378 0.6385 0.6395 0.6400
2981.472183 0.6400 0.6403 0.6408 0.6410 0.6410
2987.112807 0.6410 0.6410 0.6410 0.6410 0.6410
2992.753431 0.6410 0.6410 0.6410 0.6410 0.6410
2998.394055 0.6410 0.6410 0.6413 0.6418 0.6423
3004.034679 0.6428 0.6433 0.6438 0.6443 0.6448
3009.675304 0.6453 0.6458 0.6460 0.6460 0.6460
3015.315928 0.6460 0.6463 0.6468 0.6473 0.6478
3020.956552 0.6480 0.6480 0.6480 0.6480 0.6480
3026.597176 0.6480 0.6480 0.6480 0.6477 0.6472
3032.237800 0.6470 0.6470 0.6470 0.6470 0.6470
3037.878424 0.6470 0.6467 0.6462 0.6457 0.6452
3043.519048 0.6447 0.6442 0.6440 0.6440 0.6440
3049.159672 0.6440 0.6443 0.6448 0.6453 0.6458
3054.800296 0.6463 0.6468 0.6470 0.6470 0.6473
3060.440920 0.6478 0.6487 0.6497 0.6500 0.6500
3066.081544 0.6500 0.6500 0.6493 0.6483 0.6477
3071.722168 0.6472 0.6470 0.6470 0.6467 0.6462
3077.362792 0.6463 0.6468 0.6480 0.6496 0.6504
3083.003416 0.6509 0.6524 0.6544 0.6550 0.6550
3088.644040 0.6543 0.6533 0.6523 0.6513 0.6496
3094.284664 0.6476 0.6449 0.6419 0.6410 0.6410
3099.925288 0.6435 0.6470 0.6505 0.6541 0.6591
3105.565912 0.6646 0.6667 0.6677 0.6680 0.6680
3111.206536 0.6687 0.6697 0.6707 0.6717 0.6731
3116.847160 0.6746 0.6761 0.6776 0.6780 0.6780
3122.487784 0.6787 0.6798 0.6804 0.6809 0.6818
3128.128408 0.6828 0.6846 0.6866 0.6874 0.6879
3133.769032 0.6892 0.6907 0.6933 0.6963 0.6974
3139.409656 0.6979 0.6988 0.6998 0.7004 0.7009
3145.050280 0.7014 0.7019 0.7032 0.7047 0.7062
3150.690904 0.7077 0.7088 0.7098 0.7104 0.7109
3156.331528 0.7114 0.7119 0.7128 0.7138 0.7152
3161.972152 0.7167 0.7186 0.7206 0.7222 0.7237
3167.612776 0.7244 0.7249 0.7254 0.7259 0.7264
3173.253400 0.7269 0.7274 0.7279 0.7288 0.7299
3178.894025 0.7300 0.7300 0.7304 0.7309 0.7310
3184.534649 0.7310 0.7310 0.7310 0.7314 0.7319
3190.175273 0.7324 0.7329 0.7334 0.7339 0.7344
3195.815897 0.7349 0.7354 0.7359 0.7364 0.7369
3201.456521 0.7374 0.7379 0.7389 0.7399 0.7404
3207.097145 0.7409 0.7419 0.7429 0.7434 0.7439
3212.737769 0.7444 0.7449 0.7459 0.7469 0.7470
3218.378393 0.7470 0.7475 0.7480 0.7480 0.7480
3224.019017 0.7489 0.7499 0.7505 0.7510 0.7510
3229.659641 0.7510 0.7519 0.7529 0.7535 0.7540
3235.300265 0.7549 0.7559 0.7560 0.7560 0.7565
3240.940889 0.7570 0.7570 0.7570 0.7570 0.7570
3246.581513 0.7570 0.7570 0.7570 0.7570 0.7575
3252.222137 0.7580 0.7590 0.7600 0.7600 0.7600
3257.862761 0.7600 0.7600 0.7600 0.7600 0.7605
3263.503385 0.7610 0.7610 0.7610 0.7615 0.7620
3269.144009 0.7630 0.7640 0.7645 0.7650 0.7655
3274.784633 0.7660 0.7660 0.7660 0.7665 0.7670
3280.425257 0.7670 0.7670 0.7670 0.7670 0.7675
3286.065881 0.7680 0.7680 0.7680 0.7680 0.7680
3291.706505 0.7680 0.7680 0.7680 0.7680 0.7680
3297.347129 0.7680 0.7680 0.7680 0.7680 0.7680
3302.987753 0.7680 0.7680 0.7680 0.7680 0.7680
3308.628377 0.7680 0.7675 0.7670 0.7665 0.7660
3314.269001 0.7660 0.7660 0.7660 0.7660 0.7660
3319.909625 0.7660 0.7660 0.7660 0.7660 0.7660
3325.550249 0.7660 0.7660 0.7655 0.7650 0.7650
3331.190873 0.7650 0.7645 0.7640 0.7640 0.7640
3336.831497 0.7635 0.7630 0.7625 0.7620 0.7615
3342.472121 0.7609 0.7604 0.7598 0.7583 0.7569
3348.112746 0.7564 0.7560 0.7560 0.7559 0.7549
3353.753370 0.7539 0.7534 0.7529 0.7524 0.7519
3359.393994 0.7514 0.7509 0.7504 0.7499 0.7489
3365.034618 0.7479 0.7474 0.7467 0.7447 0.7429
3370.675242 0.7419 0.7409 0.7404 0.7398 0.7388
3376.315866 0.7379 0.7374 0.7367 0.7352 0.7337
3381.956490 0.7322 0.7309 0.7304 0.7297 0.7282
3387.597114 0.7269 0.7264 0.7259 0.7254 0.7248
3393.237738 0.7238 0.7230 0.7230 0.7229 0.7224
3398.878362 0.7219 0.7214 0.7207 0.7192 0.7179
3404.518986 0.7174 0.7169 0.7164 0.7160 0.7160
3410.159610 0.7160 0.7160 0.7159 0.7154 0.7150
3415.800234 0.7150 0.7150 0.7150 0.7150 0.7150
3421.440858 0.7151 0.7156 0.7160 0.7160 0.7160
3427.081482 0.7160 0.7160 0.7160 0.7160 0.7160
3432.722106 0.7160 0.7160 0.7160 0.7160 0.7161
3438.362730 0.7166 0.7170 0.7170 0.7171 0.7176
3444.003354 0.7180 0.7180 0.7183 0.7193 0.7200
3449.643978 0.7200 0.7201 0.7206 0.7213 0.7223
3455.284602 0.7231 0.7236 0.7241 0.7246 0.7250
3460.925226 0.7250 0.7251 0.7256 0.7260 0.7260
3466.565850 0.7262 0.7267 0.7272 0.7277 0.7280
3472.206474 0.7280 0.7283 0.7293 0.7302 0.7307
3477.847098 0.7312 0.7317 0.7322 0.7327 0.7333
3483.487722 0.7343 0.7353 0.7363 0.7372 0.7377
3489.128346 0.7383 0.7393 0.7400 0.7400 0.7400
3494.768970 0.7400 0.7400 0.7400 0.7402 0.7407
3500.409594 0.7410 0.7410 0.7412 0.7417 0.7424
3506.050218 0.7434 0.7445 0.7461 0.7472 0.7477
3511.690842 0.7486 0.7501 0.7512 0.7517 0.7522
3517.331467 0.7527 0.7532 0.7537 0.7544 0.7554
3522.972091 0.7562 0.7567 0.7570 0.7570 0.7572
3528.612715 0.7577 0.7580 0.7580 0.7580 0.7580
3534.253339 0.7584 0.7594 0.7604 0.7614 0.7622
3539.893963 0.7627 0.7632 0.7637 0.7640 0.7640
3545.534587 0.7642 0.7647 0.7654 0.7664 0.7676
3551.175211 0.7691 0.7702 0.7707 0.7712 0.7717
3556.815835 0.7722 0.7727 0.7735 0.7745 0.7757
3562.456459 0.7772 0.7785 0.7795 0.7802 0.7807
3568.097083 0.7810 0.7810 0.7812 0.7817 0.7825
3573.737707 0.7835 0.7842 0.7847 0.7857 0.7872
3579.378331 0.7880 0.7880 0.7885 0.7895 0.7900
3585.018955 0.7900 0.7905 0.7915 0.7922 0.7927
3590.659579 0.7932 0.7937 0.7947 0.7962 0.7972
3596.300203 0.7977 0.7980 0.7980 0.7985 0.7995
3601.940827 0.8003 0.8008 0.8018 0.8033 0.8048
3607.581451 0.8063 0.8070 0.8070 0.8073 0.8078
3613.222075 0.8080 0.8080 0.8088 0.8103 0.8115
3618.862699 0.8125 0.8133 0.8138 0.8143 0.8148
3624.503323 0.8153 0.8158 0.8160 0.8160 0.8160
3630.143947 0.8160 0.8160 0.8160 0.8163 0.8168
3635.784571 0.8170 0.8170 0.8173 0.8178 0.8180
3641.425195 0.8180 0.8186 0.8196 0.8200 0.8200
3647.065819 0.8206 0.8216 0.8220 0.8220 0.8220
3652.706443 0.8220 0.8223 0.8228 0.8230 0.8230
3658.347067 0.8230 0.8230 0.8233 0.8238 0.8240
3663.987691 0.8240 0.8243 0.8248 0.8250 0.8250
3669.628315 0.8250 0.8250 0.8250 0.8250 0.8253
3675.268939 0.8258 0.8260 0.8260 0.8257 0.8252
3680.909564 0.8250 0.8250 0.8247 0.8242 0.8240
3686.550188 0.8240 0.8240 0.8240 0.8243 0.8248
3692.190812 0.8250 0.8250 0.8250 0.8250 0.8250
3697.831436 0.8250 0.8250 0.8250 0.8250 0.8250
3703.472060 0.8250 0.8250 0.8253 0.8258 0.8263
3709.112684 0.8268 0.8270 0.8270 0.8267 0.8262
3714.753308 0.8257 0.8252 0.8250 0.8250 0.8250
3720.393932 0.8250 0.8250 0.8250 0.8250 0.8250
3726.034556 0.8254 0.8259 0.8274 0.8294 0.8304
3731.675180 0.8309 0.8306 0.8301 0.8289 0.8274
3737.315804 0.8270 0.8270 0.8266 0.8261 0.8260
3742.956428 0.8260 0.8256 0.8251 0.8250 0.8250
3748.597052 0.8250 0.8250 0.8250 0.8250 0.8254
3754.237676 0.8259 0.8260 0.8260 0.8260 0.8260
3759.878300 0.8260 0.8260 0.8252 0.8242 0.8240
3765.518924 0.8240 0.8236 0.8231 0.8230 0.8230
3771.159548 0.8230 0.8230 0.8230 0.8230 0.8230
3776.800172 0.8230 0.8230 0.8230 0.8230 0.8230
3782.440796 0.8230 0.8230 0.8226 0.8221 0.8216
3788.081420 0.8211 0.8206 0.8201 0.8200 0.8200
3793.722044 0.8204 0.8209 0.8214 0.8219 0.8220
3799.362668 0.8220 0.8224 0.8229 0.8230 0.8230
3805.003292 0.8230 0.8230 0.8226 0.8221 0.8220
3810.643916 0.8220 0.8220 0.8220 0.8233 0.8248
3816.284540 0.8254 0.8259 0.8260 0.8260 0.8264
3821.925164 0.8269 0.8270 0.8270 0.8266 0.8261
3827.565788 0.8260 0.8260 0.8256 0.8251 0.8250
3833.206412 0.8250 0.8250 0.8250 0.8250 0.8250
3838.847036 0.8254 0.8259 0.8264 0.8269 0.8270
3844.487660 0.8270 0.8270 0.8270 0.8265 0.8260
3850.128285 0.8260 0.8260 0.8255 0.8250 0.8250
3855.768909 0.8250 0.8245 0.8240 0.8235 0.8230
3861.409533 0.8230 0.8230 0.8225 0.8220 0.8220
3867.050157 0.8220 0.8220 0.8220 0.8220 0.8220
3872.690781 0.8220 0.8220 0.8225 0.8230 0.8230
3878.331405 0.8230 0.8230 0.8230 0.8230 0.8230
3883.972029 0.8225 0.8220 0.8220 0.8220 0.8215
3889.612653 0.8210 0.8205 0.8200 0.8200 0.8200
3895.253277 0.8190 0.8180 0.8180 0.8180 0.8180
3900.893901 0.8180 0.8180 0.8180 0.8175 0.8170
3906.534525 0.8170 0.8170 0.8165 0.8160 0.8160
3912.175149 0.8160 0.8160 0.8160 0.8160 0.8160
3917.815773 0.8160 0.8160 0.8165 0.8170 0.8170
3923.456397 0.8170 0.8170 0.8170 0.8175 0.8180
3929.097021 0.8180 0.8180 0.8180 0.8180 0.8190
3934.737645 0.8200 0.8200 0.8200 0.8200 0.8200
3940.378269 0.8205 0.8210 0.8210 0.8210 0.8215
3946.018893 0.8221 0.8231 0.8240 0.8245 0.8250
3951.659517 0.8250 0.8251 0.8261 0.8270 0.8270
3957.300141 0.8271 0.8286 0.8300 0.8305 0.8311
3962.940765 0.8326 0.8340 0.8345 0.8351 0.8361
3968.581389 0.8370 0.8370 0.8371 0.8386 0.8400
3974.222013 0.8405 0.8410 0.8415 0.8422 0.8447
3979.862637 0.8472 0.8492 0.8511 0.8521 0.8531
3985.503261 0.8541 0.8552 0.8567 0.8582 0.8597
3991.143885 0.8611 0.8616 0.8621 0.8626 0.8631
3996.784509 0.8641 0.8651 0.8656 0.8661 0.8666
4002.425133 0.8667 0.8641 0.8621 0.8626 0.8632
4008.065757 0.8642 0.8651 0.8656 0.8661 0.8666
##END=
