##TITLE=BENZOIC ACID, ETHYL ESTER
##JCAMP-DX=4.24
##DATA TYPE=INFRARED SPECTRUM
##CLASS=COBLENTZ III
##ORIGIN=DOW CORNING CORP.
##OWNER=COBLENTZ SOCIETY
Collection (C) 2018 copyright by the U.S. Secretary of Commerce
on behalf of the United States of America. All rights reserved.
##DATE=1966/08/29
##NAMES=ethyl benzoate
##CAS REGISTRY NO=93-89-0
##MOLFORM=C9 H10 O2
##SOURCE REFERENCE=COBLENTZ NO. 4804
##$NIST SOURCE=COBLENTZ
##$NIST IMAGE=cob4804
##SPECTROMETER/DATA SYSTEM=PERKIN-ELMER 521 (GRATING)
##INSTRUMENT PARAMETERS=FILTERS AT 3150, 2500, 2000, 1150, 700, 410; GRATING CHANGES AT 2000, 630 CM^-^1
##STATE=SOLUTION (10% IN CCl4 FOR 3800-1300, 10% IN CS2 FOR 1300-650, 10% IN CCl4 FOR 650-230 CM^-^1) VERSUS SOLVENT
##PATH LENGTH=0.011, 0.010, AND 0.010 CM (CsBr CELL)
$$ 93% PURE
##SAMPLING PROCEDURE=TRANSMISSION
##RESOLUTION=4
##DATA PROCESSING=DIGITIZED BY NIST FROM HARD COPY (FROM TWO SEGMENTS)
##XUNITS=1/CM
##YUNITS=TRANSMITTANCE
##XFACTOR=1.000000
##YFACTOR=1
##DELTAX=0.985224
##FIRSTX=218.719
##LASTX=3794.1
##FIRSTY=0.826
##MAXX=3794.1
##MINX=218.719
##MAXY=1.032
##MINY=0
##NPOINTS=3630
##XYDATA=(X++(Y..Y))
218.719000 0.8260 0.8260 0.8260 0.8260 0.8260
223.645120 0.8260 0.8260 0.8260 0.8260 0.8260
228.571241 0.8250 0.8250 0.8250 0.8230 0.8230
233.497361 0.8230 0.8220 0.8220 0.8220 0.8220
238.423482 0.8220 0.8220 0.8210 0.8210 0.8190
243.349602 0.8190 0.8190 0.8190 0.8190 0.8190
248.275722 0.8190 0.8190 0.8190 0.8210 0.8210
253.201843 0.8210 0.8210 0.8210 0.8190 0.8190
258.127963 0.8190 0.8180 0.8180 0.8180 0.8180
263.054084 0.8180 0.8170 0.8170 0.8180 0.8190
267.980204 0.8190 0.8190 0.8190 0.8190 0.8180
272.906324 0.8180 0.8180 0.8180 0.8180 0.8180
277.832445 0.8180 0.8180 0.8180 0.8180 0.8180
282.758565 0.8190 0.8190 0.8190 0.8210 0.8210
287.684686 0.8210 0.8220 0.8220 0.8210 0.8210
292.610806 0.8210 0.8210 0.8220 0.8210 0.8210
297.536926 0.8210 0.8210 0.8210 0.8210 0.8210
302.463047 0.8210 0.8190 0.8190 0.8190 0.8180
307.389167 0.8170 0.8170 0.8150 0.8140 0.8110
312.315288 0.8100 0.8070 0.8030 0.8010 0.7970
317.241408 0.7950 0.7940 0.7940 0.7910 0.7900
322.167528 0.7870 0.7840 0.7780 0.7660 0.7580
327.093649 0.7550 0.7510 0.7470 0.7430 0.7390
332.019769 0.7350 0.7330 0.7330 0.7330 0.7350
336.945890 0.7370 0.7410 0.7430 0.7470 0.7510
341.872010 0.7520 0.7580 0.7709 0.7800 0.7909
346.798130 0.7980 0.8030 0.8130 0.8230 0.8290
351.724251 0.8360 0.8370 0.8400 0.8400 0.8410
356.650371 0.8410 0.8420 0.8420 0.8440 0.8450
361.576491 0.8450 0.8450 0.8450 0.8450 0.8460
366.502612 0.8460 0.8460 0.8460 0.8460 0.8480
371.428732 0.8480 0.8460 0.8460 0.8450 0.8450
376.354853 0.8440 0.8440 0.8420 0.8420 0.8410
381.280973 0.8410 0.8400 0.8370 0.8370 0.8340
386.207093 0.8330 0.8290 0.8170 0.8020 0.7880
391.133214 0.7631 0.7600 0.7600 0.7630 0.7680
396.059334 0.7740 0.7780 0.7830 0.7860 0.7880
400.985455 0.7950 0.8050 0.8110 0.8150 0.8230
405.911575 0.8270 0.8310 0.8360 0.8440 0.8480
410.837695 0.8520 0.8530 0.8570 0.8600 0.8610
415.763816 0.8620 0.8620 0.8640 0.8640 0.8640
420.689936 0.8640 0.8640 0.8640 0.8640 0.8640
425.616057 0.8640 0.8640 0.8640 0.8650 0.8650
430.542177 0.8650 0.8650 0.8650 0.8660 0.8660
435.468297 0.8660 0.8660 0.8660 0.8680 0.8680
440.394418 0.8700 0.8720 0.8750 0.8760 0.8790
445.320538 0.8810 0.8840 0.8870 0.8910 0.8920
450.246659 0.8930 0.8930 0.8930 0.8920 0.8920
455.172779 0.8930 0.8930 0.8930 0.8950 0.8950
460.098899 0.8950 0.8950 0.8960 0.8970 0.8970
465.025020 0.8990 0.8990 0.9000 0.9010 0.9010
469.951140 0.9010 0.9030 0.9030 0.9040 0.9040
474.877261 0.9040 0.9040 0.9010 0.9000 0.8990
479.803381 0.8970 0.8970 0.8960 0.8960 0.8950
484.729501 0.8930 0.8920 0.8920 0.8910 0.8880
489.655622 0.8850 0.8830 0.8800 0.8800 0.8770
494.581742 0.8750 0.8730 0.8730 0.8730 0.8730
499.507863 0.8730 0.8750 0.8750 0.8760 0.8760
504.433983 0.8770 0.8770 0.8790 0.8790 0.8800
509.360103 0.8800 0.8800 0.8810 0.8810 0.8810
514.286224 0.8830 0.8830 0.8850 0.8880 0.8970
519.212344 0.9010 0.9070 0.9090 0.9090 0.9120
524.138465 0.9130 0.9130 0.9130 0.9150 0.9150
529.064585 0.9150 0.9130 0.9130 0.9120 0.9110
533.990705 0.9090 0.9090 0.9090 0.9110 0.9110
538.916826 0.9120 0.9130 0.9130 0.9120 0.9110
543.842946 0.9110 0.9090 0.9080 0.9070 0.9050
548.769067 0.9040 0.9040 0.9050 0.9050 0.9070
553.695187 0.9070 0.9070 0.9080 0.9090 0.9090
558.621307 0.9110 0.9120 0.9130 0.9130 0.9130
563.547428 0.9150 0.9150 0.9160 0.9180 0.9190
568.473548 0.9190 0.9180 0.9190 0.9200 0.9200
573.399669 0.9200 0.9200 0.9220 0.9220 0.9220
578.325789 0.9220 0.9200 0.9190 0.9190 0.9180
583.251909 0.9190 0.9200 0.9200 0.9230 0.9230
588.178030 0.9240 0.9270 0.9270 0.9280 0.9300
593.104150 0.9300 0.9310 0.9310 0.9310 0.9310
598.030270 0.9300 0.9280 0.9270 0.9260 0.9240
602.956391 0.9230 0.9200 0.9180 0.9160 0.9130
607.882511 0.9080 0.9000 0.8950 0.8880 0.8950
612.808632 0.9070 0.9120 0.9190 0.9200 0.9200
617.734752 0.9220 0.9260 0.9350 0.9400 0.9519
622.660872 0.9550 0.9560 0.9560 0.9560 0.9560
627.586993 0.9560 0.9550 0.9550 0.9540 0.9540
632.513113 0.9520 0.9520 0.9510 0.9500 0.9480
637.439234 0.9470 0.9460 0.9430 0.9380 0.9350
642.365354 0.9310 0.9270 0.9230 0.9200 0.9160
647.291474 0.9120 0.9090 0.9070 0.9050 0.9040
652.217595 0.9010 0.8990 0.8960 0.8930 0.8920
657.143715 0.8910 0.8890 0.8890 0.8870 0.8810
662.069836 0.8760 0.8730 0.8640 0.8560 0.8410
666.995956 0.8290 0.8190 0.8030 0.8020 0.7950
671.922076 0.7430 0.7090 0.6310 0.4821 0.4820
676.848197 0.6457 0.6939 0.7638 0.7670 0.7640
681.774317 0.7480 0.7279 0.6330 0.5360 0.3931
686.700438 0.3930 0.4090 0.4539 0.5158 0.6107
691.626558 0.6970 0.7020 0.7080 0.7090 0.7090
696.552678 0.7080 0.7000 0.6850 0.6462 0.6002
701.478799 0.4950 0.4550 0.3890 0.3520 0.0374
706.404919 0.0210 0.0180 0.0170 0.0170 0.0180
711.331040 0.0210 0.0240 0.0330 0.0650 0.0810
716.257160 0.1229 0.1629 0.2278 0.3885 0.4607
721.183280 0.5521 0.6290 0.6630 0.6960 0.7280
726.109401 0.7480 0.7710 0.7880 0.7930 0.8129
731.035521 0.8340 0.8370 0.8440 0.8540 0.8620
735.961642 0.8690 0.8730 0.8770 0.8810 0.8850
740.887762 0.8870 0.8890 0.8920 0.8920 0.8930
745.813882 0.8950 0.8950 0.8930 0.8920 0.8880
750.740003 0.8840 0.8800 0.8790 0.8800 0.8870
755.666123 0.8930 0.9030 0.9050 0.9070 0.9090
760.592244 0.9110 0.9110 0.9110 0.9120 0.9120
765.518364 0.9120 0.9120 0.9110 0.9090 0.9070
770.444484 0.9030 0.8970 0.8950 0.8890 0.8840
775.370605 0.8770 0.8700 0.8620 0.8530 0.8381
780.296725 0.8360 0.8340 0.8360 0.8410 0.8480
785.222846 0.8520 0.8600 0.8760 0.8800 0.8890
790.148966 0.8950 0.8970 0.9000 0.9010 0.9030
795.075086 0.9030 0.9030 0.9030 0.9010 0.9000
800.001207 0.8950 0.8870 0.8840 0.8830 0.8810
804.927327 0.8810 0.8830 0.8840 0.8870 0.8880
809.853448 0.8950 0.8960 0.8970 0.8990 0.9000
814.779568 0.9000 0.9000 0.8990 0.8990 0.8970
819.705688 0.8970 0.8990 0.9010 0.9030 0.9070
824.631809 0.9110 0.9150 0.9190 0.9200 0.9220
829.557929 0.9220 0.9220 0.9200 0.9190 0.9160
834.484050 0.9120 0.9110 0.9080 0.9010 0.8970
839.410170 0.8960 0.8770 0.8690 0.8580 0.8480
844.336290 0.8151 0.8010 0.7840 0.7661 0.7481
849.262411 0.7310 0.7310 0.7700 0.8070 0.8110
854.188531 0.8290 0.8460 0.8560 0.8700 0.8790
859.114651 0.8850 0.8880 0.8880 0.8870 0.8850
864.040772 0.8830 0.8760 0.8700 0.8580 0.8490
868.966892 0.8340 0.8300 0.8210 0.8110 0.8010
873.893013 0.7990 0.8010 0.8090 0.8150 0.8230
878.819133 0.8270 0.8570 0.8770 0.9160 0.9180
883.745253 0.9270 0.9360 0.9440 0.9540 0.9620
888.671374 0.9710 0.9790 0.9970 0.9980 1.0040
893.597494 1.0090 1.0100 1.0140 1.0160 1.0210
898.523615 1.0250 1.0280 1.0290 1.0300 1.0300
903.449735 1.0300 1.0320 1.0320 1.0320 1.0320
908.375855 1.0320 1.0320 1.0320 1.0320 1.0320
913.301976 1.0320 1.0300 1.0300 1.0290 1.0290
918.228096 1.0280 1.0250 1.0240 1.0220 1.0200
923.154217 1.0090 1.0050 0.9900 0.9810 0.9690
928.080337 0.9610 0.9440 0.8950 0.8300 0.7970
933.006457 0.7980 0.8170 0.8948 0.9319 0.9579
937.932578 0.9740 0.9830 0.9940 0.9980 1.0020
942.858698 1.0050 1.0060 1.0080 1.0100 1.0120
947.784819 1.0130 1.0140 1.0160 1.0160 1.0160
952.710939 1.0140 1.0130 1.0130 1.0130 1.0120
957.637059 1.0090 1.0060 1.0040 1.0020 0.9970
962.563180 0.9790 0.9750 0.9740 0.9690 0.9670
967.489300 0.9670 0.9690 0.9700 0.9710 0.9730
972.415421 0.9730 0.9740 0.9740 0.9740 0.9740
977.341541 0.9730 0.9710 0.9690 0.9660 0.9620
982.267661 0.9560 0.9540 0.9510 0.9480 0.9420
987.193782 0.9350 0.9300 0.9300 0.9160 0.9090
992.119902 0.9030 0.8950 0.8840 0.8750 0.8620
997.046023 0.8440 0.8298 0.7200 0.7200 0.7630
1001.972143 0.8599 0.8600 0.8540 0.8380 0.8171
1006.898263 0.7990 0.7950 0.7840 0.7620 0.7450
1011.824384 0.7320 0.7280 0.7190 0.7120 0.7000
1016.750504 0.6960 0.6890 0.6840 0.6630 0.6490
1021.676625 0.5961 0.5750 0.5201 0.3664 0.2135
1026.602745 0.0630 0.0642 0.1921 0.3180 0.3880
1031.528865 0.4999 0.5879 0.6529 0.7188 0.7718
1036.454986 0.8361 0.8640 0.8790 0.8930 0.9010
1041.381106 0.9070 0.9220 0.9240 0.9340 0.9350
1046.307227 0.9380 0.9350 0.9320 0.9300 0.9270
1051.233347 0.9230 0.9130 0.8890 0.8760 0.8730
1056.159467 0.8490 0.8260 0.8110 0.7900 0.7390
1061.085588 0.6811 0.5962 0.5641 0.4832 0.3624
1066.011708 0.3069 0.2500 0.2469 0.1350 0.1350
1070.937829 0.4157 0.4769 0.6965 0.7159 0.7329
1075.863949 0.7550 0.7560 0.7550 0.7510 0.7480
1080.790069 0.7320 0.7110 0.6940 0.6681 0.6421
1085.716190 0.6099 0.5799 0.5410 0.5020 0.4190
1090.642310 0.3450 0.2931 0.0803 0.0760 0.0730
1095.568430 0.0710 0.0670 0.0640 0.0600 0.0480
1100.494551 0.0170 0.0140 0.0130 0.0130 0.0140
1105.420671 0.0170 0.0220 0.0330 0.0400 0.0470
1110.346792 0.0490 0.0670 0.0860 0.0950 0.1030
1115.272912 0.1150 0.1220 0.1290 0.1380 0.1510
1120.199032 0.1740 0.2050 0.2509 0.3109 0.3569
1125.125153 0.3971 0.4471 0.4940 0.5210 0.5510
1130.051273 0.6160 0.6490 0.6819 0.6930 0.7020
1134.977394 0.7120 0.7290 0.7320 0.7410 0.7500
1139.903514 0.7590 0.7600 0.7600 0.7600 0.7590
1144.829634 0.7580 0.7550 0.7500 0.7480 0.7370
1149.755755 0.7250 0.7110 0.6970 0.6840 0.6681
1154.681875 0.6540 0.6500 0.6450 0.6420 0.6370
1159.607996 0.6300 0.6270 0.6110 0.5841 0.5671
1164.534116 0.5518 0.4649 0.4129 0.3620 0.3130
1169.460236 0.2620 0.2121 0.1621 0.1620 0.2079
1174.386357 0.2522 0.3420 0.3651 0.4120 0.4770
1179.312477 0.5650 0.6369 0.6879 0.7229 0.7370
1184.238598 0.7440 0.7510 0.7590 0.7670 0.7680
1189.164718 0.7710 0.7780 0.7970 0.8130 0.8140
1194.090838 0.8190 0.8260 0.8290 0.8330 0.8360
1199.016959 0.8370 0.8400 0.8460 0.8480 0.8530
1203.943079 0.8570 0.8600 0.8610 0.8640 0.8650
1208.869200 0.8660 0.8660 0.8660 0.8650 0.8650
1213.795320 0.8640 0.8620 0.8610 0.8570 0.8500
1218.721440 0.8440 0.8340 0.8230 0.8110 0.7990
1223.647561 0.7970 0.7830 0.7680 0.7600 0.7440
1228.573681 0.7290 0.6970 0.6680 0.6351 0.6041
1233.499802 0.5899 0.5440 0.5140 0.4700 0.4280
1238.425922 0.3910 0.3491 0.2761 0.2311 0.1861
1243.352042 0.1410 0.1410 0.1510 0.1630 0.1760
1248.278163 0.1860 0.2210 0.2230 0.2210 0.2190
1253.204283 0.2120 0.2000 0.1730 0.1550 0.1290
1258.130404 0.0900 0.0241 0.0200 0.0170 0.0090
1263.056524 0.0050 0.0020 0.0010 0.0010 0.0010
1267.982644 0.0010 0.0020 0.0020 0.0050 0.0060
1272.908765 0.0060 0.0080 0.0100 0.0120 0.0140
1277.834885 0.0180 0.0240 0.0280 0.0669 0.0880
1282.761006 0.1080 0.1191 0.1630 0.2020 0.2560
1287.687126 0.2830 0.3249 0.3380 0.3530 0.3640
1292.613246 0.3791 0.4070 0.4190 0.4310 0.4390
1297.539367 0.4400 0.4420 0.4420 0.4430 0.4430
1302.465487 0.4430 0.4440 0.4440 0.4440 0.4430
1307.391608 0.4400 0.4390 0.4360 0.4230 0.3961
1312.317728 0.3800 0.3659 0.3299 0.2759 0.2240
1317.243848 0.1720 0.1190 0.0651 0.0650 0.1259
1322.169969 0.1868 0.4502 0.5411 0.5910 0.6180
1327.096089 0.6500 0.6620 0.6770 0.6960 0.7090
1332.022210 0.7230 0.7270 0.7370 0.7450 0.7480
1336.948330 0.7510 0.7520 0.7520 0.7540 0.7550
1341.874450 0.7550 0.7560 0.7560 0.7560 0.7580
1346.800571 0.7580 0.7590 0.7590 0.7620 0.7620
1351.726691 0.7620 0.7630 0.7630 0.7620 0.7600
1356.652811 0.7590 0.7520 0.7410 0.7390 0.7310
1361.578932 0.6799 0.6590 0.6390 0.6189 0.5430
1366.505052 0.4790 0.4160 0.3531 0.2901 0.2551
1371.431173 0.2278 0.1330 0.1331 0.2291 0.3380
1376.357293 0.4519 0.5399 0.5799 0.6149 0.6619
1381.283413 0.6740 0.6800 0.6810 0.6820 0.6800
1386.209534 0.6770 0.6740 0.6590 0.6340 0.6250
1391.135654 0.6079 0.5769 0.5430 0.5199 0.4580
1396.061775 0.4560 0.4750 0.5000 0.5409 0.5899
1400.987895 0.6451 0.6770 0.6890 0.7020 0.7210
1405.914015 0.7320 0.7510 0.7560 0.7640 0.7680
1410.840136 0.7700 0.7720 0.7740 0.7740 0.7740
1415.766256 0.7720 0.7710 0.7700 0.7680 0.7670
1420.692377 0.7660 0.7640 0.7620 0.7590 0.7560
1425.618497 0.7550 0.7540 0.7520 0.7510 0.7440
1430.544617 0.7360 0.7290 0.7210 0.7190 0.7150
1435.470738 0.6800 0.6580 0.6430 0.6290 0.6140
1440.396858 0.5990 0.5990 0.6070 0.6070 0.5940
1445.322979 0.5670 0.5450 0.5140 0.4661 0.4181
1450.249099 0.3999 0.3769 0.3520 0.3459 0.2928
1455.175219 0.0630 0.0630 0.1310 0.1979 0.3367
1460.101340 0.4482 0.5200 0.5210 0.5180 0.5100
1465.027460 0.5000 0.4930 0.4810 0.4461 0.4440
1469.953581 0.4661 0.5091 0.5370 0.5600 0.5640
1474.879701 0.5650 0.5650 0.5640 0.5630 0.5600
1479.805821 0.5490 0.5379 0.5020 0.5021 0.5440
1484.731942 0.5530 0.6020 0.6619 0.7039 0.7040
1489.658062 0.6980 0.6840 0.6770 0.6680 0.6510
1494.584183 0.6380 0.6230 0.6100 0.6100 0.6379
1499.510303 0.6661 0.6961 0.7280 0.7310 0.7310
1504.436423 0.7310 0.7280 0.7270 0.7250 0.7230
1509.362544 0.7200 0.7170 0.7150 0.7110 0.7050
1514.288664 0.7020 0.6980 0.6940 0.6920 0.6880
1519.214785 0.6840 0.6810 0.6770 0.6740 0.6700
1524.140905 0.6660 0.6630 0.6590 0.6570 0.6550
1529.067025 0.6510 0.6470 0.6430 0.6380 0.6340
1533.993146 0.6300 0.6260 0.6220 0.6120 0.6070
1538.919266 0.5990 0.5910 0.5830 0.5750 0.5640
1543.845387 0.5610 0.5560 0.5530 0.5530 0.5440
1548.771507 0.5410 0.5360 0.5290 0.5210 0.5120
1553.697627 0.5090 0.5100 0.5180 0.5250 0.5320
1558.623748 0.5400 0.5470 0.5530 0.5610 0.5680
1563.549868 0.5810 0.5810 0.5870 0.5910 0.5920
1568.475989 0.5940 0.5980 0.6070 0.6110 0.6120
1573.402109 0.6140 0.6140 0.6150 0.6150 0.6150
1578.328229 0.6150 0.6120 0.6100 0.5980 0.5860
1583.254350 0.5770 0.5630 0.5490 0.5180 0.4431
1588.180470 0.4358 0.3720 0.3723 0.4832 0.6100
1593.106591 0.6200 0.6220 0.6410 0.6430 0.6430
1598.032711 0.6410 0.6380 0.6199 0.5840 0.5550
1602.958831 0.5140 0.4870 0.4500 0.4081 0.3661
1607.884952 0.3250 0.3251 0.3801 0.4111 0.4871
1612.811072 0.5840 0.6180 0.6380 0.6650 0.6780
1617.737192 0.6940 0.7090 0.7240 0.7360 0.7440
1622.663313 0.7450 0.7510 0.7590 0.7700 0.7870
1627.589433 0.7930 0.7970 0.8010 0.8020 0.8050
1632.515554 0.8060 0.8070 0.8070 0.8060 0.8050
1637.441674 0.8030 0.8010 0.8010 0.7990 0.7970
1642.367794 0.7950 0.7930 0.7910 0.7880 0.7860
1647.293915 0.7840 0.7820 0.7800 0.7780 0.7760
1652.220035 0.7750 0.7750 0.7760 0.7800 0.7800
1657.146156 0.7830 0.7840 0.7840 0.7840 0.7830
1662.072276 0.7800 0.7800 0.7790 0.7790 0.7780
1666.998396 0.7750 0.7720 0.7670 0.7620 0.7590
1671.924517 0.7550 0.7540 0.7450 0.7290 0.7200
1676.850637 0.7150 0.7079 0.6850 0.6720 0.6620
1681.776758 0.6410 0.6370 0.6310 0.6250 0.6230
1686.702878 0.6200 0.6190 0.6190 0.6180 0.6080
1691.628998 0.6040 0.6030 0.5960 0.5860 0.5790
1696.555119 0.5650 0.5589 0.5340 0.5180 0.5020
1701.481239 0.4850 0.4620 0.4430 0.4280 0.4120
1706.407360 0.3949 0.3690 0.3569 0.3339 0.2740
1711.333480 0.2590 0.1900 0.1570 0.0831 0.0590
1716.259600 0.0260 0.0180 0.0130 0.0080 0.0040
1721.185721 0.0010 0.0000 0.0000 0.0000 0.0000
1726.111841 0.0000 0.0000 0.0000 0.0000 0.0010
1731.037962 0.0010 0.0020 0.0040 0.0080 0.0120
1735.964082 0.0180 0.0210 0.0260 0.0411 0.0800
1740.890202 0.0980 0.1140 0.1430 0.1700 0.1970
1745.816323 0.2231 0.2511 0.2801 0.3151 0.3561
1750.742443 0.4030 0.4580 0.5010 0.5130 0.5320
1755.668564 0.5631 0.5811 0.6060 0.6190 0.6330
1760.594684 0.6490 0.6740 0.6820 0.6940 0.7000
1765.520804 0.7240 0.7240 0.7310 0.7360 0.7400
1770.446925 0.7410 0.7410 0.7430 0.7430 0.7430
1775.373045 0.7410 0.7410 0.7400 0.7360 0.7320
1780.299166 0.7280 0.7230 0.7200 0.7200 0.7210
1785.225286 0.7280 0.7320 0.7350 0.7370 0.7430
1790.151406 0.7480 0.7500 0.7750 0.7900 0.7950
1795.077527 0.7980 0.8010 0.8020 0.8030 0.8050
1800.003647 0.8070 0.8100 0.8140 0.8150 0.8170
1804.929768 0.8180 0.8190 0.8190 0.8210 0.8210
1809.855888 0.8220 0.8220 0.8220 0.8210 0.8190
1814.782008 0.8170 0.8140 0.8090 0.8010 0.7940
1819.708129 0.7870 0.7760 0.7750 0.7760 0.7790
1824.634249 0.7830 0.7870 0.7930 0.8010 0.8090
1829.560370 0.8190 0.8300 0.8400 0.8440 0.8450
1834.486490 0.8450 0.8460 0.8490 0.8500 0.8520
1839.412610 0.8560 0.8600 0.8610 0.8620 0.8650
1844.338731 0.8680 0.8700 0.8700 0.8720 0.8720
1849.264851 0.8730 0.8730 0.8750 0.8750 0.8760
1854.190971 0.8770 0.8790 0.8790 0.8800 0.8800
1859.117092 0.8810 0.8810 0.8810 0.8810 0.8810
1864.043212 0.8800 0.8800 0.8790 0.8790 0.8770
1868.969333 0.8760 0.8760 0.8750 0.8750 0.8730
1873.895453 0.8720 0.8720 0.8660 0.8650 0.8650
1878.821573 0.8640 0.8620 0.8620 0.8620 0.8620
1883.747694 0.8620 0.8610 0.8610 0.8600 0.8600
1888.673814 0.8580 0.8580 0.8560 0.8560 0.8560
1893.599935 0.8560 0.8540 0.8540 0.8540 0.8540
1898.526055 0.8540 0.8540 0.8530 0.8530 0.8520
1903.452175 0.8490 0.8450 0.8420 0.8360 0.8270
1908.378296 0.8190 0.8100 0.8050 0.8020 0.8030
1913.304416 0.8060 0.8110 0.8150 0.8190 0.8230
1918.230537 0.8250 0.8330 0.8330 0.8310 0.8310
1923.156657 0.8300 0.8300 0.8290 0.8290 0.8270
1928.082777 0.8290 0.8300 0.8370 0.8410 0.8460
1933.008898 0.8540 0.8540 0.8560 0.8560 0.8560
1937.935018 0.8560 0.8560 0.8560 0.8540 0.8540
1942.861139 0.8540 0.8530 0.8530 0.8520 0.8520
1947.787259 0.8500 0.8500 0.8490 0.8480 0.8480
1952.713379 0.8460 0.8450 0.8440 0.8410 0.8370
1957.639500 0.8310 0.8290 0.8220 0.8150 0.8060
1962.565620 0.8050 0.7980 0.7860 0.7820 0.7820
1967.491741 0.7840 0.7900 0.7950 0.7990 0.8020
1972.417861 0.8090 0.8110 0.8170 0.8250 0.8260
1977.343981 0.8260 0.8270 0.8270 0.8270 0.8300
1982.270102 0.8300 0.8330 0.8360 0.8410 0.8450
1987.196222 0.8480 0.8500 0.8540 0.8570 0.8610
1992.122343 0.8620 0.8640 0.8660 0.8680 0.8690
1997.048463 0.8700 0.8720 0.8770 0.8840 0.8865
2001.974583 0.8890 0.8920 0.8950 0.8990 0.9030
2006.900704 0.9030 0.9030 0.9035 0.9040 0.9045
2011.826824 0.9050 0.9050 0.9050 0.9050 0.9050
2016.752945 0.9050 0.9050 0.9050 0.9050 0.9050
2021.679065 0.9050 0.9045 0.9040 0.9040 0.9040
2026.605185 0.9045 0.9050 0.9050 0.9050 0.9059
2031.531306 0.9069 0.9070 0.9070 0.9070 0.9070
2036.457426 0.9070 0.9070 0.9061 0.9051 0.9050
2041.383547 0.9050 0.9045 0.9040 0.9035 0.9030
2046.309667 0.9030 0.9030 0.9030 0.9030 0.9030
2051.235787 0.9030 0.9021 0.9011 0.9010 0.9010
2056.161908 0.9010 0.9010 0.9010 0.9010 0.9019
2061.088028 0.9029 0.9034 0.9039 0.9040 0.9040
2066.014149 0.9044 0.9049 0.9050 0.9050 0.9059
2070.940269 0.9069 0.9074 0.9079 0.9080 0.9080
2075.866389 0.9080 0.9080 0.9080 0.9080 0.9076
2080.792510 0.9071 0.9057 0.9042 0.9036 0.9031
2085.718630 0.9021 0.9011 0.9010 0.9010 0.9006
2090.644751 0.9001 0.8996 0.8991 0.8990 0.8990
2095.570871 0.8978 0.8963 0.8960 0.8960 0.8956
2100.496991 0.8951 0.8950 0.8950 0.8950 0.8950
2105.423112 0.8942 0.8932 0.8930 0.8930 0.8930
2110.349232 0.8930 0.8926 0.8921 0.8920 0.8920
2115.275352 0.8916 0.8911 0.8902 0.8892 0.8874
2120.201473 0.8854 0.8834 0.8814 0.8806 0.8801
2125.127593 0.8800 0.8800 0.8804 0.8809 0.8810
2130.053714 0.8810 0.8822 0.8837 0.8851 0.8866
2134.979834 0.8878 0.8888 0.8890 0.8890 0.8905
2139.905954 0.8925 0.8942 0.8956 0.8975 0.8995
2144.832075 0.9004 0.9009 0.9010 0.9010 0.9017
2149.758195 0.9027 0.9030 0.9030 0.9030 0.9030
2154.684316 0.9030 0.9030 0.9034 0.9039 0.9040
2159.610436 0.9040 0.9040 0.9040 0.9040 0.9040
2164.536556 0.9040 0.9040 0.9040 0.9040 0.9040
2169.462677 0.9040 0.9040 0.9040 0.9040 0.9040
2174.388797 0.9037 0.9032 0.9033 0.9039 0.9044
2179.314918 0.9049 0.9050 0.9050 0.9050 0.9050
2184.241038 0.9050 0.9050 0.9050 0.9050 0.9047
2189.167158 0.9042 0.9040 0.9040 0.9040 0.9040
2194.093279 0.9040 0.9040 0.9040 0.9040 0.9037
2199.019399 0.9032 0.9023 0.9013 0.9003 0.8993
2203.945520 0.8983 0.8973 0.8970 0.8970 0.8967
2208.871640 0.8962 0.8957 0.8952 0.8944 0.8934
2213.797760 0.8930 0.8930 0.8930 0.8930 0.8930
2218.723881 0.8930 0.8930 0.8930 0.8930 0.8930
2223.650001 0.8927 0.8922 0.8920 0.8920 0.8920
2228.576122 0.8920 0.8920 0.8920 0.8920 0.8920
2233.502242 0.8920 0.8920 0.8917 0.8912 0.8913
2238.428362 0.8918 0.8911 0.8896 0.8887 0.8882
2243.354483 0.8880 0.8880 0.8880 0.8880 0.8880
2248.280603 0.8880 0.8880 0.8880 0.8883 0.8888
2253.206724 0.8896 0.8906 0.8910 0.8910 0.8913
2258.132844 0.8918 0.8920 0.8920 0.8923 0.8928
2263.058964 0.8930 0.8930 0.8927 0.8922 0.8920
2267.985085 0.8920 0.8920 0.8920 0.8920 0.8920
2272.911205 0.8920 0.8920 0.8920 0.8920 0.8920
2277.837326 0.8920 0.8920 0.8920 0.8920 0.8920
2282.763446 0.8920 0.8920 0.8920 0.8920 0.8917
2287.689566 0.8912 0.8910 0.8910 0.8910 0.8910
2292.615687 0.8910 0.8910 0.8910 0.8910 0.8910
2297.541807 0.8910 0.8910 0.8910 0.8910 0.8910
2302.467928 0.8910 0.8910 0.8910 0.8910 0.8912
2307.394048 0.8917 0.8920 0.8920 0.8920 0.8920
2312.320168 0.8920 0.8920 0.8920 0.8920 0.8920
2317.246289 0.8920 0.8920 0.8920 0.8920 0.8920
2322.172409 0.8920 0.8920 0.8920 0.8920 0.8920
2327.098530 0.8920 0.8922 0.8927 0.8928 0.8923
2332.024650 0.8920 0.8920 0.8920 0.8920 0.8920
2336.950770 0.8920 0.8920 0.8920 0.8918 0.8913
2341.876891 0.8910 0.8910 0.8910 0.8910 0.8910
2346.803011 0.8910 0.8912 0.8917 0.8920 0.8920
2351.729131 0.8920 0.8920 0.8920 0.8920 0.8920
2356.655252 0.8920 0.8920 0.8920 0.8920 0.8920
2361.581372 0.8920 0.8920 0.8918 0.8913 0.8910
2366.507493 0.8910 0.8906 0.8896 0.8894 0.8904
2371.433613 0.8910 0.8910 0.8906 0.8896 0.8888
2376.359733 0.8883 0.8874 0.8859 0.8848 0.8843
2381.285854 0.8838 0.8833 0.8830 0.8830 0.8830
2386.211974 0.8830 0.8832 0.8837 0.8840 0.8840
2391.138095 0.8840 0.8840 0.8840 0.8840 0.8840
2396.064215 0.8840 0.8842 0.8847 0.8850 0.8850
2400.990335 0.8855 0.8870 0.8885 0.8900 0.8912
2405.916456 0.8917 0.8920 0.8920 0.8920 0.8920
2410.842576 0.8920 0.8920 0.8920 0.8920 0.8920
2415.768697 0.8920 0.8920 0.8920 0.8920 0.8920
2420.694817 0.8921 0.8926 0.8930 0.8930 0.8930
2425.620937 0.8930 0.8930 0.8930 0.8930 0.8930
2430.547058 0.8930 0.8930 0.8930 0.8930 0.8930
2435.473178 0.8930 0.8930 0.8930 0.8930 0.8930
2440.399299 0.8930 0.8930 0.8929 0.8924 0.8920
2445.325419 0.8920 0.8920 0.8920 0.8920 0.8920
2450.251539 0.8920 0.8920 0.8920 0.8920 0.8920
2455.177660 0.8920 0.8920 0.8920 0.8920 0.8920
2460.103780 0.8919 0.8914 0.8908 0.8898 0.8892
2465.029901 0.8902 0.8911 0.8916 0.8920 0.8920
2469.956021 0.8921 0.8926 0.8930 0.8930 0.8930
2474.882141 0.8930 0.8930 0.8930 0.8929 0.8924
2479.808262 0.8920 0.8920 0.8919 0.8914 0.8910
2484.734382 0.8910 0.8910 0.8910 0.8910 0.8910
2489.660503 0.8910 0.8910 0.8910 0.8910 0.8908
2494.586623 0.8898 0.8892 0.8902 0.8911 0.8916
2499.512743 0.8920 0.8920 0.8920 0.8920 0.8919
2504.438864 0.8914 0.8910 0.8910 0.8909 0.8899
2509.364984 0.8890 0.8890 0.8890 0.8890 0.8890
2514.291105 0.8890 0.8890 0.8890 0.8892 0.8907
2519.217225 0.8917 0.8897 0.8880 0.8880 0.8880
2524.143345 0.8880 0.8880 0.8880 0.8879 0.8874
2529.069466 0.8870 0.8870 0.8870 0.8870 0.8870
2533.995586 0.8870 0.8871 0.8876 0.8880 0.8880
2538.921707 0.8881 0.8885 0.8890 0.8890 0.8890
2543.847827 0.8890 0.8890 0.8885 0.8880 0.8880
2548.773947 0.8879 0.8864 0.8850 0.8850 0.8850
2553.700068 0.8850 0.8850 0.8850 0.8851 0.8866
2558.626188 0.8880 0.8880 0.8880 0.8875 0.8870
2563.552309 0.8870 0.8870 0.8870 0.8870 0.8870
2568.478429 0.8870 0.8870 0.8870 0.8870 0.8870
2573.404549 0.8870 0.8870 0.8860 0.8850 0.8850
2578.330670 0.8850 0.8850 0.8850 0.8850 0.8850
2583.256790 0.8850 0.8850 0.8850 0.8850 0.8850
2588.182911 0.8850 0.8860 0.8870 0.8870 0.8870
2593.109031 0.8875 0.8880 0.8885 0.8890 0.8885
2598.035151 0.8880 0.8880 0.8880 0.8880 0.8880
2602.961272 0.8880 0.8880 0.8880 0.8880 0.8880
2607.887392 0.8880 0.8880 0.8880 0.8880 0.8880
2612.813512 0.8880 0.8880 0.8880 0.8880 0.8885
2617.739633 0.8890 0.8890 0.8890 0.8890 0.8890
2622.665753 0.8890 0.8890 0.8890 0.8890 0.8899
2627.591874 0.8909 0.8910 0.8910 0.8915 0.8920
2632.517994 0.8920 0.8920 0.8920 0.8920 0.8920
2637.444114 0.8920 0.8920 0.8920 0.8920 0.8920
2642.370235 0.8925 0.8930 0.8930 0.8930 0.8930
2647.296355 0.8930 0.8930 0.8930 0.8930 0.8930
2652.222476 0.8930 0.8930 0.8930 0.8930 0.8939
2657.148596 0.8949 0.8950 0.8950 0.8950 0.8950
2662.074716 0.8950 0.8950 0.8950 0.8950 0.8950
2667.000837 0.8950 0.8941 0.8931 0.8930 0.8930
2671.926957 0.8939 0.8949 0.8950 0.8950 0.8950
2676.853078 0.8950 0.8950 0.8950 0.8941 0.8931
2681.779198 0.8930 0.8930 0.8930 0.8930 0.8930
2686.705318 0.8930 0.8926 0.8921 0.8920 0.8920
2691.631439 0.8920 0.8920 0.8924 0.8929 0.8930
2696.557559 0.8930 0.8930 0.8930 0.8930 0.8930
2701.483680 0.8930 0.8930 0.8930 0.8930 0.8926
2706.409800 0.8921 0.8920 0.8920 0.8920 0.8920
2711.335920 0.8916 0.8911 0.8910 0.8910 0.8910
2716.262041 0.8910 0.8902 0.8892 0.8890 0.8890
2721.188161 0.8890 0.8890 0.8890 0.8890 0.8886
2726.114282 0.8881 0.8880 0.8880 0.8880 0.8880
2731.040402 0.8880 0.8880 0.8876 0.8871 0.8870
2735.966522 0.8870 0.8870 0.8870 0.8862 0.8852
2740.892643 0.8846 0.8841 0.8836 0.8831 0.8830
2745.818763 0.8830 0.8830 0.8830 0.8830 0.8830
2750.744884 0.8822 0.8812 0.8810 0.8810 0.8810
2755.671004 0.8810 0.8810 0.8810 0.8810 0.8810
2760.597124 0.8803 0.8793 0.8783 0.8773 0.8763
2765.523245 0.8753 0.8743 0.8733 0.8730 0.8730
2770.449365 0.8730 0.8730 0.8737 0.8747 0.8754
2775.375486 0.8759 0.8764 0.8769 0.8780 0.8795
2780.301606 0.8803 0.8808 0.8817 0.8827 0.8833
2785.227726 0.8838 0.8840 0.8840 0.8840 0.8840
2790.153847 0.8840 0.8840 0.8840 0.8840 0.8840
2795.079967 0.8840 0.8837 0.8832 0.8830 0.8830
2800.006088 0.8823 0.8813 0.8807 0.8802 0.8797
2804.932208 0.8792 0.8784 0.8774 0.8770 0.8770
2809.858328 0.8763 0.8753 0.8740 0.8725 0.8714
2814.784449 0.8704 0.8697 0.8692 0.8680 0.8666
2819.710569 0.8647 0.8627 0.8620 0.8620 0.8617
2824.636690 0.8612 0.8610 0.8610 0.8607 0.8602
2829.562810 0.8591 0.8576 0.8561 0.8546 0.8537
2834.488930 0.8532 0.8527 0.8522 0.8514 0.8504
2839.415051 0.8488 0.8468 0.8457 0.8452 0.8447
2844.341171 0.8442 0.8434 0.8424 0.8420 0.8420
2849.267291 0.8420 0.8420 0.8420 0.8420 0.8420
2854.193412 0.8420 0.8420 0.8420 0.8417 0.8412
2859.119532 0.8387 0.8348 0.8297 0.8237 0.8193
2864.045653 0.8164 0.8125 0.8081 0.8030 0.7974
2868.971773 0.7908 0.7833 0.7745 0.7645 0.7559
2873.897893 0.7484 0.7415 0.7350 0.7317 0.7312
2878.824014 0.7334 0.7379 0.7439 0.7514 0.7558
2883.750134 0.7573 0.7580 0.7580 0.7570 0.7550
2888.676255 0.7530 0.7510 0.7484 0.7455 0.7437
2893.602375 0.7432 0.7410 0.7370 0.7275 0.7125
2898.528495 0.7003 0.6908 0.6808 0.6704 0.6592
2903.454616 0.6472 0.6350 0.6225 0.6102 0.5981
2908.380736 0.5920 0.5920 0.6078 0.6402 0.6589
2913.306857 0.6629 0.6688 0.6768 0.6836 0.6891
2918.232977 0.7050 0.7329 0.7480 0.7480 0.7462
2923.159097 0.7422 0.7371 0.7306 0.7239 0.7168
2928.085218 0.7084 0.6984 0.6876 0.6756 0.6618
2933.011338 0.6459 0.6328 0.6233 0.6163 0.6123
2937.937459 0.6053 0.5943 0.5848 0.5773 0.5728
2942.863579 0.5723 0.5757 0.5847 0.5904 0.5914
2947.789699 0.5961 0.6055 0.6118 0.6138 0.6142
2952.715820 0.6122 0.6053 0.5913 0.5814 0.5774
2957.641940 0.5728 0.5673 0.5618 0.5563 0.5507
2962.568061 0.5447 0.5402 0.5382 0.5364 0.5349
2967.494181 0.5336 0.5326 0.5316 0.5306 0.5289
2972.420301 0.5259 0.5210 0.5130 0.5045 0.4950
2977.346422 0.4784 0.4494 0.4209 0.3930 0.3704
2982.272542 0.3574 0.3437 0.3288 0.3141 0.3000
2987.198663 0.2858 0.2713 0.2620 0.2620 0.2681
2992.124783 0.2856 0.3025 0.3185 0.3343 0.3497
2997.050903 0.3653 0.3813 0.3973 0.4132 0.4290
3001.977024 0.4445 0.4601 0.4760 0.4971 0.5294
3006.903144 0.5538 0.5623 0.5711 0.5805 0.5930
3011.829265 0.6120 0.6303 0.6473 0.6634 0.6779
3016.755385 0.6912 0.7016 0.7117 0.7206 0.7293
3021.681505 0.7373 0.7440 0.7475 0.7500 0.7500
3026.607626 0.7497 0.7487 0.7467 0.7422 0.7380
3031.533746 0.7345 0.7292 0.7192 0.7087 0.6968
3036.459867 0.6849 0.6735 0.6650 0.6650 0.6680
3041.385987 0.6794 0.6910 0.7030 0.7139 0.7214
3046.312107 0.7273 0.7283 0.7303 0.7353 0.7406
3051.238228 0.7471 0.7527 0.7557 0.7580 0.7580
3056.164348 0.7567 0.7512 0.7399 0.7090 0.6821
3061.090469 0.6691 0.6564 0.6444 0.6324 0.6203
3066.016589 0.6110 0.6110 0.6135 0.6244 0.6334
3070.942709 0.6354 0.6371 0.6376 0.6383 0.6398
3075.868830 0.6427 0.6512 0.6596 0.6675 0.6757
3080.794950 0.6847 0.6935 0.7015 0.7113 0.7294
3085.721071 0.7440 0.7440 0.7436 0.7416 0.7396
3090.647191 0.7376 0.7346 0.7272 0.7210 0.7210
3095.573311 0.7247 0.7461 0.7647 0.7686 0.7734
3100.499432 0.7824 0.7932 0.8136 0.8311 0.8322
3105.425552 0.8331 0.8336 0.8342 0.8357 0.8372
3110.351672 0.8387 0.8412 0.8492 0.8567 0.8617
3115.277793 0.8667 0.8717 0.8763 0.8783 0.8801
3120.203913 0.8806 0.8811 0.8821 0.8830 0.8830
3125.130034 0.8830 0.8830 0.8829 0.8819 0.8810
3130.056154 0.8810 0.8811 0.8821 0.8830 0.8830
3134.982274 0.8831 0.8836 0.8840 0.8845 0.8850
3139.908395 0.8850 0.8850 0.8850 0.8851 0.8861
3144.834515 0.8870 0.8870 0.8869 0.8859 0.8850
3149.760636 0.8850 0.8850 0.8850 0.8849 0.8839
3154.686756 0.8830 0.8830 0.8829 0.8814 0.8800
3159.612876 0.8795 0.8789 0.8774 0.8760 0.8755
3164.538997 0.8749 0.8739 0.8730 0.8730 0.8731
3169.465117 0.8741 0.8750 0.8755 0.8761 0.8776
3174.391238 0.8791 0.8816 0.8840 0.8855 0.8870
3179.317358 0.8875 0.8880 0.8885 0.8890 0.8905
3184.243478 0.8920 0.8920 0.8920 0.8920 0.8920
3189.169599 0.8925 0.8930 0.8930 0.8930 0.8930
3194.095719 0.8930 0.8940 0.8950 0.8950 0.8950
3199.021840 0.8955 0.8960 0.8960 0.8960 0.8960
3203.947960 0.8960 0.8965 0.8970 0.8970 0.8970
3208.874080 0.8970 0.8970 0.8970 0.8970 0.8970
3213.800201 0.8970 0.8980 0.8990 0.8990 0.8990
3218.726321 0.8990 0.8990 0.8990 0.8990 0.8990
3223.652442 0.8990 0.8990 0.8990 0.8990 0.8990
3228.578562 0.8990 0.8990 0.8990 0.8990 0.8990
3233.504682 0.8990 0.8990 0.8990 0.8981 0.8971
3238.430803 0.8970 0.8970 0.8970 0.8970 0.8970
3243.356923 0.8970 0.8970 0.8970 0.8970 0.8970
3248.283044 0.8970 0.8970 0.8970 0.8970 0.8970
3253.209164 0.8970 0.8970 0.8970 0.8970 0.8970
3258.135284 0.8970 0.8970 0.8966 0.8961 0.8960
3263.061405 0.8960 0.8960 0.8960 0.8960 0.8960
3267.987525 0.8956 0.8951 0.8950 0.8950 0.8950
3272.913646 0.8950 0.8950 0.8950 0.8950 0.8950
3277.839766 0.8950 0.8950 0.8950 0.8950 0.8950
3282.765886 0.8950 0.8950 0.8950 0.8941 0.8931
3287.692007 0.8930 0.8930 0.8930 0.8930 0.8930
3292.618127 0.8930 0.8926 0.8921 0.8920 0.8920
3297.544248 0.8920 0.8920 0.8916 0.8911 0.8910
3302.470368 0.8910 0.8910 0.8910 0.8902 0.8892
3307.396488 0.8886 0.8881 0.8880 0.8880 0.8876
3312.322609 0.8871 0.8862 0.8852 0.8850 0.8850
3317.248729 0.8846 0.8841 0.8840 0.8840 0.8836
3322.174850 0.8831 0.8830 0.8830 0.8834 0.8839
3327.100970 0.8840 0.8840 0.8840 0.8840 0.8844
3332.027090 0.8849 0.8858 0.8868 0.8874 0.8879
3336.953211 0.8884 0.8889 0.8890 0.8890 0.8898
3341.879331 0.8908 0.8910 0.8910 0.8910 0.8910
3346.805451 0.8910 0.8910 0.8902 0.8892 0.8890
3351.731572 0.8890 0.8890 0.8890 0.8890 0.8890
3356.657692 0.8890 0.8890 0.8886 0.8881 0.8880
3361.583813 0.8880 0.8880 0.8880 0.8880 0.8880
3366.509933 0.8876 0.8871 0.8870 0.8870 0.8863
3371.436053 0.8853 0.8850 0.8850 0.8850 0.8850
3376.362174 0.8850 0.8850 0.8847 0.8842 0.8840
3381.288294 0.8840 0.8836 0.8831 0.8823 0.8813
3386.214415 0.8810 0.8810 0.8807 0.8802 0.8800
3391.140535 0.8800 0.8797 0.8792 0.8790 0.8790
3396.066655 0.8783 0.8773 0.8770 0.8770 0.8767
3400.992776 0.8762 0.8757 0.8752 0.8740 0.8725
3405.918896 0.8713 0.8703 0.8687 0.8667 0.8654
3410.845017 0.8644 0.8621 0.8591 0.8564 0.8539
3415.771137 0.8514 0.8489 0.8474 0.8464 0.8457
3420.697257 0.8452 0.8450 0.8450 0.8450 0.8450
3425.623378 0.8453 0.8458 0.8466 0.8476 0.8486
3430.549498 0.8496 0.8509 0.8524 0.8545 0.8570
3435.475619 0.8589 0.8604 0.8625 0.8650 0.8672
3440.401739 0.8692 0.8718 0.8748 0.8763 0.8768
3445.327859 0.8779 0.8794 0.8803 0.8808 0.8822
3450.253980 0.8842 0.8856 0.8866 0.8873 0.8878
3455.180100 0.8883 0.8888 0.8896 0.8906 0.8910
3460.106221 0.8910 0.8913 0.8918 0.8920 0.8920
3465.032341 0.8923 0.8928 0.8930 0.8930 0.8930
3469.958461 0.8930 0.8935 0.8945 0.8945 0.8935
3474.884582 0.8930 0.8930 0.8930 0.8930 0.8927
3479.810702 0.8922 0.8920 0.8920 0.8923 0.8928
3484.736823 0.8930 0.8930 0.8930 0.8930 0.8930
3489.662943 0.8930 0.8930 0.8930 0.8927 0.8922
3494.589063 0.8920 0.8920 0.8920 0.8920 0.8918
3499.515184 0.8912 0.8910 0.8910 0.8910 0.8910
3504.441304 0.8910 0.8910 0.8912 0.8917 0.8922
3509.367425 0.8927 0.8930 0.8930 0.8928 0.8923
3514.293545 0.8920 0.8920 0.8920 0.8920 0.8920
3519.219665 0.8920 0.8918 0.8913 0.8910 0.8910
3524.145786 0.8910 0.8910 0.8905 0.8895 0.8890
3529.071906 0.8890 0.8888 0.8883 0.8880 0.8880
3533.998027 0.8880 0.8880 0.8880 0.8880 0.8880
3538.924147 0.8880 0.8882 0.8887 0.8890 0.8890
3543.850267 0.8894 0.8904 0.8910 0.8910 0.8912
3548.776388 0.8917 0.8920 0.8920 0.8922 0.8927
3553.702508 0.8930 0.8930 0.8930 0.8930 0.8934
3558.628629 0.8944 0.8950 0.8950 0.8952 0.8957
3563.554749 0.8960 0.8960 0.8960 0.8960 0.8960
3568.480869 0.8960 0.8960 0.8960 0.8962 0.8967
3573.406990 0.8970 0.8970 0.8974 0.8984 0.8992
3578.333110 0.8997 0.9002 0.9007 0.9010 0.9010
3583.259231 0.9014 0.9024 0.9030 0.9030 0.9030
3588.185351 0.9030 0.9030 0.9030 0.9030 0.9030
3593.111471 0.9032 0.9037 0.9040 0.9040 0.9040
3598.037592 0.9040 0.9042 0.9047 0.9050 0.9050
3602.963712 0.9048 0.9043 0.9040 0.9040 0.9040
3607.889832 0.9040 0.9040 0.9040 0.9040 0.9040
3612.815953 0.9040 0.9040 0.9040 0.9040 0.9041
3617.742073 0.9047 0.9050 0.9050 0.9050 0.9050
3622.668194 0.9049 0.9044 0.9040 0.9040 0.9039
3627.594314 0.9034 0.9030 0.9030 0.9030 0.9030
3632.520434 0.9030 0.9030 0.9027 0.9017 0.9010
3637.446555 0.9010 0.9010 0.9010 0.9010 0.9010
3642.372675 0.9009 0.9004 0.9000 0.9000 0.8999
3647.298796 0.8994 0.8988 0.8978 0.8969 0.8964
3652.224916 0.8959 0.8954 0.8950 0.8950 0.8950
3657.151036 0.8950 0.8951 0.8956 0.8961 0.8966
3662.077157 0.8970 0.8970 0.8970 0.8970 0.8970
3667.003277 0.8970 0.8969 0.8964 0.8960 0.8960
3671.929398 0.8959 0.8954 0.8950 0.8950 0.8950
3676.855518 0.8950 0.8950 0.8950 0.8951 0.8956
3681.781638 0.8960 0.8960 0.8961 0.8966 0.8972
3686.707759 0.8982 0.8990 0.8990 0.8991 0.8996
3691.633879 0.9000 0.9000 0.9000 0.9000 0.9001
3696.560000 0.9006 0.9010 0.9010 0.9012 0.9022
3701.486120 0.9031 0.9036 0.9040 0.9040 0.9040
3706.412240 0.9040 0.9040 0.9040 0.9040 0.9040
3711.338361 0.9041 0.9046 0.9050 0.9050 0.9051
3716.264481 0.9061 0.9070 0.9070 0.9070 0.9070
3721.190602 0.9070 0.9070 0.9071 0.9076 0.9081
3726.116722 0.9086 0.9090 0.9090 0.9091 0.9101
3731.042842 0.9110 0.9110 0.9110 0.9110 0.9110
3735.968963 0.9116 0.9120 0.9120 0.9120 0.9120
3740.895083 0.9120 0.9120 0.9120 0.9120 0.9120
3745.821204 0.9115 0.9110 0.9110 0.9110 0.9110
3750.747324 0.9109 0.9094 0.9080 0.9075 0.9070
3755.673444 0.9070 0.9069 0.9059 0.9050 0.9050
3760.599565 0.9050 0.9050 0.9051 0.9061 0.9070
3765.525685 0.9070 0.9070 0.9075 0.9080 0.9075
3770.451806 0.9070 0.9075 0.9080 0.9080 0.9080
3775.377926 0.9080 0.9080 0.9085 0.9090 0.9090
3780.304046 0.9090 0.9090 0.9090 0.9100 0.9110
3785.230167 0.9110 0.9110 0.9115 0.9120 0.9120
3790.156287 0.9120 0.9120 0.9120 0.9125 0.9130
##END=
