##TITLE=BENZOIC ANHYDRIDE
##JCAMP-DX=4.24
##DATA TYPE=INFRARED SPECTRUM
##CLASS=COBLENTZ III
##ORIGIN=WESTERN REGIONAL RES. USDA
##OWNER=COBLENTZ SOCIETY
Collection (C) 2018 copyright by the U.S. Secretary of Commerce
on behalf of the United States of America. All rights reserved.
##DATE=1965/02/11
##NAMES=phenyl anhydride
##CAS REGISTRY NO=93-97-0
##MOLFORM=C14 H10 O3
##SOURCE REFERENCE=COBLENTZ NO. 6118
##$NIST SOURCE=COBLENTZ
##$NIST IMAGE=cob6118
##SPECTROMETER/DATA SYSTEM=BECKMAN IR-7 (GRATING)
##INSTRUMENT PARAMETERS=GRATING CHANGES AT 3000, 2200, 1150 CM^-^1
##STATE=SOLID (NUJOL MULL)
##PATH LENGTH=
$$SPECTRAL CONTAMINATIN DUE TO OIL AROUND 2900 CM^-^1
##SAMPLING PROCEDURE=TRANSMISSION
##RESOLUTION=4
##DATA PROCESSING=DIGITIZED BY NIST FROM HARD COPY (FROM TWO SEGMENTS)
##XUNITS=1/CM
##YUNITS=TRANSMITTANCE
##XFACTOR=1.000000
##YFACTOR=1
##DELTAX=0.643975
##FIRSTX=598.712
##LASTX=3993.1
##FIRSTY=0.892
##MAXX=3993.1
##MINX=598.712
##MAXY=0.893
##MINY=0.01
##NPOINTS=5272
##XYDATA=(X++(Y..Y))
598.712000 0.8920 0.8900 0.8880 0.8880 0.8860
601.931875 0.8860 0.8830 0.8760 0.8630 0.8540
605.151750 0.8400 0.8190 0.8030 0.7800 0.7451
608.371625 0.7041 0.6631 0.5434 0.4573 0.4381
611.591500 0.4190 0.3910 0.3401 0.2901 0.2900
614.811375 0.3259 0.3629 0.4008 0.4667 0.4969
618.031250 0.5730 0.6810 0.7530 0.7750 0.7980
621.251125 0.8100 0.8300 0.8440 0.8490 0.8590
624.471000 0.8630 0.8680 0.8720 0.8740 0.8770
627.690875 0.8790 0.8830 0.8860 0.8930 0.8930
630.910751 0.8930 0.8930 0.8930 0.8930 0.8920
634.130626 0.8920 0.8920 0.8910 0.8910 0.8900
637.350501 0.8900 0.8900 0.8900 0.8900 0.8880
640.570376 0.8880 0.8880 0.8870 0.8860 0.8860
643.790251 0.8860 0.8850 0.8840 0.8840 0.8830
647.010126 0.8820 0.8790 0.8750 0.8700 0.8680
650.230001 0.8660 0.8630 0.8610 0.8590 0.8560
653.449876 0.8530 0.8470 0.8420 0.8370 0.8340
656.669751 0.8300 0.8240 0.8140 0.8050 0.7821
659.889626 0.7571 0.7391 0.7231 0.7160 0.7031
663.109501 0.6900 0.6770 0.6710 0.6650 0.6520
666.329376 0.6410 0.6410 0.6610 0.6780 0.7039
669.549251 0.7230 0.7240 0.7230 0.7230 0.7150
672.769126 0.7040 0.6880 0.6800 0.6710 0.6302
675.989001 0.5910 0.5600 0.5011 0.4591 0.4460
679.208876 0.4310 0.3921 0.3800 0.3710 0.3531
682.428751 0.3370 0.3350 0.3340 0.3350 0.3480
685.648626 0.3640 0.3829 0.4019 0.4209 0.4718
688.868501 0.5000 0.5280 0.5570 0.5570 0.5510
692.088376 0.5480 0.5131 0.4930 0.4691 0.4550
695.308252 0.4410 0.3930 0.3370 0.2671 0.1961
698.528127 0.1201 0.1000 0.0821 0.0621 0.0560
701.748002 0.0370 0.0270 0.0250 0.0200 0.0190
704.967877 0.0170 0.0170 0.0170 0.0180 0.0210
708.187752 0.0290 0.0390 0.0480 0.0690 0.0929
711.407627 0.1369 0.2676 0.3497 0.4187 0.4927
714.627502 0.5220 0.5410 0.5620 0.5780 0.5990
717.847377 0.6150 0.6270 0.6489 0.6660 0.6810
721.067252 0.6990 0.7040 0.7140 0.7200 0.7280
724.287127 0.7320 0.7340 0.7460 0.7480 0.7510
727.507002 0.7550 0.7600 0.7630 0.7660 0.7670
730.726877 0.7690 0.7710 0.7720 0.7730 0.7760
733.946752 0.7780 0.7800 0.7800 0.7820 0.7850
737.166627 0.7870 0.7870 0.7890 0.7900 0.7910
740.386502 0.7920 0.7920 0.7940 0.7940 0.7940
743.606377 0.7950 0.7960 0.7980 0.7980 0.8000
746.826252 0.8010 0.8020 0.8030 0.8030 0.8040
750.046127 0.8040 0.8030 0.8030 0.8030 0.8030
753.266002 0.8020 0.8010 0.8000 0.7990 0.7980
756.485877 0.7960 0.7940 0.7930 0.7910 0.7890
759.705753 0.7870 0.7850 0.7820 0.7800 0.7760
762.925628 0.7730 0.7690 0.7640 0.7590 0.7520
766.145503 0.7450 0.7350 0.7210 0.7010 0.6790
769.365378 0.6720 0.6650 0.6441 0.5882 0.5511
772.585253 0.4890 0.4650 0.4410 0.3980 0.3501
775.805128 0.3161 0.2831 0.2641 0.2490 0.2390
779.025003 0.2350 0.2350 0.2810 0.3449 0.3690
782.244878 0.3959 0.3980 0.3990 0.3990 0.4080
785.464753 0.4230 0.4949 0.5369 0.5849 0.6987
788.684628 0.7369 0.7490 0.7520 0.7590 0.7739
791.904503 0.7750 0.7750 0.7750 0.7740 0.7730
795.124378 0.7700 0.7590 0.7410 0.7260 0.7081
798.344253 0.6980 0.6930 0.6930 0.6930 0.7040
801.564128 0.7100 0.7130 0.7230 0.7330 0.7450
804.784003 0.7460 0.7460 0.7460 0.7460 0.7460
808.003878 0.7490 0.7540 0.7590 0.7690 0.7790
811.223753 0.7870 0.7920 0.7970 0.7980 0.8000
814.443628 0.8010 0.8060 0.8070 0.8100 0.8140
817.663503 0.8190 0.8210 0.8240 0.8250 0.8260
820.883378 0.8260 0.8260 0.8260 0.8270 0.8270
824.103254 0.8270 0.8270 0.8280 0.8280 0.8280
827.323129 0.8280 0.8280 0.8280 0.8270 0.8270
830.543004 0.8270 0.8260 0.8260 0.8260 0.8260
833.762879 0.8260 0.8260 0.8250 0.8250 0.8240
836.982754 0.8240 0.8230 0.8230 0.8210 0.8210
840.202629 0.8190 0.8180 0.8170 0.8150 0.8120
843.422504 0.8100 0.8070 0.8040 0.8000 0.7960
846.642379 0.7910 0.7850 0.7840 0.7830 0.7820
849.862254 0.7800 0.7780 0.7730 0.7710 0.7670
853.082129 0.7630 0.7570 0.7520 0.7500 0.7440
856.302004 0.7340 0.7280 0.7270 0.7260 0.7270
859.521879 0.7340 0.7430 0.7470 0.7500 0.7550
862.741754 0.7590 0.7610 0.7600 0.7590 0.7540
865.961629 0.7450 0.7340 0.7250 0.7160 0.7090
869.181504 0.7030 0.6990 0.6960 0.6900 0.6890
872.401379 0.6880 0.6890 0.6900 0.6990 0.7070
875.621254 0.7150 0.7280 0.7390 0.7490 0.7570
878.841129 0.7650 0.7710 0.7760 0.7800 0.7850
882.061004 0.7880 0.7910 0.7940 0.7950 0.7950
885.280879 0.7940 0.7940 0.7950 0.7950 0.7940
888.500755 0.7940 0.7940 0.7940 0.7920 0.7910
891.720630 0.7890 0.7870 0.7860 0.7840 0.7830
894.940505 0.7820 0.7800 0.7760 0.7730 0.7690
898.160380 0.7660 0.7620 0.7590 0.7570 0.7530
901.380255 0.7500 0.7470 0.7440 0.7410 0.7370
904.600130 0.7340 0.7290 0.7250 0.7210 0.7160
907.820005 0.7110 0.7050 0.6990 0.6970 0.6920
911.039880 0.6890 0.6880 0.6840 0.6810 0.6790
914.259755 0.6770 0.6760 0.6750 0.6740 0.6720
917.479630 0.6700 0.6690 0.6650 0.6610 0.6560
920.699505 0.6530 0.6510 0.6470 0.6440 0.6390
923.919380 0.6340 0.6280 0.6230 0.6170 0.6120
927.139255 0.6070 0.6000 0.5920 0.5820 0.5690
930.359130 0.5630 0.5550 0.5390 0.5221 0.5031
933.579005 0.4810 0.4580 0.4440 0.4310 0.4001
936.798880 0.3661 0.3271 0.3260 0.3250 0.3260
940.018755 0.3460 0.3520 0.3640 0.3990 0.4710
943.238630 0.4970 0.5180 0.5350 0.5500 0.5610
946.458505 0.5710 0.5790 0.5850 0.5910 0.5930
949.678381 0.5930 0.5920 0.5920 0.5910 0.5900
952.898256 0.5870 0.5870 0.5870 0.5850 0.5830
956.118131 0.5800 0.5770 0.5740 0.5700 0.5660
959.338006 0.5600 0.5560 0.5550 0.5520 0.5490
962.557881 0.5420 0.5370 0.5300 0.5240 0.5180
965.777756 0.5110 0.5040 0.4970 0.4900 0.4830
968.997631 0.4610 0.4550 0.4490 0.4440 0.4350
972.217506 0.4210 0.3910 0.3690 0.3480 0.3320
975.437381 0.3160 0.2990 0.2820 0.2650 0.2650
978.657256 0.2810 0.2980 0.3080 0.3070 0.3060
981.877131 0.2950 0.2790 0.2541 0.2390 0.2320
985.097006 0.2240 0.2050 0.1890 0.1790 0.1690
988.316881 0.1530 0.1281 0.1041 0.0721 0.0551
991.536756 0.0410 0.0310 0.0310 0.0300 0.0310
994.756631 0.0310 0.0330 0.0440 0.0560 0.0670
997.976506 0.0790 0.0900 0.1020 0.1040 0.1110
1001.196381 0.1449 0.2129 0.2130 0.2120 0.2100
1004.416256 0.1520 0.1140 0.0740 0.0560 0.0530
1007.636131 0.0450 0.0380 0.0300 0.0260 0.0250
1010.856006 0.0230 0.0190 0.0170 0.0170 0.0160
1014.075882 0.0150 0.0150 0.0160 0.0170 0.0190
1017.295757 0.0210 0.0240 0.0310 0.0470 0.0630
1020.515632 0.0690 0.0780 0.1109 0.2477 0.2480
1023.735507 0.2260 0.2210 0.2150 0.2030 0.1551
1026.955382 0.1161 0.0771 0.0291 0.0260 0.0240
1030.175257 0.0220 0.0190 0.0170 0.0160 0.0150
1033.395132 0.0140 0.0140 0.0130 0.0120 0.0120
1036.615007 0.0120 0.0120 0.0120 0.0120 0.0120
1039.834882 0.0120 0.0120 0.0130 0.0140 0.0140
1043.054757 0.0150 0.0160 0.0170 0.0190 0.0210
1046.274632 0.0240 0.0270 0.0310 0.0350 0.0440
1049.494507 0.0570 0.0690 0.0800 0.0910 0.1010
1052.714382 0.1130 0.1240 0.1360 0.1500 0.1649
1055.934257 0.1810 0.1930 0.2290 0.2480 0.2630
1059.154132 0.2760 0.2870 0.2950 0.3030 0.3110
1062.374007 0.3190 0.3270 0.3320 0.3350 0.3370
1065.593882 0.3370 0.3350 0.3310 0.3230 0.3101
1068.813757 0.2960 0.2950 0.2940 0.2940 0.2950
1072.033632 0.2980 0.3000 0.3030 0.3040 0.3060
1075.253507 0.3110 0.3130 0.3160 0.3220 0.3230
1078.473383 0.3290 0.3370 0.3440 0.3500 0.3560
1081.693258 0.3630 0.3710 0.3830 0.3970 0.4140
1084.913133 0.4260 0.4529 0.4690 0.4840 0.5009
1088.133008 0.5170 0.5320 0.5460 0.5590 0.5690
1091.352883 0.5760 0.5810 0.5890 0.5950 0.5970
1094.572758 0.5970 0.5970 0.5960 0.5950 0.5910
1097.792633 0.5850 0.5710 0.5700 0.5710 0.5820
1101.012508 0.5940 0.6050 0.6160 0.6210 0.6250
1104.232383 0.6370 0.6490 0.6610 0.6809 0.6840
1107.452258 0.6880 0.6890 0.6920 0.6920 0.6940
1110.672133 0.6960 0.6990 0.7040 0.7070 0.7090
1113.892008 0.7110 0.7120 0.7130 0.7130 0.7130
1117.111883 0.7140 0.7140 0.7140 0.7130 0.7120
1120.331758 0.7110 0.7100 0.7080 0.7060 0.7010
1123.551633 0.6970 0.6910 0.6850 0.6840 0.6840
1126.771508 0.6840 0.6870 0.6920 0.6970 0.7040
1129.991383 0.7080 0.7130 0.7140 0.7130 0.7120
1133.211258 0.7090 0.7040 0.6970 0.6890 0.6820
1136.431133 0.6780 0.6740 0.6670 0.6600 0.6530
1139.651008 0.6470 0.6430 0.6400 0.6400 0.6400
1142.870884 0.6410 0.6420 0.6460 0.6470 0.6490
1146.090759 0.6510 0.6510 0.6520 0.6510 0.6510
1149.310634 0.6490 0.6460 0.6430 0.6400 0.6370
1152.530509 0.6320 0.6250 0.6090 0.5940 0.5800
1155.750384 0.5670 0.5530 0.5390 0.5250 0.5091
1158.970259 0.4900 0.4580 0.4240 0.3890 0.3680
1162.190134 0.3510 0.3221 0.2672 0.2212 0.1742
1165.410009 0.1429 0.1090 0.0810 0.0630 0.0620
1168.629884 0.0620 0.0630 0.0690 0.0800 0.1169
1171.849759 0.1330 0.1380 0.1530 0.1760 0.2330
1175.069634 0.2630 0.2900 0.3120 0.3260 0.3300
1178.289509 0.3560 0.3840 0.4130 0.4720 0.5000
1181.509384 0.5270 0.5500 0.5690 0.5850 0.5950
1184.729259 0.5980 0.6030 0.6120 0.6180 0.6190
1187.949134 0.6200 0.6210 0.6220 0.6210 0.6041
1191.169009 0.5950 0.5840 0.5700 0.5540 0.5360
1194.388884 0.5130 0.4800 0.4610 0.4420 0.4001
1197.608759 0.3529 0.3060 0.2580 0.2370 0.2150
1200.828634 0.1760 0.1151 0.0751 0.0511 0.0470
1204.048509 0.0420 0.0370 0.0320 0.0270 0.0230
1207.268385 0.0170 0.0120 0.0100 0.0100 0.0100
1210.488260 0.0100 0.0100 0.0100 0.0140 0.0190
1213.708135 0.0240 0.0290 0.0340 0.0390 0.0430
1216.928010 0.0570 0.0650 0.0680 0.0730 0.0830
1220.147885 0.0970 0.1110 0.1250 0.1480 0.1650
1223.367760 0.1760 0.1870 0.1950 0.2030 0.2100
1226.587635 0.2170 0.2290 0.2340 0.2380 0.2430
1229.807510 0.2490 0.2570 0.2650 0.2740 0.2840
1233.027385 0.2940 0.3050 0.3160 0.3280 0.3400
1236.247260 0.3520 0.3630 0.3750 0.3860 0.3970
1239.467135 0.4070 0.4170 0.4260 0.4350 0.4420
1242.687010 0.4530 0.4570 0.4600 0.4600 0.4610
1245.906885 0.4610 0.4620 0.4610 0.4560 0.4510
1249.126760 0.4490 0.4460 0.4420 0.4370 0.4330
1252.346635 0.4280 0.4240 0.4200 0.4190 0.4190
1255.566510 0.4200 0.4210 0.4260 0.4320 0.4370
1258.786385 0.4430 0.4540 0.4600 0.4650 0.4700
1262.006260 0.4750 0.4790 0.4830 0.4870 0.4900
1265.226135 0.4910 0.4920 0.4920 0.4920 0.4920
1268.446011 0.4920 0.4830 0.4690 0.4600 0.4530
1271.665886 0.4500 0.4470 0.4440 0.4380 0.4330
1274.885761 0.4240 0.4130 0.3960 0.3800 0.3490
1278.105636 0.3210 0.2741 0.2421 0.2310 0.2310
1281.325511 0.2310 0.2320 0.2450 0.2580 0.2700
1284.545386 0.2830 0.2960 0.3090 0.3220 0.3290
1287.765261 0.3370 0.3490 0.3660 0.3790 0.3890
1290.985136 0.3960 0.4030 0.4080 0.4120 0.4170
1294.205011 0.4230 0.4300 0.4510 0.4600 0.4690
1297.424886 0.4770 0.4840 0.4920 0.4980 0.5040
1300.644761 0.5090 0.5150 0.5200 0.5250 0.5290
1303.864636 0.5340 0.5390 0.5440 0.5490 0.5530
1307.084511 0.5550 0.5550 0.5500 0.5430 0.5320
1310.304386 0.4931 0.4720 0.4540 0.4351 0.4131
1313.524261 0.4670 0.4670 0.4660 0.4650 0.4620
1316.744136 0.4560 0.4490 0.4190 0.4180 0.4190
1319.964011 0.4510 0.4580 0.4710 0.4770 0.4780
1323.183886 0.4790 0.4800 0.4810 0.4810 0.4820
1326.403761 0.4830 0.4940 0.5190 0.5360 0.5480
1329.623636 0.5580 0.5730 0.5870 0.5990 0.6100
1332.843512 0.6190 0.6280 0.6350 0.6410 0.6470
1336.063387 0.6520 0.6560 0.6590 0.6620 0.6650
1339.283262 0.6670 0.6700 0.6720 0.6760 0.6790
1342.503137 0.6810 0.6820 0.6830 0.6830 0.6830
1345.723012 0.6840 0.6840 0.6840 0.6840 0.6850
1348.942887 0.6860 0.6900 0.6940 0.6980 0.7020
1352.162762 0.7060 0.7110 0.7160 0.7230 0.7310
1355.382637 0.7390 0.7480 0.7550 0.7570 0.7580
1358.602512 0.7580 0.7570 0.7500 0.7390 0.7360
1361.822387 0.7360 0.7350 0.7350 0.7340 0.7340
1365.042262 0.7330 0.7330 0.7320 0.7320 0.7300
1368.262137 0.7300 0.7250 0.7150 0.7040 0.6920
1371.482012 0.6830 0.6790 0.6760 0.6680 0.6600
1374.701887 0.6580 0.6580 0.6580 0.6580 0.6650
1377.921762 0.6810 0.6840 0.6870 0.6920 0.6970
1381.141637 0.7000 0.7050 0.7090 0.7150 0.7200
1384.361512 0.7270 0.7320 0.7380 0.7430 0.7480
1387.581387 0.7520 0.7530 0.7540 0.7550 0.7550
1390.801262 0.7550 0.7550 0.7550 0.7530 0.7460
1394.021137 0.7450 0.7430 0.7390 0.7350 0.7300
1397.241013 0.7230 0.7180 0.7110 0.7040 0.7020
1400.460888 0.7020 0.7020 0.7040 0.7060 0.7070
1403.680763 0.7090 0.7110 0.7120 0.7130 0.7130
1406.900638 0.7130 0.7130 0.7130 0.7120 0.7070
1410.120513 0.6980 0.6900 0.6830 0.6770 0.6750
1413.340388 0.6720 0.6670 0.6620 0.6580 0.6530
1416.560263 0.6480 0.6430 0.6380 0.6330 0.6290
1419.780138 0.6240 0.6210 0.6170 0.6140 0.6130
1423.000013 0.6130 0.6130 0.6140 0.6140 0.6170
1426.219888 0.6190 0.6230 0.6260 0.6300 0.6370
1429.439763 0.6380 0.6420 0.6450 0.6490 0.6520
1432.659638 0.6560 0.6630 0.6690 0.6690 0.6690
1435.879513 0.6690 0.6660 0.6630 0.6530 0.6440
1439.099388 0.6260 0.5951 0.5601 0.5321 0.5240
1442.319263 0.4999 0.4690 0.4379 0.3460 0.2680
1445.539138 0.2460 0.2240 0.2020 0.1471 0.0931
1448.759013 0.0920 0.0930 0.1140 0.1340 0.1800
1451.978888 0.2020 0.2350 0.2440 0.2949 0.3479
1455.198763 0.3931 0.4610 0.4860 0.5060 0.5210
1458.418638 0.5330 0.5430 0.5520 0.5610 0.5690
1461.638514 0.5730 0.5760 0.5800 0.5840 0.5890
1464.858389 0.5940 0.6000 0.6060 0.6130 0.6190
1468.078264 0.6270 0.6341 0.6790 0.6920 0.7000
1471.298139 0.7060 0.7090 0.7110 0.7120 0.7150
1474.518014 0.7190 0.7260 0.7320 0.7330 0.7340
1477.737889 0.7340 0.7340 0.7340 0.7240 0.7160
1480.957764 0.7110 0.7070 0.7030 0.6980 0.6920
1484.177639 0.6840 0.6790 0.6740 0.6590 0.5762
1487.397514 0.5529 0.5300 0.5060 0.5060 0.5181
1490.617389 0.6380 0.6860 0.7020 0.7150 0.7270
1493.837264 0.7360 0.7450 0.7520 0.7590 0.7640
1497.057139 0.7680 0.7710 0.7750 0.7770 0.7790
1500.277014 0.7810 0.7840 0.7850 0.7860 0.7870
1503.496889 0.7860 0.7860 0.7850 0.7850 0.7830
1506.716764 0.7810 0.7780 0.7780 0.7770 0.7760
1509.936639 0.7770 0.7780 0.7780 0.7790 0.7800
1513.156514 0.7810 0.7810 0.7820 0.7830 0.7840
1516.376389 0.7850 0.7860 0.7870 0.7880 0.7880
1519.596264 0.7890 0.7890 0.7890 0.7890 0.7880
1522.816139 0.7870 0.7870 0.7870 0.7850 0.7850
1526.036015 0.7840 0.7830 0.7830 0.7820 0.7820
1529.255890 0.7810 0.7810 0.7800 0.7800 0.7780
1532.475765 0.7760 0.7750 0.7730 0.7730 0.7710
1535.695640 0.7700 0.7690 0.7680 0.7670 0.7660
1538.915515 0.7660 0.7640 0.7640 0.7620 0.7620
1542.135390 0.7610 0.7590 0.7580 0.7580 0.7570
1545.355265 0.7570 0.7560 0.7550 0.7550 0.7530
1548.575140 0.7520 0.7500 0.7480 0.7450 0.7420
1551.795015 0.7390 0.7370 0.7340 0.7270 0.7220
1555.014890 0.7180 0.7150 0.7140 0.7130 0.7130
1558.234765 0.7130 0.7140 0.7150 0.7160 0.7180
1561.454640 0.7180 0.7180 0.7190 0.7190 0.7190
1564.674515 0.7180 0.7180 0.7160 0.7130 0.7110
1567.894390 0.7080 0.7050 0.7020 0.6990 0.6950
1571.114265 0.6910 0.6860 0.6820 0.6770 0.6740
1574.334140 0.6710 0.6650 0.6580 0.6500 0.6251
1577.554015 0.5970 0.5780 0.5650 0.5380 0.5110
1580.773890 0.4840 0.4570 0.4440 0.4310 0.4699
1583.993765 0.5040 0.5150 0.5460 0.5590 0.5840
1587.213640 0.5980 0.6260 0.6260 0.6180 0.5911
1590.433516 0.5667 0.4539 0.4099 0.3670 0.3370
1593.653391 0.3060 0.2740 0.2420 0.2270 0.2110
1596.873266 0.1800 0.1801 0.2771 0.3261 0.4540
1600.093141 0.4970 0.5410 0.5700 0.5950 0.6160
1603.313016 0.6330 0.6470 0.6590 0.6760 0.6830
1606.532891 0.6890 0.6950 0.7020 0.7080 0.7090
1609.752766 0.7090 0.7090 0.7090 0.7070 0.7060
1612.972641 0.7040 0.7030 0.6970 0.6900 0.6850
1616.192516 0.6840 0.6840 0.6840 0.6880 0.6950
1619.412391 0.7050 0.7100 0.7120 0.7180 0.7230
1622.632266 0.7260 0.7270 0.7270 0.7280 0.7290
1625.852141 0.7290 0.7290 0.7300 0.7300 0.7300
1629.072016 0.7300 0.7310 0.7320 0.7320 0.7320
1632.291891 0.7320 0.7320 0.7310 0.7310 0.7310
1635.511766 0.7300 0.7300 0.7280 0.7270 0.7240
1638.731641 0.7200 0.7160 0.7120 0.7070 0.7030
1641.951516 0.6990 0.6940 0.6900 0.6840 0.6800
1645.171391 0.6760 0.6740 0.6710 0.6660 0.6610
1648.391266 0.6570 0.6530 0.6480 0.6440 0.6430
1651.611142 0.6420 0.6420 0.6420 0.6410 0.6410
1654.831017 0.6400 0.6400 0.6400 0.6390 0.6380
1658.050892 0.6370 0.6360 0.6360 0.6350 0.6330
1661.270767 0.6310 0.6280 0.6250 0.6230 0.6200
1664.490642 0.6170 0.6120 0.6070 0.6010 0.5960
1667.710517 0.5890 0.5820 0.5750 0.5670 0.5590
1670.930392 0.5500 0.5410 0.5320 0.5230 0.5130
1674.150267 0.5030 0.4930 0.4830 0.4730 0.4630
1677.370142 0.4530 0.4470 0.4420 0.4320 0.4210
1680.590017 0.4110 0.4010 0.3910 0.3810 0.3620
1683.809892 0.3470 0.3350 0.3270 0.3200 0.3160
1687.029767 0.3130 0.3110 0.3090 0.3060 0.3040
1690.249642 0.3040 0.3040 0.3050 0.3060 0.3070
1693.469517 0.3090 0.3130 0.3190 0.3230 0.3280
1696.689392 0.3300 0.3320 0.3330 0.3330 0.3340
1699.909267 0.3340 0.3330 0.3320 0.3260 0.3160
1703.129142 0.3040 0.2940 0.2840 0.2750 0.2640
1706.349017 0.2500 0.2320 0.2210 0.2090 0.1800
1709.568892 0.1420 0.1030 0.0581 0.0360 0.0330
1712.788767 0.0330 0.0330 0.0330 0.0460 0.0590
1716.008643 0.0720 0.0840 0.0940 0.1060 0.1160
1719.228518 0.1201 0.1590 0.1710 0.1830 0.1860
1722.448393 0.2130 0.2250 0.2350 0.2560 0.2740
1725.668268 0.2900 0.3020 0.3140 0.3230 0.3340
1728.888143 0.3450 0.3560 0.3680 0.3780 0.3800
1732.108018 0.3810 0.3810 0.3810 0.3820 0.3820
1735.327893 0.3820 0.3830 0.3830 0.3820 0.3820
1738.547768 0.3780 0.3730 0.3690 0.3660 0.3610
1741.767643 0.3570 0.3530 0.3490 0.3450 0.3400
1744.987518 0.3360 0.3300 0.3260 0.3200 0.3150
1748.207393 0.3090 0.3030 0.2970 0.2900 0.2830
1751.427268 0.2750 0.2670 0.2590 0.2490 0.2400
1754.647143 0.2300 0.2250 0.2190 0.2070 0.1940
1757.867018 0.1800 0.1670 0.1530 0.1410 0.1280
1761.086893 0.1160 0.1060 0.0960 0.0880 0.0830
1764.306768 0.0790 0.0690 0.0610 0.0530 0.0460
1767.526643 0.0390 0.0330 0.0290 0.0240 0.0210
1770.746518 0.0190 0.0170 0.0150 0.0150 0.0140
1773.966393 0.0140 0.0130 0.0140 0.0140 0.0140
1777.186268 0.0150 0.0160 0.0200 0.0230 0.0240
1780.406144 0.0260 0.0330 0.0380 0.0440 0.0490
1783.626019 0.0540 0.0580 0.0630 0.0670 0.0710
1786.845894 0.0760 0.0800 0.0840 0.0880 0.0930
1790.065769 0.0970 0.1020 0.1070 0.1120 0.1170
1793.285644 0.1220 0.1290 0.1340 0.1410 0.1480
1796.505519 0.1560 0.1640 0.1720 0.1890 0.2060
1799.725394 0.2420 0.2610 0.2800 0.3000 0.3190
1802.945269 0.3390 0.3580 0.3770 0.3950 0.4140
1806.165144 0.4310 0.4620 0.4760 0.4890 0.5000
1809.385019 0.5100 0.5290 0.5460 0.5610 0.5750
1812.604894 0.5860 0.5960 0.6040 0.6100 0.6140
1815.824769 0.6190 0.6270 0.6330 0.6370 0.6390
1819.044644 0.6420 0.6450 0.6490 0.6530 0.6570
1822.264519 0.6610 0.6630 0.6640 0.6650 0.6650
1825.484394 0.6650 0.6650 0.6650 0.6650 0.6650
1828.704269 0.6650 0.6660 0.6700 0.6790 0.6840
1831.924144 0.6910 0.6970 0.7040 0.7090 0.7160
1835.144019 0.7210 0.7260 0.7300 0.7340 0.7390
1838.363894 0.7440 0.7480 0.7530 0.7570 0.7610
1841.583769 0.7640 0.7680 0.7710 0.7750 0.7780
1844.803645 0.7810 0.7840 0.7870 0.7890 0.7920
1848.023520 0.7940 0.7960 0.7980 0.8000 0.8020
1851.243395 0.8040 0.8060 0.8070 0.8080 0.8100
1854.463270 0.8120 0.8130 0.8140 0.8150 0.8160
1857.683145 0.8170 0.8190 0.8190 0.8210 0.8210
1860.903020 0.8230 0.8230 0.8240 0.8250 0.8260
1864.122895 0.8260 0.8260 0.8270 0.8280 0.8280
1867.342770 0.8280 0.8280 0.8280 0.8280 0.8280
1870.562645 0.8280 0.8280 0.8270 0.8270 0.8270
1873.782520 0.8260 0.8250 0.8240 0.8240 0.8240
1877.002395 0.8230 0.8230 0.8230 0.8230 0.8220
1880.222270 0.8220 0.8210 0.8210 0.8210 0.8200
1883.442145 0.8200 0.8190 0.8190 0.8190 0.8180
1886.662020 0.8180 0.8170 0.8170 0.8170 0.8170
1889.881895 0.8160 0.8160 0.8160 0.8160 0.8160
1893.101770 0.8160 0.8160 0.8170 0.8170 0.8170
1896.321645 0.8170 0.8190 0.8190 0.8200 0.8210
1899.541520 0.8210 0.8210 0.8220 0.8220 0.8230
1902.761395 0.8230 0.8220 0.8210 0.8210 0.8190
1905.981270 0.8170 0.8140 0.8120 0.8100 0.8090
1909.201146 0.8070 0.8060 0.8040 0.8030 0.8010
1912.421021 0.8000 0.7980 0.7950 0.7930 0.7910
1915.640896 0.7870 0.7840 0.7810 0.7770 0.7730
1918.860771 0.7680 0.7620 0.7580 0.7550 0.7540
1922.080646 0.7550 0.7550 0.7570 0.7590 0.7610
1925.300521 0.7660 0.7690 0.7720 0.7750 0.7780
1928.520396 0.7820 0.7850 0.7900 0.7960 0.8020
1931.740271 0.8040 0.8050 0.8070 0.8070 0.8060
1934.960146 0.8060 0.8050 0.8040 0.8020 0.8020
1938.180021 0.8010 0.8010 0.8020 0.8030 0.8040
1941.399896 0.8050 0.8050 0.8050 0.8090 0.8120
1944.619771 0.8150 0.8160 0.8170 0.8190 0.8210
1947.839646 0.8230 0.8240 0.8260 0.8270 0.8280
1951.059521 0.8280 0.8310 0.8330 0.8340 0.8350
1954.279396 0.8360 0.8370 0.8370 0.8370 0.8370
1957.499271 0.8370 0.8370 0.8370 0.8370 0.8370
1960.719146 0.8370 0.8370 0.8370 0.8370 0.8370
1963.939021 0.8370 0.8360 0.8350 0.8350 0.8350
1967.158896 0.8350 0.8350 0.8350 0.8340 0.8330
1970.378772 0.8280 0.8240 0.8210 0.8170 0.8140
1973.598647 0.8100 0.8080 0.8050 0.8020 0.8000
1976.818522 0.7960 0.7930 0.7890 0.7870 0.7850
1980.038397 0.7820 0.7810 0.7800 0.7790 0.7780
1983.258272 0.7790 0.7800 0.7830 0.7860 0.7900
1986.478147 0.7930 0.7960 0.7970 0.7980 0.7980
1989.698022 0.7960 0.7950 0.7940 0.7920 0.7910
1992.917897 0.7910 0.7920 0.7920 0.7940 0.7940
1996.137772 0.7960 0.7960 0.7980 0.7990 0.8000
1999.357647 0.8010 0.8020 0.8023 0.8025 0.8028
2002.577522 0.8030 0.8035 0.8041 0.8046 0.8050
2005.797397 0.8050 0.8050 0.8050 0.8051 0.8056
2009.017272 0.8061 0.8066 0.8071 0.8073 0.8076
2012.237147 0.8078 0.8081 0.8084 0.8086 0.8089
2015.457022 0.8091 0.8094 0.8096 0.8099 0.8103
2018.676897 0.8108 0.8113 0.8118 0.8122 0.8124
2021.896772 0.8127 0.8129 0.8132 0.8134 0.8137
2025.116647 0.8140 0.8140 0.8140 0.8140 0.8140
2028.336522 0.8142 0.8145 0.8147 0.8150 0.8150
2031.556397 0.8150 0.8150 0.8150 0.8150 0.8150
2034.776273 0.8150 0.8150 0.8153 0.8155 0.8158
2037.996148 0.8160 0.8160 0.8160 0.8160 0.8161
2041.216023 0.8163 0.8166 0.8168 0.8170 0.8170
2044.435898 0.8170 0.8170 0.8170 0.8170 0.8170
2047.655773 0.8170 0.8171 0.8174 0.8176 0.8179
2050.875648 0.8182 0.8184 0.8187 0.8189 0.8190
2054.095523 0.8190 0.8190 0.8190 0.8190 0.8190
2057.315398 0.8190 0.8190 0.8192 0.8195 0.8197
2060.535273 0.8200 0.8200 0.8200 0.8200 0.8200
2063.755148 0.8203 0.8205 0.8208 0.8210 0.8210
2066.975023 0.8210 0.8210 0.8210 0.8213 0.8216
2070.194898 0.8218 0.8221 0.8223 0.8226 0.8228
2073.414773 0.8230 0.8230 0.8230 0.8230 0.8230
2076.634648 0.8230 0.8230 0.8230 0.8230 0.8230
2079.854523 0.8230 0.8230 0.8230 0.8230 0.8230
2083.074398 0.8230 0.8230 0.8230 0.8230 0.8230
2086.294273 0.8230 0.8230 0.8230 0.8230 0.8230
2089.514148 0.8230 0.8230 0.8230 0.8230 0.8230
2092.734023 0.8230 0.8230 0.8230 0.8230 0.8230
2095.953898 0.8230 0.8227 0.8225 0.8222 0.8220
2099.173774 0.8220 0.8220 0.8220 0.8219 0.8217
2102.393649 0.8214 0.8212 0.8210 0.8210 0.8210
2105.613524 0.8210 0.8210 0.8210 0.8210 0.8210
2108.833399 0.8210 0.8210 0.8210 0.8210 0.8210
2112.053274 0.8210 0.8210 0.8210 0.8207 0.8202
2115.273149 0.8197 0.8192 0.8188 0.8186 0.8183
2118.493024 0.8181 0.8180 0.8180 0.8180 0.8180
2121.712899 0.8178 0.8175 0.8173 0.8170 0.8170
2124.932774 0.8170 0.8170 0.8170 0.8167 0.8165
2128.152649 0.8162 0.8160 0.8157 0.8155 0.8152
2131.372524 0.8150 0.8150 0.8150 0.8150 0.8150
2134.592399 0.8150 0.8150 0.8150 0.8150 0.8150
2137.812274 0.8150 0.8150 0.8149 0.8146 0.8144
2141.032149 0.8141 0.8140 0.8140 0.8140 0.8140
2144.252024 0.8140 0.8140 0.8140 0.8140 0.8140
2147.471899 0.8140 0.8140 0.8140 0.8140 0.8140
2150.691774 0.8140 0.8140 0.8140 0.8140 0.8140
2153.911649 0.8140 0.8142 0.8145 0.8148 0.8150
2157.131524 0.8150 0.8150 0.8150 0.8150 0.8150
2160.351399 0.8150 0.8150 0.8150 0.8150 0.8150
2163.571275 0.8150 0.8151 0.8153 0.8156 0.8158
2166.791150 0.8160 0.8160 0.8160 0.8160 0.8160
2170.011025 0.8160 0.8160 0.8160 0.8161 0.8164
2173.230900 0.8166 0.8169 0.8170 0.8170 0.8170
2176.450775 0.8170 0.8170 0.8170 0.8170 0.8170
2179.670650 0.8170 0.8170 0.8170 0.8170 0.8170
2182.890525 0.8170 0.8170 0.8170 0.8170 0.8170
2186.110400 0.8170 0.8170 0.8167 0.8165 0.8162
2189.330275 0.8160 0.8160 0.8160 0.8160 0.8160
2192.550150 0.8160 0.8160 0.8160 0.8159 0.8157
2195.770025 0.8154 0.8152 0.8150 0.8150 0.8150
2198.989900 0.8150 0.8150 0.8150 0.8150 0.8150
2202.209775 0.8150 0.8150 0.8150 0.8150 0.8150
2205.429650 0.8150 0.8150 0.8150 0.8148 0.8146
2208.649525 0.8143 0.8141 0.8140 0.8140 0.8140
2211.869400 0.8140 0.8140 0.8140 0.8140 0.8140
2215.089275 0.8140 0.8140 0.8140 0.8140 0.8138
2218.309150 0.8135 0.8132 0.8130 0.8130 0.8130
2221.529025 0.8130 0.8130 0.8127 0.8125 0.8122
2224.748900 0.8120 0.8117 0.8114 0.8112 0.8108
2227.968776 0.8100 0.8092 0.8085 0.8079 0.8076
2231.188651 0.8074 0.8071 0.8069 0.8066 0.8064
2234.408526 0.8061 0.8060 0.8060 0.8060 0.8060
2237.628401 0.8058 0.8056 0.8053 0.8051 0.8050
2240.848276 0.8050 0.8050 0.8050 0.8050 0.8050
2244.068151 0.8050 0.8050 0.8048 0.8045 0.8043
2247.288026 0.8040 0.8038 0.8035 0.8033 0.8030
2250.507901 0.8030 0.8030 0.8030 0.8030 0.8027
2253.727776 0.8025 0.8022 0.8020 0.8017 0.8014
2256.947651 0.8012 0.8010 0.8010 0.8010 0.8010
2260.167526 0.8009 0.8007 0.8004 0.8001 0.8000
2263.387401 0.8000 0.8000 0.8000 0.8000 0.8000
2266.607276 0.8000 0.8000 0.7999 0.7996 0.7993
2269.827151 0.7991 0.7990 0.7990 0.7990 0.7990
2273.047026 0.7990 0.7990 0.7990 0.7990 0.7988
2276.266901 0.7985 0.7983 0.7980 0.7980 0.7980
2279.486776 0.7980 0.7980 0.7980 0.7980 0.7980
2282.706651 0.7980 0.7980 0.7980 0.7980 0.7980
2285.926526 0.7977 0.7975 0.7972 0.7970 0.7970
2289.146402 0.7970 0.7970 0.7969 0.7967 0.7964
2292.366277 0.7962 0.7960 0.7960 0.7960 0.7960
2295.586152 0.7960 0.7960 0.7960 0.7960 0.7960
2298.806027 0.7960 0.7960 0.7960 0.7958 0.7956
2302.025902 0.7953 0.7951 0.7950 0.7950 0.7950
2305.245777 0.7950 0.7948 0.7945 0.7943 0.7940
2308.465652 0.7940 0.7940 0.7940 0.7940 0.7940
2311.685527 0.7940 0.7940 0.7940 0.7935 0.7930
2314.905402 0.7924 0.7920 0.7917 0.7915 0.7912
2318.125277 0.7909 0.7904 0.7899 0.7894 0.7888
2321.345152 0.7880 0.7873 0.7865 0.7859 0.7857
2324.565027 0.7854 0.7851 0.7849 0.7846 0.7844
2327.784902 0.7841 0.7840 0.7840 0.7840 0.7840
2331.004777 0.7840 0.7840 0.7840 0.7840 0.7838
2334.224652 0.7836 0.7833 0.7831 0.7828 0.7825
2337.444527 0.7823 0.7820 0.7820 0.7820 0.7820
2340.664402 0.7820 0.7820 0.7820 0.7820 0.7820
2343.884277 0.7820 0.7820 0.7820 0.7820 0.7820
2347.104152 0.7820 0.7820 0.7820 0.7820 0.7820
2350.324027 0.7820 0.7820 0.7820 0.7820 0.7820
2353.543903 0.7820 0.7820 0.7820 0.7820 0.7820
2356.763778 0.7820 0.7820 0.7820 0.7820 0.7820
2359.983653 0.7820 0.7820 0.7820 0.7820 0.7820
2363.203528 0.7820 0.7820 0.7820 0.7820 0.7820
2366.423403 0.7820 0.7820 0.7820 0.7820 0.7820
2369.643278 0.7820 0.7820 0.7820 0.7820 0.7820
2372.863153 0.7820 0.7820 0.7818 0.7815 0.7812
2376.083028 0.7810 0.7807 0.7805 0.7802 0.7800
2379.302903 0.7800 0.7800 0.7800 0.7800 0.7800
2382.522778 0.7800 0.7800 0.7799 0.7797 0.7794
2385.742653 0.7792 0.7789 0.7786 0.7784 0.7781
2388.962528 0.7780 0.7780 0.7780 0.7780 0.7779
2392.182403 0.7776 0.7773 0.7771 0.7768 0.7766
2395.402278 0.7763 0.7761 0.7758 0.7756 0.7753
2398.622153 0.7751 0.7750 0.7750 0.7750 0.7750
2401.842028 0.7746 0.7740 0.7735 0.7730 0.7730
2405.061903 0.7730 0.7730 0.7730 0.7727 0.7725
2408.281778 0.7722 0.7720 0.7717 0.7715 0.7712
2411.501653 0.7710 0.7710 0.7710 0.7710 0.7709
2414.721528 0.7703 0.7698 0.7693 0.7690 0.7690
2417.941404 0.7690 0.7690 0.7689 0.7686 0.7684
2421.161279 0.7681 0.7680 0.7680 0.7680 0.7680
2424.381154 0.7678 0.7676 0.7673 0.7671 0.7670
2427.601029 0.7670 0.7670 0.7670 0.7670 0.7670
2430.820904 0.7670 0.7670 0.7668 0.7665 0.7663
2434.040779 0.7660 0.7660 0.7660 0.7660 0.7660
2437.260654 0.7660 0.7660 0.7660 0.7660 0.7657
2440.480529 0.7655 0.7652 0.7650 0.7647 0.7644
2443.700404 0.7642 0.7639 0.7634 0.7629 0.7623
2446.920279 0.7619 0.7617 0.7614 0.7612 0.7609
2450.140154 0.7606 0.7604 0.7601 0.7599 0.7596
2453.360029 0.7594 0.7591 0.7587 0.7582 0.7577
2456.579904 0.7572 0.7570 0.7570 0.7570 0.7570
2459.799779 0.7566 0.7561 0.7556 0.7551 0.7546
2463.019654 0.7541 0.7536 0.7530 0.7528 0.7525
2466.239529 0.7523 0.7520 0.7515 0.7510 0.7505
2469.459404 0.7500 0.7495 0.7490 0.7484 0.7479
2472.679279 0.7474 0.7469 0.7464 0.7459 0.7457
2475.899154 0.7454 0.7452 0.7449 0.7447 0.7444
2479.119029 0.7442 0.7439 0.7436 0.7434 0.7431
2482.338905 0.7430 0.7430 0.7430 0.7430 0.7429
2485.558780 0.7426 0.7423 0.7421 0.7420 0.7420
2488.778655 0.7420 0.7420 0.7418 0.7416 0.7413
2491.998530 0.7411 0.7410 0.7410 0.7410 0.7410
2495.218405 0.7410 0.7410 0.7410 0.7410 0.7408
2498.438280 0.7405 0.7402 0.7400 0.7400 0.7400
2501.658155 0.7400 0.7400 0.7397 0.7395 0.7392
2504.878030 0.7390 0.7390 0.7390 0.7390 0.7389
2508.097905 0.7387 0.7384 0.7382 0.7378 0.7373
2511.317780 0.7368 0.7363 0.7357 0.7349 0.7341
2514.537655 0.7334 0.7327 0.7322 0.7317 0.7312
2517.757530 0.7307 0.7302 0.7297 0.7292 0.7288
2520.977405 0.7286 0.7283 0.7281 0.7276 0.7271
2524.197280 0.7266 0.7261 0.7254 0.7246 0.7238
2527.417155 0.7231 0.7228 0.7225 0.7222 0.7220
2530.637030 0.7215 0.7210 0.7205 0.7199 0.7191
2533.856905 0.7184 0.7176 0.7169 0.7161 0.7153
2537.076780 0.7146 0.7138 0.7130 0.7123 0.7115
2540.296655 0.7107 0.7096 0.7086 0.7076 0.7067
2543.516530 0.7059 0.7052 0.7044 0.7036 0.7029
2546.736406 0.7021 0.7013 0.7009 0.7006 0.7003
2549.956281 0.7001 0.7000 0.7000 0.7000 0.7000
2553.176156 0.7000 0.7000 0.7000 0.7000 0.7000
2556.396031 0.7000 0.7000 0.7000 0.7000 0.7000
2559.615906 0.7000 0.7000 0.7003 0.7005 0.7008
2562.835781 0.7010 0.7013 0.7015 0.7018 0.7022
2566.055656 0.7032 0.7042 0.7052 0.7062 0.7069
2569.275531 0.7077 0.7085 0.7092 0.7097 0.7102
2572.495406 0.7107 0.7111 0.7114 0.7116 0.7119
2575.715281 0.7121 0.7124 0.7126 0.7129 0.7130
2578.935156 0.7130 0.7130 0.7130 0.7130 0.7130
2582.155031 0.7130 0.7130 0.7130 0.7130 0.7130
2585.374906 0.7130 0.7132 0.7135 0.7137 0.7140
2588.594781 0.7140 0.7140 0.7140 0.7140 0.7140
2591.814656 0.7140 0.7140 0.7140 0.7140 0.7140
2595.034531 0.7140 0.7140 0.7140 0.7140 0.7140
2598.254406 0.7140 0.7140 0.7140 0.7140 0.7140
2601.474281 0.7140 0.7140 0.7140 0.7139 0.7137
2604.694156 0.7134 0.7131 0.7130 0.7130 0.7130
2607.914032 0.7130 0.7130 0.7130 0.7130 0.7130
2611.133907 0.7130 0.7130 0.7130 0.7130 0.7128
2614.353782 0.7126 0.7123 0.7121 0.7118 0.7115
2617.573657 0.7113 0.7110 0.7110 0.7110 0.7110
2620.793532 0.7110 0.7110 0.7110 0.7110 0.7110
2624.013407 0.7110 0.7110 0.7110 0.7110 0.7107
2627.233282 0.7105 0.7102 0.7100 0.7100 0.7100
2630.453157 0.7100 0.7099 0.7097 0.7094 0.7092
2633.673032 0.7088 0.7083 0.7078 0.7073 0.7069
2636.892907 0.7066 0.7064 0.7061 0.7057 0.7052
2640.112782 0.7047 0.7042 0.7039 0.7036 0.7033
2643.332657 0.7031 0.7025 0.7017 0.7010 0.7002
2646.552532 0.6996 0.6991 0.6986 0.6981 0.6976
2649.772407 0.6971 0.6966 0.6961 0.6955 0.6950
2652.992282 0.6945 0.6940 0.6937 0.6935 0.6932
2656.212157 0.6930 0.6930 0.6930 0.6930 0.6930
2659.432032 0.6930 0.6930 0.6930 0.6930 0.6930
2662.651907 0.6930 0.6930 0.6930 0.6930 0.6930
2665.871782 0.6930 0.6930 0.6930 0.6930 0.6930
2669.091657 0.6930 0.6930 0.6930 0.6930 0.6931
2672.311533 0.6934 0.6936 0.6939 0.6943 0.6948
2675.531408 0.6953 0.6958 0.6965 0.6973 0.6981
2678.751283 0.6988 0.6998 0.7008 0.7019 0.7029
2681.971158 0.7037 0.7045 0.7052 0.7060 0.7065
2685.191033 0.7070 0.7075 0.7080 0.7085 0.7090
2688.410908 0.7096 0.7101 0.7106 0.7111 0.7116
2691.630783 0.7121 0.7123 0.7126 0.7128 0.7131
2694.850658 0.7137 0.7142 0.7147 0.7150 0.7150
2698.070533 0.7150 0.7150 0.7151 0.7154 0.7156
2701.290408 0.7159 0.7160 0.7160 0.7160 0.7160
2704.510283 0.7163 0.7168 0.7173 0.7179 0.7180
2707.730158 0.7180 0.7180 0.7180 0.7182 0.7185
2710.950033 0.7187 0.7190 0.7190 0.7190 0.7190
2714.169908 0.7190 0.7192 0.7195 0.7198 0.7200
2717.389783 0.7200 0.7200 0.7200 0.7200 0.7200
2720.609658 0.7200 0.7200 0.7200 0.7203 0.7206
2723.829533 0.7208 0.7211 0.7213 0.7216 0.7218
2727.049408 0.7220 0.7220 0.7220 0.7220 0.7220
2730.269283 0.7220 0.7220 0.7220 0.7220 0.7220
2733.489158 0.7220 0.7220 0.7220 0.7220 0.7220
2736.709034 0.7220 0.7218 0.7216 0.7213 0.7211
2739.928909 0.7208 0.7206 0.7203 0.7200 0.7200
2743.148784 0.7200 0.7200 0.7200 0.7198 0.7195
2746.368659 0.7193 0.7190 0.7187 0.7185 0.7182
2749.588534 0.7180 0.7180 0.7180 0.7180 0.7180
2752.808409 0.7180 0.7180 0.7180 0.7179 0.7177
2756.028284 0.7174 0.7172 0.7170 0.7170 0.7170
2759.248159 0.7170 0.7169 0.7166 0.7164 0.7161
2762.468034 0.7160 0.7160 0.7160 0.7160 0.7160
2765.687909 0.7160 0.7160 0.7160 0.7160 0.7160
2768.907784 0.7160 0.7160 0.7160 0.7160 0.7160
2772.127659 0.7160 0.7160 0.7160 0.7160 0.7160
2775.347534 0.7158 0.7155 0.7153 0.7150 0.7150
2778.567409 0.7150 0.7150 0.7150 0.7147 0.7145
2781.787284 0.7142 0.7139 0.7134 0.7129 0.7124
2785.007159 0.7118 0.7107 0.7097 0.7087 0.7076
2788.227034 0.7063 0.7051 0.7038 0.7024 0.7009
2791.446909 0.6994 0.6978 0.6964 0.6951 0.6939
2794.666784 0.6926 0.6913 0.6900 0.6888 0.6875
2797.886659 0.6865 0.6858 0.6850 0.6842 0.6840
2801.106535 0.6840 0.6840 0.6840 0.6840 0.6840
2804.326410 0.6840 0.6840 0.6838 0.6835 0.6833
2807.546285 0.6830 0.6830 0.6830 0.6830 0.6830
2810.766160 0.6825 0.6820 0.6815 0.6810 0.6807
2813.986035 0.6805 0.6802 0.6800 0.6797 0.6794
2817.205910 0.6792 0.6790 0.6790 0.6790 0.6790
2820.425785 0.6784 0.6766 0.6748 0.6730 0.6711
2823.645660 0.6691 0.6671 0.6650 0.6624 0.6590
2826.865535 0.6557 0.6524 0.6465 0.6386 0.6307
2830.085410 0.6228 0.6157 0.6089 0.6022 0.5955
2833.305285 0.5899 0.5845 0.5792 0.5738 0.5691
2836.525160 0.5645 0.5599 0.5553 0.5512 0.5472
2839.745035 0.5431 0.5390 0.5347 0.5303 0.5260
2842.964910 0.5216 0.5171 0.5125 0.5079 0.5032
2846.184785 0.4978 0.4925 0.4871 0.4825 0.4802
2849.404660 0.4779 0.4756 0.4730 0.4697 0.4664
2852.624535 0.4630 0.4610 0.4610 0.4610 0.4610
2855.844410 0.4609 0.4606 0.4604 0.4601 0.4600
2859.064285 0.4600 0.4600 0.4600 0.4602 0.4604
2862.284160 0.4607 0.4609 0.4610 0.4610 0.4610
2865.504036 0.4610 0.4618 0.4628 0.4639 0.4649
2868.723911 0.4655 0.4660 0.4665 0.4670 0.4700
2871.943786 0.4730 0.4761 0.4791 0.4819 0.4847
2875.163661 0.4875 0.4903 0.4931 0.4959 0.4987
2878.383536 0.5010 0.5013 0.5016 0.5018 0.5020
2881.603411 0.5020 0.5020 0.5020 0.5020 0.5020
2884.823286 0.5020 0.5020 0.5014 0.5001 0.4989
2888.043161 0.4976 0.4964 0.4954 0.4944 0.4934
2891.263036 0.4911 0.4880 0.4850 0.4819 0.4785
2894.482911 0.4749 0.4714 0.4678 0.4638 0.4598
2897.702786 0.4557 0.4516 0.4495 0.4477 0.4459
2900.922661 0.4441 0.4419 0.4396 0.4373 0.4350
2904.142536 0.4306 0.4263 0.4220 0.4176 0.4130
2907.362411 0.4083 0.4037 0.3991 0.3945 0.3899
2910.582286 0.3853 0.3806 0.3758 0.3709 0.3661
2913.802161 0.3613 0.3564 0.3516 0.3467 0.3413
2917.022036 0.3352 0.3291 0.3230 0.3193 0.3181
2920.241911 0.3168 0.3155 0.3150 0.3150 0.3150
2923.461786 0.3150 0.3150 0.3150 0.3150 0.3150
2926.681661 0.3169 0.3194 0.3220 0.3245 0.3269
2929.901537 0.3292 0.3315 0.3338 0.3381 0.3428
2933.121412 0.3474 0.3520 0.3523 0.3525 0.3528
2936.341287 0.3532 0.3552 0.3573 0.3593 0.3610
2939.561162 0.3610 0.3610 0.3610 0.3611 0.3613
2942.781037 0.3616 0.3618 0.3620 0.3620 0.3620
2946.000912 0.3620 0.3610 0.3584 0.3559 0.3533
2949.220787 0.3505 0.3475 0.3444 0.3414 0.3399
2952.440662 0.3396 0.3394 0.3391 0.3390 0.3390
2955.660537 0.3390 0.3390 0.3394 0.3399 0.3404
2958.880412 0.3409 0.3435 0.3466 0.3497 0.3527
2962.100287 0.3560 0.3593 0.3626 0.3659 0.3695
2965.320162 0.3731 0.3766 0.3802 0.3835 0.3868
2968.540037 0.3901 0.3935 0.3970 0.4006 0.4042
2971.759912 0.4078 0.4113 0.4149 0.4185 0.4219
2974.979787 0.4249 0.4280 0.4311 0.4351 0.4410
2978.199662 0.4469 0.4527 0.4569 0.4589 0.4610
2981.419537 0.4630 0.4648 0.4663 0.4679 0.4694
2984.639412 0.4707 0.4717 0.4727 0.4737 0.4755
2987.859287 0.4775 0.4795 0.4816 0.4834 0.4852
2991.079163 0.4870 0.4888 0.4903 0.4919 0.4934
2994.299038 0.4949 0.4962 0.4975 0.4988 0.5000
2997.518913 0.5010 0.5021 0.5031 0.5041 0.5051
3000.738788 0.5061 0.5072 0.5081 0.5089 0.5097
3003.958663 0.5104 0.5112 0.5120 0.5127 0.5135
3007.178538 0.5142 0.5147 0.5152 0.5157 0.5162
3010.398413 0.5167 0.5172 0.5178 0.5183 0.5188
3013.618288 0.5193 0.5198 0.5202 0.5204 0.5207
3016.838163 0.5209 0.5212 0.5214 0.5217 0.5219
3020.058038 0.5222 0.5224 0.5227 0.5230 0.5230
3023.277913 0.5230 0.5230 0.5230 0.5232 0.5235
3026.497788 0.5237 0.5240 0.5243 0.5245 0.5248
3029.717663 0.5250 0.5253 0.5255 0.5258 0.5260
3032.937538 0.5263 0.5266 0.5268 0.5271 0.5276
3036.157413 0.5282 0.5287 0.5290 0.5290 0.5290
3039.377288 0.5290 0.5287 0.5279 0.5272 0.5264
3042.597163 0.5256 0.5249 0.5241 0.5233 0.5220
3045.817038 0.5202 0.5184 0.5166 0.5145 0.5122
3049.036913 0.5099 0.5076 0.5041 0.5000 0.4959
3052.256788 0.4918 0.4894 0.4873 0.4853 0.4833
3055.476664 0.4828 0.4825 0.4823 0.4820 0.4822
3058.696539 0.4825 0.4828 0.4831 0.4849 0.4867
3061.916414 0.4885 0.4902 0.4918 0.4933 0.4948
3065.136289 0.4963 0.4979 0.4994 0.5009 0.5025
3068.356164 0.5043 0.5061 0.5079 0.5096 0.5111
3071.576039 0.5126 0.5142 0.5158 0.5176 0.5194
3074.795914 0.5212 0.5228 0.5243 0.5259 0.5274
3078.015789 0.5286 0.5296 0.5307 0.5317 0.5322
3081.235664 0.5324 0.5327 0.5329 0.5350 0.5375
3084.455539 0.5401 0.5427 0.5453 0.5478 0.5504
3087.675414 0.5529 0.5554 0.5580 0.5605 0.5630
3090.895289 0.5638 0.5646 0.5653 0.5661 0.5666
3094.115164 0.5671 0.5676 0.5680 0.5683 0.5686
3097.335039 0.5688 0.5690 0.5690 0.5690 0.5690
3100.554914 0.5692 0.5697 0.5702 0.5707 0.5711
3103.774789 0.5714 0.5716 0.5719 0.5724 0.5731
3106.994664 0.5739 0.5747 0.5753 0.5758 0.5763
3110.214539 0.5768 0.5775 0.5783 0.5791 0.5798
3113.434414 0.5808 0.5818 0.5828 0.5838 0.5846
3116.654289 0.5854 0.5862 0.5869 0.5879 0.5890
3119.874165 0.5900 0.5910 0.5918 0.5925 0.5933
3123.094040 0.5940 0.5945 0.5951 0.5956 0.5961
3126.313915 0.5966 0.5971 0.5976 0.5981 0.5986
3129.533790 0.5991 0.5996 0.5999 0.5997 0.5994
3132.753665 0.5992 0.5992 0.5997 0.6002 0.6007
3135.973540 0.6013 0.6018 0.6023 0.6028 0.6030
3139.193415 0.6030 0.6030 0.6030 0.6033 0.6038
3142.413290 0.6044 0.6049 0.6050 0.6050 0.6050
3145.633165 0.6050 0.6050 0.6050 0.6050 0.6050
3148.853040 0.6052 0.6055 0.6057 0.6060 0.6060
3152.072915 0.6060 0.6060 0.6060 0.6060 0.6060
3155.292790 0.6060 0.6060 0.6063 0.6065 0.6068
3158.512665 0.6070 0.6073 0.6076 0.6078 0.6080
3161.732540 0.6080 0.6080 0.6080 0.6081 0.6084
3164.952415 0.6086 0.6089 0.6091 0.6094 0.6096
3168.172290 0.6099 0.6101 0.6104 0.6106 0.6109
3171.392165 0.6112 0.6114 0.6117 0.6119 0.6120
3174.612040 0.6120 0.6120 0.6120 0.6122 0.6125
3177.831915 0.6127 0.6130 0.6132 0.6135 0.6137
3181.051790 0.6140 0.6140 0.6140 0.6140 0.6140
3184.271666 0.6140 0.6140 0.6140 0.6140 0.6143
3187.491541 0.6145 0.6148 0.6151 0.6153 0.6156
3190.711416 0.6158 0.6161 0.6163 0.6166 0.6168
3193.931291 0.6172 0.6177 0.6182 0.6187 0.6193
3197.151166 0.6201 0.6209 0.6216 0.6223 0.6228
3200.371041 0.6233 0.6238 0.6243 0.6248 0.6253
3203.590916 0.6258 0.6262 0.6264 0.6267 0.6269
3206.810791 0.6272 0.6274 0.6277 0.6280 0.6282
3210.030666 0.6285 0.6287 0.6290 0.6290 0.6290
3213.250541 0.6290 0.6290 0.6293 0.6295 0.6298
3216.470416 0.6300 0.6300 0.6300 0.6300 0.6300
3219.690291 0.6303 0.6306 0.6308 0.6311 0.6316
3222.910166 0.6321 0.6327 0.6330 0.6330 0.6330
3226.130041 0.6330 0.6331 0.6334 0.6336 0.6339
3229.349916 0.6340 0.6340 0.6340 0.6340 0.6341
3232.569791 0.6344 0.6346 0.6349 0.6350 0.6350
3235.789666 0.6350 0.6350 0.6350 0.6350 0.6350
3239.009541 0.6350 0.6352 0.6355 0.6357 0.6360
3242.229416 0.6362 0.6365 0.6367 0.6370 0.6370
3245.449291 0.6370 0.6370 0.6370 0.6370 0.6370
3248.669167 0.6370 0.6370 0.6373 0.6375 0.6378
3251.889042 0.6380 0.6380 0.6380 0.6380 0.6381
3255.108917 0.6383 0.6386 0.6388 0.6390 0.6390
3258.328792 0.6390 0.6390 0.6391 0.6394 0.6396
3261.548667 0.6399 0.6400 0.6400 0.6400 0.6400
3264.768542 0.6402 0.6404 0.6407 0.6409 0.6410
3267.988417 0.6410 0.6410 0.6410 0.6412 0.6415
3271.208292 0.6417 0.6420 0.6420 0.6420 0.6420
3274.428167 0.6420 0.6420 0.6420 0.6420 0.6420
3277.648042 0.6420 0.6420 0.6420 0.6420 0.6420
3280.867917 0.6420 0.6420 0.6420 0.6420 0.6420
3284.087792 0.6420 0.6420 0.6420 0.6420 0.6420
3287.307667 0.6419 0.6416 0.6414 0.6411 0.6409
3290.527542 0.6406 0.6404 0.6401 0.6400 0.6400
3293.747417 0.6400 0.6400 0.6400 0.6400 0.6400
3296.967292 0.6400 0.6397 0.6391 0.6386 0.6381
3300.187167 0.6380 0.6380 0.6380 0.6380 0.6378
3303.407042 0.6375 0.6373 0.6370 0.6370 0.6370
3306.626917 0.6370 0.6370 0.6367 0.6365 0.6362
3309.846793 0.6360 0.6357 0.6355 0.6352 0.6350
3313.066668 0.6350 0.6350 0.6350 0.6350 0.6350
3316.286543 0.6350 0.6350 0.6350 0.6350 0.6350
3319.506418 0.6350 0.6351 0.6354 0.6356 0.6359
3322.726293 0.6360 0.6360 0.6360 0.6360 0.6360
3325.946168 0.6360 0.6360 0.6360 0.6362 0.6364
3329.166043 0.6367 0.6369 0.6370 0.6370 0.6370
3332.385918 0.6370 0.6370 0.6370 0.6370 0.6370
3335.605793 0.6370 0.6370 0.6370 0.6370 0.6370
3338.825668 0.6370 0.6370 0.6370 0.6370 0.6370
3342.045543 0.6370 0.6370 0.6373 0.6375 0.6378
3345.265418 0.6380 0.6380 0.6380 0.6380 0.6380
3348.485293 0.6380 0.6380 0.6380 0.6380 0.6380
3351.705168 0.6380 0.6380 0.6380 0.6380 0.6380
3354.925043 0.6380 0.6380 0.6380 0.6380 0.6380
3358.144918 0.6382 0.6384 0.6387 0.6389 0.6390
3361.364793 0.6390 0.6390 0.6390 0.6392 0.6395
3364.584668 0.6397 0.6400 0.6400 0.6400 0.6400
3367.804543 0.6400 0.6402 0.6405 0.6408 0.6410
3371.024418 0.6410 0.6410 0.6410 0.6410 0.6410
3374.244294 0.6410 0.6410 0.6410 0.6413 0.6416
3377.464169 0.6418 0.6419 0.6417 0.6414 0.6412
3380.684044 0.6410 0.6410 0.6410 0.6410 0.6410
3383.903919 0.6410 0.6410 0.6410 0.6409 0.6406
3387.123794 0.6404 0.6401 0.6400 0.6400 0.6400
3390.343669 0.6400 0.6400 0.6400 0.6400 0.6400
3393.563544 0.6398 0.6395 0.6393 0.6390 0.6388
3396.783419 0.6385 0.6383 0.6380 0.6375 0.6370
3400.003294 0.6365 0.6360 0.6352 0.6345 0.6337
3403.223169 0.6329 0.6319 0.6309 0.6299 0.6288
3406.443044 0.6278 0.6268 0.6258 0.6247 0.6234
3409.662919 0.6222 0.6209 0.6198 0.6190 0.6182
3412.882794 0.6174 0.6168 0.6163 0.6158 0.6153
3416.102669 0.6150 0.6150 0.6150 0.6150 0.6151
3419.322544 0.6154 0.6157 0.6159 0.6163 0.6168
3422.542419 0.6174 0.6179 0.6189 0.6202 0.6215
3425.762294 0.6228 0.6247 0.6267 0.6287 0.6308
3428.982169 0.6321 0.6334 0.6347 0.6360 0.6365
3432.202044 0.6370 0.6375 0.6380 0.6383 0.6385
3435.421919 0.6388 0.6391 0.6399 0.6406 0.6414
3438.641795 0.6420 0.6420 0.6420 0.6420 0.6422
3441.861670 0.6427 0.6432 0.6437 0.6438 0.6433
3445.081545 0.6428 0.6423 0.6420 0.6420 0.6420
3448.301420 0.6420 0.6417 0.6412 0.6407 0.6402
3451.521295 0.6400 0.6400 0.6400 0.6400 0.6396
3454.741170 0.6391 0.6386 0.6381 0.6378 0.6375
3457.961045 0.6373 0.6370 0.6361 0.6351 0.6341
3461.180920 0.6331 0.6320 0.6310 0.6300 0.6289
3464.400795 0.6277 0.6264 0.6251 0.6239 0.6234
3467.620670 0.6229 0.6224 0.6219 0.6217 0.6214
3470.840545 0.6212 0.6210 0.6210 0.6210 0.6210
3474.060420 0.6210 0.6210 0.6210 0.6210 0.6213
3477.280295 0.6221 0.6229 0.6236 0.6243 0.6248
3480.500170 0.6253 0.6258 0.6263 0.6268 0.6273
3483.720045 0.6278 0.6288 0.6301 0.6314 0.6327
3486.939920 0.6334 0.6339 0.6344 0.6349 0.6354
3490.159795 0.6360 0.6365 0.6370 0.6370 0.6370
3493.379670 0.6370 0.6370 0.6373 0.6375 0.6378
3496.599545 0.6380 0.6380 0.6380 0.6380 0.6380
3499.819420 0.6380 0.6380 0.6380 0.6380 0.6380
3503.039296 0.6380 0.6380 0.6380 0.6380 0.6380
3506.259171 0.6380 0.6380 0.6380 0.6380 0.6380
3509.479046 0.6380 0.6380 0.6380 0.6380 0.6379
3512.698921 0.6376 0.6373 0.6371 0.6370 0.6370
3515.918796 0.6370 0.6370 0.6368 0.6366 0.6363
3519.138671 0.6360 0.6360 0.6360 0.6360 0.6360
3522.358546 0.6358 0.6355 0.6353 0.6350 0.6348
3525.578421 0.6345 0.6342 0.6340 0.6337 0.6335
3528.798296 0.6332 0.6330 0.6327 0.6325 0.6322
3532.018171 0.6317 0.6305 0.6292 0.6279 0.6265
3535.238046 0.6247 0.6229 0.6211 0.6195 0.6182
3538.457921 0.6170 0.6157 0.6149 0.6146 0.6144
3541.677796 0.6141 0.6139 0.6136 0.6133 0.6131
3544.897671 0.6132 0.6134 0.6137 0.6139 0.6140
3548.117546 0.6140 0.6140 0.6140 0.6152 0.6167
3551.337421 0.6183 0.6198 0.6220 0.6243 0.6266
3554.557296 0.6289 0.6302 0.6315 0.6328 0.6340
3557.777171 0.6343 0.6345 0.6348 0.6350 0.6353
3560.997046 0.6355 0.6358 0.6360 0.6363 0.6366
3564.216921 0.6368 0.6370 0.6370 0.6370 0.6370
3567.436797 0.6370 0.6370 0.6370 0.6370 0.6371
3570.656672 0.6374 0.6376 0.6379 0.6380 0.6380
3573.876547 0.6380 0.6380 0.6380 0.6380 0.6380
3577.096422 0.6380 0.6380 0.6380 0.6380 0.6380
3580.316297 0.6382 0.6384 0.6387 0.6390 0.6392
3583.536172 0.6395 0.6397 0.6400 0.6398 0.6395
3586.756047 0.6393 0.6390 0.6390 0.6390 0.6390
3589.975922 0.6390 0.6390 0.6390 0.6390 0.6390
3593.195797 0.6390 0.6390 0.6390 0.6389 0.6387
3596.415672 0.6384 0.6382 0.6380 0.6380 0.6380
3599.635547 0.6380 0.6380 0.6380 0.6380 0.6380
3602.855422 0.6379 0.6376 0.6374 0.6371 0.6370
3606.075297 0.6370 0.6370 0.6370 0.6370 0.6370
3609.295172 0.6370 0.6370 0.6370 0.6370 0.6370
3612.515047 0.6370 0.6368 0.6365 0.6363 0.6360
3615.734922 0.6358 0.6355 0.6353 0.6350 0.6350
3618.954797 0.6350 0.6350 0.6350 0.6347 0.6345
3622.174672 0.6342 0.6340 0.6337 0.6335 0.6332
3625.394547 0.6330 0.6330 0.6330 0.6330 0.6329
3628.614423 0.6327 0.6324 0.6322 0.6320 0.6320
3631.834298 0.6320 0.6320 0.6320 0.6320 0.6320
3635.054173 0.6320 0.6319 0.6316 0.6314 0.6311
3638.274048 0.6310 0.6310 0.6310 0.6310 0.6308
3641.493923 0.6306 0.6303 0.6300 0.6300 0.6300
3644.713798 0.6300 0.6300 0.6300 0.6300 0.6300
3647.933673 0.6300 0.6298 0.6295 0.6292 0.6290
3651.153548 0.6290 0.6290 0.6290 0.6290 0.6287
3654.373423 0.6285 0.6282 0.6280 0.6280 0.6280
3657.593298 0.6280 0.6280 0.6280 0.6280 0.6280
3660.813173 0.6280 0.6280 0.6280 0.6280 0.6280
3664.033048 0.6280 0.6280 0.6280 0.6279 0.6276
3667.252923 0.6274 0.6271 0.6268 0.6266 0.6263
3670.472798 0.6261 0.6260 0.6260 0.6260 0.6260
3673.692673 0.6258 0.6255 0.6253 0.6250 0.6250
3676.912548 0.6250 0.6250 0.6250 0.6248 0.6245
3680.132423 0.6243 0.6240 0.6240 0.6240 0.6240
3683.352298 0.6240 0.6240 0.6240 0.6240 0.6240
3686.572173 0.6240 0.6240 0.6240 0.6239 0.6237
3689.792048 0.6234 0.6232 0.6230 0.6230 0.6230
3693.011924 0.6230 0.6230 0.6230 0.6230 0.6230
3696.231799 0.6229 0.6226 0.6224 0.6221 0.6219
3699.451674 0.6216 0.6213 0.6211 0.6210 0.6210
3702.671549 0.6210 0.6210 0.6210 0.6210 0.6210
3705.891424 0.6210 0.6206 0.6201 0.6196 0.6191
3709.111299 0.6190 0.6190 0.6190 0.6190 0.6190
3712.331174 0.6190 0.6190 0.6190 0.6190 0.6190
3715.551049 0.6190 0.6190 0.6190 0.6190 0.6190
3718.770924 0.6189 0.6187 0.6184 0.6182 0.6180
3721.990799 0.6180 0.6180 0.6180 0.6180 0.6180
3725.210674 0.6180 0.6180 0.6180 0.6180 0.6180
3728.430549 0.6180 0.6180 0.6180 0.6180 0.6180
3731.650424 0.6180 0.6180 0.6180 0.6180 0.6180
3734.870299 0.6180 0.6180 0.6180 0.6180 0.6180
3738.090174 0.6180 0.6180 0.6180 0.6180 0.6180
3741.310049 0.6180 0.6182 0.6185 0.6188 0.6190
3744.529924 0.6190 0.6190 0.6190 0.6190 0.6190
3747.749799 0.6190 0.6190 0.6189 0.6187 0.6184
3750.969674 0.6182 0.6179 0.6177 0.6174 0.6172
3754.189549 0.6170 0.6170 0.6170 0.6170 0.6170
3757.409425 0.6170 0.6170 0.6170 0.6170 0.6170
3760.629300 0.6170 0.6170 0.6170 0.6170 0.6170
3763.849175 0.6170 0.6168 0.6166 0.6163 0.6161
3767.069050 0.6160 0.6160 0.6160 0.6160 0.6158
3770.288925 0.6155 0.6153 0.6150 0.6150 0.6150
3773.508800 0.6150 0.6150 0.6150 0.6150 0.6150
3776.728675 0.6150 0.6150 0.6150 0.6150 0.6150
3779.948550 0.6147 0.6144 0.6142 0.6140 0.6140
3783.168425 0.6140 0.6140 0.6140 0.6140 0.6140
3786.388300 0.6140 0.6139 0.6136 0.6134 0.6131
3789.608175 0.6130 0.6130 0.6130 0.6130 0.6128
3792.828050 0.6126 0.6123 0.6121 0.6120 0.6120
3796.047925 0.6120 0.6120 0.6120 0.6120 0.6120
3799.267800 0.6120 0.6118 0.6115 0.6113 0.6110
3802.487675 0.6110 0.6110 0.6110 0.6110 0.6108
3805.707550 0.6105 0.6102 0.6100 0.6100 0.6100
3808.927425 0.6100 0.6100 0.6100 0.6100 0.6100
3812.147300 0.6100 0.6100 0.6100 0.6100 0.6099
3815.367175 0.6097 0.6094 0.6092 0.6090 0.6090
3818.587050 0.6090 0.6090 0.6089 0.6086 0.6084
3821.806926 0.6081 0.6080 0.6080 0.6080 0.6080
3825.026801 0.6080 0.6080 0.6080 0.6080 0.6080
3828.246676 0.6080 0.6080 0.6080 0.6078 0.6075
3831.466551 0.6073 0.6070 0.6070 0.6070 0.6070
3834.686426 0.6070 0.6068 0.6065 0.6063 0.6060
3837.906301 0.6057 0.6055 0.6052 0.6050 0.6050
3841.126176 0.6050 0.6050 0.6050 0.6050 0.6050
3844.346051 0.6050 0.6050 0.6050 0.6050 0.6050
3847.565926 0.6050 0.6050 0.6050 0.6050 0.6049
3850.785801 0.6046 0.6044 0.6041 0.6040 0.6040
3854.005676 0.6040 0.6040 0.6038 0.6036 0.6033
3857.225551 0.6031 0.6030 0.6030 0.6030 0.6030
3860.445426 0.6030 0.6030 0.6030 0.6030 0.6030
3863.665301 0.6030 0.6030 0.6030 0.6030 0.6030
3866.885176 0.6030 0.6030 0.6027 0.6025 0.6022
3870.105051 0.6020 0.6020 0.6020 0.6020 0.6020
3873.324926 0.6017 0.6014 0.6012 0.6010 0.6010
3876.544801 0.6010 0.6010 0.6010 0.6010 0.6010
3879.764676 0.6010 0.6010 0.6010 0.6010 0.6010
3882.984551 0.6009 0.6006 0.6004 0.6001 0.6000
3886.204427 0.6000 0.6000 0.6000 0.6000 0.6000
3889.424302 0.6000 0.6000 0.6000 0.6000 0.6000
3892.644177 0.6000 0.6000 0.6000 0.6000 0.6000
3895.864052 0.5998 0.5995 0.5993 0.5990 0.5990
3899.083927 0.5990 0.5990 0.5990 0.5987 0.5985
3902.303802 0.5982 0.5980 0.5980 0.5980 0.5980
3905.523677 0.5980 0.5980 0.5980 0.5980 0.5979
3908.743552 0.5977 0.5974 0.5972 0.5970 0.5970
3911.963427 0.5970 0.5970 0.5970 0.5970 0.5970
3915.183302 0.5970 0.5970 0.5970 0.5970 0.5970
3918.403177 0.5968 0.5966 0.5963 0.5961 0.5960
3921.623052 0.5960 0.5960 0.5960 0.5960 0.5960
3924.842927 0.5960 0.5960 0.5960 0.5960 0.5960
3928.062802 0.5960 0.5960 0.5960 0.5960 0.5960
3931.282677 0.5960 0.5960 0.5960 0.5960 0.5960
3934.502552 0.5960 0.5960 0.5960 0.5957 0.5954
3937.722427 0.5952 0.5950 0.5950 0.5950 0.5950
3940.942302 0.5950 0.5950 0.5950 0.5950 0.5949
3944.162177 0.5946 0.5944 0.5941 0.5940 0.5940
3947.382053 0.5940 0.5940 0.5940 0.5940 0.5940
3950.601928 0.5940 0.5940 0.5940 0.5940 0.5940
3953.821803 0.5938 0.5935 0.5933 0.5930 0.5930
3957.041678 0.5930 0.5930 0.5930 0.5928 0.5925
3960.261553 0.5923 0.5920 0.5920 0.5920 0.5920
3963.481428 0.5920 0.5920 0.5920 0.5920 0.5920
3966.701303 0.5920 0.5920 0.5920 0.5920 0.5920
3969.921178 0.5920 0.5920 0.5919 0.5917 0.5914
3973.141053 0.5911 0.5910 0.5910 0.5910 0.5910
3976.360928 0.5910 0.5910 0.5910 0.5910 0.5910
3979.580803 0.5910 0.5910 0.5910 0.5910 0.5910
3982.800678 0.5910 0.5910 0.5910 0.5910 0.5910
3986.020553 0.5910 0.5908 0.5905 0.5903 0.5900
3989.240428 0.5902 0.5905 0.5907 0.5910 0.5908
3992.460303 0.5905 0.5902
##END=
