##TITLE=BENZOCAINE
##JCAMP-DX=4.24
$$ By DXEDIT 1.05 (RS McDonald)
##DATA TYPE=INFRARED SPECTRUM
##CLASS=COBLENTZ III
##OWNER=COPYRIGHT (C) 1988 by COBLENTZ SOCIETY INC.
Collection (C) 2018 copyright by the U.S. Secretary of Commerce
on behalf of the United States of America. All rights reserved.
##DATE=1964/05/19
##NAMES=ethyl 4-aminobenzoate
ETHYL AMINOBENZOATE
##CAS REGISTRY NO=94-09-7
##MOLFORM=C9 H11 N O2
##MP=88-90 C
##SOURCE REFERENCE=COBLENTZ NO. 5151
##$NIST SOURCE=COBLENTZ
##$NIST IMAGE=cob5151
##SPECTROMETER/DATA SYSTEM=PERKIN-ELMER 21 (GRATING)
##INSTRUMENT PARAMETERS=FILTER AT ABOUT 10 MICRONS
##STATE=SOLID (1.14 mg / 200 mg KBr DISC)
##PATH LENGTH=0.05 CM (THICKNESS)
$$ SPECTRAL FEATURE AT 999 CM^-^1 IS AN ARTIFACT CAUSED BY FILTER CHANGE
$$ INTERFERENCE FRINGES OVERLAP THE SPECTRA BETWEEN 675-820 CM^-^1
##SAMPLING PROCEDURE=TRANSMISSION
##RESOLUTION=2
##DATA PROCESSING=DIGITIZED BY COBLENTZ SOCIETY (BATCH I) FROM HARD COPY
##XUNITS=1/CM
##YUNITS=TRANSMITTANCE
##XFACTOR=1
##YFACTOR=1
##DELTAX=1
##FIRSTX=4000
##LASTX=673
##FIRSTY=0.9376
##MAXX=4000
##MINX=673
##MAXY=0.9665
##MINY=0.2459
##NPOINTS=3328
##XYDATA=(X++(Y..Y))
4000.000000 0.9376 0.9375 0.9375 0.9374 0.9375
3995.000000 0.9375 0.9374 0.9374 0.9374 0.9374
3990.000000 0.9373 0.9374 0.9374 0.9374 0.9373
3985.000000 0.9373 0.9373 0.9373 0.9374 0.9373
3980.000000 0.9373 0.9372 0.9373 0.9373 0.9372
3975.000000 0.9372 0.9373 0.9373 0.9373 0.9372
3970.000000 0.9371 0.9372 0.9372 0.9372 0.9371
3965.000000 0.9371 0.9372 0.9372 0.9371 0.9370
3960.000000 0.9372 0.9372 0.9371 0.9370 0.9370
3955.000000 0.9371 0.9370 0.9370 0.9369 0.9371
3950.000000 0.9371 0.9370 0.9370 0.9369 0.9370
3945.000000 0.9369 0.9371 0.9371 0.9370 0.9370
3940.000000 0.9370 0.9370 0.9371 0.9371 0.9371
3935.000000 0.9371 0.9371 0.9371 0.9372 0.9372
3930.000000 0.9372 0.9372 0.9372 0.9372 0.9373
3925.000000 0.9373 0.9373 0.9373 0.9373 0.9374
3920.000000 0.9375 0.9375 0.9375 0.9375 0.9375
3915.000000 0.9374 0.9377 0.9376 0.9376 0.9377
3910.000000 0.9377 0.9376 0.9378 0.9378 0.9378
3905.000000 0.9379 0.9378 0.9378 0.9380 0.9380
3900.000000 0.9379 0.9379 0.9380 0.9379 0.9381
3895.000000 0.9381 0.9382 0.9382 0.9382 0.9383
3890.000000 0.9383 0.9383 0.9384 0.9384 0.9384
3885.000000 0.9385 0.9385 0.9385 0.9385 0.9386
3880.000000 0.9387 0.9387 0.9387 0.9386 0.9387
3875.000000 0.9388 0.9389 0.9389 0.9389 0.9388
3870.000000 0.9389 0.9389 0.9388 0.9388 0.9390
3865.000000 0.9390 0.9389 0.9391 0.9390 0.9391
3860.000000 0.9392 0.9391 0.9393 0.9393 0.9392
3855.000000 0.9393 0.9394 0.9393 0.9395 0.9395
3850.000000 0.9396 0.9396 0.9396 0.9397 0.9397
3845.000000 0.9397 0.9398 0.9398 0.9398 0.9399
3840.000000 0.9399 0.9399 0.9400 0.9400 0.9401
3835.000000 0.9401 0.9400 0.9401 0.9401 0.9403
3830.000000 0.9403 0.9403 0.9402 0.9403 0.9402
3825.000000 0.9403 0.9402 0.9401 0.9401 0.9402
3820.000000 0.9401 0.9401 0.9400 0.9399 0.9400
3815.000000 0.9399 0.9400 0.9399 0.9398 0.9397
3810.000000 0.9397 0.9398 0.9397 0.9396 0.9396
3805.000000 0.9398 0.9397 0.9397 0.9396 0.9395
3800.000000 0.9394 0.9394 0.9393 0.9394 0.9393
3795.000000 0.9394 0.9393 0.9394 0.9394 0.9394
3790.000000 0.9394 0.9394 0.9393 0.9393 0.9393
3785.000000 0.9394 0.9393 0.9393 0.9393 0.9393
3780.000000 0.9392 0.9392 0.9392 0.9392 0.9393
3775.000000 0.9394 0.9395 0.9396 0.9398 0.9399
3770.000000 0.9400 0.9402 0.9403 0.9406 0.9407
3765.000000 0.9409 0.9410 0.9413 0.9413 0.9417
3760.000000 0.9418 0.9419 0.9422 0.9423 0.9424
3755.000000 0.9427 0.9428 0.9429 0.9431 0.9433
3750.000000 0.9435 0.9436 0.9439 0.9439 0.9441
3745.000000 0.9442 0.9442 0.9445 0.9444 0.9444
3740.000000 0.9443 0.9444 0.9444 0.9443 0.9442
3735.000000 0.9442 0.9444 0.9443 0.9444 0.9444
3730.000000 0.9443 0.9443 0.9443 0.9443 0.9442
3725.000000 0.9443 0.9443 0.9443 0.9443 0.9443
3720.000000 0.9443 0.9443 0.9443 0.9442 0.9443
3715.000000 0.9443 0.9443 0.9443 0.9442 0.9442
3710.000000 0.9442 0.9442 0.9442 0.9443 0.9442
3705.000000 0.9441 0.9442 0.9442 0.9442 0.9442
3700.000000 0.9443 0.9442 0.9444 0.9444 0.9443
3695.000000 0.9445 0.9445 0.9444 0.9445 0.9446
3690.000000 0.9446 0.9447 0.9447 0.9448 0.9448
3685.000000 0.9447 0.9448 0.9449 0.9448 0.9450
3680.000000 0.9450 0.9450 0.9452 0.9452 0.9452
3675.000000 0.9452 0.9453 0.9453 0.9453 0.9455
3670.000000 0.9455 0.9455 0.9455 0.9455 0.9455
3665.000000 0.9455 0.9455 0.9457 0.9457 0.9458
3660.000000 0.9458 0.9458 0.9459 0.9459 0.9458
3655.000000 0.9459 0.9461 0.9463 0.9465 0.9469
3650.000000 0.9469 0.9472 0.9475 0.9477 0.9479
3645.000000 0.9482 0.9484 0.9486 0.9488 0.9491
3640.000000 0.9494 0.9496 0.9497 0.9499 0.9501
3635.000000 0.9501 0.9503 0.9506 0.9506 0.9509
3630.000000 0.9510 0.9512 0.9513 0.9515 0.9516
3625.000000 0.9518 0.9519 0.9520 0.9521 0.9522
3620.000000 0.9525 0.9526 0.9527 0.9529 0.9529
3615.000000 0.9532 0.9534 0.9534 0.9535 0.9537
3610.000000 0.9539 0.9540 0.9542 0.9544 0.9546
3605.000000 0.9548 0.9549 0.9551 0.9552 0.9555
3600.000000 0.9556 0.9558 0.9559 0.9561 0.9563
3595.000000 0.9563 0.9565 0.9564 0.9566 0.9567
3590.000000 0.9568 0.9570 0.9570 0.9570 0.9571
3585.000000 0.9574 0.9574 0.9575 0.9576 0.9577
3580.000000 0.9577 0.9578 0.9580 0.9581 0.9581
3575.000000 0.9582 0.9583 0.9583 0.9585 0.9586
3570.000000 0.9586 0.9586 0.9586 0.9587 0.9587
3565.000000 0.9586 0.9586 0.9587 0.9588 0.9587
3560.000000 0.9586 0.9587 0.9587 0.9586 0.9586
3555.000000 0.9587 0.9586 0.9586 0.9587 0.9587
3550.000000 0.9586 0.9585 0.9584 0.9583 0.9583
3545.000000 0.9582 0.9584 0.9583 0.9582 0.9583
3540.000000 0.9582 0.9581 0.9581 0.9580 0.9580
3535.000000 0.9579 0.9578 0.9578 0.9577 0.9577
3530.000000 0.9576 0.9575 0.9575 0.9574 0.9574
3525.000000 0.9573 0.9572 0.9571 0.9570 0.9570
3520.000000 0.9569 0.9568 0.9567 0.9566 0.9566
3515.000000 0.9565 0.9564 0.9563 0.9562 0.9561
3510.000000 0.9560 0.9560 0.9559 0.9558 0.9555
3505.000000 0.9554 0.9553 0.9551 0.9550 0.9548
3500.000000 0.9545 0.9543 0.9541 0.9537 0.9534
3495.000000 0.9532 0.9527 0.9525 0.9521 0.9517
3490.000000 0.9515 0.9511 0.9509 0.9505 0.9501
3485.000000 0.9496 0.9492 0.9486 0.9482 0.9477
3480.000000 0.9472 0.9465 0.9461 0.9456 0.9445
3475.000000 0.9437 0.9427 0.9419 0.9408 0.9396
3470.000000 0.9384 0.9371 0.9359 0.9327 0.9266
3465.000000 0.9205 0.9144 0.9085 0.9013 0.8934
3460.000000 0.8855 0.8777 0.8698 0.8618 0.8538
3455.000000 0.8458 0.8378 0.8298 0.8217 0.8136
3450.000000 0.8057 0.7976 0.7897 0.7815 0.7735
3445.000000 0.7655 0.7574 0.7493 0.7413 0.7333
3440.000000 0.7252 0.7171 0.7091 0.7010 0.6929
3435.000000 0.6222 0.6769 0.6687 0.6607 0.6526
3430.000000 0.6446 0.6381 0.6347 0.6313 0.6279
3425.000000 0.6244 0.6246 0.6266 0.6285 0.6304
3420.000000 0.6325 0.6360 0.6397 0.6433 0.6470
3415.000000 0.6507 0.6543 0.6580 0.6618 0.6654
3410.000000 0.6691 0.6727 0.6765 0.6801 0.6838
3405.000000 0.6876 0.6912 0.6949 0.6986 0.7023
3400.000000 0.7060 0.7097 0.7134 0.7171 0.7208
3395.000000 0.7244 0.7282 0.7320 0.7356 0.7393
3390.000000 0.7431 0.7467 0.7504 0.7531 0.7546
3385.000000 0.7561 0.7576 0.7614 0.7578 0.7563
3380.000000 0.7549 0.7534 0.7488 0.7388 0.7290
3375.000000 0.7192 0.7093 0.6995 0.6896 0.6798
3370.000000 0.6700 0.6601 0.6502 0.6404 0.6305
3365.000000 0.6206 0.6107 0.6008 0.5910 0.5811
3360.000000 0.5717 0.5640 0.5563 0.5485 0.5333
3355.000000 0.5383 0.5378 0.5375 0.5370 0.5370
3350.000000 0.5369 0.5371 0.5373 0.5375 0.5397
3345.000000 0.5427 0.5455 0.5486 0.5516 0.5546
3340.000000 0.5575 0.5605 0.5635 0.5665 0.5695
3335.000000 0.5724 0.5754 0.5784 0.5814 0.5844
3330.000000 0.5874 0.5904 0.5935 0.5965 0.5995
3325.000000 0.6025 0.6055 0.6085 0.6115 0.6145
3320.000000 0.6175 0.6205 0.6236 0.6266 0.6294
3315.000000 0.6325 0.6356 0.6386 0.6416 0.6446
3310.000000 0.6477 0.6507 0.6536 0.6567 0.6597
3305.000000 0.6628 0.6658 0.6688 0.6718 0.6748
3300.000000 0.6779 0.6809 0.6840 0.6869 0.6900
3295.000000 0.6930 0.6961 0.6991 0.7021 0.7052
3290.000000 0.7083 0.7113 0.7143 0.7174 0.7203
3285.000000 0.7233 0.7259 0.7284 0.7309 0.7350
3280.000000 0.7340 0.7343 0.7344 0.7346 0.7348
3275.000000 0.7349 0.7351 0.7352 0.7351 0.7345
3270.000000 0.7338 0.7332 0.7327 0.7306 0.7284
3265.000000 0.7264 0.7242 0.7222 0.7200 0.7179
3260.000000 0.7157 0.7136 0.7115 0.7094 0.7073
3255.000000 0.7051 0.7031 0.7009 0.6987 0.6966
3250.000000 0.6945 0.6924 0.6903 0.6881 0.6860
3245.000000 0.6839 0.6818 0.6796 0.6775 0.6753
3240.000000 0.6732 0.6711 0.6690 0.6668 0.6647
3235.000000 0.6624 0.6605 0.6591 0.6578 0.6564
3230.000000 0.6551 0.6549 0.6548 0.6548 0.6548
3225.000000 0.6548 0.6550 0.6553 0.6556 0.6571
3220.000000 0.6593 0.6614 0.6637 0.6662 0.6692
3215.000000 0.6723 0.6753 0.6783 0.6813 0.6844
3210.000000 0.6874 0.6904 0.6934 0.6964 0.6995
3205.000000 0.7024 0.7055 0.7085 0.7116 0.7146
3200.000000 0.7176 0.7207 0.7237 0.7267 0.7299
3195.000000 0.7329 0.7359 0.7390 0.7420 0.7450
3190.000000 0.7481 0.7511 0.7528 0.7542 0.7554
3185.000000 0.7568 0.7579 0.7590 0.7601 0.7611
3180.000000 0.7622 0.7633 0.7643 0.7654 0.7665
3175.000000 0.7675 0.7686 0.7696 0.7707 0.7717
3170.000000 0.7726 0.7736 0.7745 0.7755 0.7763
3165.000000 0.7773 0.7782 0.7792 0.7800 0.7811
3160.000000 0.7820 0.7830 0.7838 0.7848 0.7858
3155.000000 0.7867 0.7877 0.7885 0.7893 0.7902
3150.000000 0.7909 0.7917 0.7924 0.7931 0.7938
3145.000000 0.7944 0.7951 0.7957 0.7964 0.7970
3140.000000 0.7978 0.7984 0.7989 0.7998 0.8004
3135.000000 0.8011 0.8017 0.8023 0.8031 0.8037
3130.000000 0.8044 0.8051 0.8057 0.8064 0.8070
3125.000000 0.8077 0.8084 0.8089 0.8096 0.8103
3120.000000 0.8109 0.8116 0.8121 0.8126 0.8133
3115.000000 0.8138 0.8145 0.8152 0.8157 0.8163
3110.000000 0.8170 0.8176 0.8180 0.8188 0.8194
3105.000000 0.8199 0.8206 0.8212 0.8218 0.8225
3100.000000 0.8231 0.8237 0.8244 0.8250 0.8255
3095.000000 0.8261 0.8267 0.8273 0.8279 0.8285
3090.000000 0.8290 0.8294 0.8296 0.8301 0.8304
3085.000000 0.8308 0.8311 0.8316 0.8318 0.8324
3080.000000 0.8328 0.8332 0.8335 0.8340 0.8343
3075.000000 0.8346 0.8349 0.8355 0.8358 0.8363
3070.000000 0.8366 0.8371 0.8374 0.8378 0.8382
3065.000000 0.8386 0.8389 0.8394 0.8396 0.8400
3060.000000 0.8405 0.8409 0.8412 0.8416 0.8421
3055.000000 0.8424 0.8427 0.8432 0.8436 0.8439
3050.000000 0.8444 0.8447 0.8451 0.8456 0.8460
3045.000000 0.8463 0.8467 0.8471 0.8475 0.8477
3040.000000 0.8479 0.8481 0.8482 0.8484 0.8486
3035.000000 0.8487 0.8488 0.8490 0.8491 0.8493
3030.000000 0.8494 0.8495 0.8496 0.8497 0.8497
3025.000000 0.8497 0.8498 0.8497 0.8497 0.8497
3020.000000 0.8496 0.8495 0.8493 0.8489 0.8486
3015.000000 0.8481 0.8474 0.8467 0.8459 0.8451
3010.000000 0.8443 0.8435 0.8424 0.8411 0.8397
3005.000000 0.8385 0.8357 0.8326 0.8295 0.8264
3000.000000 0.8229 0.8198 0.8165 0.8132 0.8100
2995.000000 0.8067 0.8032 0.8000 0.7967 0.7935
2990.000000 0.7902 0.7869 0.7836 0.7803 0.7779
2985.000000 0.7757 0.7735 0.7717 0.7711 0.7705
2980.000000 0.7700 0.7695 0.7690 0.7685 0.7680
2975.000000 0.7676 0.7672 0.7668 0.7664 0.7660
2970.000000 0.7657 0.7652 0.7651 0.7648 0.7663
2965.000000 0.7645 0.7642 0.7641 0.7641 0.7641
2960.000000 0.7642 0.7644 0.7650 0.7657 0.7664
2955.000000 0.7671 0.7680 0.7688 0.7696 0.7706
2950.000000 0.7716 0.7726 0.7736 0.7746 0.7755
2945.000000 0.7765 0.7773 0.7781 0.7789 0.7796
2940.000000 0.7803 0.7811 0.7818 0.7827 0.7837
2935.000000 0.7848 0.7859 0.7873 0.7888 0.7903
2930.000000 0.7921 0.7940 0.7959 0.7975 0.7985
2925.000000 0.7997 0.8007 0.8013 0.8018 0.8024
2920.000000 0.8026 0.8029 0.8031 0.8034 0.8033
2915.000000 0.8032 0.8031 0.8030 0.8030 0.8029
2910.000000 0.8027 0.8024 0.8020 0.8020 0.8019
2905.000000 0.8021 0.8023 0.8025 0.8028 0.8030
2900.000000 0.8032 0.8034 0.8036 0.8037 0.8041
2895.000000 0.8043 0.8045 0.8048 0.8053 0.8060
2890.000000 0.8065 0.8070 0.8075 0.8079 0.8085
2885.000000 0.8091 0.8095 0.8101 0.8109 0.8116
2880.000000 0.8123 0.8133 0.8143 0.8153 0.8163
2875.000000 0.8173 0.8182 0.8191 0.8201 0.8211
2870.000000 0.8220 0.8230 0.8238 0.8248 0.8257
2865.000000 0.8265 0.8273 0.8282 0.8290 0.8300
2860.000000 0.8308 0.8316 0.8324 0.8334 0.8342
2855.000000 0.8350 0.8357 0.8369 0.8381 0.8393
2850.000000 0.8403 0.8415 0.8428 0.8439 0.8448
2845.000000 0.8458 0.8468 0.8474 0.8480 0.8487
2840.000000 0.8493 0.8500 0.8505 0.8513 0.8519
2835.000000 0.8526 0.8531 0.8537 0.8546 0.8552
2830.000000 0.8557 0.8561 0.8566 0.8566 0.8567
2825.000000 0.8567 0.8568 0.8568 0.8568 0.8570
2820.000000 0.8569 0.8571 0.8571 0.8571 0.8572
2815.000000 0.8571 0.8573 0.8572 0.8575 0.8577
2810.000000 0.8578 0.8580 0.8583 0.8586 0.8589
2805.000000 0.8591 0.8594 0.8596 0.8599 0.8601
2800.000000 0.8604 0.8607 0.8609 0.8612 0.8614
2795.000000 0.8617 0.8619 0.8621 0.8625 0.8627
2790.000000 0.8629 0.8632 0.8634 0.8637 0.8639
2785.000000 0.8643 0.8645 0.8649 0.8651 0.8654
2780.000000 0.8657 0.8661 0.8665 0.8668 0.8671
2775.000000 0.8674 0.8678 0.8681 0.8684 0.8687
2770.000000 0.8690 0.8695 0.8697 0.8702 0.8705
2765.000000 0.8709 0.8712 0.8715 0.8718 0.8722
2760.000000 0.8725 0.8729 0.8732 0.8735 0.8740
2755.000000 0.8741 0.8743 0.8745 0.8747 0.8749
2750.000000 0.8751 0.8752 0.8755 0.8757 0.8758
2745.000000 0.8758 0.8758 0.8759 0.8759 0.8760
2740.000000 0.8760 0.8761 0.8762 0.8761 0.8760
2735.000000 0.8759 0.8758 0.8757 0.8756 0.8755
2730.000000 0.8754 0.8754 0.8753 0.8750 0.8748
2725.000000 0.8744 0.8740 0.8738 0.8735 0.8731
2720.000000 0.8728 0.8724 0.8721 0.8718 0.8717
2715.000000 0.8714 0.8712 0.8710 0.8707 0.8705
2710.000000 0.8703 0.8702 0.8700 0.8697 0.8695
2705.000000 0.8693 0.8689 0.8688 0.8686 0.8684
2700.000000 0.8683 0.8681 0.8678 0.8677 0.8675
2695.000000 0.8674 0.8674 0.8671 0.8669 0.8668
2690.000000 0.8667 0.8666 0.8664 0.8664 0.8661
2685.000000 0.8660 0.8659 0.8657 0.8654 0.8653
2680.000000 0.8651 0.8651 0.8650 0.8649 0.8648
2675.000000 0.8647 0.8646 0.8646 0.8648 0.8649
2670.000000 0.8649 0.8651 0.8654 0.8654 0.8656
2665.000000 0.8657 0.8658 0.8659 0.8661 0.8662
2660.000000 0.8664 0.8666 0.8668 0.8670 0.8672
2655.000000 0.8674 0.8676 0.8677 0.8679 0.8681
2650.000000 0.8683 0.8686 0.8688 0.8691 0.8693
2645.000000 0.8695 0.8696 0.8698 0.8699 0.8701
2640.000000 0.8702 0.8704 0.8706 0.8707 0.8709
2635.000000 0.8711 0.8711 0.8713 0.8715 0.8717
2630.000000 0.8718 0.8720 0.8721 0.8721 0.8722
2625.000000 0.8722 0.8722 0.8723 0.8723 0.8723
2620.000000 0.8723 0.8723 0.8723 0.8724 0.8724
2615.000000 0.8725 0.8725 0.8726 0.8726 0.8726
2610.000000 0.8727 0.8728 0.8728 0.8729 0.8730
2605.000000 0.8730 0.8732 0.8732 0.8733 0.8733
2600.000000 0.8735 0.8735 0.8737 0.8737 0.8738
2595.000000 0.8739 0.8740 0.8741 0.8742 0.8743
2590.000000 0.8744 0.8745 0.8745 0.8747 0.8748
2585.000000 0.8750 0.8752 0.8754 0.8757 0.8763
2580.000000 0.8766 0.8771 0.8777 0.8782 0.8787
2575.000000 0.8791 0.8795 0.8801 0.8807 0.8812
2570.000000 0.8818 0.8823 0.8829 0.8835 0.8839
2565.000000 0.8844 0.8848 0.8849 0.8849 0.8848
2560.000000 0.8848 0.8849 0.8848 0.8850 0.8850
2555.000000 0.8849 0.8848 0.8848 0.8847 0.8845
2550.000000 0.8844 0.8844 0.8843 0.8842 0.8841
2545.000000 0.8840 0.8839 0.8838 0.8838 0.8838
2540.000000 0.8838 0.8838 0.8839 0.8839 0.8839
2535.000000 0.8839 0.8839 0.8840 0.8841 0.8842
2530.000000 0.8843 0.8845 0.8848 0.8850 0.8853
2525.000000 0.8855 0.8858 0.8861 0.8863 0.8867
2520.000000 0.8869 0.8872 0.8874 0.8876 0.8878
2515.000000 0.8881 0.8884 0.8886 0.8889 0.8892
2510.000000 0.8896 0.8897 0.8901 0.8903 0.8906
2505.000000 0.8909 0.8912 0.8915 0.8918 0.8920
2500.000000 0.8923 0.8927 0.8929 0.8931 0.8932
2495.000000 0.8936 0.8937 0.8939 0.8941 0.8942
2490.000000 0.8944 0.8945 0.8946 0.8948 0.8950
2485.000000 0.8952 0.8952 0.8954 0.8956 0.8956
2480.000000 0.8957 0.8959 0.8962 0.8962 0.8965
2475.000000 0.8966 0.8968 0.8969 0.8970 0.8972
2470.000000 0.8973 0.8973 0.8972 0.8973 0.8973
2465.000000 0.8973 0.8973 0.8973 0.8974 0.8974
2460.000000 0.8974 0.8974 0.8974 0.8974 0.8973
2455.000000 0.8974 0.8974 0.8974 0.8973 0.8972
2450.000000 0.8971 0.8970 0.8968 0.8965 0.8964
2445.000000 0.8963 0.8962 0.8960 0.8958 0.8957
2440.000000 0.8955 0.8953 0.8952 0.8951 0.8948
2435.000000 0.8947 0.8945 0.8944 0.8943 0.8941
2430.000000 0.8940 0.8938 0.8936 0.8934 0.8932
2425.000000 0.8931 0.8930 0.8929 0.8927 0.8925
2420.000000 0.8923 0.8922 0.8920 0.8918 0.8918
2415.000000 0.8916 0.8914 0.8912 0.8911 0.8909
2410.000000 0.8907 0.8906 0.8905 0.8903 0.8902
2405.000000 0.8901 0.8900 0.8900 0.8900 0.8900
2400.000000 0.8901 0.8902 0.8902 0.8902 0.8903
2395.000000 0.8904 0.8906 0.8909 0.8912 0.8915
2390.000000 0.8919 0.8921 0.8924 0.8927 0.8930
2385.000000 0.8934 0.8937 0.8940 0.8944 0.8946
2380.000000 0.8949 0.8952 0.8955 0.8958 0.8961
2375.000000 0.8964 0.8968 0.8972 0.8975 0.8978
2370.000000 0.8981 0.8984 0.8986 0.8989 0.8993
2365.000000 0.8995 0.8999 0.9003 0.9006 0.9007
2360.000000 0.9009 0.9010 0.9010 0.9011 0.9012
2355.000000 0.9013 0.9015 0.9015 0.9016 0.9017
2350.000000 0.9018 0.9018 0.9020 0.9020 0.9019
2345.000000 0.9020 0.9019 0.9019 0.9018 0.9017
2340.000000 0.9016 0.9016 0.9017 0.9019 0.9020
2335.000000 0.9021 0.9022 0.9023 0.9025 0.9026
2330.000000 0.9027 0.9029 0.9031 0.9032 0.9034
2325.000000 0.9035 0.9035 0.9037 0.9040 0.9045
2320.000000 0.9049 0.9052 0.9057 0.9061 0.9065
2315.000000 0.9069 0.9074 0.9077 0.9082 0.9085
2310.000000 0.9090 0.9096 0.9100 0.9106 0.9111
2305.000000 0.9116 0.9121 0.9126 0.9132 0.9134
2300.000000 0.9136 0.9138 0.9139 0.9140 0.9142
2295.000000 0.9143 0.9145 0.9147 0.9147 0.9149
2290.000000 0.9150 0.9152 0.9153 0.9155 0.9157
2285.000000 0.9157 0.9156 0.9157 0.9156 0.9156
2280.000000 0.9155 0.9154 0.9153 0.9152 0.9153
2275.000000 0.9152 0.9151 0.9150 0.9150 0.9149
2270.000000 0.9149 0.9148 0.9148 0.9147 0.9145
2265.000000 0.9143 0.9141 0.9139 0.9137 0.9134
2260.000000 0.9133 0.9131 0.9129 0.9126 0.9125
2255.000000 0.9124 0.9121 0.9120 0.9119 0.9118
2250.000000 0.9119 0.9119 0.9118 0.9117 0.9118
2245.000000 0.9118 0.9118 0.9117 0.9116 0.9117
2240.000000 0.9117 0.9116 0.9117 0.9116 0.9116
2235.000000 0.9116 0.9116 0.9116 0.9117 0.9117
2230.000000 0.9118 0.9118 0.9118 0.9118 0.9119
2225.000000 0.9119 0.9120 0.9120 0.9121 0.9121
2220.000000 0.9122 0.9123 0.9124 0.9126 0.9126
2215.000000 0.9127 0.9128 0.9128 0.9130 0.9131
2210.000000 0.9132 0.9133 0.9133 0.9135 0.9136
2205.000000 0.9139 0.9142 0.9143 0.9146 0.9148
2200.000000 0.9151 0.9153 0.9155 0.9158 0.9161
2195.000000 0.9163 0.9165 0.9168 0.9171 0.9173
2190.000000 0.9175 0.9178 0.9181 0.9182 0.9184
2185.000000 0.9186 0.9187 0.9189 0.9189 0.9191
2180.000000 0.9191 0.9193 0.9195 0.9195 0.9197
2175.000000 0.9198 0.9198 0.9199 0.9200 0.9200
2170.000000 0.9200 0.9200 0.9201 0.9200 0.9198
2165.000000 0.9193 0.9189 0.9184 0.9178 0.9172
2160.000000 0.9163 0.9154 0.9144 0.9135 0.9127
2155.000000 0.9118 0.9109 0.9102 0.9098 0.9095
2150.000000 0.9093 0.9091 0.9088 0.9085 0.9083
2145.000000 0.9080 0.9078 0.9077 0.9076 0.9075
2140.000000 0.9074 0.9073 0.9072 0.9071 0.9072
2135.000000 0.9073 0.9078 0.9082 0.9087 0.9090
2130.000000 0.9095 0.9103 0.9114 0.9126 0.9137
2125.000000 0.9145 0.9151 0.9154 0.9158 0.9162
2120.000000 0.9165 0.9169 0.9172 0.9176 0.9180
2115.000000 0.9183 0.9187 0.9190 0.9193 0.9196
2110.000000 0.9197 0.9197 0.9199 0.9201 0.9202
2105.000000 0.9204 0.9207 0.9212 0.9217 0.9222
2100.000000 0.9227 0.9232 0.9238 0.9242 0.9247
2095.000000 0.9252 0.9257 0.9263 0.9268 0.9272
2090.000000 0.9278 0.9282 0.9288 0.9293 0.9298
2085.000000 0.9304 0.9310 0.9315 0.9321 0.9323
2080.000000 0.9328 0.9329 0.9331 0.9333 0.9335
2075.000000 0.9336 0.9338 0.9339 0.9341 0.9342
2070.000000 0.9344 0.9346 0.9348 0.9348 0.9350
2065.000000 0.9349 0.9348 0.9347 0.9345 0.9344
2060.000000 0.9343 0.9342 0.9341 0.9340 0.9339
2055.000000 0.9337 0.9335 0.9332 0.9327 0.9320
2050.000000 0.9314 0.9308 0.9301 0.9296 0.9290
2045.000000 0.9285 0.9280 0.9276 0.9271 0.9267
2040.000000 0.9263 0.9259 0.9254 0.9250 0.9246
2035.000000 0.9242 0.9239 0.9238 0.9235 0.9234
2030.000000 0.9231 0.9228 0.9227 0.9226 0.9225
2025.000000 0.9224 0.9223 0.9222 0.9222 0.9221
2020.000000 0.9220 0.9219 0.9218 0.9217 0.9216
2015.000000 0.9215 0.9218 0.9221 0.9225 0.9228
2010.000000 0.9232 0.9235 0.9240 0.9243 0.9246
2005.000000 0.9247 0.9251 0.9252 0.9254 0.9257
2000.000000 0.9260 0.9261 0.9264 0.9266 0.9268
1995.000000 0.9270 0.9270 0.9271 0.9272 0.9272
1990.000000 0.9271 0.9272 0.9273 0.9274 0.9277
1985.000000 0.9278 0.9281 0.9283 0.9286 0.9288
1980.000000 0.9291 0.9294 0.9296 0.9299 0.9302
1975.000000 0.9303 0.9306 0.9309 0.9311 0.9313
1970.000000 0.9317 0.9320 0.9322 0.9325 0.9328
1965.000000 0.9330 0.9334 0.9336 0.9339 0.9341
1960.000000 0.9344 0.9348 0.9350 0.9353 0.9355
1955.000000 0.9358 0.9360 0.9364 0.9367 0.9369
1950.000000 0.9372 0.9374 0.9377 0.9380 0.9383
1945.000000 0.9385 0.9389 0.9391 0.9393 0.9396
1940.000000 0.9398 0.9400 0.9399 0.9398 0.9396
1935.000000 0.9395 0.9386 0.9377 0.9369 0.9353
1930.000000 0.9328 0.9295 0.9256 0.9217 0.9178
1925.000000 0.9139 0.9099 0.9060 0.9021 0.8983
1920.000000 0.8951 0.8942 0.8944 0.8945 0.8970
1915.000000 0.9001 0.9034 0.9071 0.9105 0.9139
1910.000000 0.9175 0.9206 0.9234 0.9258 0.9280
1905.000000 0.9303 0.9324 0.9341 0.9351 0.9355
1900.000000 0.9360 0.9365 0.9369 0.9373 0.9378
1895.000000 0.9383 0.9389 0.9395 0.9400 0.9406
1890.000000 0.9413 0.9418 0.9426 0.9437 0.9449
1885.000000 0.9462 0.9476 0.9488 0.9498 0.9507
1880.000000 0.9516 0.9524 0.9534 0.9544 0.9552
1875.000000 0.9559 0.9563 0.9568 0.9573 0.9577
1870.000000 0.9584 0.9579 0.9577 0.9575 0.9574
1865.000000 0.9572 0.9571 0.9573 0.9574 0.9575
1860.000000 0.9576 0.9578 0.9579 0.9581 0.9582
1855.000000 0.9585 0.9587 0.9589 0.9591 0.9590
1850.000000 0.9588 0.9586 0.9584 0.9582 0.9580
1845.000000 0.9577 0.9574 0.9569 0.9566 0.9561
1840.000000 0.9556 0.9553 0.9549 0.9544 0.9542
1835.000000 0.9539 0.9538 0.9534 0.9532 0.9529
1830.000000 0.9528 0.9524 0.9522 0.9519 0.9518
1825.000000 0.9516 0.9515 0.9514 0.9514 0.9513
1820.000000 0.9513 0.9512 0.9512 0.9511 0.9511
1815.000000 0.9510 0.9508 0.9505 0.9500 0.9497
1810.000000 0.9493 0.9489 0.9486 0.9479 0.9473
1805.000000 0.9466 0.9459 0.9452 0.9444 0.9437
1800.000000 0.9430 0.9420 0.9407 0.9394 0.9381
1795.000000 0.9368 0.9344 0.9313 0.9277 0.9232
1790.000000 0.9186 0.9152 0.9130 0.9112 0.9106
1785.000000 0.9101 0.9096 0.9090 0.9084 0.9078
1780.000000 0.9071 0.9063 0.9049 0.9031 0.9015
1775.000000 0.8996 0.8979 0.8960 0.8935 0.8909
1770.000000 0.8883 0.8858 0.8832 0.8801 0.8770
1765.000000 0.8739 0.8708 0.8678 0.8651 0.8625
1760.000000 0.8599 0.8573 0.8546 0.8515 0.8473
1755.000000 0.8430 0.8388 0.8347 0.8307 0.8272
1750.000000 0.8235 0.8200 0.8167 0.8139 0.8110
1745.000000 0.8082 0.8048 0.8009 0.7964 0.7919
1740.000000 0.7864 0.7805 0.7744 0.7683 0.7614
1735.000000 0.7539 0.7465 0.7388 0.7318 0.7249
1730.000000 0.7180 0.7111 0.7043 0.6981 0.6922
1725.000000 0.6863 0.6803 0.6745 0.6688 0.6630
1720.000000 0.6568 0.6499 0.6426 0.6351 0.6255
1715.000000 0.6143 0.6031 0.5922 0.5823 0.5743
1710.000000 0.5682 0.5622 0.5562 0.5475 0.5307
1705.000000 0.5095 0.4943 0.4790 0.4636 0.4484
1700.000000 0.4330 0.4177 0.4022 0.3868 0.3713
1695.000000 0.3559 0.3404 0.3258 0.3180 0.3146
1690.000000 0.3124 0.3105 0.3090 0.3086 0.3058
1685.000000 0.3089 0.3200 0.3387 0.3589 0.3792
1680.000000 0.3995 0.4199 0.4403 0.4607 0.4811
1675.000000 0.5015 0.5221 0.5427 0.5632 0.5838
1670.000000 0.6045 0.6252 0.6459 0.6666 0.6874
1665.000000 0.7082 0.7222 0.7259 0.7300 0.7268
1660.000000 0.7271 0.7274 0.7209 0.7029 0.6825
1655.000000 0.6621 0.6417 0.6213 0.6008 0.5802
1650.000000 0.5550 0.5097 0.5048 0.5002 0.4868
1645.000000 0.4769 0.4685 0.4605 0.4525 0.4443
1640.000000 0.4362 0.4298 0.4311 0.4315 0.4412
1635.000000 0.4509 0.4607 0.4706 0.4802 0.4902
1630.000000 0.5000 0.5099 0.5197 0.5295 0.5396
1625.000000 0.5494 0.5594 0.5694 0.5763 0.5769
1620.000000 0.5780 0.5750 0.5620 0.5452 0.5284
1615.000000 0.5116 0.4947 0.4777 0.4609 0.4440
1610.000000 0.4270 0.4099 0.3929 0.3758 0.3588
1605.000000 0.3417 0.3273 0.3213 0.3204 0.3204
1600.000000 0.3203 0.3212 0.3350 0.3502 0.3653
1595.000000 0.3806 0.3959 0.4112 0.4265 0.4420
1590.000000 0.4574 0.4726 0.4881 0.5037 0.5188
1585.000000 0.5298 0.5303 0.5296 0.5240 0.5158
1580.000000 0.5074 0.5009 0.5003 0.5021 0.5110
1575.000000 0.5266 0.5423 0.5578 0.5734 0.5887
1570.000000 0.6000 0.6056 0.6110 0.6160 0.6208
1565.000000 0.6257 0.6312 0.6376 0.6444 0.6514
1560.000000 0.6589 0.6663 0.6718 0.6755 0.6793
1555.000000 0.6834 0.6879 0.6915 0.6945 0.6975
1550.000000 0.7001 0.7028 0.7054 0.7082 0.7116
1545.000000 0.7153 0.7191 0.7239 0.7303 0.7370
1540.000000 0.7474 0.7596 0.7717 0.7840 0.7962
1535.000000 0.8085 0.8208 0.8329 0.8374 0.8379
1530.000000 0.8379 0.8360 0.8313 0.8071 0.7477
1525.000000 0.6880 0.6283 0.5685 0.5085 0.4485
1520.000000 0.4265 0.4256 0.4285 0.4333 0.4489
1515.000000 0.4644 0.4814 0.5067 0.5265 0.5466
1510.000000 0.5665 0.5866 0.6066 0.6267 0.6467
1505.000000 0.6610 0.6713 0.6815 0.6915 0.7015
1500.000000 0.7107 0.7160 0.7183 0.7202 0.7257
1495.000000 0.7352 0.7444 0.7506 0.7557 0.7604
1490.000000 0.7646 0.7676 0.7669 0.7672 0.7673
1485.000000 0.7668 0.7615 0.7423 0.7180 0.6936
1480.000000 0.6254 0.6447 0.6276 0.6247 0.6312
1475.000000 0.6445 0.6589 0.6733 0.6877 0.7021
1470.000000 0.7113 0.7149 0.7240 0.7312 0.7362
1465.000000 0.7392 0.7409 0.7419 0.7420 0.7422
1460.000000 0.7413 0.7393 0.7360 0.7299 0.7203
1455.000000 0.7096 0.6990 0.6892 0.6714 0.6489
1450.000000 0.6263 0.6037 0.5811 0.5699 0.5684
1445.000000 0.5670 0.5677 0.5717 0.5872 0.6086
1440.000000 0.6295 0.6505 0.6716 0.6926 0.7138
1435.000000 0.7349 0.7539 0.7660 0.7761 0.7881
1430.000000 0.7983 0.8058 0.8094 0.8124 0.8148
1425.000000 0.8169 0.8188 0.8207 0.8225 0.8241
1420.000000 0.8256 0.8272 0.8291 0.8310 0.8326
1415.000000 0.8336 0.8346 0.8352 0.8353 0.8354
1410.000000 0.8346 0.8337 0.8329 0.8322 0.8305
1405.000000 0.8283 0.8262 0.8220 0.8166 0.8096
1400.000000 0.7981 0.7842 0.7698 0.7556 0.7413
1395.000000 0.7345 0.7334 0.7336 0.7352 0.7372
1390.000000 0.7415 0.7474 0.7520 0.7521 0.7522
1385.000000 0.7519 0.7492 0.7457 0.7343 0.7106
1380.000000 0.6885 0.6662 0.6439 0.6215 0.5990
1375.000000 0.5767 0.5542 0.5317 0.5091 0.4914
1370.000000 0.4917 0.4879 0.5001 0.5297 0.5611
1365.000000 0.5924 0.6238 0.6554 0.6870 0.7186
1360.000000 0.7503 0.7819 0.8138 0.8236 0.8260
1355.000000 0.8281 0.8295 0.8300 0.8301 0.8293
1350.000000 0.8260 0.8221 0.8174 0.8126 0.8072
1345.000000 0.8007 0.7972 0.7964 0.7963 0.7960
1340.000000 0.7960 0.7960 0.7960 0.7957 0.7954
1335.000000 0.7951 0.7938 0.7906 0.7836 0.7753
1330.000000 0.7629 0.7495 0.7359 0.7223 0.7083
1325.000000 0.6943 0.6687 0.6383 0.6080 0.5775
1320.000000 0.5470 0.5163 0.4858 0.4551 0.4242
1315.000000 0.3935 0.3626 0.3475 0.3474 0.3475
1310.000000 0.3637 0.3836 0.4036 0.4236 0.4422
1305.000000 0.4538 0.4629 0.4715 0.4862 0.4936
1300.000000 0.4956 0.4975 0.4961 0.4859 0.4661
1295.000000 0.4463 0.4264 0.4066 0.3866 0.3666
1290.000000 0.3467 0.3222 0.2994 0.2889 0.2742
1285.000000 0.2664 0.2597 0.2543 0.2501 0.2478
1280.000000 0.2474 0.2459 0.2461 0.2470 0.2491
1275.000000 0.2521 0.2618 0.2750 0.2866 0.2967
1270.000000 0.3061 0.3216 0.3322 0.3429 0.3537
1265.000000 0.3644 0.3751 0.3858 0.3965 0.4073
1260.000000 0.4182 0.4290 0.4399 0.4508 0.4616
1255.000000 0.4726 0.4835 0.4945 0.5055 0.5164
1250.000000 0.5276 0.5386 0.5483 0.5541 0.5586
1245.000000 0.5630 0.5662 0.5693 0.5709 0.5719
1240.000000 0.5727 0.5724 0.5725 0.5730 0.5755
1235.000000 0.5814 0.5923 0.6031 0.6139 0.6247
1230.000000 0.6355 0.6465 0.6573 0.6683 0.6792
1225.000000 0.6889 0.6973 0.7057 0.7121 0.7170
1220.000000 0.7220 0.7267 0.7306 0.7346 0.7385
1215.000000 0.7425 0.7465 0.7505 0.7547 0.7586
1210.000000 0.7621 0.7652 0.7684 0.7708 0.7733
1205.000000 0.7749 0.7765 0.7782 0.7800 0.7818
1200.000000 0.7838 0.7861 0.7911 0.7966 0.8023
1195.000000 0.8081 0.8145 0.8209 0.8268 0.8336
1190.000000 0.8409 0.8431 0.8438 0.8440 0.8434
1185.000000 0.8409 0.8340 0.8123 0.7673 0.7089
1180.000000 0.6504 0.5919 0.5332 0.4743 0.4154
1175.000000 0.3572 0.3387 0.3253 0.3268 0.3265
1170.000000 0.3323 0.3593 0.3902 0.4210 0.4520
1165.000000 0.4831 0.5079 0.5224 0.5391 0.5547
1160.000000 0.5690 0.5799 0.5907 0.6006 0.6105
1155.000000 0.6200 0.6265 0.6325 0.6387 0.6443
1150.000000 0.6500 0.6556 0.6591 0.6609 0.6624
1145.000000 0.6660 0.6637 0.6623 0.6582 0.6540
1140.000000 0.6498 0.6450 0.6361 0.6203 0.6011
1135.000000 0.5818 0.5624 0.5429 0.5235 0.5040
1130.000000 0.4845 0.4648 0.4453 0.4273 0.4181
1125.000000 0.4173 0.4242 0.4400 0.4544 0.4689
1120.000000 0.4835 0.4981 0.5127 0.5239 0.5293
1115.000000 0.5271 0.5225 0.5034 0.4799 0.4562
1110.000000 0.4392 0.4362 0.4414 0.4572 0.4713
1105.000000 0.4853 0.4994 0.5135 0.5275 0.5418
1100.000000 0.5559 0.5756 0.5851 0.5923 0.5994
1095.000000 0.6067 0.6138 0.6214 0.6280 0.6320
1090.000000 0.6340 0.6355 0.6369 0.6334 0.6315
1085.000000 0.6297 0.6284 0.6274 0.6262 0.6266
1080.000000 0.6227 0.6280 0.6288 0.6309 0.6332
1075.000000 0.6358 0.6395 0.6432 0.6479 0.6530
1070.000000 0.6580 0.6631 0.6686 0.6745 0.6803
1065.000000 0.6863 0.6921 0.6978 0.7035 0.7090
1060.000000 0.7161 0.7241 0.7330 0.7440 0.7471
1055.000000 0.7506 0.7540 0.7605 0.7678 0.7738
1050.000000 0.7794 0.7845 0.7863 0.7857 0.7854
1045.000000 0.7854 0.7876 0.7897 0.7934 0.7973
1040.000000 0.8008 0.8043 0.8053 0.8037 0.8007
1035.000000 0.7958 0.7851 0.7701 0.7430 0.7135
1030.000000 0.6796 0.6456 0.6115 0.5819 0.5768
1025.000000 0.5738 0.5745 0.5852 0.6072 0.6201
1020.000000 0.6308 0.6412 0.6513 0.6615 0.6714
1015.000000 0.6807 0.6886 0.6971 0.7064 0.7167
1010.000000 0.7305 0.7471 0.7516 0.7548 0.7582
1005.000000 0.7616 0.7650 0.7679 0.7703 0.7819
1000.000000 0.8316 0.8701 0.8080 0.7756 0.7812
995.000000 0.7867 0.7922 0.7978 0.8033 0.8088
990.000000 0.8120 0.8148 0.8160 0.8162 0.8164
985.000000 0.8171 0.8183 0.8226 0.8271 0.8317
980.000000 0.8342 0.8363 0.8373 0.8356 0.8340
975.000000 0.8345 0.8350 0.8377 0.8406 0.8432
970.000000 0.8417 0.8388 0.8354 0.8321 0.8313
965.000000 0.8306 0.8331 0.8366 0.8403 0.8439
960.000000 0.8479 0.8516 0.8490 0.8465 0.8451
955.000000 0.8442 0.8460 0.8504 0.8558 0.8606
950.000000 0.8630 0.8652 0.8661 0.8668 0.8671
945.000000 0.8665 0.8660 0.8676 0.8699 0.8706
940.000000 0.8710 0.8714 0.8719 0.8729 0.8737
935.000000 0.8748 0.8763 0.8787 0.8812 0.8836
930.000000 0.8845 0.8847 0.8848 0.8851 0.8859
925.000000 0.8868 0.8877 0.8885 0.8898 0.8913
920.000000 0.8919 0.8924 0.8931 0.8939 0.8961
915.000000 0.8983 0.9005 0.9020 0.9033 0.9047
910.000000 0.9050 0.9052 0.9051 0.9050 0.9050
905.000000 0.9056 0.9078 0.9099 0.9122 0.9135
900.000000 0.9118 0.9094 0.9078 0.9105 0.9130
895.000000 0.9147 0.9164 0.9181 0.9199 0.9200
890.000000 0.9202 0.9148 0.9071 0.8967 0.8863
885.000000 0.8779 0.8693 0.8640 0.8603 0.8570
880.000000 0.8571 0.8582 0.8616 0.8692 0.8784
875.000000 0.8881 0.8997 0.9092 0.9121 0.9124
870.000000 0.9126 0.9128 0.9137 0.9154 0.9182
865.000000 0.9221 0.9219 0.9217 0.9123 0.9000
860.000000 0.8967 0.8933 0.8888 0.8803 0.8680
855.000000 0.8528 0.8293 0.7863 0.7275 0.6676
850.000000 0.5995 0.5638 0.5539 0.5468 0.5506
845.000000 0.5612 0.5856 0.6172 0.6512 0.6957
840.000000 0.7399 0.7750 0.8007 0.8286 0.8437
835.000000 0.8551 0.8630 0.8687 0.8739 0.8778
830.000000 0.8818 0.8902 0.8997 0.9109 0.9211
825.000000 0.9280 0.9312 0.9333 0.9335 0.9337
820.000000 0.9338 0.9344 0.9352 0.9362 0.9363
815.000000 0.9365 0.9365 0.9372 0.9382 0.9393
810.000000 0.9402 0.9411 0.9421 0.9445 0.9512
805.000000 0.9550 0.9569 0.9571 0.9571 0.9538
800.000000 0.9544 0.9565 0.9591 0.9626 0.9665
795.000000 0.9636 0.9606 0.9564 0.9520 0.9464
790.000000 0.9451 0.9449 0.9435 0.9412 0.9374
785.000000 0.9314 0.9236 0.9119 0.8911 0.8630
780.000000 0.8168 0.7677 0.7094 0.6399 0.5698
775.000000 0.4998 0.4521 0.4551 0.4873 0.5312
770.000000 0.5658 0.6004 0.6405 0.6782 0.7313
765.000000 0.7601 0.7834 0.8024 0.8230 0.8478
760.000000 0.8670 0.8814 0.8922 0.8992 0.9039
755.000000 0.9062 0.9085 0.9106 0.9157 0.9212
750.000000 0.9288 0.9361 0.9415 0.9501 0.9477
745.000000 0.9458 0.9434 0.9360 0.9404 0.9431
740.000000 0.9478 0.9554 0.9546 0.9540 0.9502
735.000000 0.9452 0.9415 0.9431 0.9434 0.9470
730.000000 0.9505 0.9542 0.9628 0.9584 0.9562
725.000000 0.9514 0.9458 0.9459 0.9417 0.9415
720.000000 0.9443 0.9472 0.9589 0.9563 0.9436
715.000000 0.9339 0.9286 0.9275 0.9269 0.9268
710.000000 0.9250 0.9221 0.9163 0.9087 0.8797
705.000000 0.8287 0.7776 0.7263 0.6749 0.6420
700.000000 0.6453 0.6765 0.7096 0.7429 0.7763
695.000000 0.8040 0.8219 0.8390 0.8553 0.8667
690.000000 0.8776 0.8841 0.8933 0.8923 0.8928
685.000000 0.8792 0.8837 0.8873 0.8913 0.8959
680.000000 0.8998 0.9054 0.9012 0.8989 0.8948
675.000000 0.8906 0.8873 0.8856
##END=
