##TITLE=p-AMINOBENZOIC ACID, ETHYL ESTER
##JCAMP-DX=4.24
##DATA TYPE=INFRARED SPECTRUM
##CLASS=COBLENTZ III
##ORIGIN=SOUTHERN RESEARCH INSTITUTE
##OWNER=COBLENTZ SOCIETY
Collection (C) 2018 copyright by the U.S. Secretary of Commerce
on behalf of the United States of America. All rights reserved.
##DATE=1965/11/04
##NAMES=ethyl 4-aminobenzoate
##CAS REGISTRY NO=94-09-7
##MOLFORM=C9 H11 N O2
##SOURCE REFERENCE=COBLENTZ NO. 7393
##$NIST SOURCE=COBLENTZ
##$NIST IMAGE=cob7393
##SPECTROMETER/DATA SYSTEM=PERKIN-ELMER 521 (GRATING)
##INSTRUMENT PARAMETERS=FILTERS AT 3150, 2500, 2000, 1150, 700, 410. GRATING CHANGES: 2000, 630 CM^-^1
##STATE=SOLUTION (3% CCl4)
##PATH LENGTH=0.011 CM (CsBr CELL)
$$SPECTRAL CONTAMINATION DUE TO CCl4 AROUND 1550, 1200, 975, 700-800 CM^-^1
##SAMPLING PROCEDURE=TRANSMISSION
##RESOLUTION=2
##DATA PROCESSING=DIGITIZED BY NIST FROM HARD COPY (FROM TWO SEGMENTS)
##XUNITS=1/CM
##YUNITS=TRANSMITTANCE
##XFACTOR=1.000000
##YFACTOR=1
##DELTAX=1.276596
##FIRSTX=259.18
##LASTX=3817.05
##FIRSTY=0.646
##MAXX=3817.05
##MINX=259.18
##MAXY=0.996
##MINY=0.001
##NPOINTS=2788
##XYDATA=(X++(Y..Y))
259.180000 0.6460 0.6500 0.6639 0.6699 0.6739
265.562980 0.6789 0.6849 0.6889 0.6919 0.6939
271.945960 0.7027 0.7030 0.7040 0.7069 0.7079
278.328940 0.7108 0.7110 0.7082 0.7071 0.7061
284.711920 0.7060 0.7041 0.7040 0.7031 0.7021
291.094900 0.7011 0.6983 0.6971 0.6970 0.6952
297.477880 0.6950 0.6941 0.6931 0.6921 0.6920
303.860860 0.6929 0.6939 0.6940 0.6949 0.7019
310.243840 0.7065 0.7139 0.7193 0.7243 0.7301
316.626820 0.7361 0.7420 0.7472 0.7488 0.7498
323.009800 0.7500 0.7508 0.7526 0.7555 0.7576
329.392780 0.7588 0.7622 0.7662 0.7694 0.7771
335.775760 0.7877 0.7924 0.7969 0.8043 0.8099
342.158740 0.8164 0.8226 0.8271 0.8310 0.8365
348.541720 0.8418 0.8438 0.8493 0.8525 0.8552
354.924700 0.8575 0.8602 0.8617 0.8642 0.8657
361.307680 0.8667 0.8670 0.8670 0.8670 0.8663
367.690660 0.8660 0.8653 0.8636 0.8630 0.8623
374.073640 0.8613 0.8617 0.8627 0.8630 0.8650
380.456620 0.8673 0.8693 0.8713 0.8746 0.8767
386.839600 0.8770 0.8770 0.8770 0.8770 0.8783
393.222580 0.8790 0.8796 0.8832 0.8875 0.8902
399.605560 0.8941 0.8985 0.9019 0.9030 0.9036
405.988540 0.9040 0.9046 0.9050 0.9044 0.9034
412.371520 0.9012 0.8994 0.8984 0.8957 0.8923
418.754500 0.8893 0.8869 0.8849 0.8812 0.8762
425.137480 0.8701 0.8642 0.8587 0.8522 0.8463
431.520460 0.8408 0.8359 0.8292 0.8224 0.8148
437.903440 0.8069 0.7998 0.7934 0.7864 0.7800
444.286420 0.7755 0.7725 0.7720 0.7720 0.7720
450.669400 0.7725 0.7725 0.7720 0.7720 0.7720
457.052380 0.7711 0.7691 0.7675 0.7661 0.7641
463.435360 0.7630 0.7616 0.7582 0.7556 0.7532
469.818340 0.7488 0.7430 0.7377 0.7356 0.7350
476.201320 0.7358 0.7378 0.7394 0.7416 0.7448
482.584300 0.7468 0.7492 0.7522 0.7548 0.7572
488.967280 0.7601 0.7624 0.7638 0.7658 0.7677
495.350260 0.7690 0.7690 0.7694 0.7707 0.7734
501.733240 0.7770 0.7804 0.7847 0.7890 0.7913
508.116220 0.7967 0.8099 0.8203 0.8288 0.8398
514.499200 0.8491 0.8582 0.8646 0.8686 0.8700
520.882180 0.8694 0.8680 0.8674 0.8651 0.8624
527.265160 0.8607 0.8594 0.8577 0.8573 0.8588
533.648140 0.8610 0.8623 0.8673 0.8723 0.8770
540.031120 0.8812 0.8857 0.8880 0.8882 0.8890
546.414100 0.8892 0.8900 0.8900 0.8900 0.8900
552.797080 0.8900 0.8898 0.8890 0.8888 0.8880
559.180060 0.8876 0.8860 0.8858 0.8850 0.8848
565.563040 0.8840 0.8836 0.8818 0.8810 0.8808
571.946020 0.8800 0.8798 0.8792 0.8800 0.8801
578.329000 0.8811 0.8823 0.8840 0.8837 0.8820
584.711980 0.8819 0.8808 0.8786 0.8758 0.8737
591.094960 0.8707 0.8678 0.8657 0.8627 0.8596
597.477940 0.8556 0.8516 0.8478 0.8454 0.8385
603.860920 0.8314 0.8233 0.8143 0.8040 0.7895
610.243900 0.7665 0.7435 0.7359 0.7350 0.7361
616.626880 0.7410 0.7888 0.8077 0.8266 0.8420
623.009860 0.8419 0.8379 0.8349 0.8320 0.8291
629.392840 0.8351 0.8463 0.8750 0.8750 0.8650
635.775820 0.8571 0.8511 0.8540 0.8618 0.8669
642.158800 0.8806 0.8810 0.8849 0.8850 0.8840
648.541780 0.8811 0.8791 0.8771 0.8751 0.8722
654.924760 0.8701 0.8700 0.8700 0.8681 0.8661
661.307740 0.8605 0.8517 0.8464 0.8442 0.8458
667.690720 0.8605 0.8620 0.8530 0.8475 0.8461
674.073700 0.8433 0.8403 0.8391 0.8372 0.8326
680.456680 0.8268 0.8199 0.8147 0.8054 0.7808
686.839660 0.7607 0.7418 0.6728 0.5952 0.5822
693.222640 0.5803 0.5817 0.5962 0.6572 0.6847
699.605620 0.6971 0.7064 0.7080 0.7039 0.6901
705.988600 0.6742 0.6589 0.6440 0.6171 0.5904
712.371580 0.5661 0.5453 0.5262 0.4941 0.4659
718.754560 0.4408 0.3927 0.3555 0.3228 0.2612
725.137540 0.2191 0.1862 0.1519 0.1185 0.0849
731.520520 0.0415 0.0158 0.0066 0.0021 0.0010
737.903500 0.0010 0.0010 0.0010 0.0010 0.0010
744.286480 0.0010 0.0010 0.0010 0.0010 0.0010
750.669460 0.0010 0.0010 0.0010 0.0010 0.0010
757.052440 0.0010 0.0010 0.0010 0.0010 0.0010
763.435420 0.0010 0.0010 0.0010 0.0010 0.0010
769.818400 0.0010 0.0010 0.0010 0.0010 0.0010
776.201380 0.0010 0.0010 0.0010 0.0010 0.0010
782.584360 0.0010 0.0010 0.0010 0.0010 0.0010
788.967340 0.0010 0.0033 0.0056 0.0060 0.0060
795.350320 0.0060 0.0066 0.0076 0.0091 0.0111
801.733300 0.0142 0.0182 0.0211 0.0242 0.0276
808.116280 0.0295 0.0353 0.0464 0.0625 0.0923
814.499260 0.1255 0.1498 0.1885 0.2326 0.2605
820.882240 0.3023 0.3464 0.3729 0.4135 0.4532
827.265220 0.4780 0.5011 0.5214 0.5330 0.5311
833.648200 0.5272 0.5084 0.4775 0.4640 0.4663
840.031180 0.4802 0.5322 0.5928 0.6190 0.6510
846.414160 0.6833 0.6939 0.6976 0.7073 0.7185
852.797140 0.7307 0.7475 0.7638 0.7840 0.7986
859.180120 0.8090 0.8144 0.8184 0.8190 0.8190
865.563100 0.8190 0.8194 0.8204 0.8221 0.8269
871.946080 0.8345 0.8419 0.8492 0.8555 0.8621
878.329060 0.8674 0.8724 0.8784 0.8833 0.8887
884.712040 0.8910 0.8946 0.8996 0.9043 0.9079
891.095020 0.9109 0.9139 0.9166 0.9180 0.9183
897.478000 0.9190 0.9196 0.9213 0.9220 0.9223
903.860980 0.9233 0.9245 0.9263 0.9278 0.9308
910.243960 0.9338 0.9363 0.9373 0.9385 0.9395
916.626940 0.9378 0.9365 0.9345 0.9328 0.9318
923.009920 0.9308 0.9300 0.9300 0.9302 0.9310
929.392900 0.9310 0.9310 0.9310 0.9310 0.9310
935.775880 0.9308 0.9296 0.9278 0.9270 0.9265
942.158860 0.9235 0.9201 0.9150 0.9090 0.9030
948.541840 0.8966 0.8888 0.8877 0.8860 0.8859
954.924820 0.8841 0.8780 0.8705 0.8594 0.8472
961.307800 0.8338 0.8229 0.8053 0.7918 0.7818
967.690780 0.7707 0.7582 0.7409 0.7210 0.7116
974.073760 0.7080 0.7083 0.7112 0.7132 0.7164
980.456740 0.7214 0.7277 0.7374 0.7431 0.7441
986.839720 0.7461 0.7480 0.7488 0.7448 0.7394
993.222700 0.7266 0.7166 0.7065 0.6919 0.6868
999.605680 0.6798 0.6709 0.6640 0.6620 0.6620
1005.988660 0.6610 0.6610 0.6620 0.6640 0.6650
1012.371640 0.6660 0.6670 0.6729 0.6799 0.6917
1018.754620 0.7056 0.7128 0.7226 0.7259 0.7308
1025.137600 0.7396 0.7523 0.7929 0.8149 0.8358
1031.520580 0.8548 0.8700 0.8896 0.8938 0.8949
1037.903560 0.9014 0.9038 0.9022 0.9002 0.8964
1044.286540 0.8906 0.8882 0.8844 0.8778 0.8717
1050.669520 0.8639 0.8525 0.8439 0.8307 0.8238
1057.052500 0.8160 0.8081 0.8061 0.8069 0.8104
1063.435480 0.8135 0.8182 0.8224 0.8281 0.8315
1069.818460 0.8337 0.8348 0.8367 0.8370 0.8386
1076.201440 0.8414 0.8420 0.8387 0.8348 0.8308
1082.584420 0.8268 0.8172 0.8079 0.7902 0.7734
1088.967400 0.7583 0.7099 0.6729 0.6412 0.5691
1095.350380 0.5093 0.4565 0.4030 0.3620 0.3244
1101.733360 0.2425 0.1831 0.1360 0.1240 0.1247
1108.116340 0.1999 0.2606 0.3398 0.3888 0.4411
1114.499320 0.4780 0.5052 0.5691 0.6140 0.6554
1120.882300 0.6872 0.7040 0.7211 0.7380 0.7656
1127.265280 0.7876 0.8052 0.8205 0.8344 0.8457
1133.648260 0.8537 0.8593 0.8656 0.8706 0.8752
1140.031240 0.8789 0.8832 0.8856 0.8860 0.8860
1146.414220 0.8873 0.8880 0.8880 0.8868 0.8805
1152.797200 0.8715 0.8559 0.8310 0.8024 0.7723
1159.180180 0.7265 0.6541 0.5699 0.4858 0.4016
1165.563160 0.3169 0.2386 0.1640 0.0891 0.0570
1171.946140 0.0971 0.3750 0.6268 0.6918 0.7251
1178.329120 0.7677 0.8013 0.8159 0.8237 0.8281
1184.712100 0.8311 0.8320 0.8310 0.8290 0.8239
1191.095080 0.8175 0.8135 0.8090 0.8030 0.7965
1197.478060 0.7900 0.7831 0.7780 0.7751 0.7701
1203.861040 0.7627 0.7561 0.7521 0.7453 0.7386
1210.244020 0.7356 0.7303 0.7242 0.7198 0.7166
1216.627000 0.7156 0.7137 0.7116 0.7101 0.7090
1223.009980 0.7086 0.7076 0.7057 0.7015 0.6968
1229.392960 0.6942 0.6918 0.6876 0.6820 0.6774
1235.775940 0.6707 0.6620 0.6563 0.6459 0.6315
1242.158920 0.6147 0.5931 0.5749 0.5588 0.5539
1248.541900 0.5513 0.5493 0.5406 0.5214 0.5028
1254.924880 0.4799 0.4580 0.4380 0.4257 0.4002
1261.307860 0.3520 0.3088 0.2548 0.1785 0.1083
1267.690840 0.0542 0.0157 0.0144 0.0136 0.0162
1274.073820 0.0205 0.0266 0.0364 0.0634 0.1198
1280.456800 0.1679 0.2601 0.3422 0.4040 0.4937
1286.839780 0.5595 0.5846 0.5960 0.5990 0.5992
1293.222760 0.6012 0.6083 0.6213 0.6295 0.6310
1299.605740 0.6310 0.6310 0.6163 0.5583 0.5364
1305.988720 0.5151 0.4994 0.4972 0.5323 0.6778
1312.371700 0.7104 0.7389 0.7864 0.8103 0.8345
1318.754680 0.8580 0.8713 0.8880 0.8877 0.8858
1325.137660 0.8844 0.8802 0.8757 0.8743 0.8784
1331.520640 0.8939 0.9009 0.9079 0.9146 0.9201
1337.903620 0.9282 0.9302 0.9321 0.9332 0.9350
1344.286600 0.9351 0.9359 0.9350 0.9348 0.9328
1350.669580 0.9306 0.9267 0.9234 0.9160 0.9029
1357.052560 0.8833 0.8135 0.7418 0.6706 0.5999
1363.435540 0.5314 0.5029 0.5010 0.5093 0.6807
1369.818520 0.7271 0.7887 0.8130 0.8931 0.8980
1376.201500 0.8990 0.8990 0.8990 0.8980 0.8960
1382.584480 0.8860 0.8751 0.8532 0.8301 0.8142
1388.967460 0.8120 0.8149 0.8199 0.8395 0.8613
1395.350440 0.8881 0.8986 0.9124 0.9236 0.9355
1401.733420 0.9379 0.9399 0.9409 0.9410 0.9410
1408.116400 0.9410 0.9410 0.9410 0.9410 0.9410
1414.499380 0.9410 0.9410 0.9401 0.9400 0.9373
1420.882360 0.9325 0.9302 0.9264 0.9153 0.9042
1427.265340 0.8924 0.8831 0.8750 0.8374 0.8242
1433.648320 0.7988 0.7933 0.7921 0.7929 0.8092
1440.031300 0.8120 0.8120 0.8137 0.8140 0.8148
1446.414280 0.8183 0.8355 0.8612 0.8750 0.8795
1452.797260 0.8816 0.8796 0.8758 0.8613 0.8500
1459.180240 0.8281 0.8159 0.8038 0.8002 0.8008
1465.563220 0.8057 0.8163 0.8306 0.8409 0.8468
1471.946200 0.8488 0.8422 0.8219 0.8152 0.8142
1478.329180 0.8155 0.8190 0.8304 0.8487 0.8620
1484.712160 0.8701 0.8742 0.8743 0.8697 0.8630
1491.095140 0.8574 0.8503 0.8445 0.8395 0.8324
1497.478120 0.8224 0.8100 0.7964 0.7810 0.7705
1503.861100 0.7626 0.7283 0.6694 0.6040 0.5382
1510.244080 0.4725 0.4284 0.3955 0.3632 0.3312
1516.627060 0.3187 0.3340 0.4972 0.6185 0.6411
1523.010040 0.6430 0.6424 0.6414 0.6398 0.6359
1529.393020 0.6187 0.6005 0.5914 0.5842 0.5691
1535.776000 0.5557 0.5455 0.5311 0.5147 0.4999
1542.158980 0.4882 0.4806 0.4752 0.4724 0.4709
1548.541960 0.4717 0.4713 0.4711 0.4753 0.4813
1554.924940 0.4878 0.4942 0.5002 0.5094 0.5329
1561.307920 0.5542 0.5642 0.5783 0.5896 0.5930
1567.690900 0.5950 0.5960 0.5955 0.5945 0.5846
1574.073880 0.5672 0.5566 0.5511 0.5418 0.5350
1580.456860 0.5569 0.5876 0.5987 0.6039 0.6050
1586.839840 0.6055 0.6060 0.6056 0.5970 0.5839
1593.222820 0.5751 0.5598 0.5380 0.5070 0.4758
1599.605800 0.4391 0.3749 0.3102 0.2708 0.2694
1605.988780 0.2957 0.3592 0.3984 0.3990 0.3978
1612.371760 0.3879 0.3463 0.2708 0.2049 0.1561
1618.754740 0.1067 0.0749 0.0745 0.0849 0.1179
1625.137720 0.2148 0.3453 0.3805 0.4170 0.5001
1631.520700 0.5829 0.6150 0.6466 0.6809 0.7031
1637.903680 0.7296 0.7616 0.7923 0.8086 0.8224
1644.286660 0.8337 0.8447 0.8531 0.8601 0.8664
1650.669640 0.8706 0.8728 0.8756 0.8775 0.8793
1657.052620 0.8800 0.8803 0.8807 0.8800 0.8797
1663.435600 0.8785 0.8768 0.8750 0.8715 0.8693
1669.818580 0.8658 0.8608 0.8563 0.8535 0.8513
1676.201560 0.8483 0.8441 0.8345 0.8211 0.8004
1682.584540 0.7770 0.7670 0.7489 0.7009 0.6690
1688.967520 0.6324 0.5745 0.5171 0.4690 0.4336
1695.350500 0.3959 0.3540 0.3171 0.3056 0.2962
1701.733480 0.2793 0.2367 0.2066 0.1713 0.1167
1708.116460 0.1150 0.1149 0.1140 0.1141 0.1152
1714.499440 0.1208 0.1523 0.1790 0.2555 0.3484
1720.882420 0.4421 0.4957 0.5807 0.6220 0.6742
1727.265400 0.6894 0.7191 0.7486 0.7964 0.8172
1733.648380 0.8339 0.8476 0.8572 0.8620 0.8808
1740.031360 0.8954 0.9033 0.9092 0.9142 0.9191
1746.414340 0.9232 0.9281 0.9311 0.9351 0.9380
1752.797320 0.9410 0.9420 0.9440 0.9440 0.9440
1759.180300 0.9460 0.9490 0.9500 0.9520 0.9549
1765.563280 0.9560 0.9560 0.9579 0.9580 0.9590
1771.946260 0.9590 0.9600 0.9600 0.9610 0.9610
1778.329240 0.9638 0.9649 0.9650 0.9659 0.9679
1784.712220 0.9680 0.9689 0.9690 0.9699 0.9700
1791.095200 0.9700 0.9700 0.9718 0.9720 0.9720
1797.478180 0.9720 0.9729 0.9739 0.9740 0.9749
1803.861160 0.9750 0.9750 0.9750 0.9750 0.9741
1810.244140 0.9740 0.9740 0.9731 0.9730 0.9730
1816.627120 0.9722 0.9720 0.9720 0.9703 0.9700
1823.010100 0.9700 0.9717 0.9720 0.9736 0.9740
1829.393080 0.9748 0.9750 0.9750 0.9766 0.9770
1835.776060 0.9770 0.9778 0.9780 0.9780 0.9780
1842.159040 0.9780 0.9780 0.9780 0.9780 0.9780
1848.542020 0.9780 0.9780 0.9780 0.9780 0.9780
1854.925000 0.9780 0.9780 0.9780 0.9780 0.9780
1861.307980 0.9780 0.9780 0.9780 0.9780 0.9780
1867.690960 0.9780 0.9780 0.9780 0.9780 0.9780
1874.073940 0.9780 0.9780 0.9780 0.9780 0.9773
1880.456920 0.9770 0.9770 0.9757 0.9750 0.9743
1886.839900 0.9740 0.9733 0.9730 0.9730 0.9724
1893.222880 0.9720 0.9720 0.9707 0.9700 0.9694
1899.605860 0.9684 0.9661 0.9638 0.9606 0.9572
1905.988840 0.9548 0.9528 0.9514 0.9504 0.9500
1912.371820 0.9506 0.9516 0.9532 0.9581 0.9639
1918.754800 0.9677 0.9713 0.9736 0.9746 0.9761
1925.137780 0.9776 0.9780 0.9785 0.9790 0.9790
1931.520760 0.9790 0.9790 0.9790 0.9790 0.9790
1937.903740 0.9790 0.9790 0.9785 0.9780 0.9780
1944.286720 0.9780 0.9780 0.9775 0.9770 0.9770
1950.669700 0.9770 0.9770 0.9770 0.9770 0.9761
1957.052680 0.9750 0.9750 0.9750 0.9750 0.9750
1963.435660 0.9750 0.9745 0.9740 0.9740 0.9740
1969.818640 0.9740 0.9740 0.9740 0.9740 0.9744
1976.201620 0.9750 0.9750 0.9750 0.9758 0.9770
1982.584600 0.9770 0.9770 0.9770 0.9770 0.9770
1988.967580 0.9770 0.9770 0.9770 0.9770 0.9774
1995.350560 0.9780 0.9780 0.9780 0.9780 0.9780
2001.733540 0.9780 0.9780 0.9780 0.9780 0.9780
2008.116520 0.9780 0.9780 0.9780 0.9780 0.9776
2014.499500 0.9770 0.9770 0.9770 0.9770 0.9763
2020.882480 0.9750 0.9757 0.9774 0.9784 0.9790
2027.265460 0.9794 0.9800 0.9807 0.9820 0.9824
2033.648440 0.9830 0.9834 0.9840 0.9840 0.9847
2040.031420 0.9860 0.9864 0.9870 0.9874 0.9880
2046.414400 0.9884 0.9890 0.9890 0.9890 0.9890
2052.797380 0.9890 0.9897 0.9910 0.9910 0.9910
2059.180360 0.9910 0.9910 0.9910 0.9910 0.9910
2065.563340 0.9910 0.9910 0.9910 0.9910 0.9910
2071.946320 0.9910 0.9910 0.9910 0.9910 0.9910
2078.329300 0.9910 0.9910 0.9910 0.9910 0.9910
2084.712280 0.9910 0.9910 0.9910 0.9910 0.9910
2091.095260 0.9910 0.9910 0.9910 0.9910 0.9910
2097.478240 0.9903 0.9890 0.9890 0.9890 0.9886
2103.861220 0.9880 0.9880 0.9876 0.9870 0.9870
2110.244200 0.9866 0.9860 0.9853 0.9840 0.9836
2116.627180 0.9830 0.9826 0.9820 0.9813 0.9800
2123.010160 0.9796 0.9790 0.9790 0.9794 0.9800
2129.393140 0.9814 0.9851 0.9877 0.9890 0.9897
2135.776120 0.9914 0.9920 0.9920 0.9920 0.9924
2142.159100 0.9930 0.9930 0.9930 0.9934 0.9940
2148.542080 0.9940 0.9940 0.9940 0.9940 0.9940
2154.925060 0.9940 0.9940 0.9940 0.9940 0.9947
2161.308040 0.9960 0.9960 0.9960 0.9960 0.9960
2167.691020 0.9960 0.9960 0.9953 0.9940 0.9940
2174.074000 0.9940 0.9940 0.9940 0.9940 0.9940
2180.456980 0.9940 0.9940 0.9940 0.9940 0.9940
2186.839960 0.9940 0.9940 0.9940 0.9940 0.9940
2193.222940 0.9940 0.9940 0.9940 0.9940 0.9940
2199.605920 0.9940 0.9936 0.9930 0.9926 0.9920
2205.988900 0.9916 0.9910 0.9903 0.9890 0.9890
2212.371880 0.9886 0.9880 0.9880 0.9876 0.9870
2218.754860 0.9870 0.9870 0.9870 0.9870 0.9870
2225.137840 0.9874 0.9880 0.9880 0.9880 0.9880
2231.520820 0.9880 0.9880 0.9880 0.9880 0.9880
2237.903800 0.9876 0.9866 0.9860 0.9853 0.9836
2244.286780 0.9830 0.9826 0.9813 0.9800 0.9796
2250.669760 0.9790 0.9790 0.9786 0.9780 0.9780
2257.052740 0.9776 0.9770 0.9763 0.9746 0.9736
2263.435720 0.9730 0.9726 0.9713 0.9700 0.9696
2269.818700 0.9686 0.9684 0.9686 0.9673 0.9656
2276.201680 0.9650 0.9650 0.9650 0.9646 0.9640
2282.584660 0.9640 0.9640 0.9640 0.9640 0.9640
2288.967640 0.9640 0.9647 0.9660 0.9660 0.9660
2295.350620 0.9660 0.9660 0.9660 0.9660 0.9660
2301.733600 0.9660 0.9660 0.9667 0.9680 0.9684
2308.116580 0.9690 0.9694 0.9700 0.9707 0.9720
2314.499560 0.9727 0.9744 0.9757 0.9770 0.9774
2320.882540 0.9780 0.9780 0.9780 0.9780 0.9784
2327.265520 0.9794 0.9800 0.9800 0.9800 0.9800
2333.648500 0.9807 0.9820 0.9820 0.9820 0.9820
2340.031480 0.9824 0.9830 0.9830 0.9830 0.9830
2346.414460 0.9830 0.9830 0.9830 0.9830 0.9830
2352.797440 0.9830 0.9826 0.9820 0.9820 0.9813
2359.180420 0.9796 0.9786 0.9780 0.9780 0.9780
2365.563400 0.9784 0.9794 0.9796 0.9790 0.9794
2371.946380 0.9796 0.9790 0.9790 0.9790 0.9790
2378.329360 0.9790 0.9790 0.9790 0.9794 0.9800
2384.712340 0.9807 0.9824 0.9826 0.9824 0.9830
2391.095320 0.9830 0.9834 0.9840 0.9840 0.9847
2397.478300 0.9860 0.9860 0.9864 0.9870 0.9870
2403.861280 0.9870 0.9870 0.9870 0.9870 0.9870
2410.244260 0.9870 0.9870 0.9870 0.9870 0.9870
2416.627240 0.9870 0.9870 0.9870 0.9870 0.9870
2423.010220 0.9870 0.9870 0.9870 0.9870 0.9870
2429.393200 0.9870 0.9870 0.9870 0.9870 0.9870
2435.776180 0.9870 0.9870 0.9870 0.9870 0.9870
2442.159160 0.9874 0.9880 0.9880 0.9880 0.9880
2448.542140 0.9880 0.9880 0.9880 0.9880 0.9880
2454.925120 0.9876 0.9870 0.9870 0.9870 0.9870
2461.308100 0.9870 0.9870 0.9870 0.9870 0.9870
2467.691080 0.9870 0.9874 0.9880 0.9880 0.9880
2474.074060 0.9880 0.9880 0.9880 0.9880 0.9880
2480.457040 0.9880 0.9880 0.9880 0.9880 0.9880
2486.840020 0.9880 0.9880 0.9880 0.9880 0.9880
2493.223000 0.9880 0.9880 0.9880 0.9880 0.9880
2499.605980 0.9880 0.9880 0.9880 0.9880 0.9880
2505.988960 0.9880 0.9876 0.9870 0.9870 0.9866
2512.371940 0.9860 0.9860 0.9860 0.9853 0.9840
2518.754920 0.9836 0.9830 0.9826 0.9820 0.9820
2525.137900 0.9813 0.9800 0.9796 0.9790 0.9786
2531.520880 0.9780 0.9780 0.9780 0.9780 0.9780
2537.903860 0.9780 0.9780 0.9780 0.9780 0.9780
2544.286840 0.9780 0.9784 0.9790 0.9790 0.9790
2550.669820 0.9790 0.9790 0.9790 0.9790 0.9790
2557.052800 0.9790 0.9790 0.9790 0.9790 0.9790
2563.435780 0.9790 0.9790 0.9790 0.9790 0.9790
2569.818760 0.9790 0.9790 0.9790 0.9790 0.9790
2576.201740 0.9790 0.9790 0.9790 0.9790 0.9790
2582.584720 0.9790 0.9790 0.9786 0.9780 0.9780
2588.967700 0.9780 0.9780 0.9780 0.9780 0.9776
2595.350680 0.9770 0.9770 0.9770 0.9770 0.9763
2601.733660 0.9750 0.9750 0.9750 0.9750 0.9750
2608.116640 0.9750 0.9757 0.9763 0.9746 0.9740
2614.499620 0.9740 0.9740 0.9740 0.9736 0.9734
2620.882600 0.9740 0.9736 0.9730 0.9726 0.9720
2627.265580 0.9720 0.9720 0.9713 0.9700 0.9700
2633.648560 0.9700 0.9696 0.9690 0.9690 0.9690
2640.031540 0.9690 0.9686 0.9680 0.9673 0.9660
2646.414520 0.9656 0.9650 0.9646 0.9640 0.9640
2652.797500 0.9640 0.9640 0.9640 0.9636 0.9634
2659.180480 0.9647 0.9660 0.9667 0.9680 0.9684
2665.563460 0.9694 0.9711 0.9730 0.9730 0.9734
2671.946440 0.9740 0.9744 0.9750 0.9750 0.9757
2678.329420 0.9770 0.9770 0.9770 0.9770 0.9770
2684.712400 0.9770 0.9763 0.9757 0.9770 0.9770
2691.095380 0.9774 0.9780 0.9780 0.9780 0.9784
2697.478360 0.9790 0.9794 0.9800 0.9800 0.9800
2703.861340 0.9800 0.9800 0.9800 0.9800 0.9800
2710.244320 0.9796 0.9790 0.9786 0.9780 0.9780
2716.627300 0.9780 0.9780 0.9780 0.9780 0.9780
2723.010280 0.9780 0.9780 0.9780 0.9780 0.9780
2729.393260 0.9780 0.9780 0.9780 0.9776 0.9770
2735.776240 0.9770 0.9770 0.9770 0.9770 0.9770
2742.159220 0.9770 0.9770 0.9770 0.9770 0.9770
2748.542200 0.9770 0.9763 0.9750 0.9750 0.9750
2754.925180 0.9750 0.9750 0.9750 0.9746 0.9736
2761.308160 0.9730 0.9726 0.9720 0.9720 0.9720
2767.691140 0.9720 0.9720 0.9720 0.9720 0.9720
2774.074120 0.9720 0.9724 0.9730 0.9730 0.9730
2780.457100 0.9730 0.9726 0.9720 0.9720 0.9720
2786.840080 0.9720 0.9720 0.9720 0.9720 0.9720
2793.223060 0.9720 0.9720 0.9720 0.9713 0.9700
2799.606040 0.9696 0.9690 0.9690 0.9690 0.9686
2805.989020 0.9680 0.9673 0.9660 0.9660 0.9660
2812.372000 0.9660 0.9660 0.9660 0.9660 0.9656
2818.754980 0.9650 0.9650 0.9650 0.9650 0.9650
2825.137960 0.9654 0.9660 0.9660 0.9660 0.9660
2831.520940 0.9660 0.9656 0.9650 0.9650 0.9650
2837.903920 0.9646 0.9640 0.9640 0.9636 0.9623
2844.286900 0.9610 0.9610 0.9610 0.9610 0.9610
2850.669880 0.9610 0.9610 0.9606 0.9600 0.9593
2857.052860 0.9569 0.9546 0.9526 0.9489 0.9452
2863.435840 0.9395 0.9336 0.9306 0.9293 0.9273
2869.818820 0.9260 0.9264 0.9274 0.9280 0.9287
2876.201800 0.9300 0.9300 0.9293 0.9280 0.9276
2882.584780 0.9266 0.9253 0.9236 0.9223 0.9196
2888.967760 0.9156 0.9112 0.9066 0.9019 0.8973
2895.350740 0.8953 0.8929 0.8906 0.8896 0.8886
2901.733720 0.8884 0.8890 0.8894 0.8928 0.8998
2908.116700 0.9048 0.9084 0.9104 0.9130 0.9130
2914.499680 0.9134 0.9140 0.9136 0.9119 0.9079
2920.882660 0.9022 0.8961 0.8899 0.8873 0.8853
2927.265640 0.8808 0.8739 0.8716 0.8706 0.8700
2933.648620 0.8704 0.8710 0.8714 0.8738 0.8813
2940.031600 0.8894 0.8904 0.8910 0.8906 0.8893
2946.414580 0.8869 0.8811 0.8726 0.8682 0.8643
2952.797560 0.8623 0.8606 0.8600 0.8600 0.8600
2959.180540 0.8600 0.8593 0.8576 0.8552 0.8506
2965.563520 0.8473 0.8414 0.8270 0.8093 0.7916
2971.946500 0.7784 0.7677 0.7543 0.7397 0.7281
2978.329480 0.7206 0.7207 0.7224 0.7244 0.7327
2984.712460 0.7469 0.7611 0.7772 0.7862 0.7955
2991.095440 0.8052 0.8145 0.8249 0.8359 0.8466
2997.478420 0.8562 0.8641 0.8708 0.8778 0.8842
3003.861400 0.8918 0.8964 0.9008 0.9054 0.9084
3010.244380 0.9090 0.9090 0.9090 0.9090 0.9086
3016.627360 0.9084 0.9101 0.9127 0.9158 0.9204
3023.010340 0.9241 0.9264 0.9266 0.9253 0.9240
3029.393320 0.9236 0.9226 0.9199 0.9149 0.9119
3035.776300 0.9082 0.9046 0.9044 0.9057 0.9074
3042.159280 0.9101 0.9154 0.9194 0.9241 0.9291
3048.542260 0.9317 0.9341 0.9356 0.9350 0.9350
3054.925240 0.9350 0.9343 0.9330 0.9326 0.9320
3061.308220 0.9320 0.9320 0.9320 0.9316 0.9310
3067.691200 0.9324 0.9368 0.9407 0.9431 0.9457
3074.074180 0.9481 0.9504 0.9514 0.9527 0.9544
3080.457160 0.9550 0.9550 0.9546 0.9544 0.9554
3086.840140 0.9556 0.9550 0.9550 0.9546 0.9540
3093.223120 0.9540 0.9540 0.9540 0.9544 0.9550
3099.606100 0.9550 0.9554 0.9560 0.9560 0.9560
3105.989080 0.9560 0.9560 0.9560 0.9560 0.9567
3112.372060 0.9580 0.9587 0.9604 0.9610 0.9617
3118.755040 0.9630 0.9623 0.9610 0.9606 0.9593
3125.138020 0.9569 0.9546 0.9540 0.9540 0.9540
3131.521000 0.9540 0.9544 0.9546 0.9540 0.9533
3137.903980 0.9520 0.9520 0.9520 0.9516 0.9510
3144.286960 0.9510 0.9506 0.9500 0.9500 0.9500
3150.669940 0.9500 0.9500 0.9504 0.9510 0.9514
3157.052920 0.9520 0.9531 0.9550 0.9554 0.9567
3163.435900 0.9580 0.9580 0.9580 0.9580 0.9580
3169.818880 0.9580 0.9580 0.9580 0.9580 0.9580
3176.201860 0.9573 0.9560 0.9560 0.9556 0.9550
3182.584840 0.9550 0.9550 0.9546 0.9540 0.9533
3188.967820 0.9516 0.9510 0.9510 0.9503 0.9483
3195.350800 0.9466 0.9453 0.9426 0.9389 0.9363
3201.733780 0.9343 0.9323 0.9310 0.9299 0.9280
3208.116760 0.9276 0.9270 0.9270 0.9270 0.9270
3214.499740 0.9270 0.9270 0.9274 0.9287 0.9304
3220.882720 0.9314 0.9320 0.9324 0.9337 0.9354
3227.265700 0.9360 0.9367 0.9391 0.9414 0.9427
3233.648680 0.9440 0.9444 0.9450 0.9450 0.9454
3240.031660 0.9460 0.9460 0.9464 0.9477 0.9490
3246.414640 0.9490 0.9494 0.9500 0.9504 0.9510
3252.797620 0.9514 0.9520 0.9520 0.9527 0.9540
3259.180600 0.9540 0.9540 0.9540 0.9540 0.9540
3265.563580 0.9540 0.9540 0.9540 0.9540 0.9540
3271.946560 0.9540 0.9540 0.9540 0.9540 0.9540
3278.329540 0.9540 0.9533 0.9520 0.9520 0.9520
3284.712520 0.9520 0.9520 0.9520 0.9516 0.9510
3291.095500 0.9510 0.9510 0.9510 0.9510 0.9510
3297.478480 0.9510 0.9506 0.9500 0.9500 0.9500
3303.861460 0.9496 0.9490 0.9490 0.9490 0.9483
3310.244440 0.9470 0.9470 0.9466 0.9456 0.9450
3316.627420 0.9446 0.9433 0.9420 0.9416 0.9410
3323.010400 0.9406 0.9404 0.9399 0.9380 0.9376
3329.393380 0.9366 0.9356 0.9350 0.9350 0.9343
3335.776360 0.9326 0.9316 0.9306 0.9300 0.9289
3342.159340 0.9266 0.9253 0.9236 0.9223 0.9196
3348.542320 0.9152 0.9106 0.9059 0.8995 0.8936
3354.925300 0.8906 0.8896 0.8879 0.8824 0.8753
3361.308280 0.8715 0.8645 0.8572 0.8488 0.8409
3367.691260 0.8352 0.8292 0.8204 0.8094 0.7992
3374.074240 0.7946 0.7916 0.7899 0.7873 0.7853
3380.457220 0.7836 0.7826 0.7820 0.7816 0.7810
3386.840200 0.7810 0.7799 0.7773 0.7753 0.7736
3393.223180 0.7719 0.7689 0.7631 0.7514 0.7423
3399.606160 0.7385 0.7294 0.7125 0.6885 0.6723
3405.989140 0.6706 0.6704 0.6717 0.6773 0.6910
3412.372120 0.7070 0.7224 0.7396 0.7620 0.7879
3418.755100 0.8025 0.8224 0.8386 0.8509 0.8612
3425.138080 0.8698 0.8799 0.8911 0.8982 0.9058
3431.521060 0.9108 0.9151 0.9184 0.9214 0.9224
3437.904040 0.9234 0.9247 0.9260 0.9264 0.9270
3444.287020 0.9270 0.9274 0.9280 0.9280 0.9280
3450.670000 0.9276 0.9266 0.9260 0.9253 0.9236
3457.052980 0.9226 0.9216 0.9199 0.9173 0.9153
3463.435960 0.9133 0.9113 0.9079 0.9026 0.8993
3469.818940 0.8969 0.8943 0.8923 0.8903 0.8879
3476.201920 0.8846 0.8802 0.8759 0.8719 0.8655
3482.584900 0.8581 0.8505 0.8435 0.8369 0.8305
3488.967880 0.8239 0.8179 0.8112 0.8053 0.8033
3495.350860 0.8016 0.8010 0.8010 0.8014 0.8027
3501.733840 0.8051 0.8088 0.8141 0.8205 0.8268
3508.116820 0.8329 0.8401 0.8472 0.8566 0.8662
3514.499800 0.8777 0.8891 0.8928 0.8988 0.9061
3520.882780 0.9114 0.9151 0.9188 0.9238 0.9281
3527.265760 0.9304 0.9314 0.9331 0.9354 0.9367
3533.648740 0.9387 0.9407 0.9427 0.9440 0.9444
3540.031720 0.9454 0.9464 0.9470 0.9477 0.9490
3546.414700 0.9494 0.9500 0.9504 0.9510 0.9510
3552.797680 0.9510 0.9510 0.9510 0.9510 0.9514
3559.180660 0.9520 0.9520 0.9520 0.9520 0.9520
3565.563640 0.9520 0.9520 0.9527 0.9540 0.9540
3571.946620 0.9540 0.9540 0.9540 0.9544 0.9550
3578.329600 0.9550 0.9550 0.9550 0.9550 0.9550
3584.712580 0.9554 0.9560 0.9560 0.9560 0.9560
3591.095560 0.9560 0.9560 0.9560 0.9560 0.9560
3597.478540 0.9560 0.9560 0.9560 0.9556 0.9550
3603.861520 0.9550 0.9550 0.9550 0.9550 0.9550
3610.244500 0.9550 0.9550 0.9550 0.9550 0.9554
3616.627480 0.9560 0.9560 0.9560 0.9560 0.9560
3623.010460 0.9560 0.9560 0.9560 0.9560 0.9560
3629.393440 0.9560 0.9560 0.9560 0.9560 0.9560
3635.776420 0.9560 0.9560 0.9560 0.9560 0.9560
3642.159400 0.9567 0.9573 0.9560 0.9556 0.9550
3648.542380 0.9546 0.9540 0.9533 0.9516 0.9510
3654.925360 0.9514 0.9527 0.9547 0.9560 0.9560
3661.308340 0.9567 0.9580 0.9580 0.9580 0.9573
3667.691320 0.9560 0.9556 0.9546 0.9533 0.9520
3674.074300 0.9527 0.9540 0.9540 0.9540 0.9540
3680.457280 0.9540 0.9540 0.9540 0.9540 0.9540
3686.840260 0.9540 0.9540 0.9540 0.9540 0.9540
3693.223240 0.9540 0.9540 0.9540 0.9540 0.9540
3699.606220 0.9540 0.9540 0.9540 0.9540 0.9544
3705.989200 0.9550 0.9550 0.9550 0.9550 0.9546
3712.372180 0.9540 0.9540 0.9533 0.9520 0.9520
3718.755160 0.9527 0.9544 0.9550 0.9550 0.9550
3725.138140 0.9550 0.9550 0.9550 0.9546 0.9540
3731.521120 0.9540 0.9540 0.9540 0.9540 0.9540
3737.904100 0.9540 0.9540 0.9540 0.9540 0.9540
3744.287080 0.9540 0.9540 0.9540 0.9540 0.9533
3750.670060 0.9520 0.9520 0.9520 0.9520 0.9520
3757.053040 0.9520 0.9520 0.9520 0.9520 0.9520
3763.436020 0.9520 0.9527 0.9540 0.9540 0.9540
3769.819000 0.9540 0.9533 0.9527 0.9540 0.9544
3776.201980 0.9550 0.9550 0.9554 0.9560 0.9560
3782.584960 0.9567 0.9573 0.9560 0.9560 0.9560
3788.967940 0.9560 0.9560 0.9556 0.9554 0.9560
3795.350920 0.9560 0.9560 0.9560 0.9556 0.9550
3801.733900 0.9539 0.9520 0.9520 0.9520 0.9516
3808.116880 0.9510 0.9524 0.9539 0.9520 0.9520
3814.499860 0.9520 0.9516 0.9510
##END=
