##TITLE=PHENETHYLTRICHLOROSILANE
##JCAMP-DX=4.24
##DATA TYPE=INFRARED SPECTRUM
##CLASS=COBLENTZ
##ORIGIN=PENINSULAR CHEMRESEARCH, INC., GAINESVILLE, FLORIDA
##OWNER=COBLENTZ SOCIETY
Collection (C) 2018 copyright by the U.S. Secretary of Commerce
on behalf of the United States of America. All rights reserved.
##DATE=Not specified, most likely prior to 1970
##NAMES=trichloro(2-phenylethyl)silane
##CAS REGISTRY NO=940-41-0
##MOLFORM=C8 H9 Cl3 Si
##SOURCE REFERENCE=COBLENTZ NO. 4912
##$NIST SOURCE=COBLENTZ
##$NIST IMAGE=cob4912
##SPECTROMETER/DATA SYSTEM=BECKMAN IR-4 (HYBRID PRISM-GRATING)
##STATE=SOLID (BETWEEN SALTS)
##SAMPLING PROCEDURE=TRANSMISSION
##RESOLUTION=4
$$ MW 239.61
##DATA PROCESSING=DIGITIZED BY NIST FROM HARD COPY
##XUNITS=MICROMETERS
##YUNITS=TRANSMITTANCE
##XFACTOR=1.000000
##YFACTOR=1
##DELTAX=000.004988
##FIRSTX=2.02
##LASTX=15.008
##FIRSTY=0.906
##MAXX=15.008
##MINX=2.02
##MAXY=0.998
##MINY=0.152
##NPOINTS=2605
##XYDATA=(X++(Y..Y))
2.020000 0.9060 0.9060 0.9070 0.9070 0.9070
2.044947 0.9080 0.9080 0.9080 0.9100 0.9100
2.070000 0.9100 0.9080 0.9080 0.9070 0.9060
2.094947 0.9050 0.9050 0.9050 0.9060 0.9060
2.120000 0.9070 0.9070 0.9070 0.9100 0.9110
2.144947 0.9120 0.9120 0.9130 0.9130 0.9130
2.170000 0.9130 0.9130 0.9130 0.9130 0.9150
2.194947 0.9150 0.9160 0.9160 0.9170 0.9180
2.219000 0.9180 0.9180 0.9180 0.9180 0.9180
2.243947 0.9170 0.9170 0.9160 0.9160 0.9160
2.269000 0.9150 0.9130 0.9130 0.9130 0.9130
2.293947 0.9130 0.9130 0.9150 0.9150 0.9160
2.319000 0.9160 0.9160 0.9170 0.9170 0.9170
2.343947 0.9170 0.9160 0.9160 0.9150 0.9150
2.369000 0.9150 0.9130 0.9120 0.9120 0.9120
2.393947 0.9110 0.9110 0.9100 0.9100 0.9080
2.419000 0.9070 0.9060 0.9020 0.9010 0.9000
2.443947 0.9000 0.9000 0.9020 0.9070 0.9110
2.469000 0.9120 0.9130 0.9150 0.9150 0.9160
2.493947 0.9160 0.9160 0.9150 0.9150 0.9130
2.519000 0.9130 0.9120 0.9110 0.9100 0.9100
2.543947 0.9080 0.9080 0.9080 0.9080 0.9100
2.569000 0.9110 0.9150 0.9150 0.9160 0.9170
2.593947 0.9180 0.9180 0.9180 0.9180 0.9170
2.618000 0.9170 0.9150 0.9110 0.9070 0.9050
2.642947 0.9030 0.9050 0.9070 0.9080 0.9080
2.668000 0.9080 0.9080 0.9070 0.9030 0.8980
2.692947 0.8960 0.8920 0.8910 0.8910 0.8900
2.718000 0.8830 0.8820 0.8810 0.8800 0.8780
2.742947 0.8780 0.8780 0.8800 0.8810 0.8810
2.768000 0.8800 0.8800 0.8780 0.8770 0.8770
2.792947 0.8760 0.8760 0.8750 0.8750 0.8730
2.818000 0.8720 0.8720 0.8720 0.8710 0.8710
2.842947 0.8700 0.8700 0.8700 0.8680 0.8680
2.868000 0.8670 0.8670 0.8670 0.8670 0.8670
2.892947 0.8670 0.8670 0.8660 0.8650 0.8650
2.918000 0.8630 0.8620 0.8620 0.8620 0.8620
2.942947 0.8620 0.8620 0.8620 0.8620 0.8630
2.968000 0.8630 0.8630 0.8650 0.8650 0.8650
2.992947 0.8650 0.8650 0.8650 0.8660 0.8660
3.017000 0.8670 0.8670 0.8670 0.8670 0.8670
3.041947 0.8670 0.8670 0.8670 0.8670 0.8680
3.067000 0.8680 0.8700 0.8700 0.8700 0.8710
3.091947 0.8720 0.8750 0.8770 0.8780 0.8780
3.117000 0.8800 0.8780 0.8770 0.8750 0.8720
3.141947 0.8710 0.8710 0.8700 0.8680 0.8680
3.167000 0.8670 0.8670 0.8670 0.8650 0.8600
3.191947 0.8480 0.8330 0.8180 0.8030 0.7870
3.217000 0.7720 0.7560 0.7390 0.7200 0.7000
3.241947 0.6900 0.6690 0.6570 0.6570 0.6670
3.267000 0.6670 0.6660 0.6590 0.6450 0.6370
3.291947 0.6290 0.5900 0.5900 0.5980 0.6710
3.317000 0.7250 0.7590 0.7750 0.7860 0.8050
3.341947 0.8080 0.8070 0.8050 0.8020 0.7950
3.367000 0.7840 0.7620 0.7350 0.7100 0.6770
3.391947 0.6520 0.6410 0.6270 0.6140 0.6140
3.416000 0.6210 0.6300 0.6390 0.6470 0.6570
3.440947 0.6690 0.6890 0.7090 0.7240 0.7350
3.466000 0.7500 0.7540 0.7540 0.7520 0.7520
3.490947 0.7550 0.7640 0.7850 0.8200 0.8400
3.516000 0.8530 0.8650 0.8800 0.8810 0.8810
3.540947 0.8810 0.8810 0.8800 0.8760 0.8730
3.566000 0.8710 0.8700 0.8700 0.8720 0.8750
3.590947 0.8770 0.8780 0.8820 0.8830 0.8830
3.616000 0.8860 0.8880 0.8900 0.8920 0.8930
3.640947 0.8950 0.8960 0.8980 0.9010 0.9050
3.666000 0.9060 0.9080 0.9100 0.9110 0.9120
3.690947 0.9160 0.9170 0.9180 0.9200 0.9180
3.716000 0.9200 0.9200 0.9200 0.9200 0.9200
3.740947 0.9200 0.9200 0.9200 0.9200 0.9200
3.766000 0.9200 0.9210 0.9210 0.9210 0.9210
3.790947 0.9210 0.9210 0.9210 0.9210 0.9210
3.815000 0.9210 0.9220 0.9220 0.9220 0.9220
3.839947 0.9220 0.9230 0.9250 0.9250 0.9260
3.865000 0.9260 0.9270 0.9280 0.9300 0.9310
3.889947 0.9320 0.9320 0.9330 0.9330 0.9330
3.915000 0.9330 0.9330 0.9320 0.9320 0.9320
3.939947 0.9320 0.9320 0.9320 0.9330 0.9330
3.965000 0.9330 0.9330 0.9330 0.9330 0.9330
3.989947 0.9330 0.9350 0.9350 0.9360 0.9380
4.015000 0.9400 0.9400 0.9400 0.9400 0.9380
4.039947 0.9370 0.9360 0.9330 0.9330 0.9330
4.065000 0.9330 0.9330 0.9350 0.9350 0.9370
4.089947 0.9370 0.9380 0.9400 0.9400 0.9410
4.115000 0.9410 0.9420 0.9420 0.9410 0.9410
4.139947 0.9380 0.9370 0.9360 0.9350 0.9330
4.165000 0.9320 0.9280 0.9270 0.9200 0.9130
4.189947 0.9100 0.9080 0.9080 0.9080 0.9100
4.214000 0.9120 0.9150 0.9170 0.9200 0.9210
4.238947 0.9210 0.9230 0.9270 0.9300 0.9300
4.264000 0.9310 0.9320 0.9350 0.9360 0.9370
4.288947 0.9400 0.9420 0.9450 0.9470 0.9480
4.314000 0.9480 0.9500 0.9500 0.9500 0.9500
4.338947 0.9500 0.9500 0.9500 0.9500 0.9500
4.364000 0.9500 0.9500 0.9480 0.9480 0.9480
4.388947 0.9480 0.9480 0.9480 0.9470 0.9470
4.414000 0.9470 0.9470 0.9470 0.9460 0.9460
4.438947 0.9460 0.9460 0.9460 0.9470 0.9470
4.464000 0.9470 0.9470 0.9470 0.9480 0.9510
4.488947 0.9520 0.9570 0.9580 0.9580 0.9580
4.514000 0.9580 0.9600 0.9600 0.9600 0.9580
4.538947 0.9580 0.9580 0.9570 0.9560 0.9550
4.564000 0.9550 0.9530 0.9530 0.9520 0.9500
4.588947 0.9500 0.9480 0.9470 0.9470 0.9470
4.613000 0.9500 0.9550 0.9550 0.9560 0.9560
4.637947 0.9560 0.9560 0.9570 0.9580 0.9580
4.663000 0.9610 0.9620 0.9670 0.9710 0.9710
4.687947 0.9720 0.9720 0.9720 0.9720 0.9710
4.713000 0.9700 0.9660 0.9600 0.9580 0.9580
4.737947 0.9610 0.9660 0.9680 0.9680 0.9700
4.763000 0.9700 0.9710 0.9720 0.9730 0.9730
4.787947 0.9750 0.9750 0.9730 0.9700 0.9700
4.813000 0.9680 0.9680 0.9680 0.9710 0.9710
4.837947 0.9710 0.9710 0.9700 0.9680 0.9680
4.863000 0.9700 0.9700 0.9710 0.9710 0.9720
4.887947 0.9720 0.9730 0.9750 0.9770 0.9770
4.913000 0.9770 0.9770 0.9760 0.9730 0.9710
4.937947 0.9720 0.9720 0.9710 0.9710 0.9700
4.963000 0.9700 0.9700 0.9660 0.9600 0.9580
4.987947 0.9580 0.9600 0.9680 0.9710 0.9710
5.012000 0.9680 0.9680 0.9630 0.9610 0.9610
5.036947 0.9580 0.9520 0.9460 0.9400 0.9350
5.062000 0.9300 0.9270 0.9220 0.9200 0.9150
5.086947 0.9100 0.9080 0.9070 0.9070 0.9070
5.112000 0.9060 0.9050 0.9050 0.9070 0.9200
5.136947 0.9300 0.9380 0.9460 0.9520 0.9570
5.162000 0.9600 0.9600 0.9620 0.9650 0.9700
5.186947 0.9710 0.9710 0.9700 0.9680 0.9680
5.212000 0.9680 0.9670 0.9670 0.9670 0.9660
5.236947 0.9660 0.9650 0.9600 0.9570 0.9520
5.262000 0.9510 0.9500 0.9480 0.9480 0.9470
5.286947 0.9460 0.9430 0.9420 0.9380 0.9360
5.312000 0.9350 0.9370 0.9420 0.9520 0.9630
5.336947 0.9700 0.9710 0.9710 0.9730 0.9770
5.362000 0.9780 0.9770 0.9760 0.9730 0.9710
5.386947 0.9700 0.9710 0.9830 0.9880 0.9970
5.411000 0.9980 0.9920 0.9870 0.9830 0.9810
5.435947 0.9770 0.9760 0.9750 0.9730 0.9730
5.461000 0.9720 0.9700 0.9670 0.9670 0.9620
5.485947 0.9600 0.9550 0.9500 0.9450 0.9400
5.511000 0.9370 0.9310 0.9300 0.9310 0.9380
5.535947 0.9410 0.9460 0.9530 0.9610 0.9670
5.561000 0.9750 0.9780 0.9780 0.9750 0.9720
5.585947 0.9680 0.9710 0.9700 0.9670 0.9630
5.611000 0.9580 0.9570 0.9580 0.9630 0.9660
5.635947 0.9680 0.9630 0.9600 0.9520 0.9510
5.661000 0.9500 0.9480 0.9450 0.9420 0.9400
5.685947 0.9370 0.9360 0.9360 0.9400 0.9380
5.711000 0.9360 0.9350 0.9320 0.9320 0.9350
5.735947 0.9360 0.9410 0.9430 0.9460 0.9460
5.761000 0.9460 0.9480 0.9480 0.9470 0.9430
5.785947 0.9410 0.9410 0.9480 0.9550 0.9600
5.810000 0.9610 0.9600 0.9550 0.9520 0.9480
5.834947 0.9470 0.9470 0.9520 0.9560 0.9570
5.860000 0.9570 0.9580 0.9580 0.9580 0.9580
5.884947 0.9580 0.9570 0.9570 0.9560 0.9570
5.910000 0.9570 0.9580 0.9580 0.9600 0.9610
5.934947 0.9600 0.9580 0.9580 0.9560 0.9550
5.960000 0.9570 0.9600 0.9610 0.9610 0.9600
5.984947 0.9580 0.9570 0.9550 0.9520 0.9500
6.010000 0.9470 0.9470 0.9480 0.9550 0.9600
6.034947 0.9630 0.9650 0.9630 0.9630 0.9610
6.060000 0.9600 0.9570 0.9560 0.9550 0.9510
6.084947 0.9550 0.9580 0.9610 0.9620 0.9610
6.110000 0.9530 0.9510 0.9460 0.9410 0.9410
6.134947 0.9410 0.9410 0.9410 0.9400 0.9330
6.160000 0.9320 0.9280 0.9230 0.9160 0.9080
6.184947 0.9000 0.8650 0.8280 0.8110 0.7920
6.209000 0.7540 0.7320 0.7320 0.7400 0.7670
6.233947 0.7950 0.8200 0.8410 0.8570 0.8720
6.259000 0.8850 0.8920 0.8980 0.9010 0.8960
6.283947 0.8930 0.8880 0.8870 0.8880 0.8950
6.309000 0.9050 0.9150 0.9260 0.9330 0.9410
6.333947 0.9460 0.9500 0.9510 0.9510 0.9530
6.359000 0.9550 0.9550 0.9560 0.9560 0.9570
6.383947 0.9600 0.9650 0.9680 0.9710 0.9780
6.409000 0.9820 0.9820 0.9810 0.9780 0.9770
6.433947 0.9720 0.9710 0.9630 0.9610 0.9570
6.459000 0.9560 0.9570 0.9600 0.9650 0.9660
6.483947 0.9670 0.9680 0.9700 0.9680 0.9660
6.509000 0.9620 0.9600 0.9550 0.9460 0.9400
6.533947 0.9320 0.9270 0.9230 0.9220 0.9200
6.559000 0.9170 0.9110 0.9100 0.9050 0.9010
6.583947 0.8960 0.8850 0.8720 0.8450 0.8160
6.608000 0.7970 0.7870 0.7800 0.7740 0.7640
6.632947 0.7470 0.7160 0.6910 0.6750 0.6670
6.658000 0.6460 0.6460 0.6560 0.7060 0.7540
6.682947 0.7770 0.8250 0.8680 0.9030 0.9200
6.708000 0.9310 0.9320 0.9320 0.9300 0.9270
6.732947 0.9250 0.9230 0.9220 0.9210 0.9210
6.758000 0.9220 0.9260 0.9280 0.9310 0.9300
6.782947 0.9250 0.9210 0.9130 0.9020 0.8860
6.808000 0.8660 0.8400 0.8060 0.7640 0.7140
6.832947 0.6450 0.6240 0.5860 0.5490 0.5490
6.858000 0.5680 0.5830 0.6160 0.6260 0.6320
6.882947 0.6870 0.7370 0.7700 0.7900 0.8030
6.908000 0.8160 0.8230 0.8280 0.8380 0.8480
6.932947 0.8630 0.8820 0.8950 0.9050 0.9130
6.958000 0.9220 0.9300 0.9370 0.9420 0.9470
6.982947 0.9500 0.9520 0.9510 0.9460 0.9430
7.007000 0.9380 0.9330 0.9320 0.9300 0.9270
7.031947 0.9210 0.9200 0.9180 0.9120 0.9050
7.057000 0.8960 0.8860 0.8850 0.8700 0.8600
7.081947 0.8570 0.8560 0.8550 0.8550 0.8550
7.107000 0.8560 0.8610 0.8700 0.8760 0.8780
7.131947 0.8810 0.8850 0.8870 0.8880 0.8880
7.157000 0.8880 0.8880 0.8880 0.8900 0.8910
7.181947 0.8950 0.9000 0.9060 0.9110 0.9120
7.207000 0.9150 0.9150 0.9160 0.9180 0.9220
7.231947 0.9270 0.9300 0.9320 0.9380 0.9450
7.257000 0.9530 0.9600 0.9650 0.9680 0.9700
7.281947 0.9680 0.9670 0.9610 0.9600 0.9600
7.307000 0.9620 0.9620 0.9620 0.9620 0.9610
7.331947 0.9610 0.9610 0.9600 0.9550 0.9480
7.357000 0.9450 0.9410 0.9380 0.9310 0.9300
7.381947 0.9310 0.9320 0.9330 0.9330 0.9320
7.406000 0.9310 0.9270 0.9220 0.9210 0.9200
7.430947 0.9200 0.9220 0.9220 0.9220 0.9210
7.456000 0.9200 0.9200 0.9170 0.9170 0.9160
7.480947 0.9130 0.9130 0.9110 0.9100 0.9060
7.506000 0.9060 0.9050 0.9050 0.9050 0.9060
7.530947 0.9060 0.9080 0.9100 0.9110 0.9120
7.556000 0.9150 0.9170 0.9200 0.9210 0.9260
7.580947 0.9280 0.9300 0.9320 0.9350 0.9360
7.606000 0.9360 0.9370 0.9380 0.9380 0.9400
7.630947 0.9400 0.9400 0.9400 0.9400 0.9410
7.656000 0.9410 0.9420 0.9420 0.9420 0.9420
7.680947 0.9450 0.9480 0.9500 0.9500 0.9510
7.706000 0.9520 0.9550 0.9550 0.9560 0.9560
7.730947 0.9570 0.9580 0.9580 0.9600 0.9600
7.756000 0.9610 0.9610 0.9620 0.9620 0.9610
7.780947 0.9610 0.9600 0.9580 0.9570 0.9570
7.805000 0.9560 0.9560 0.9550 0.9500 0.9480
7.829947 0.9450 0.9410 0.9380 0.9360 0.9330
7.855000 0.9320 0.9320 0.9320 0.9320 0.9330
7.879947 0.9350 0.9360 0.9360 0.9360 0.9370
7.905000 0.9380 0.9450 0.9500 0.9520 0.9560
7.929947 0.9670 0.9670 0.9670 0.9680 0.9680
7.955000 0.9680 0.9680 0.9700 0.9700 0.9680
7.979947 0.9680 0.9670 0.9670 0.9660 0.9650
8.005000 0.9650 0.9660 0.9660 0.9670 0.9670
8.029947 0.9670 0.9670 0.9660 0.9660 0.9660
8.055000 0.9650 0.9630 0.9630 0.9620 0.9620
8.079947 0.9630 0.9630 0.9630 0.9630 0.9630
8.105000 0.9620 0.9620 0.9610 0.9600 0.9580
8.129947 0.9580 0.9560 0.9560 0.9550 0.9530
8.155000 0.9520 0.9510 0.9500 0.9480 0.9480
8.179947 0.9480 0.9480 0.9470 0.9450 0.9370
8.204000 0.9310 0.9260 0.9220 0.9210 0.9180
8.228947 0.9150 0.9110 0.9080 0.9050 0.8980
8.254000 0.8950 0.8880 0.8800 0.8660 0.8470
8.278947 0.8350 0.8250 0.8060 0.7900 0.7750
8.304000 0.7650 0.7570 0.7450 0.7320 0.7190
8.328947 0.7060 0.6950 0.6810 0.6750 0.6670
8.354000 0.6610 0.6540 0.6440 0.6300 0.6220
8.378947 0.6190 0.6120 0.6060 0.6000 0.5960
8.404000 0.5940 0.5890 0.5850 0.5810 0.5790
8.428947 0.5780 0.5780 0.5790 0.5790 0.5810
8.454000 0.5840 0.5860 0.5890 0.5960 0.6040
8.478947 0.6140 0.6250 0.6390 0.6540 0.6670
8.504000 0.6820 0.6950 0.7060 0.7160 0.7250
8.528947 0.7270 0.7310 0.7320 0.7340 0.7340
8.554000 0.7320 0.7310 0.7270 0.7210 0.7190
8.578947 0.7160 0.7110 0.7090 0.7020 0.6950
8.603000 0.6860 0.6790 0.6750 0.6690 0.6640
8.627947 0.6550 0.6490 0.6410 0.6370 0.6310
8.653000 0.6250 0.6220 0.6210 0.6200 0.6170
8.677947 0.6100 0.6050 0.5960 0.5940 0.5830
8.703000 0.5800 0.5740 0.5690 0.5650 0.5540
8.727947 0.5440 0.5340 0.5240 0.5180 0.5130
8.753000 0.5110 0.5090 0.5050 0.4990 0.4910
8.777947 0.4880 0.4810 0.4790 0.4730 0.4650
8.803000 0.4580 0.4490 0.4480 0.4450 0.4430
8.827947 0.4390 0.4380 0.4310 0.4290 0.4290
8.853000 0.4260 0.4240 0.4200 0.4140 0.4060
8.877947 0.4010 0.3990 0.3930 0.3900 0.3880
8.903000 0.3870 0.3870 0.3880 0.3950 0.3990
8.927947 0.4030 0.4050 0.4090 0.4190 0.4190
8.953000 0.4260 0.4330 0.4350 0.4360 0.4390
8.977947 0.4430 0.4480 0.4500 0.4500 0.4500
9.002000 0.4510 0.4510 0.4510 0.4530 0.4550
9.026947 0.4580 0.4630 0.4680 0.4690 0.4690
9.052000 0.4690 0.4680 0.4680 0.4690 0.4710
9.076947 0.4750 0.4760 0.4790 0.4790 0.4800
9.102000 0.4810 0.4830 0.4850 0.4880 0.4880
9.126947 0.4880 0.4890 0.4890 0.4900 0.4900
9.152000 0.4900 0.4900 0.4900 0.4900 0.4900
9.176947 0.4900 0.4910 0.4930 0.4940 0.4950
9.202000 0.4940 0.4940 0.4940 0.4930 0.4930
9.226947 0.4930 0.4910 0.4900 0.4900 0.4890
9.252000 0.4840 0.4830 0.4810 0.4810 0.4810
9.276947 0.4800 0.4800 0.4800 0.4790 0.4790
9.302000 0.4780 0.4750 0.4740 0.4710 0.4710
9.326947 0.4700 0.4690 0.4680 0.4680 0.4660
9.352000 0.4660 0.4660 0.4680 0.4710 0.4740
9.376947 0.4780 0.4830 0.4840 0.4860 0.4880
9.401000 0.4890 0.4910 0.4940 0.4950 0.4960
9.425947 0.4990 0.5040 0.5100 0.5130 0.5160
9.451000 0.5190 0.5230 0.5280 0.5290 0.5310
9.475947 0.5340 0.5360 0.5380 0.5400 0.5440
9.501000 0.5460 0.5500 0.5510 0.5540 0.5560
9.525947 0.5590 0.5610 0.5650 0.5690 0.5730
9.551000 0.5760 0.5780 0.5780 0.5790 0.5790
9.575947 0.5800 0.5810 0.5810 0.5810 0.5830
9.601000 0.5830 0.5840 0.5850 0.5850 0.5850
9.625947 0.5850 0.5840 0.5830 0.5800 0.5780
9.651000 0.5740 0.5640 0.5550 0.5480 0.5350
9.675947 0.5300 0.5210 0.5090 0.4980 0.4950
9.701000 0.4960 0.5010 0.5100 0.5160 0.5240
9.725947 0.5310 0.5400 0.5490 0.5550 0.5600
9.751000 0.5630 0.5660 0.5680 0.5740 0.5780
9.775947 0.5790 0.5810 0.5830 0.5840 0.5840
9.800000 0.5850 0.5850 0.5850 0.5840 0.5830
9.824947 0.5830 0.5810 0.5810 0.5810 0.5800
9.850000 0.5790 0.5780 0.5780 0.5760 0.5750
9.874947 0.5740 0.5730 0.5710 0.5700 0.5690
9.900000 0.5680 0.5680 0.5640 0.5590 0.5580
9.924947 0.5550 0.5510 0.5510 0.5530 0.5580
9.950000 0.5600 0.5650 0.5680 0.5740 0.5810
9.974947 0.5830 0.5840 0.5810 0.5790 0.5740
10.000000 0.5680 0.5600 0.5550 0.5540 0.5530
10.024947 0.5500 0.5500 0.5480 0.5460 0.5440
10.050000 0.5430 0.5440 0.5460 0.5530 0.5590
10.074947 0.5660 0.5700 0.5790 0.5860 0.5950
10.100000 0.6020 0.6110 0.6200 0.6290 0.6370
10.124947 0.6470 0.6560 0.6650 0.6720 0.6860
10.150000 0.6950 0.7020 0.7090 0.7160 0.7260
10.174947 0.7350 0.7410 0.7490 0.7550 0.7610
10.200000 0.7670 0.7740 0.7810 0.7900 0.7990
10.224947 0.8080 0.8210 0.8330 0.8400 0.8430
10.249000 0.8470 0.8510 0.8550 0.8600 0.8660
10.273947 0.8720 0.8780 0.8810 0.8830 0.8830
10.299000 0.8850 0.8860 0.8880 0.8920 0.8950
10.323947 0.8960 0.8960 0.8970 0.8980 0.9000
10.349000 0.9000 0.9010 0.9010 0.9020 0.9030
10.373947 0.9050 0.9070 0.9100 0.9120 0.9150
10.399000 0.9160 0.9180 0.9200 0.9210 0.9220
10.423947 0.9260 0.9280 0.9280 0.9300 0.9310
10.449000 0.9310 0.9310 0.9310 0.9310 0.9310
10.473947 0.9310 0.9320 0.9320 0.9320 0.9330
10.499000 0.9330 0.9330 0.9350 0.9350 0.9350
10.523947 0.9360 0.9360 0.9370 0.9370 0.9370
10.549000 0.9360 0.9350 0.9330 0.9330 0.9330
10.573947 0.9320 0.9310 0.9310 0.9280 0.9280
10.599000 0.9280 0.9270 0.9270 0.9260 0.9260
10.623947 0.9250 0.9250 0.9230 0.9230 0.9220
10.648000 0.9220 0.9210 0.9200 0.9200 0.9170
10.672947 0.9170 0.9150 0.9150 0.9120 0.9110
10.698000 0.9100 0.9080 0.9080 0.9070 0.9060
10.722947 0.9060 0.9050 0.9030 0.9030 0.9020
10.748000 0.9020 0.9000 0.8970 0.8930 0.8910
10.772947 0.8880 0.8830 0.8810 0.8770 0.8720
10.798000 0.8720 0.8710 0.8700 0.8670 0.8650
10.822947 0.8610 0.8570 0.8570 0.8550 0.8530
10.848000 0.8520 0.8510 0.8480 0.8450 0.8420
10.872947 0.8370 0.8350 0.8330 0.8320 0.8320
10.898000 0.8310 0.8260 0.8250 0.8180 0.8120
10.922947 0.8080 0.8050 0.8030 0.8010 0.8000
10.948000 0.7960 0.7910 0.7840 0.7770 0.7760
10.972947 0.7740 0.7720 0.7670 0.7640 0.7590
10.998000 0.7560 0.7520 0.7460 0.7390 0.7390
11.022947 0.7350 0.7290 0.7220 0.7140 0.7050
11.047000 0.6960 0.6870 0.6790 0.6740 0.6700
11.071947 0.6650 0.6550 0.6510 0.6460 0.6420
11.097000 0.6370 0.6360 0.6360 0.6360 0.6370
11.121947 0.6390 0.6440 0.6490 0.6540 0.6590
11.147000 0.6610 0.6660 0.6710 0.6850 0.6960
11.171947 0.7020 0.7090 0.7160 0.7240 0.7300
11.197000 0.7370 0.7450 0.7510 0.7570 0.7640
11.221947 0.7670 0.7710 0.7740 0.7760 0.7790
11.247000 0.7810 0.7840 0.7860 0.7900 0.7940
11.271947 0.7970 0.8020 0.8070 0.8120 0.8170
11.297000 0.8220 0.8250 0.8280 0.8300 0.8310
11.321947 0.8320 0.8360 0.8420 0.8480 0.8500
11.347000 0.8510 0.8520 0.8560 0.8630 0.8660
11.371947 0.8670 0.8680 0.8700 0.8710 0.8720
11.397000 0.8750 0.8770 0.8780 0.8780 0.8800
11.421947 0.8810 0.8810 0.8820 0.8860 0.8900
11.446000 0.8920 0.8930 0.8930 0.8950 0.8960
11.470947 0.8960 0.8970 0.8980 0.8980 0.8980
11.496000 0.8980 0.9000 0.9000 0.9000 0.9000
11.520947 0.9000 0.9000 0.9010 0.9010 0.9010
11.546000 0.9010 0.9010 0.9010 0.9010 0.9010
11.570947 0.9010 0.9010 0.9020 0.9030 0.9030
11.596000 0.9050 0.9050 0.9050 0.9060 0.9060
11.620947 0.9060 0.9070 0.9070 0.9070 0.9080
11.646000 0.9080 0.9080 0.9080 0.9080 0.9080
11.670947 0.9080 0.9080 0.9080 0.9080 0.9080
11.696000 0.9080 0.9080 0.9080 0.9070 0.9070
11.720947 0.9060 0.9050 0.9050 0.9050 0.9030
11.746000 0.9020 0.9010 0.9000 0.8980 0.8970
11.770947 0.8960 0.8960 0.8950 0.8930 0.8930
11.796000 0.8920 0.8910 0.8900 0.8880 0.8860
11.820947 0.8830 0.8810 0.8770 0.8730 0.8720
11.845000 0.8700 0.8680 0.8680 0.8680 0.8680
11.869947 0.8680 0.8680 0.8680 0.8680 0.8670
11.895000 0.8660 0.8650 0.8630 0.8630 0.8630
11.919947 0.8620 0.8620 0.8610 0.8610 0.8610
11.945000 0.8610 0.8600 0.8580 0.8570 0.8570
11.969947 0.8570 0.8550 0.8530 0.8520 0.8510
11.995000 0.8500 0.8480 0.8420 0.8360 0.8350
12.019947 0.8320 0.8270 0.8220 0.8150 0.8060
12.045000 0.7970 0.7890 0.7800 0.7700 0.7600
12.069947 0.7510 0.7420 0.7340 0.7250 0.7150
12.095000 0.7050 0.6990 0.6920 0.6890 0.6850
12.119947 0.6810 0.6800 0.6800 0.6790 0.6790
12.145000 0.6770 0.6770 0.6770 0.6770 0.6790
12.169947 0.6800 0.6820 0.6850 0.6890 0.6920
12.195000 0.6970 0.7020 0.7090 0.7150 0.7170
12.219947 0.7320 0.7340 0.7440 0.7500 0.7550
12.244000 0.7640 0.7750 0.7800 0.7850 0.7860
12.268947 0.7870 0.7890 0.7890 0.7900 0.7900
12.294000 0.7910 0.7910 0.7910 0.7910 0.7910
12.318947 0.7900 0.7890 0.7870 0.7860 0.7820
12.344000 0.7810 0.7790 0.7770 0.7760 0.7740
12.368947 0.7720 0.7710 0.7710 0.7700 0.7700
12.394000 0.7690 0.7690 0.7690 0.7690 0.7700
12.418947 0.7700 0.7710 0.7710 0.7720 0.7720
12.444000 0.7750 0.7760 0.7840 0.7850 0.7870
12.468947 0.7890 0.7900 0.7920 0.7950 0.8000
12.494000 0.8070 0.8100 0.8120 0.8120 0.8130
12.518947 0.8130 0.8130 0.8120 0.8120 0.8110
12.544000 0.8100 0.8100 0.8080 0.8050 0.8050
12.568947 0.8020 0.8010 0.7990 0.7960 0.7920
12.594000 0.7900 0.7900 0.7860 0.7810 0.7760
12.618947 0.7720 0.7670 0.7640 0.7590 0.7550
12.643000 0.7510 0.7460 0.7420 0.7420 0.7410
12.667947 0.7390 0.7350 0.7300 0.7250 0.7200
12.693000 0.7150 0.7110 0.7060 0.7040 0.7020
12.717947 0.7010 0.7000 0.6960 0.6900 0.6890
12.743000 0.6870 0.6850 0.6790 0.6700 0.6690
12.767947 0.6670 0.6660 0.6640 0.6600 0.6540
12.793000 0.6450 0.6360 0.6300 0.6220 0.6160
12.817947 0.6110 0.6040 0.5980 0.5890 0.5750
12.843000 0.5610 0.5490 0.5360 0.5240 0.5110
12.867947 0.4980 0.4830 0.4680 0.4490 0.4360
12.893000 0.4200 0.4040 0.3870 0.3690 0.3500
12.917947 0.3390 0.3200 0.3080 0.2980 0.2900
12.943000 0.2840 0.2790 0.2740 0.2670 0.2650
12.967947 0.2640 0.2640 0.2650 0.2690 0.2730
12.993000 0.2780 0.2830 0.2900 0.2970 0.3050
13.017947 0.3140 0.3240 0.3340 0.3450 0.3580
13.042000 0.3700 0.3840 0.3980 0.4130 0.4280
13.066947 0.4440 0.4600 0.4660 0.4740 0.4810
13.092000 0.4900 0.4990 0.5080 0.5180 0.5260
13.116947 0.5340 0.5430 0.5490 0.5540 0.5590
13.142000 0.5600 0.5640 0.5650 0.5660 0.5690
13.166947 0.5690 0.5680 0.5680 0.5660 0.5650
13.192000 0.5600 0.5580 0.5550 0.5500 0.5450
13.216947 0.5380 0.5290 0.5240 0.5160 0.5090
13.242000 0.5000 0.4910 0.4830 0.4740 0.4650
13.266947 0.4580 0.4550 0.4490 0.4460 0.4430
13.292000 0.4410 0.4390 0.4360 0.4340 0.4310
13.316947 0.4300 0.4300 0.4280 0.4280 0.4260
13.342000 0.4250 0.4240 0.4210 0.4210 0.4200
13.366947 0.4200 0.4180 0.4180 0.4180 0.4160
13.392000 0.4150 0.4110 0.4050 0.3950 0.3850
13.416947 0.3750 0.3680 0.3590 0.3520 0.3430
13.441000 0.3350 0.3270 0.3130 0.2990 0.2850
13.465947 0.2740 0.2630 0.2520 0.2420 0.2330
13.491000 0.2240 0.2150 0.2090 0.2030 0.1970
13.515947 0.1920 0.1870 0.1860 0.1790 0.1760
13.541000 0.1690 0.1640 0.1620 0.1580 0.1570
13.565947 0.1560 0.1540 0.1530 0.1530 0.1520
13.591000 0.1520 0.1520 0.1520 0.1520 0.1520
13.615947 0.1530 0.1540 0.1560 0.1580 0.1590
13.641000 0.1720 0.1810 0.1860 0.1910 0.1940
13.665947 0.1990 0.2040 0.2100 0.2200 0.2320
13.691000 0.2430 0.2520 0.2600 0.2680 0.2740
13.715947 0.2800 0.2850 0.2900 0.2950 0.2990
13.741000 0.3000 0.3020 0.3040 0.3070 0.3080
13.765947 0.3090 0.3120 0.3130 0.3130 0.3130
13.791000 0.3140 0.3140 0.3140 0.3140 0.3140
13.815947 0.3140 0.3150 0.3170 0.3250 0.3340
13.840000 0.3430 0.3500 0.3590 0.3670 0.3740
13.864947 0.3830 0.3900 0.3980 0.4050 0.4130
13.890000 0.4200 0.4280 0.4340 0.4410 0.4490
13.914947 0.4560 0.4640 0.4710 0.4790 0.4850
13.940000 0.4900 0.4940 0.4960 0.5000 0.5040
13.964947 0.5080 0.5130 0.5180 0.5230 0.5250
13.990000 0.5280 0.5280 0.5280 0.5290 0.5290
14.014947 0.5290 0.5280 0.5260 0.5250 0.5240
14.040000 0.5210 0.5200 0.5190 0.5180 0.5180
14.064947 0.5180 0.5160 0.5150 0.5140 0.5130
14.090000 0.5110 0.5100 0.5050 0.5000 0.4950
14.114947 0.4910 0.4880 0.4830 0.4780 0.4710
14.140000 0.4650 0.4590 0.4530 0.4450 0.4390
14.164947 0.4310 0.4240 0.4150 0.4080 0.3990
14.190000 0.3920 0.3820 0.3730 0.3640 0.3550
14.214947 0.3450 0.3350 0.3250 0.3170 0.3050
14.239000 0.2980 0.2890 0.2820 0.2730 0.2640
14.263947 0.2540 0.2450 0.2370 0.2290 0.2200
14.289000 0.2130 0.2040 0.1980 0.1910 0.1860
14.313947 0.1790 0.1760 0.1710 0.1640 0.1590
14.339000 0.1580 0.1570 0.1560 0.1560 0.1560
14.363947 0.1560 0.1570 0.1570 0.1610 0.1620
14.389000 0.1630 0.1660 0.1680 0.1710 0.1730
14.413947 0.1760 0.1780 0.1810 0.1840 0.1880
14.439000 0.1920 0.1960 0.1990 0.2030 0.2040
14.463947 0.2090 0.2130 0.2180 0.2230 0.2280
14.489000 0.2350 0.2420 0.2490 0.2550 0.2630
14.513947 0.2700 0.2770 0.2820 0.2850 0.2920
14.539000 0.2970 0.3000 0.3080 0.3100 0.3130
14.563947 0.3150 0.3190 0.3250 0.3280 0.3330
14.589000 0.3450 0.3550 0.3640 0.3720 0.3780
14.613947 0.3850 0.3900 0.3970 0.4030 0.4090
14.638000 0.4140 0.4200 0.4260 0.4340 0.4410
14.662947 0.4500 0.4590 0.4690 0.4800 0.4850
14.688000 0.4900 0.4950 0.5000 0.5050 0.5100
14.712947 0.5160 0.5230 0.5280 0.5340 0.5390
14.738000 0.5440 0.5490 0.5540 0.5590 0.5630
14.762947 0.5650 0.5690 0.5740 0.5780 0.5810
14.788000 0.5810 0.5830 0.5840 0.5850 0.5890
14.812947 0.5900 0.5900 0.5910 0.5910 0.5930
14.838000 0.5930 0.5940 0.5950 0.5950 0.5950
14.862947 0.5950 0.5940 0.5940 0.5940 0.5930
14.888000 0.5910 0.5900 0.5880 0.5840 0.5810
14.912947 0.5790 0.5780 0.5740 0.5730 0.5700
14.938000 0.5700 0.5700 0.5690 0.5690 0.5680
14.962947 0.5660 0.5660 0.5660 0.5650 0.5650
14.988000 0.5650 0.5650 0.5640 0.5630 0.5630
##END=
