##TITLE=Benzoic acid, p-amino-, ethyl ester
##JCAMP-DX=4.24
##DATA TYPE=INFRARED SPECTRUM
##CLASS=COBLENTZ III
##ORIGIN=SOUTHERN RESEARCH INSTITUTE
##OWNER=Copyright (C) 1987 by the Coblentz Society
Collection (C) 2018 copyright by the U.S. Secretary of Commerce
on behalf of the United States of America. All rights reserved.
##DATE=1965/11/03
##NAMES=ethyl 4-aminobenzoate
##CAS REGISTRY NO=94-09-7
##MOLFORM=C9 H11 N O2
##SOURCE REFERENCE=COBLENTZ NO. 6882
##$NIST SOURCE=COBLENTZ
##$NIST IMAGE=cob6882
##SPECTROMETER/DATA SYSTEM=PERKIN-ELMER 521 (GRATING)
##INSTRUMENT PARAMETERS=FILTERS AT 3150, 2500, 2000, 1150, 700, 410. GRATING CHANGES: 2000, 630
##STATE=SOLID (1 mg / 650 mg KBr DISC)
##RESOLUTION=2
##XUNITS=1/CM
##YUNITS=TRANSMITTANCE
##XFACTOR=1.0
##YFACTOR=1
##FIRSTX=251
##LASTX=3800
##FIRSTY=0.2629
##MAXX=3800
##MINX=251
##MAXY=0.987
##MINY=0.091
##NPOINTS=3550
##XYDATA=(X++(Y..Y))
251.000000 0.2629 0.2698 0.2762 0.2816 0.2870
256.000000 0.2927 0.2985 0.3043 0.3113 0.3185
261.000000 0.3257 0.3329 0.3400 0.3471 0.3542
266.000000 0.3613 0.3675 0.3736 0.3796 0.3856
271.000000 0.3917 0.3982 0.4049 0.4116 0.4193
276.000000 0.4292 0.4390 0.4509 0.4667 0.4810
281.000000 0.4877 0.4945 0.5012 0.5078 0.5125
286.000000 0.5171 0.5218 0.5265 0.5312 0.5353
291.000000 0.5394 0.5436 0.5477 0.5518 0.5559
296.000000 0.5591 0.5620 0.5648 0.5676 0.5705
301.000000 0.5733 0.5761 0.5790 0.5811 0.5828
306.000000 0.5840 0.5846 0.5853 0.5860 0.5873
311.000000 0.5914 0.5958 0.6000 0.6046 0.6094
316.000000 0.6137 0.6169 0.6202 0.6235 0.6267
321.000000 0.6298 0.6327 0.6356 0.6385 0.6414
326.000000 0.6443 0.6472 0.6497 0.6518 0.6539
331.000000 0.6560 0.6581 0.6602 0.6623 0.6644
336.000000 0.6665 0.6680 0.6696 0.6711 0.6727
341.000000 0.6742 0.6758 0.6773 0.6789 0.6804
346.000000 0.6814 0.6823 0.6833 0.6842 0.6852
351.000000 0.6862 0.6867 0.6872 0.6878 0.6883
356.000000 0.6916 0.6894 0.6891 0.6888 0.6885
361.000000 0.6882 0.6863 0.6834 0.6805 0.6776
366.000000 0.6744 0.6698 0.6652 0.6603 0.6553
371.000000 0.6502 0.6451 0.6397 0.6343 0.6328
376.000000 0.6283 0.6331 0.6336 0.6349 0.6440
381.000000 0.6552 0.6664 0.6776 0.6888 0.7000
386.000000 0.7113 0.7225 0.7221 0.7217 0.7213
391.000000 0.7200 0.7184 0.7165 0.7152 0.7151
396.000000 0.7164 0.7190 0.7223 0.7265 0.7294
401.000000 0.7320 0.7346 0.7360 0.7374 0.7387
406.000000 0.7391 0.7395 0.7400 0.7404 0.7408
411.000000 0.7407 0.7406 0.7404 0.7434 0.7396
416.000000 0.7392 0.7388 0.7384 0.7379 0.7375
421.000000 0.7368 0.7362 0.7356 0.7350 0.7343
426.000000 0.7337 0.7331 0.7325 0.7320 0.7315
431.000000 0.7311 0.7306 0.7301 0.7296 0.7291
436.000000 0.7286 0.7281 0.7276 0.7272 0.7267
441.000000 0.7263 0.7258 0.7254 0.7249 0.7245
446.000000 0.7240 0.7236 0.7228 0.7220 0.7212
451.000000 0.7203 0.7195 0.7187 0.7178 0.7170
456.000000 0.7161 0.7153 0.7137 0.7120 0.7104
461.000000 0.7087 0.7070 0.7054 0.7034 0.7015
466.000000 0.6996 0.6977 0.6958 0.6939 0.6920
471.000000 0.6901 0.6871 0.6836 0.6801 0.6767
476.000000 0.6732 0.6697 0.6662 0.6625 0.6589
481.000000 0.6552 0.6515 0.6479 0.6442 0.6405
486.000000 0.6361 0.6310 0.6259 0.6208 0.6132
491.000000 0.6012 0.5891 0.5770 0.5649 0.5528
496.000000 0.5407 0.5286 0.5165 0.5139 0.5144
501.000000 0.5130 0.5325 0.5508 0.5690 0.5873
506.000000 0.5966 0.5993 0.6011 0.6030 0.6048
511.000000 0.6064 0.6081 0.6098 0.6114 0.6131
516.000000 0.6150 0.6168 0.6186 0.6205 0.6220
521.000000 0.6250 0.6247 0.6244 0.6241 0.6238
526.000000 0.6233 0.6228 0.6223 0.6216 0.6209
531.000000 0.6202 0.6195 0.6190 0.6185 0.6180
536.000000 0.6175 0.6170 0.6165 0.6160 0.6155
541.000000 0.6151 0.6147 0.6143 0.6139 0.6135
546.000000 0.6131 0.6127 0.6123 0.6120 0.6116
551.000000 0.6113 0.6109 0.6106 0.6103 0.6099
556.000000 0.6096 0.6092 0.6089 0.6086 0.6084
561.000000 0.6082 0.6079 0.6077 0.6075 0.6073
566.000000 0.6070 0.6068 0.6066 0.6063 0.6061
571.000000 0.6059 0.6057 0.6054 0.6053 0.6052
576.000000 0.6051 0.6051 0.6050 0.6049 0.6048
581.000000 0.6047 0.6047 0.6046 0.6045 0.6044
586.000000 0.6043 0.6042 0.6042 0.6041 0.6036
591.000000 0.6029 0.6023 0.6016 0.6010 0.6003
596.000000 0.5996 0.5987 0.5957 0.5926 0.5880
601.000000 0.5822 0.5765 0.5713 0.5662 0.5622
606.000000 0.5582 0.5542 0.5509 0.5480 0.5451
611.000000 0.5437 0.5451 0.5436 0.5712 0.6078
616.000000 0.6445 0.6811 0.7177 0.7375 0.7382
621.000000 0.7379 0.7368 0.7356 0.7336 0.7297
626.000000 0.7260 0.7223 0.7187 0.7150 0.7013
631.000000 0.6844 0.6676 0.6290 0.6338 0.6268
636.000000 0.6281 0.6493 0.6762 0.7030 0.7282
641.000000 0.7312 0.7326 0.7340 0.7353 0.7363
646.000000 0.7372 0.7381 0.7386 0.7392 0.7397
651.000000 0.7403 0.7408 0.7413 0.7426 0.7440
656.000000 0.7453 0.7467 0.7503 0.7551 0.7600
661.000000 0.7648 0.7667 0.7681 0.7635 0.7677
666.000000 0.7664 0.7639 0.7612 0.7592 0.7572
671.000000 0.7571 0.7573 0.7576 0.7578 0.7578
676.000000 0.7576 0.7575 0.7574 0.7573 0.7572
681.000000 0.7541 0.7508 0.7465 0.7422 0.7364
686.000000 0.7251 0.7045 0.6840 0.6634 0.6429
691.000000 0.6223 0.6018 0.5813 0.5607 0.5402
696.000000 0.5088 0.5095 0.5194 0.6259 0.7323
701.000000 0.7601 0.7747 0.7851 0.7902 0.7954
706.000000 0.7991 0.8025 0.8058 0.8072 0.8086
711.000000 0.8100 0.8113 0.8127 0.8141 0.8146
716.000000 0.8152 0.8157 0.8162 0.8167 0.8171
721.000000 0.8170 0.8170 0.8169 0.8169 0.8168
726.000000 0.8167 0.8172 0.8164 0.8162 0.8161
731.000000 0.8159 0.8158 0.8153 0.8149 0.8144
736.000000 0.8139 0.8135 0.8130 0.8125 0.8115
741.000000 0.8105 0.8096 0.8086 0.8065 0.8040
746.000000 0.8013 0.7976 0.7939 0.7902 0.7866
751.000000 0.7823 0.7777 0.7731 0.7685 0.7636
756.000000 0.7565 0.7494 0.7422 0.7292 0.7007
761.000000 0.6472 0.5937 0.5402 0.4867 0.4332
766.000000 0.3797 0.3262 0.3165 0.3194 0.3173
771.000000 0.3186 0.4421 0.5826 0.7231 0.7540
776.000000 0.7637 0.7758 0.8091 0.8225 0.8346
781.000000 0.8397 0.8431 0.8449 0.8467 0.8476
786.000000 0.8481 0.8485 0.8455 0.8488 0.8484
791.000000 0.8480 0.8473 0.8463 0.8453 0.8441
796.000000 0.8426 0.8411 0.8396 0.8379 0.8361
801.000000 0.8343 0.8325 0.8309 0.8294 0.8279
806.000000 0.8274 0.8275 0.8276 0.8277 0.8279
811.000000 0.8280 0.8281 0.8287 0.8293 0.8294
816.000000 0.8292 0.8290 0.8279 0.8250 0.8218
821.000000 0.8182 0.8143 0.8095 0.8046 0.8000
826.000000 0.7955 0.7910 0.7858 0.7779 0.7686
831.000000 0.7485 0.7186 0.6888 0.6589 0.6290
836.000000 0.5992 0.5693 0.5395 0.5096 0.4798
841.000000 0.4727 0.4709 0.4747 0.4780 0.5625
846.000000 0.6627 0.7629 0.7760 0.7847 0.7933
851.000000 0.8011 0.8065 0.8102 0.8137 0.8158
856.000000 0.8180 0.8199 0.8213 0.8246 0.8236
861.000000 0.8202 0.8164 0.8125 0.8085 0.8044
866.000000 0.8004 0.7958 0.7911 0.7863 0.7820
871.000000 0.7778 0.7736 0.7711 0.7699 0.7723
876.000000 0.7778 0.7921 0.8003 0.8067 0.8120
881.000000 0.8172 0.8219 0.8241 0.8257 0.8261
886.000000 0.8264 0.8265 0.8266 0.8267 0.8265
891.000000 0.8263 0.8278 0.8259 0.8257 0.8256
896.000000 0.8255 0.8254 0.8252 0.8250 0.8248
901.000000 0.8246 0.8244 0.8235 0.8221 0.8207
906.000000 0.8194 0.8180 0.8164 0.8147 0.8130
911.000000 0.8113 0.8099 0.8085 0.8074 0.8071
916.000000 0.8068 0.8065 0.8063 0.8060 0.8057
921.000000 0.8054 0.8050 0.8044 0.8038 0.8032
926.000000 0.8027 0.8021 0.8015 0.8009 0.8000
931.000000 0.7988 0.7977 0.7966 0.7955 0.7943
936.000000 0.7932 0.7921 0.7908 0.7894 0.7881
941.000000 0.7868 0.7855 0.7842 0.7828 0.7815
946.000000 0.7802 0.7791 0.7780 0.7770 0.7760
951.000000 0.7749 0.7739 0.7729 0.7719 0.7713
956.000000 0.7710 0.7708 0.7728 0.7753 0.7772
961.000000 0.7768 0.7764 0.7760 0.7754 0.7747
966.000000 0.7739 0.7728 0.7715 0.7702 0.7689
971.000000 0.7676 0.7662 0.7645 0.7629 0.7613
976.000000 0.7585 0.7557 0.7529 0.7501 0.7474
981.000000 0.7447 0.7420 0.7393 0.7366 0.7334
986.000000 0.7301 0.7269 0.7237 0.7205 0.7173
991.000000 0.7138 0.7099 0.7059 0.7020 0.6981
996.000000 0.6941 0.6902 0.6858 0.6798 0.6738
1001.000000 0.6678 0.6618 0.6557 0.6495 0.6433
1006.000000 0.6371 0.6309 0.6246 0.6185 0.6128
1011.000000 0.6071 0.6015 0.5958 0.5883 0.5689
1016.000000 0.5495 0.5301 0.5108 0.4892 0.4879
1021.000000 0.4885 0.4895 0.5133 0.5526 0.5919
1026.000000 0.6312 0.6705 0.7061 0.7142 0.7184
1031.000000 0.7204 0.7216 0.7228 0.7213 0.7208
1036.000000 0.7195 0.7180 0.7165 0.7148 0.7132
1041.000000 0.7108 0.7084 0.7059 0.7029 0.6999
1046.000000 0.6969 0.6938 0.6905 0.6872 0.6839
1051.000000 0.6806 0.6772 0.6726 0.6681 0.6636
1056.000000 0.6591 0.6544 0.6495 0.6447 0.6399
1061.000000 0.6350 0.6294 0.6214 0.6135 0.6055
1066.000000 0.5991 0.5932 0.5873 0.5825 0.5804
1071.000000 0.5782 0.5761 0.5754 0.5755 0.5757
1076.000000 0.5759 0.5760 0.5767 0.5773 0.5780
1081.000000 0.5785 0.5788 0.5784 0.5780 0.5775
1086.000000 0.5765 0.5751 0.5720 0.5685 0.5650
1091.000000 0.5612 0.5554 0.5495 0.5422 0.5345
1096.000000 0.5156 0.4843 0.4531 0.4218 0.3906
1101.000000 0.3593 0.3353 0.3353 0.3375 0.3460
1106.000000 0.3699 0.3939 0.4179 0.4349 0.4349
1111.000000 0.4339 0.4127 0.3930 0.3734 0.3538
1116.000000 0.3341 0.3145 0.3124 0.3132 0.3145
1121.000000 0.3409 0.3672 0.3936 0.4199 0.4463
1126.000000 0.4726 0.4990 0.5315 0.5433 0.5552
1131.000000 0.5684 0.5815 0.5980 0.6128 0.6186
1136.000000 0.6230 0.6238 0.6257 0.6253 0.6245
1141.000000 0.6233 0.6211 0.6174 0.6131 0.6088
1146.000000 0.6031 0.5952 0.5870 0.5791 0.5722
1151.000000 0.5653 0.5578 0.5473 0.5257 0.4958
1156.000000 0.4659 0.4361 0.4062 0.3764 0.3465
1161.000000 0.3167 0.2868 0.2570 0.2271 0.1972
1166.000000 0.1787 0.1794 0.1800 0.2149 0.2784
1171.000000 0.3419 0.4053 0.4688 0.5323 0.5958
1176.000000 0.6592 0.7227 0.7798 0.7933 0.7993
1181.000000 0.8010 0.8026 0.8032 0.8027 0.8032
1186.000000 0.7973 0.7858 0.7769 0.7733 0.7704
1191.000000 0.7679 0.7654 0.7634 0.7614 0.7595
1196.000000 0.7577 0.7559 0.7541 0.7524 0.7505
1201.000000 0.7486 0.7468 0.7449 0.7424 0.7396
1206.000000 0.7368 0.7340 0.7304 0.7269 0.7233
1211.000000 0.7197 0.7157 0.7117 0.7077 0.7037
1216.000000 0.6987 0.6915 0.6844 0.6772 0.6702
1221.000000 0.6634 0.6566 0.6498 0.6427 0.6353
1226.000000 0.6279 0.6206 0.6073 0.5920 0.5805
1231.000000 0.5713 0.5621 0.5542 0.5479 0.5462
1236.000000 0.5450 0.5438 0.5430 0.5424 0.5419
1241.000000 0.5408 0.5376 0.5344 0.5223 0.5071
1246.000000 0.4920 0.4768 0.4617 0.4465 0.4314
1251.000000 0.4162 0.4011 0.3859 0.3708 0.3557
1256.000000 0.3405 0.3254 0.3102 0.2949 0.2798
1261.000000 0.2405 0.2115 0.2002 0.1890 0.1777
1266.000000 0.1606 0.1356 0.1106 0.1048 0.0990
1271.000000 0.0950 0.0934 0.0918 0.0910 0.0933
1276.000000 0.0910 0.1152 0.1307 0.1416 0.1596
1281.000000 0.1842 0.2089 0.2336 0.2582 0.2829
1286.000000 0.3075 0.3322 0.3569 0.3815 0.4062
1291.000000 0.4309 0.4555 0.4605 0.4616 0.4444
1296.000000 0.4165 0.3885 0.3606 0.3326 0.3046
1301.000000 0.2767 0.2487 0.2208 0.1928 0.1838
1306.000000 0.2021 0.1862 0.2633 0.2940 0.3246
1311.000000 0.3552 0.3858 0.4164 0.4471 0.4777
1316.000000 0.5083 0.5389 0.5695 0.6002 0.6308
1321.000000 0.6614 0.6920 0.7281 0.7428 0.7548
1326.000000 0.7618 0.7635 0.7642 0.7640 0.7634
1331.000000 0.7619 0.7601 0.7597 0.7592 0.7608
1336.000000 0.7673 0.7745 0.7792 0.7839 0.7913
1341.000000 0.7991 0.8065 0.8112 0.8131 0.8135
1346.000000 0.8124 0.8136 0.8125 0.8113 0.8078
1351.000000 0.7960 0.7447 0.6933 0.6419 0.5905
1356.000000 0.5392 0.4878 0.4364 0.3934 0.3920
1361.000000 0.3919 0.3927 0.3934 0.4217 0.4456
1366.000000 0.4695 0.4933 0.5172 0.5411 0.5650
1371.000000 0.5888 0.6127 0.6366 0.6605 0.6844
1376.000000 0.7082 0.7321 0.7560 0.7563 0.7550
1381.000000 0.7559 0.7549 0.7389 0.7230 0.7070
1386.000000 0.6941 0.6945 0.6954 0.7114 0.7346
1391.000000 0.7579 0.7811 0.7952 0.8027 0.8088
1396.000000 0.8139 0.8181 0.8214 0.8245 0.8263
1401.000000 0.8280 0.8298 0.8310 0.8317 0.8324
1406.000000 0.8332 0.8333 0.8334 0.8335 0.8332
1411.000000 0.8331 0.8328 0.8324 0.8321 0.8314
1416.000000 0.8298 0.8281 0.8265 0.8238 0.8210
1421.000000 0.8176 0.8139 0.8071 0.7960 0.7811
1426.000000 0.7478 0.7157 0.6836 0.6515 0.6194
1431.000000 0.5873 0.5552 0.5231 0.4952 0.4957
1436.000000 0.4977 0.5169 0.5501 0.5832 0.6163
1441.000000 0.6495 0.6654 0.6763 0.6898 0.7034
1446.000000 0.7169 0.7305 0.7440 0.7575 0.7711
1451.000000 0.7730 0.7741 0.7735 0.7721 0.7705
1456.000000 0.7677 0.7623 0.7575 0.7513 0.7446
1461.000000 0.7372 0.7210 0.6868 0.6527 0.6185
1466.000000 0.5844 0.5503 0.5207 0.5210 0.5240
1471.000000 0.5602 0.6215 0.6828 0.7441 0.7983
1476.000000 0.7998 0.8000 0.8000 0.7990 0.7975
1481.000000 0.7924 0.7868 0.7804 0.7744 0.7688
1486.000000 0.7631 0.7548 0.7447 0.7363 0.7290
1491.000000 0.7217 0.7102 0.6981 0.6831 0.6638
1496.000000 0.6353 0.6239 0.6109 0.5679 0.5249
1501.000000 0.4819 0.4389 0.3959 0.3529 0.3100
1506.000000 0.2670 0.2650 0.2682 0.2661 0.2853
1511.000000 0.3369 0.3886 0.4402 0.4918 0.5435
1516.000000 0.5951 0.6467 0.6983 0.7500 0.8016
1521.000000 0.8473 0.8455 0.8462 0.8444 0.8392
1526.000000 0.8311 0.8230 0.8149 0.8067 0.7986
1531.000000 0.7905 0.7823 0.7742 0.7661 0.7580
1536.000000 0.7502 0.7455 0.7407 0.7359 0.7312
1541.000000 0.7266 0.7218 0.7167 0.7116 0.7068
1546.000000 0.7023 0.6977 0.6916 0.6832 0.6744
1551.000000 0.6650 0.6556 0.6452 0.6342 0.6207
1556.000000 0.6071 0.5880 0.5798 0.5717 0.5596
1561.000000 0.5399 0.5097 0.4795 0.4493 0.4191
1566.000000 0.4005 0.4033 0.4015 0.4408 0.4851
1571.000000 0.5294 0.5340 0.5348 0.5345 0.5158
1576.000000 0.4849 0.4539 0.4229 0.3920 0.3610
1581.000000 0.3301 0.2991 0.2681 0.2372 0.2062
1586.000000 0.1861 0.1782 0.1732 0.1705 0.1688
1591.000000 0.1698 0.1685 0.1703 0.1744 0.1985
1596.000000 0.2256 0.2527 0.2798 0.3069 0.3340
1601.000000 0.3611 0.3882 0.4153 0.4424 0.4695
1606.000000 0.4966 0.5084 0.5101 0.5099 0.5084
1611.000000 0.5090 0.5078 0.4974 0.4807 0.4640
1616.000000 0.4473 0.4306 0.4139 0.3972 0.3805
1621.000000 0.3638 0.3471 0.3304 0.3137 0.2970
1626.000000 0.2857 0.2826 0.2813 0.2809 0.2822
1631.000000 0.2841 0.2894 0.3187 0.3479 0.3772
1636.000000 0.4064 0.4357 0.4649 0.4942 0.5234
1641.000000 0.5527 0.5819 0.6112 0.6404 0.6697
1646.000000 0.6952 0.7029 0.7076 0.7091 0.7061
1651.000000 0.7077 0.7063 0.7048 0.7023 0.6755
1656.000000 0.6448 0.6142 0.5835 0.5528 0.5222
1661.000000 0.4915 0.4608 0.4302 0.3995 0.3688
1666.000000 0.3382 0.3075 0.2768 0.2462 0.2155
1671.000000 0.1802 0.1713 0.1622 0.1559 0.1508
1676.000000 0.1472 0.1465 0.1465 0.1440 0.1479
1681.000000 0.1510 0.1543 0.1597 0.1761 0.1926
1686.000000 0.2090 0.2254 0.2418 0.2582 0.2746
1691.000000 0.2911 0.3075 0.3239 0.3403 0.3567
1696.000000 0.4078 0.4251 0.4462 0.4738 0.4986
1701.000000 0.5097 0.5208 0.5337 0.5467 0.5620
1706.000000 0.5775 0.5886 0.5997 0.6089 0.6177
1711.000000 0.6266 0.6445 0.6600 0.6685 0.6770
1716.000000 0.6876 0.7017 0.7196 0.7421 0.7521
1721.000000 0.7618 0.7716 0.7782 0.7834 0.7886
1726.000000 0.7938 0.7986 0.8022 0.8058 0.8094
1731.000000 0.8130 0.8166 0.8203 0.8239 0.8275
1736.000000 0.8312 0.8348 0.8384 0.8421 0.8457
1741.000000 0.8494 0.8530 0.8563 0.8595 0.8626
1746.000000 0.8658 0.8689 0.8721 0.8752 0.8784
1751.000000 0.8812 0.8836 0.8861 0.8886 0.8911
1756.000000 0.8936 0.8966 0.8995 0.9024 0.9053
1761.000000 0.9073 0.9092 0.9112 0.9131 0.9151
1766.000000 0.9170 0.9189 0.9202 0.9215 0.9227
1771.000000 0.9234 0.9240 0.9246 0.9252 0.9257
1776.000000 0.9263 0.9271 0.9288 0.9310 0.9331
1781.000000 0.9352 0.9372 0.9393 0.9408 0.9424
1786.000000 0.9439 0.9454 0.9469 0.9485 0.9500
1791.000000 0.9516 0.9538 0.9560 0.9575 0.9586
1796.000000 0.9598 0.9607 0.9613 0.9619 0.9625
1801.000000 0.9631 0.9637 0.9640 0.9643 0.9646
1806.000000 0.9649 0.9652 0.9655 0.9658 0.9661
1811.000000 0.9664 0.9666 0.9667 0.9669 0.9671
1816.000000 0.9672 0.9674 0.9676 0.9678 0.9679
1821.000000 0.9681 0.9683 0.9686 0.9689 0.9692
1826.000000 0.9695 0.9698 0.9701 0.9704 0.9707
1831.000000 0.9712 0.9718 0.9724 0.9729 0.9735
1836.000000 0.9741 0.9747 0.9753 0.9759 0.9765
1841.000000 0.9771 0.9777 0.9783 0.9788 0.9794
1846.000000 0.9800 0.9806 0.9811 0.9816 0.9819
1851.000000 0.9821 0.9824 0.9827 0.9829 0.9832
1856.000000 0.9835 0.9837 0.9838 0.9838 0.9870
1861.000000 0.9839 0.9840 0.9840 0.9841 0.9841
1866.000000 0.9840 0.9836 0.9833 0.9829 0.9826
1871.000000 0.9822 0.9819 0.9815 0.9812 0.9806
1876.000000 0.9799 0.9791 0.9784 0.9777 0.9769
1881.000000 0.9762 0.9754 0.9747 0.9738 0.9727
1886.000000 0.9716 0.9705 0.9694 0.9683 0.9672
1891.000000 0.9661 0.9650 0.9639 0.9623 0.9606
1896.000000 0.9588 0.9571 0.9554 0.9537 0.9520
1901.000000 0.9503 0.9482 0.9441 0.9400 0.9359
1906.000000 0.9318 0.9277 0.9236 0.9195 0.9154
1911.000000 0.9143 0.9152 0.9217 0.9282 0.9348
1916.000000 0.9413 0.9478 0.9543 0.9585 0.9606
1921.000000 0.9627 0.9641 0.9653 0.9657 0.9661
1926.000000 0.9664 0.9665 0.9666 0.9667 0.9667
1931.000000 0.9666 0.9666 0.9666 0.9665 0.9665
1936.000000 0.9664 0.9664 0.9663 0.9662 0.9661
1941.000000 0.9661 0.9660 0.9659 0.9659 0.9658
1946.000000 0.9658 0.9657 0.9657 0.9656 0.9656
1951.000000 0.9656 0.9673 0.9655 0.9655 0.9654
1956.000000 0.9654 0.9654 0.9653 0.9653 0.9652
1961.000000 0.9651 0.9649 0.9647 0.9645 0.9643
1966.000000 0.9642 0.9640 0.9637 0.9632 0.9627
1971.000000 0.9622 0.9617 0.9613 0.9608 0.9600
1976.000000 0.9591 0.9582 0.9573 0.9565 0.9556
1981.000000 0.9548 0.9541 0.9534 0.9527 0.9520
1986.000000 0.9513 0.9506 0.9498 0.9490 0.9483
1991.000000 0.9475 0.9467 0.9458 0.9449 0.9440
1996.000000 0.9431 0.9422 0.9420 0.9418 0.9417
2001.000000 0.9415 0.9413 0.9412 0.9410 0.9408
2006.000000 0.9407 0.9405 0.9404 0.9402 0.9400
2011.000000 0.9399 0.9398 0.9399 0.9400 0.9400
2016.000000 0.9401 0.9402 0.9402 0.9403 0.9404
2021.000000 0.9404 0.9405 0.9406 0.9407 0.9408
2026.000000 0.9410 0.9412 0.9414 0.9416 0.9417
2031.000000 0.9419 0.9421 0.9423 0.9424 0.9426
2036.000000 0.9428 0.9430 0.9431 0.9433 0.9435
2041.000000 0.9437 0.9438 0.9440 0.9442 0.9443
2046.000000 0.9444 0.9443 0.9442 0.9441 0.9439
2051.000000 0.9438 0.9437 0.9436 0.9435 0.9433
2056.000000 0.9430 0.9427 0.9424 0.9421 0.9418
2061.000000 0.9415 0.9413 0.9410 0.9407 0.9404
2066.000000 0.9401 0.9398 0.9395 0.9393 0.9390
2071.000000 0.9386 0.9383 0.9379 0.9376 0.9372
2076.000000 0.9369 0.9365 0.9362 0.9359 0.9355
2081.000000 0.9352 0.9348 0.9345 0.9341 0.9337
2086.000000 0.9333 0.9329 0.9325 0.9321 0.9317
2091.000000 0.9313 0.9309 0.9304 0.9300 0.9296
2096.000000 0.9292 0.9288 0.9284 0.9281 0.9279
2101.000000 0.9276 0.9274 0.9272 0.9269 0.9267
2106.000000 0.9264 0.9262 0.9259 0.9257 0.9254
2111.000000 0.9252 0.9250 0.9247 0.9245 0.9242
2116.000000 0.9240 0.9237 0.9235 0.9237 0.9239
2121.000000 0.9241 0.9244 0.9246 0.9248 0.9250
2126.000000 0.9252 0.9254 0.9257 0.9260 0.9263
2131.000000 0.9266 0.9269 0.9272 0.9275 0.9278
2136.000000 0.9281 0.9282 0.9284 0.9286 0.9287
2141.000000 0.9289 0.9291 0.9292 0.9294 0.9295
2146.000000 0.9295 0.9296 0.9296 0.9296 0.9296
2151.000000 0.9296 0.9296 0.9295 0.9294 0.9293
2156.000000 0.9292 0.9291 0.9291 0.9290 0.9289
2161.000000 0.9288 0.9287 0.9287 0.9286 0.9285
2166.000000 0.9284 0.9283 0.9283 0.9282 0.9282
2171.000000 0.9281 0.9280 0.9280 0.9279 0.9279
2176.000000 0.9278 0.9278 0.9277 0.9276 0.9276
2181.000000 0.9275 0.9275 0.9274 0.9273 0.9272
2186.000000 0.9270 0.9268 0.9267 0.9265 0.9264
2191.000000 0.9262 0.9260 0.9259 0.9257 0.9256
2196.000000 0.9254 0.9252 0.9251 0.9249 0.9248
2201.000000 0.9246 0.9244 0.9243 0.9241 0.9240
2206.000000 0.9238 0.9236 0.9235 0.9233 0.9232
2211.000000 0.9230 0.9229 0.9227 0.9225 0.9224
2216.000000 0.9222 0.9221 0.9219 0.9218 0.9216
2221.000000 0.9214 0.9213 0.9211 0.9210 0.9209
2226.000000 0.9208 0.9206 0.9205 0.9204 0.9203
2231.000000 0.9202 0.9201 0.9200 0.9199 0.9198
2236.000000 0.9197 0.9196 0.9195 0.9194 0.9193
2241.000000 0.9192 0.9191 0.9190 0.9189 0.9188
2246.000000 0.9187 0.9185 0.9184 0.9183 0.9182
2251.000000 0.9181 0.9180 0.9179 0.9178 0.9177
2256.000000 0.9175 0.9174 0.9173 0.9172 0.9171
2261.000000 0.9170 0.9169 0.9168 0.9167 0.9165
2266.000000 0.9164 0.9163 0.9162 0.9161 0.9160
2271.000000 0.9158 0.9157 0.9155 0.9153 0.9152
2276.000000 0.9150 0.9148 0.9147 0.9145 0.9143
2281.000000 0.9142 0.9140 0.9138 0.9137 0.9135
2286.000000 0.9133 0.9130 0.9128 0.9126 0.9124
2291.000000 0.9121 0.9119 0.9117 0.9115 0.9112
2296.000000 0.9110 0.9108 0.9106 0.9104 0.9101
2301.000000 0.9099 0.9097 0.9095 0.9093 0.9091
2306.000000 0.9089 0.9087 0.9085 0.9083 0.9081
2311.000000 0.9079 0.9076 0.9074 0.9072 0.9070
2316.000000 0.9068 0.9066 0.9064 0.9062 0.9060
2321.000000 0.9058 0.9056 0.9052 0.9048 0.9044
2326.000000 0.9040 0.9036 0.9032 0.9029 0.9025
2331.000000 0.9021 0.9017 0.9013 0.9009 0.9005
2336.000000 0.9002 0.8998 0.8994 0.8990 0.8986
2341.000000 0.8982 0.8978 0.8975 0.8971 0.8967
2346.000000 0.8962 0.8958 0.8953 0.8949 0.8944
2351.000000 0.8940 0.8935 0.8933 0.8933 0.8932
2356.000000 0.8932 0.8931 0.8931 0.8931 0.8930
2361.000000 0.8930 0.8929 0.8929 0.8928 0.8928
2366.000000 0.8928 0.8928 0.8928 0.8928 0.8928
2371.000000 0.8928 0.8928 0.8928 0.8928 0.8928
2376.000000 0.8929 0.8929 0.8929 0.8929 0.8929
2381.000000 0.8928 0.8928 0.8928 0.8928 0.8928
2386.000000 0.8928 0.8928 0.8928 0.8927 0.8927
2391.000000 0.8927 0.8927 0.8927 0.8927 0.8927
2396.000000 0.8927 0.8927 0.8927 0.8927 0.8927
2401.000000 0.8927 0.8927 0.8928 0.8928 0.8928
2406.000000 0.8928 0.8928 0.8928 0.8928 0.8928
2411.000000 0.8928 0.8928 0.8929 0.8929 0.8929
2416.000000 0.8929 0.8929 0.8929 0.8929 0.8929
2421.000000 0.8929 0.8929 0.8930 0.8930 0.8930
2426.000000 0.8930 0.8930 0.8930 0.8930 0.8930
2431.000000 0.8930 0.8930 0.8929 0.8927 0.8926
2436.000000 0.8924 0.8923 0.8921 0.8920 0.8918
2441.000000 0.8917 0.8915 0.8914 0.8912 0.8911
2446.000000 0.8909 0.8908 0.8907 0.8906 0.8906
2451.000000 0.8906 0.8905 0.8905 0.8905 0.8904
2456.000000 0.8904 0.8907 0.8911 0.8915 0.8918
2461.000000 0.8920 0.8922 0.8924 0.8926 0.8929
2466.000000 0.8928 0.8921 0.8914 0.8907 0.8901
2471.000000 0.8894 0.8889 0.8885 0.8881 0.8877
2476.000000 0.8873 0.8869 0.8865 0.8861 0.8859
2481.000000 0.8858 0.8857 0.8855 0.8854 0.8853
2486.000000 0.8852 0.8851 0.8850 0.8849 0.8848
2491.000000 0.8847 0.8846 0.8844 0.8843 0.8841
2496.000000 0.8836 0.8831 0.8827 0.8822 0.8817
2501.000000 0.8813 0.8808 0.8804 0.8799 0.8794
2506.000000 0.8790 0.8785 0.8780 0.8777 0.8773
2511.000000 0.8769 0.8766 0.8762 0.8758 0.8755
2516.000000 0.8751 0.8747 0.8744 0.8740 0.8736
2521.000000 0.8733 0.8729 0.8726 0.8723 0.8721
2526.000000 0.8718 0.8716 0.8714 0.8711 0.8709
2531.000000 0.8706 0.8704 0.8701 0.8699 0.8696
2536.000000 0.8696 0.8697 0.8698 0.8699 0.8700
2541.000000 0.8701 0.8702 0.8703 0.8704 0.8705
2546.000000 0.8706 0.8707 0.8708 0.8709 0.8710
2551.000000 0.8711 0.8711 0.8712 0.8713 0.8714
2556.000000 0.8715 0.8713 0.8711 0.8708 0.8706
2561.000000 0.8703 0.8701 0.8698 0.8694 0.8689
2566.000000 0.8684 0.8679 0.8674 0.8669 0.8665
2571.000000 0.8660 0.8655 0.8650 0.8649 0.8649
2576.000000 0.8649 0.8649 0.8649 0.8649 0.8649
2581.000000 0.8649 0.8649 0.8649 0.8650 0.8650
2586.000000 0.8650 0.8649 0.8645 0.8642 0.8639
2591.000000 0.8636 0.8632 0.8629 0.8626 0.8622
2596.000000 0.8617 0.8613 0.8608 0.8604 0.8599
2601.000000 0.8595 0.8590 0.8586 0.8586 0.8586
2606.000000 0.8585 0.8585 0.8584 0.8584 0.8584
2611.000000 0.8585 0.8588 0.8591 0.8594 0.8598
2616.000000 0.8601 0.8604 0.8607 0.8610 0.8613
2621.000000 0.8611 0.8608 0.8605 0.8600 0.8588
2626.000000 0.8577 0.8565 0.8550 0.8533 0.8515
2631.000000 0.8498 0.8481 0.8474 0.8470 0.8466
2636.000000 0.8462 0.8458 0.8454 0.8454 0.8455
2641.000000 0.8456 0.8457 0.8458 0.8459 0.8460
2646.000000 0.8458 0.8453 0.8447 0.8442 0.8436
2651.000000 0.8431 0.8417 0.8401 0.8384 0.8367
2656.000000 0.8352 0.8337 0.8323 0.8309 0.8294
2661.000000 0.8289 0.8284 0.8280 0.8275 0.8272
2666.000000 0.8275 0.8278 0.8281 0.8284 0.8288
2671.000000 0.8297 0.8307 0.8316 0.8326 0.8335
2676.000000 0.8348 0.8361 0.8373 0.8386 0.8399
2681.000000 0.8412 0.8425 0.8434 0.8443 0.8450
2686.000000 0.8452 0.8454 0.8455 0.8457 0.8458
2691.000000 0.8457 0.8457 0.8457 0.8456 0.8456
2696.000000 0.8456 0.8455 0.8455 0.8456 0.8457
2701.000000 0.8459 0.8460 0.8461 0.8462 0.8463
2706.000000 0.8464 0.8465 0.8466 0.8467 0.8469
2711.000000 0.8470 0.8472 0.8473 0.8474 0.8476
2716.000000 0.8477 0.8478 0.8480 0.8481 0.8482
2721.000000 0.8484 0.8485 0.8486 0.8487 0.8487
2726.000000 0.8487 0.8487 0.8487 0.8487 0.8487
2731.000000 0.8487 0.8487 0.8487 0.8487 0.8484
2736.000000 0.8480 0.8475 0.8471 0.8467 0.8462
2741.000000 0.8458 0.8454 0.8449 0.8445 0.8441
2746.000000 0.8436 0.8432 0.8425 0.8418 0.8411
2751.000000 0.8403 0.8396 0.8389 0.8382 0.8374
2756.000000 0.8367 0.8360 0.8352 0.8348 0.8345
2761.000000 0.8342 0.8340 0.8337 0.8334 0.8332
2766.000000 0.8329 0.8326 0.8324 0.8321 0.8320
2771.000000 0.8318 0.8317 0.8315 0.8314 0.8313
2776.000000 0.8311 0.8310 0.8308 0.8305 0.8301
2781.000000 0.8296 0.8292 0.8288 0.8283 0.8279
2786.000000 0.8275 0.8270 0.8266 0.8262 0.8257
2791.000000 0.8253 0.8249 0.8245 0.8241 0.8236
2796.000000 0.8232 0.8228 0.8224 0.8219 0.8215
2801.000000 0.8211 0.8209 0.8209 0.8209 0.8209
2806.000000 0.8210 0.8210 0.8210 0.8210 0.8210
2811.000000 0.8210 0.8210 0.8210 0.8210 0.8210
2816.000000 0.8211 0.8211 0.8211 0.8211 0.8211
2821.000000 0.8211 0.8211 0.8211 0.8211 0.8211
2826.000000 0.8211 0.8212 0.8203 0.8189 0.8175
2831.000000 0.8161 0.8146 0.8132 0.8118 0.8103
2836.000000 0.8089 0.8074 0.8060 0.8046 0.8031
2841.000000 0.8017 0.8008 0.7999 0.7990 0.7981
2846.000000 0.7972 0.7963 0.7954 0.7945 0.7936
2851.000000 0.7917 0.7897 0.7878 0.7858 0.7838
2856.000000 0.7819 0.7801 0.7783 0.7766 0.7748
2861.000000 0.7730 0.7717 0.7716 0.7714 0.7713
2866.000000 0.7712 0.7711 0.7710 0.7708 0.7707
2871.000000 0.7705 0.7704 0.7702 0.7700 0.7698
2876.000000 0.7679 0.7645 0.7611 0.7577 0.7541
2881.000000 0.7467 0.7376 0.7267 0.7158 0.7049
2886.000000 0.6941 0.6832 0.6804 0.6787 0.6782
2891.000000 0.6782 0.6945 0.7078 0.7210 0.7343
2896.000000 0.7476 0.7602 0.7645 0.7680 0.7695
2901.000000 0.7703 0.7712 0.7720 0.7723 0.7719
2906.000000 0.7715 0.7758 0.7706 0.7691 0.7669
2911.000000 0.7642 0.7614 0.7568 0.7523 0.7475
2916.000000 0.7428 0.7382 0.7348 0.7332 0.7316
2921.000000 0.7300 0.7284 0.7268 0.7251 0.7235
2926.000000 0.7219 0.7210 0.7202 0.7194 0.7186
2931.000000 0.7191 0.7204 0.7218 0.7232 0.7247
2936.000000 0.7250 0.7246 0.7243 0.7239 0.7220
2941.000000 0.7183 0.7144 0.7079 0.6995 0.6917
2946.000000 0.6916 0.6915 0.6914 0.6920 0.6926
2951.000000 0.6932 0.6938 0.6945 0.6967 0.6989
2956.000000 0.7012 0.7036 0.7059 0.7081 0.7099
2961.000000 0.7116 0.7117 0.7113 0.7106 0.7094
2966.000000 0.7077 0.6976 0.6804 0.6631 0.6458
2971.000000 0.6285 0.6113 0.5940 0.5927 0.5946
2976.000000 0.6279 0.6510 0.6741 0.6972 0.7203
2981.000000 0.7491 0.7635 0.7692 0.7721 0.7749
2986.000000 0.7777 0.7802 0.7824 0.7847 0.7870
2991.000000 0.7893 0.7913 0.7933 0.7953 0.7972
2996.000000 0.7979 0.7982 0.7986 0.7990 0.7992
3001.000000 0.7995 0.7997 0.7987 0.7990 0.7986
3006.000000 0.7981 0.7976 0.7972 0.7967 0.7962
3011.000000 0.7958 0.7953 0.7948 0.7943 0.7938
3016.000000 0.7933 0.7928 0.7921 0.7914 0.7907
3021.000000 0.7899 0.7892 0.7884 0.7877 0.7869
3026.000000 0.7862 0.7854 0.7844 0.7823 0.7802
3031.000000 0.7773 0.7733 0.7728 0.7724 0.7719
3036.000000 0.7715 0.7710 0.7715 0.7723 0.7730
3041.000000 0.7746 0.7763 0.7778 0.7778 0.7777
3046.000000 0.7776 0.7775 0.7773 0.7770 0.7766
3051.000000 0.7758 0.7750 0.7742 0.7734 0.7727
3056.000000 0.7720 0.7713 0.7706 0.7699 0.7686
3061.000000 0.7675 0.7680 0.7685 0.7691 0.7699
3066.000000 0.7707 0.7715 0.7721 0.7725 0.7726
3071.000000 0.7725 0.7724 0.7723 0.7721 0.7720
3076.000000 0.7717 0.7713 0.7710 0.7706 0.7703
3081.000000 0.7699 0.7695 0.7692 0.7690 0.7687
3086.000000 0.7683 0.7678 0.7674 0.7669 0.7665
3091.000000 0.7660 0.7655 0.7650 0.7645 0.7639
3096.000000 0.7634 0.7628 0.7623 0.7618 0.7612
3101.000000 0.7607 0.7601 0.7600 0.7600 0.7600
3106.000000 0.7600 0.7601 0.7601 0.7601 0.7601
3111.000000 0.7601 0.7573 0.7493 0.7464 0.7435
3116.000000 0.7426 0.7417 0.7407 0.7398 0.7388
3121.000000 0.7379 0.7369 0.7360 0.7350 0.7340
3126.000000 0.7329 0.7318 0.7306 0.7295 0.7284
3131.000000 0.7273 0.7261 0.7250 0.7239 0.7227
3136.000000 0.7216 0.7206 0.7198 0.7191 0.7183
3141.000000 0.7176 0.7172 0.7168 0.7164 0.7160
3146.000000 0.7156 0.7148 0.7141 0.7133 0.7125
3151.000000 0.7117 0.7105 0.7090 0.7075 0.7058
3156.000000 0.7040 0.7023 0.7005 0.6987 0.6969
3161.000000 0.6951 0.6934 0.6913 0.6891 0.6869
3166.000000 0.6848 0.6826 0.6804 0.6779 0.6747
3171.000000 0.6716 0.6685 0.6654 0.6623 0.6592
3176.000000 0.6552 0.6510 0.6468 0.6425 0.6383
3181.000000 0.6341 0.6295 0.6243 0.6191 0.6139
3186.000000 0.6087 0.6035 0.5990 0.5944 0.5899
3191.000000 0.5853 0.5808 0.5762 0.5717 0.5671
3196.000000 0.5618 0.5564 0.5511 0.5458 0.5405
3201.000000 0.5352 0.5300 0.5250 0.5200 0.5151
3206.000000 0.5101 0.5051 0.4956 0.4858 0.4786
3211.000000 0.4733 0.4725 0.4743 0.4727 0.4738
3216.000000 0.4759 0.4795 0.4842 0.4895 0.4950
3221.000000 0.5008 0.5068 0.5142 0.5231 0.5314
3226.000000 0.5372 0.5429 0.5464 0.5492 0.5507
3231.000000 0.5522 0.5537 0.5550 0.5564 0.5577
3236.000000 0.5590 0.5601 0.5612 0.5654 0.5757
3241.000000 0.5854 0.5944 0.5993 0.6041 0.6089
3246.000000 0.6111 0.6133 0.6155 0.6177 0.6198
3251.000000 0.6211 0.6223 0.6236 0.6239 0.6241
3256.000000 0.6243 0.6252 0.6248 0.6241 0.6233
3261.000000 0.6225 0.6217 0.6206 0.6192 0.6179
3266.000000 0.6166 0.6153 0.6138 0.6122 0.6107
3271.000000 0.6091 0.6075 0.6055 0.6034 0.6012
3276.000000 0.5989 0.5965 0.5941 0.5916 0.5892
3281.000000 0.5863 0.5833 0.5803 0.5773 0.5742
3286.000000 0.5694 0.5646 0.5597 0.5549 0.5500
3291.000000 0.5447 0.5395 0.5342 0.5289 0.5248
3296.000000 0.5206 0.5164 0.5122 0.5080 0.5021
3301.000000 0.4956 0.4891 0.4825 0.4760 0.4695
3306.000000 0.4629 0.4564 0.4499 0.4433 0.4368
3311.000000 0.4303 0.4237 0.4172 0.4107 0.4041
3316.000000 0.3976 0.3911 0.3845 0.3780 0.3715
3321.000000 0.3650 0.3584 0.3519 0.3454 0.3388
3326.000000 0.3323 0.3226 0.3166 0.3109 0.3047
3331.000000 0.2992 0.2954 0.2942 0.2938 0.2939
3336.000000 0.2926 0.2958 0.2987 0.3032 0.3116
3341.000000 0.3222 0.3328 0.3434 0.3539 0.3645
3346.000000 0.3751 0.3857 0.3963 0.4069 0.4175
3351.000000 0.4280 0.4386 0.4492 0.4598 0.4704
3356.000000 0.4810 0.4916 0.5021 0.5127 0.5233
3361.000000 0.5286 0.5343 0.5410 0.5476 0.5527
3366.000000 0.5565 0.5604 0.5641 0.5666 0.5691
3371.000000 0.5707 0.5718 0.5730 0.5755 0.5735
3376.000000 0.5730 0.5725 0.5715 0.5706 0.5697
3381.000000 0.5688 0.5679 0.5666 0.5651 0.5634
3386.000000 0.5616 0.5598 0.5547 0.5473 0.5399
3391.000000 0.5325 0.5250 0.5176 0.5102 0.5028
3396.000000 0.4954 0.4880 0.4806 0.4732 0.4658
3401.000000 0.4584 0.4510 0.4436 0.4362 0.4288
3406.000000 0.4214 0.4140 0.4066 0.3992 0.3920
3411.000000 0.3879 0.3840 0.3801 0.3772 0.3769
3416.000000 0.3753 0.3764 0.3769 0.3775 0.3784
3421.000000 0.3811 0.3840 0.3877 0.3917 0.3975
3426.000000 0.4074 0.4215 0.4505 0.4679 0.4780
3431.000000 0.4884 0.5165 0.5262 0.5379 0.5492
3436.000000 0.5584 0.5634 0.5677 0.5720 0.5763
3441.000000 0.5806 0.5849 0.5892 0.5947 0.6007
3446.000000 0.6066 0.6118 0.6171 0.6221 0.6270
3451.000000 0.6311 0.6352 0.6391 0.6417 0.6442
3456.000000 0.6468 0.6493 0.6524 0.6561 0.6592
3461.000000 0.6619 0.6647 0.6669 0.6688 0.6707
3466.000000 0.6726 0.6745 0.6758 0.6771 0.6784
3471.000000 0.6796 0.6809 0.6822 0.6835 0.6848
3476.000000 0.6861 0.6873 0.6884 0.6894 0.6905
3481.000000 0.6916 0.6927 0.6937 0.6948 0.6959
3486.000000 0.6970 0.6981 0.6991 0.7002 0.7015
3491.000000 0.7028 0.7042 0.7056 0.7070 0.7084
3496.000000 0.7098 0.7112 0.7126 0.7139 0.7153
3501.000000 0.7167 0.7181 0.7195 0.7209 0.7220
3506.000000 0.7231 0.7241 0.7252 0.7262 0.7273
3511.000000 0.7283 0.7294 0.7304 0.7315 0.7325
3516.000000 0.7335 0.7346 0.7356 0.7366 0.7376
3521.000000 0.7385 0.7394 0.7404 0.7413 0.7422
3526.000000 0.7431 0.7441 0.7450 0.7459 0.7468
3531.000000 0.7478 0.7487 0.7496 0.7506 0.7515
3536.000000 0.7523 0.7532 0.7541 0.7550 0.7559
3541.000000 0.7567 0.7576 0.7585 0.7594 0.7602
3546.000000 0.7611 0.7620 0.7629 0.7638 0.7646
3551.000000 0.7655 0.7664 0.7673 0.7681 0.7690
3556.000000 0.7699 0.7708 0.7716 0.7724 0.7733
3561.000000 0.7741 0.7749 0.7758 0.7766 0.7774
3566.000000 0.7783 0.7791 0.7799 0.7808 0.7816
3571.000000 0.7824 0.7832 0.7841 0.7849 0.7857
3576.000000 0.7866 0.7874 0.7882 0.7889 0.7895
3581.000000 0.7901 0.7906 0.7912 0.7918 0.7924
3586.000000 0.7930 0.7936 0.7941 0.7947 0.7953
3591.000000 0.7959 0.7965 0.7970 0.7976 0.7982
3596.000000 0.7988 0.7994 0.8000 0.8005 0.8011
3601.000000 0.8017 0.8023 0.8028 0.8033 0.8038
3606.000000 0.8043 0.8048 0.8053 0.8058 0.8063
3611.000000 0.8068 0.8073 0.8078 0.8083 0.8088
3616.000000 0.8093 0.8099 0.8104 0.8109 0.8114
3621.000000 0.8119 0.8124 0.8129 0.8134 0.8139
3626.000000 0.8144 0.8149 0.8154 0.8158 0.8161
3631.000000 0.8164 0.8167 0.8170 0.8173 0.8177
3636.000000 0.8180 0.8183 0.8186 0.8189 0.8192
3641.000000 0.8195 0.8198 0.8201 0.8204 0.8207
3646.000000 0.8210 0.8213 0.8216 0.8219 0.8220
3651.000000 0.8220 0.8220 0.8220 0.8246 0.8219
3656.000000 0.8219 0.8219 0.8219 0.8219 0.8219
3661.000000 0.8219 0.8219 0.8218 0.8218 0.8218
3666.000000 0.8216 0.8213 0.8209 0.8206 0.8202
3671.000000 0.8198 0.8195 0.8191 0.8187 0.8184
3676.000000 0.8180 0.8176 0.8170 0.8163 0.8156
3681.000000 0.8149 0.8142 0.8135 0.8135 0.8138
3686.000000 0.8141 0.8144 0.8147 0.8150 0.8153
3691.000000 0.8157 0.8167 0.8176 0.8186 0.8196
3696.000000 0.8205 0.8216 0.8229 0.8241 0.8254
3701.000000 0.8266 0.8270 0.8272 0.8274 0.8276
3706.000000 0.8277 0.8279 0.8281 0.8283 0.8283
3711.000000 0.8281 0.8280 0.8278 0.8277 0.8275
3716.000000 0.8274 0.8273 0.8271 0.8270 0.8268
3721.000000 0.8267 0.8265 0.8264 0.8263 0.8263
3726.000000 0.8262 0.8262 0.8261 0.8261 0.8261
3731.000000 0.8260 0.8260 0.8259 0.8259 0.8259
3736.000000 0.8258 0.8258 0.8257 0.8255 0.8253
3741.000000 0.8251 0.8249 0.8247 0.8245 0.8243
3746.000000 0.8241 0.8239 0.8236 0.8234 0.8232
3751.000000 0.8230 0.8228 0.8226 0.8224 0.8222
3756.000000 0.8221 0.8219 0.8217 0.8216 0.8214
3761.000000 0.8212 0.8211 0.8209 0.8207 0.8206
3766.000000 0.8204 0.8202 0.8201 0.8199 0.8197
3771.000000 0.8196 0.8194 0.8192 0.8191 0.8189
3776.000000 0.8187 0.8186 0.8184 0.8182 0.8181
3781.000000 0.8179 0.8177 0.8176 0.8174 0.8172
3786.000000 0.8171 0.8169 0.8167 0.8166 0.8164
3791.000000 0.8162 0.8160 0.8159 0.8157 0.8155
3796.000000 0.8154 0.8152 0.8150 0.8149 0.8148
##END=
