##TITLE=AZACYCLOTRIDECAN-2-ONE
##JCAMP-DX=4.24
##DATA TYPE=INFRARED SPECTRUM
##CLASS=COBLENTZ
##ORIGIN=TENNESSEE EASTMAN COMPANY, RESEARCH LABORATORIES
##OWNER=COBLENTZ SOCIETY
Collection (C) 2018 copyright by the U.S. Secretary of Commerce
on behalf of the United States of America. All rights reserved.
##DATE=Not specified, most likely prior to 1970
##CAS REGISTRY NO=947-04-6
##MOLFORM=C12 H23 N O
##MP=151.5-152 C
##SOURCE REFERENCE=COBLENTZ NO. 1812
##$NIST SOURCE=COBLENTZ
##$NIST IMAGE=cob1812
##SPECTROMETER/DATA SYSTEM=Not specified, most likely a prism, grating, or hybrid spectrometer.
##STATE=SOLID (KBr PELLET)
##SAMPLING PROCEDURE=TRANSMISSION
##RESOLUTION=4
##DATA PROCESSING=DIGITIZED BY NIST FROM HARD COPY
##XUNITS=MICROMETERS
##YUNITS=TRANSMITTANCE
##XFACTOR=1.000000
##YFACTOR=1
##DELTAX=000.006806
##FIRSTX=2.054
##LASTX=16.0138
##FIRSTY=0.914
##MAXX=16.0138
##MINX=2.054
##MAXY=0.95
##MINY=0
##NPOINTS=2052
##XYDATA=(X++(Y..Y))
2.054000 0.9140 0.9140 0.9140 0.9140 0.9140
2.088047 0.9140 0.9140 0.9120 0.9120 0.9120
2.123000 0.9120 0.9120 0.9140 0.9140 0.9140
2.157047 0.9140 0.9120 0.9120 0.9110 0.9110
2.191000 0.9110 0.9110 0.9110 0.9120 0.9120
2.225047 0.9120 0.9120 0.9120 0.9110 0.9090
2.259000 0.9040 0.9000 0.8970 0.8880 0.8830
2.293047 0.8830 0.8830 0.8830 0.8830 0.8830
2.327000 0.8830 0.8830 0.8830 0.8830 0.8830
2.361047 0.8830 0.8830 0.8830 0.8850 0.8870
2.395000 0.8880 0.8900 0.8920 0.8920 0.8920
2.429047 0.8920 0.8920 0.8920 0.8920 0.8920
2.463000 0.8920 0.8920 0.8920 0.8920 0.8920
2.497047 0.8920 0.8920 0.8920 0.8940 0.8950
2.531000 0.8970 0.8970 0.8990 0.8990 0.8990
2.565047 0.8990 0.8990 0.8990 0.8990 0.8990
2.599000 0.8990 0.8990 0.8990 0.8990 0.8990
2.633047 0.9000 0.9000 0.9000 0.9020 0.9020
2.667000 0.9020 0.9020 0.9020 0.9020 0.9020
2.701047 0.9020 0.9000 0.9000 0.9000 0.9000
2.735000 0.9000 0.8990 0.8990 0.8970 0.8950
2.769047 0.8950 0.8940 0.8940 0.8940 0.8920
2.803000 0.8900 0.8850 0.8830 0.8820 0.8800
2.837047 0.8760 0.8750 0.8730 0.8710 0.8680
2.871000 0.8610 0.8590 0.8540 0.8510 0.8490
2.905047 0.8440 0.8410 0.8370 0.8300 0.8180
2.939000 0.8050 0.7910 0.7670 0.7280 0.6660
2.973047 0.5530 0.4870 0.4200 0.3570 0.2940
3.007000 0.1860 0.0940 0.0420 0.0410 0.0440
3.041047 0.0830 0.1280 0.1770 0.2340 0.3020
3.075000 0.3650 0.4180 0.4920 0.5810 0.6270
3.109047 0.6510 0.6580 0.6710 0.6780 0.6830
3.143000 0.6920 0.7040 0.7190 0.7470 0.7640
3.177047 0.7760 0.7820 0.7880 0.7880 0.7840
3.211000 0.7690 0.7520 0.7230 0.6940 0.6630
3.245047 0.6370 0.6230 0.6230 0.6300 0.6680
3.280000 0.7090 0.7640 0.7910 0.8060 0.8100
3.314047 0.8100 0.8050 0.7930 0.7720 0.7380
3.348000 0.6780 0.5810 0.4940 0.4060 0.1400
3.382047 0.0660 0.0000 0.0000 0.0000 0.0220
3.416000 0.0420 0.0640 0.0880 0.1260 0.1790
3.450047 0.2170 0.2270 0.2230 0.0970 0.0950
3.484000 0.0970 0.1570 0.2510 0.3120 0.3960
3.518047 0.4370 0.6220 0.6950 0.7290 0.7400
3.552000 0.7470 0.7570 0.7740 0.7960 0.8050
3.586047 0.8170 0.8250 0.8340 0.8420 0.8440
3.620000 0.8460 0.8490 0.8520 0.8540 0.8590
3.654047 0.8610 0.8630 0.8640 0.8640 0.8640
3.688000 0.8640 0.8640 0.8640 0.8640 0.8630
3.722047 0.8630 0.8610 0.8590 0.8560 0.8520
3.756000 0.8510 0.8490 0.8490 0.8490 0.8510
3.790047 0.8520 0.8540 0.8590 0.8630 0.8680
3.824000 0.8710 0.8780 0.8830 0.8900 0.8920
3.858047 0.8950 0.8990 0.9000 0.9000 0.9000
3.892000 0.9000 0.9000 0.9020 0.9040 0.9050
3.926047 0.9070 0.9070 0.9070 0.9070 0.9070
3.960000 0.9070 0.9090 0.9090 0.9090 0.9110
3.994047 0.9110 0.9120 0.9120 0.9120 0.9120
4.028000 0.9120 0.9140 0.9160 0.9160 0.9160
4.062047 0.9160 0.9190 0.9190 0.9190 0.9210
4.096000 0.9210 0.9230 0.9230 0.9230 0.9230
4.130047 0.9230 0.9240 0.9240 0.9240 0.9240
4.164000 0.9260 0.9260 0.9260 0.9260 0.9260
4.198047 0.9260 0.9280 0.9280 0.9280 0.9280
4.232000 0.9280 0.9280 0.9260 0.9240 0.9210
4.266047 0.9160 0.9090 0.9070 0.9070 0.9070
4.300000 0.9070 0.9070 0.9070 0.9070 0.9070
4.334047 0.9090 0.9110 0.9140 0.9170 0.9190
4.368000 0.9210 0.9230 0.9240 0.9260 0.9280
4.402047 0.9290 0.9290 0.9290 0.9290 0.9290
4.437000 0.9310 0.9310 0.9310 0.9310 0.9330
4.471047 0.9330 0.9330 0.9330 0.9330 0.9330
4.505000 0.9350 0.9350 0.9350 0.9350 0.9350
4.539047 0.9350 0.9350 0.9350 0.9350 0.9350
4.573000 0.9350 0.9350 0.9350 0.9350 0.9360
4.607047 0.9360 0.9350 0.9350 0.9350 0.9350
4.641000 0.9350 0.9350 0.9350 0.9350 0.9350
4.675047 0.9360 0.9360 0.9360 0.9360 0.9360
4.709000 0.9360 0.9360 0.9380 0.9380 0.9380
4.743047 0.9380 0.9380 0.9380 0.9380 0.9380
4.777000 0.9380 0.9380 0.9380 0.9380 0.9380
4.811047 0.9380 0.9380 0.9380 0.9380 0.9380
4.845000 0.9380 0.9380 0.9380 0.9400 0.9400
4.879047 0.9400 0.9400 0.9400 0.9400 0.9400
4.913000 0.9400 0.9410 0.9410 0.9410 0.9410
4.947047 0.9410 0.9410 0.9410 0.9410 0.9410
4.981000 0.9410 0.9410 0.9430 0.9500 0.9500
5.015047 0.9500 0.9500 0.9480 0.9480 0.9450
5.049000 0.9450 0.9450 0.9450 0.9450 0.9430
5.083047 0.9430 0.9410 0.9410 0.9410 0.9410
5.117000 0.9410 0.9410 0.9410 0.9410 0.9410
5.151047 0.9410 0.9410 0.9410 0.9410 0.9410
5.185000 0.9410 0.9410 0.9410 0.9410 0.9410
5.219047 0.9410 0.9410 0.9410 0.9410 0.9410
5.253000 0.9410 0.9410 0.9410 0.9410 0.9410
5.287047 0.9430 0.9430 0.9430 0.9430 0.9430
5.321000 0.9430 0.9430 0.9430 0.9430 0.9430
5.355047 0.9410 0.9410 0.9410 0.9410 0.9410
5.389000 0.9430 0.9430 0.9430 0.9430 0.9430
5.423047 0.9430 0.9410 0.9410 0.9410 0.9410
5.457000 0.9410 0.9410 0.9410 0.9410 0.9410
5.491047 0.9410 0.9410 0.9410 0.9410 0.9410
5.526000 0.9400 0.9400 0.9380 0.9380 0.9380
5.560047 0.9350 0.9350 0.9330 0.9330 0.9310
5.594000 0.9310 0.9280 0.9260 0.9260 0.9240
5.628047 0.9240 0.9230 0.9210 0.9210 0.9190
5.662000 0.9170 0.9170 0.9160 0.9160 0.9140
5.696047 0.9140 0.9070 0.9050 0.9020 0.8990
5.730000 0.8970 0.8940 0.8900 0.8850 0.8820
5.764047 0.8760 0.8750 0.8730 0.8730 0.8730
5.798000 0.8750 0.8750 0.8750 0.8730 0.8710
5.832047 0.8640 0.8610 0.8590 0.8590 0.8580
5.866000 0.8540 0.8490 0.8460 0.8350 0.8290
5.900047 0.8200 0.8150 0.8110 0.8100 0.8050
5.934000 0.8000 0.7880 0.7790 0.7700 0.7620
5.968047 0.7450 0.7280 0.7070 0.6780 0.6370
6.002000 0.5880 0.5400 0.4900 0.4170 0.3860
6.036047 0.2750 0.2010 0.1620 0.1120 0.0660
6.070000 0.0350 0.0250 0.0220 0.0180 0.0180
6.104047 0.0200 0.0290 0.0410 0.0630 0.0940
6.138000 0.1360 0.1760 0.2270 0.2660 0.3120
6.172047 0.3450 0.3700 0.4060 0.4220 0.4340
6.206000 0.4410 0.4640 0.4880 0.5290 0.5600
6.240047 0.5810 0.5960 0.6080 0.6180 0.6180
6.274000 0.6180 0.6110 0.5910 0.5760 0.5570
6.308047 0.5350 0.5050 0.4900 0.4750 0.4390
6.342000 0.3960 0.3500 0.2990 0.2410 0.2030
6.376047 0.1760 0.1550 0.1330 0.1070 0.0680
6.410000 0.0460 0.0370 0.0350 0.0350 0.0370
6.444047 0.0420 0.0540 0.0800 0.1160 0.1520
6.478000 0.1910 0.2290 0.2510 0.2750 0.3120
6.512047 0.3350 0.3700 0.3890 0.4100 0.4320
6.546000 0.4540 0.4760 0.4940 0.5350 0.5450
6.580047 0.5500 0.5570 0.5620 0.5670 0.5740
6.614000 0.5790 0.5810 0.6000 0.6030 0.6080
6.648047 0.6130 0.6150 0.6170 0.6180 0.6180
6.683000 0.6180 0.6180 0.6180 0.6150 0.6110
6.717047 0.6050 0.6010 0.5960 0.5880 0.5700
6.751000 0.5530 0.5260 0.4590 0.3930 0.3400
6.785047 0.2820 0.2270 0.1980 0.1640 0.1620
6.819000 0.1620 0.1650 0.1860 0.2180 0.2300
6.853047 0.2300 0.2230 0.1720 0.1670 0.1600
6.887000 0.1580 0.1600 0.1670 0.1840 0.2100
6.921047 0.2230 0.2350 0.2410 0.2420 0.2490
6.955000 0.2660 0.2950 0.3090 0.3330 0.3570
6.989047 0.3840 0.4130 0.4440 0.4780 0.5360
7.023000 0.5530 0.5670 0.5810 0.5910 0.6000
7.057047 0.6100 0.6180 0.6290 0.6350 0.6420
7.091000 0.6470 0.6490 0.6520 0.6580 0.6610
7.125047 0.6630 0.6640 0.6680 0.6700 0.6710
7.159000 0.6730 0.6750 0.6780 0.6780 0.6780
7.193047 0.6750 0.6660 0.6540 0.6410 0.6290
7.227000 0.6170 0.6060 0.5940 0.5840 0.5740
7.261047 0.5620 0.5550 0.5500 0.5480 0.5430
7.295000 0.5380 0.5310 0.5280 0.5210 0.5160
7.329047 0.5090 0.5070 0.5070 0.5070 0.5070
7.363000 0.5090 0.5090 0.5090 0.5090 0.5090
7.397047 0.5090 0.5040 0.4990 0.4830 0.4730
7.431000 0.4630 0.4610 0.4610 0.4610 0.4750
7.465047 0.5360 0.5570 0.5790 0.6050 0.6170
7.499000 0.6320 0.6410 0.6490 0.6490 0.6510
7.533047 0.6510 0.6520 0.6630 0.6730 0.6850
7.567000 0.6970 0.7090 0.7140 0.7170 0.7160
7.601047 0.7070 0.7020 0.6900 0.6710 0.6610
7.635000 0.6610 0.6590 0.6590 0.6590 0.6540
7.669047 0.6460 0.6350 0.6230 0.6180 0.6110
7.703000 0.6030 0.5890 0.5700 0.5550 0.5500
7.737047 0.5480 0.5480 0.5480 0.5410 0.5260
7.772000 0.5000 0.4900 0.4800 0.4700 0.4560
7.806047 0.4300 0.4270 0.4270 0.4300 0.4610
7.840000 0.4820 0.4950 0.5170 0.5210 0.5280
7.874047 0.5280 0.5190 0.5050 0.4900 0.4660
7.908000 0.4350 0.4100 0.3910 0.3880 0.3890
7.942047 0.4100 0.4350 0.4750 0.5280 0.5470
7.976000 0.5620 0.5790 0.5930 0.6060 0.6200
8.010047 0.6320 0.6410 0.6470 0.6580 0.6590
8.044000 0.6590 0.6580 0.6460 0.6230 0.5910
8.078047 0.5700 0.5450 0.5260 0.5210 0.5240
8.112000 0.5550 0.5960 0.6290 0.6560 0.6710
8.146047 0.6830 0.6950 0.7110 0.7190 0.7240
8.180000 0.7280 0.7290 0.7360 0.7400 0.7470
8.214047 0.7530 0.7570 0.7570 0.7570 0.7570
8.248000 0.7570 0.7500 0.7290 0.7160 0.7110
8.282047 0.7140 0.7190 0.7400 0.7670 0.7740
8.316000 0.7720 0.7700 0.7690 0.7640 0.7550
8.350047 0.7400 0.7140 0.6920 0.6630 0.6200
8.384000 0.5820 0.5620 0.5290 0.4940 0.4580
8.418047 0.4290 0.4200 0.4290 0.4750 0.5500
8.452000 0.5620 0.6080 0.6340 0.6540 0.6750
8.486047 0.6990 0.7190 0.7350 0.7480 0.7600
8.520000 0.7690 0.7770 0.7820 0.7860 0.7860
8.554047 0.7820 0.7770 0.7690 0.7550 0.7520
8.588000 0.7470 0.7410 0.7310 0.7260 0.7170
8.622047 0.7160 0.7120 0.7090 0.7000 0.6970
8.656000 0.6950 0.6900 0.6900 0.6900 0.6900
8.690047 0.6970 0.7050 0.7160 0.7240 0.7350
8.724000 0.7470 0.7570 0.7670 0.7760 0.7860
8.758047 0.7940 0.8010 0.8060 0.8110 0.8130
8.792000 0.8150 0.8180 0.8200 0.8220 0.8230
8.826047 0.8230 0.8230 0.8250 0.8270 0.8270
8.860000 0.8270 0.8230 0.8180 0.8080 0.7930
8.894047 0.7690 0.7500 0.7290 0.7090 0.6880
8.929000 0.6820 0.6800 0.6800 0.6880 0.7050
8.963047 0.7240 0.7350 0.7450 0.7470 0.7580
8.997000 0.7650 0.7690 0.7720 0.7760 0.7790
9.031047 0.7770 0.7760 0.7720 0.7690 0.7640
9.065000 0.7600 0.7580 0.7570 0.7570 0.7570
9.099047 0.7580 0.7620 0.7690 0.7790 0.7820
9.133000 0.7820 0.7890 0.7940 0.8000 0.8000
9.167047 0.8000 0.8000 0.8010 0.8010 0.8010
9.201000 0.8010 0.8010 0.8010 0.8010 0.8010
9.235047 0.8010 0.8000 0.7980 0.7980 0.7960
9.269000 0.7910 0.7880 0.7840 0.7820 0.7810
9.303047 0.7810 0.7810 0.7810 0.7810 0.7840
9.337000 0.7880 0.7880 0.7880 0.7880 0.7880
9.371047 0.7820 0.7700 0.7640 0.7530 0.7410
9.405000 0.7350 0.7310 0.7290 0.7290 0.7330
9.439047 0.7470 0.7550 0.7640 0.7700 0.7790
9.473000 0.7890 0.7890 0.7910 0.7930 0.7960
9.507047 0.7980 0.8000 0.8000 0.8010 0.8010
9.541000 0.8030 0.8080 0.8100 0.8100 0.8100
9.575047 0.8100 0.8100 0.8080 0.8060 0.8010
9.609000 0.8000 0.7980 0.7980 0.8000 0.8030
9.643047 0.8100 0.8150 0.8220 0.8290 0.8320
9.677000 0.8370 0.8410 0.8440 0.8460 0.8460
9.711047 0.8470 0.8470 0.8470 0.8490 0.8490
9.745000 0.8490 0.8490 0.8490 0.8490 0.8490
9.779047 0.8490 0.8490 0.8490 0.8490 0.8470
9.813000 0.8470 0.8460 0.8440 0.8410 0.8390
9.847047 0.8390 0.8390 0.8370 0.8370 0.8370
9.881000 0.8370 0.8390 0.8410 0.8420 0.8420
9.915047 0.8410 0.8410 0.8390 0.8350 0.8250
9.949000 0.8150 0.8050 0.7960 0.7840 0.7700
9.983047 0.7600 0.7410 0.7360 0.7360 0.7360
10.018000 0.7360 0.7410 0.7550 0.7600 0.7650
10.052047 0.7740 0.7840 0.7890 0.7930 0.7980
10.086000 0.8000 0.8000 0.8010 0.8100 0.8110
10.120047 0.8170 0.8220 0.8270 0.8320 0.8390
10.154000 0.8420 0.8440 0.8490 0.8490 0.8490
10.188047 0.8490 0.8490 0.8490 0.8490 0.8490
10.222000 0.8490 0.8470 0.8460 0.8440 0.8420
10.256047 0.8410 0.8390 0.8390 0.8410 0.8460
10.290000 0.8490 0.8520 0.8560 0.8590 0.8640
10.324047 0.8680 0.8680 0.8700 0.8700 0.8700
10.358000 0.8700 0.8700 0.8700 0.8700 0.8700
10.392047 0.8700 0.8700 0.8700 0.8700 0.8700
10.426000 0.8700 0.8680 0.8680 0.8680 0.8680
10.460047 0.8680 0.8640 0.8630 0.8610 0.8610
10.494000 0.8610 0.8610 0.8660 0.8680 0.8700
10.528047 0.8700 0.8700 0.8710 0.8730 0.8750
10.562000 0.8760 0.8760 0.8760 0.8750 0.8730
10.596047 0.8710 0.8680 0.8640 0.8590 0.8540
10.630000 0.8510 0.8490 0.8490 0.8490 0.8460
10.664047 0.8420 0.8390 0.8350 0.8300 0.8250
10.698000 0.8200 0.8170 0.8080 0.8050 0.8010
10.732047 0.8010 0.8010 0.8010 0.8030 0.8080
10.766000 0.8110 0.8200 0.8270 0.8320 0.8390
10.800047 0.8440 0.8490 0.8510 0.8540 0.8580
10.834000 0.8580 0.8580 0.8580 0.8520 0.8460
10.868047 0.8390 0.8320 0.8290 0.8270 0.8270
10.902000 0.8290 0.8350 0.8440 0.8510 0.8540
10.936047 0.8590 0.8660 0.8750 0.8820 0.8940
10.970000 0.8950 0.9000 0.9050 0.9110 0.9140
11.004047 0.9170 0.9170 0.9170 0.9190 0.9190
11.038000 0.9190 0.9190 0.9190 0.9210 0.9210
11.072047 0.9210 0.9230 0.9230 0.9230 0.9240
11.106000 0.9260 0.9260 0.9260 0.9280 0.9280
11.140047 0.9280 0.9240 0.9210 0.9170 0.9120
11.175000 0.9050 0.9020 0.8950 0.8900 0.8830
11.209047 0.8780 0.8700 0.8680 0.8660 0.8640
11.243000 0.8640 0.8640 0.8640 0.8660 0.8680
11.277047 0.8680 0.8710 0.8730 0.8730 0.8760
11.311000 0.8800 0.8830 0.8870 0.8920 0.8970
11.345047 0.8990 0.9000 0.9020 0.9040 0.9050
11.379000 0.9050 0.9090 0.9090 0.9110 0.9110
11.413047 0.9110 0.9110 0.9120 0.9120 0.9120
11.447000 0.9120 0.9120 0.9110 0.9110 0.9110
11.481047 0.9110 0.9110 0.9090 0.9070 0.9070
11.515000 0.9070 0.9070 0.9070 0.9070 0.9090
11.549047 0.9090 0.9110 0.9110 0.9110 0.9110
11.583000 0.9090 0.9090 0.9090 0.9090 0.9070
11.617047 0.9050 0.9020 0.9000 0.8990 0.8970
11.651000 0.8970 0.8970 0.8970 0.8970 0.8970
11.685047 0.8970 0.8950 0.8950 0.8950 0.8950
11.719000 0.8950 0.8950 0.8950 0.8950 0.8950
11.753047 0.8950 0.8950 0.8950 0.8950 0.8950
11.787000 0.8950 0.8950 0.8970 0.8970 0.8990
11.821047 0.8990 0.9000 0.9020 0.9040 0.9050
11.855000 0.9050 0.9090 0.9110 0.9120 0.9120
11.889047 0.9120 0.9120 0.9120 0.9120 0.9110
11.923000 0.9110 0.9090 0.9040 0.9000 0.8990
11.957047 0.8970 0.8950 0.8900 0.8880 0.8880
11.991000 0.8870 0.8850 0.8850 0.8830 0.8830
12.025047 0.8850 0.8870 0.8880 0.8880 0.8900
12.059000 0.8920 0.8920 0.8940 0.8950 0.8950
12.093047 0.8950 0.8950 0.8950 0.8950 0.8950
12.127000 0.8950 0.8950 0.8950 0.8970 0.8970
12.161047 0.8970 0.8970 0.8970 0.8970 0.8970
12.195000 0.8990 0.8990 0.9000 0.9020 0.9020
12.229047 0.9020 0.9020 0.9020 0.9020 0.9020
12.263000 0.9020 0.9000 0.9000 0.8990 0.8990
12.297047 0.8970 0.8950 0.8900 0.8880 0.8880
12.332000 0.8870 0.8870 0.8850 0.8830 0.8830
12.366047 0.8820 0.8820 0.8820 0.8820 0.8820
12.400000 0.8820 0.8820 0.8800 0.8780 0.8760
12.434047 0.8750 0.8710 0.8700 0.8680 0.8680
12.468000 0.8640 0.8630 0.8630 0.8610 0.8610
12.502047 0.8610 0.8590 0.8580 0.8580 0.8580
12.536000 0.8580 0.8580 0.8580 0.8580 0.8580
12.570047 0.8580 0.8580 0.8580 0.8580 0.8580
12.604000 0.8540 0.8520 0.8490 0.8460 0.8440
12.638047 0.8390 0.8340 0.8300 0.8290 0.8270
12.672000 0.8250 0.8220 0.8170 0.8150 0.8110
12.706047 0.8100 0.8080 0.8080 0.8080 0.8080
12.740000 0.8060 0.8060 0.8060 0.8050 0.8050
12.774047 0.8050 0.8030 0.8010 0.8010 0.8010
12.808000 0.8000 0.8000 0.7980 0.7960 0.7940
12.842047 0.7930 0.7910 0.7910 0.7890 0.7890
12.876000 0.7880 0.7840 0.7840 0.7820 0.7820
12.910047 0.7810 0.7790 0.7770 0.7720 0.7690
12.944000 0.7670 0.7670 0.7620 0.7600 0.7570
12.978047 0.7520 0.7480 0.7450 0.7410 0.7400
13.012000 0.7360 0.7330 0.7290 0.7260 0.7210
13.046047 0.7170 0.7160 0.7120 0.7110 0.7110
13.080000 0.7090 0.7070 0.7040 0.7000 0.7000
13.114047 0.6990 0.6970 0.6920 0.6870 0.6870
13.148000 0.6820 0.6780 0.6730 0.6660 0.6630
13.182047 0.6580 0.6510 0.6440 0.6370 0.6270
13.216000 0.6150 0.6060 0.6010 0.5940 0.5840
13.250047 0.5770 0.5650 0.5600 0.5500 0.5400
13.284000 0.5310 0.5210 0.5110 0.5000 0.4990
13.318047 0.4950 0.4880 0.4820 0.4760 0.4710
13.352000 0.4700 0.4640 0.4640 0.4630 0.4630
13.386047 0.4610 0.4610 0.4590 0.4590 0.4590
13.421000 0.4590 0.4590 0.4590 0.4610 0.4610
13.455047 0.4610 0.4630 0.4630 0.4630 0.4640
13.489000 0.4640 0.4660 0.4660 0.4680 0.4700
13.523047 0.4700 0.4710 0.4710 0.4730 0.4730
13.557000 0.4760 0.4760 0.4780 0.4800 0.4830
13.591047 0.4870 0.4870 0.4900 0.4920 0.4950
13.625000 0.4970 0.5020 0.5070 0.5090 0.5170
13.659047 0.5190 0.5240 0.5280 0.5310 0.5360
13.693000 0.5430 0.5480 0.5520 0.5570 0.5620
13.727047 0.5690 0.5720 0.5770 0.5820 0.5880
13.761000 0.5890 0.5910 0.5960 0.5980 0.6000
13.795047 0.6010 0.6050 0.6080 0.6100 0.6110
13.829000 0.6110 0.6130 0.6150 0.6170 0.6170
13.863047 0.6170 0.6170 0.6170 0.6170 0.6170
13.897000 0.6170 0.6170 0.6170 0.6170 0.6180
13.931047 0.6220 0.6250 0.6270 0.6290 0.6290
13.965000 0.6300 0.6340 0.6370 0.6410 0.6460
13.999047 0.6460 0.6490 0.6510 0.6510 0.6510
14.033000 0.6520 0.6520 0.6520 0.6540 0.6540
14.067047 0.6540 0.6540 0.6540 0.6540 0.6540
14.101000 0.6540 0.6540 0.6540 0.6540 0.6540
14.135047 0.6540 0.6540 0.6540 0.6540 0.6540
14.169000 0.6540 0.6540 0.6540 0.6540 0.6540
14.203047 0.6540 0.6540 0.6540 0.6520 0.6520
14.237000 0.6510 0.6510 0.6490 0.6470 0.6470
14.271047 0.6460 0.6420 0.6420 0.6410 0.6390
14.305000 0.6350 0.6320 0.6290 0.6270 0.6250
14.339047 0.6230 0.6180 0.6170 0.6170 0.6130
14.373000 0.6100 0.6080 0.6060 0.6050 0.6010
14.407047 0.6000 0.5980 0.5960 0.5940 0.5930
14.441000 0.5910 0.5910 0.5890 0.5890 0.5860
14.475047 0.5860 0.5840 0.5840 0.5840 0.5840
14.509000 0.5840 0.5840 0.5840 0.5840 0.5840
14.543047 0.5840 0.5840 0.5860 0.5860 0.5860
14.578000 0.5890 0.5930 0.5940 0.5960 0.5980
14.612047 0.6000 0.6030 0.6060 0.6100 0.6110
14.646000 0.6170 0.6180 0.6220 0.6270 0.6290
14.680047 0.6300 0.6340 0.6390 0.6420 0.6470
14.714000 0.6510 0.6560 0.6560 0.6580 0.6590
14.748047 0.6630 0.6660 0.6680 0.6700 0.6730
14.782000 0.6760 0.6800 0.6830 0.6870 0.6880
14.816047 0.6940 0.6970 0.7000 0.7040 0.7040
14.850000 0.7070 0.7090 0.7110 0.7120 0.7160
14.884047 0.7170 0.7210 0.7210 0.7230 0.7260
14.918000 0.7260 0.7280 0.7280 0.7310 0.7310
14.952047 0.7330 0.7330 0.7360 0.7360 0.7360
14.986000 0.7360 0.7380 0.7380 0.7380 0.7400
15.020047 0.7410 0.7410 0.7450 0.7470 0.7480
15.054000 0.7480 0.7480 0.7480 0.7500 0.7500
15.088047 0.7520 0.7520 0.7550 0.7550 0.7570
15.122000 0.7570 0.7570 0.7570 0.7570 0.7580
15.156047 0.7580 0.7580 0.7580 0.7580 0.7580
15.190000 0.7580 0.7580 0.7580 0.7580 0.7580
15.224047 0.7580 0.7580 0.7580 0.7580 0.7580
15.258000 0.7580 0.7580 0.7580 0.7580 0.7580
15.292047 0.7580 0.7580 0.7580 0.7580 0.7580
15.326000 0.7580 0.7580 0.7580 0.7580 0.7580
15.360047 0.7580 0.7580 0.7580 0.7580 0.7580
15.394000 0.7580 0.7580 0.7580 0.7580 0.7580
15.428047 0.7570 0.7570 0.7550 0.7550 0.7530
15.462000 0.7530 0.7530 0.7520 0.7520 0.7520
15.496047 0.7520 0.7500 0.7500 0.7500 0.7500
15.530000 0.7500 0.7480 0.7480 0.7480 0.7480
15.564047 0.7470 0.7470 0.7470 0.7470 0.7470
15.598000 0.7470 0.7470 0.7470 0.7450 0.7450
15.632047 0.7410 0.7400 0.7400 0.7380 0.7380
15.667000 0.7380 0.7380 0.7380 0.7380 0.7360
15.701047 0.7360 0.7360 0.7360 0.7360 0.7360
15.735000 0.7360 0.7360 0.7360 0.7360 0.7350
15.769047 0.7350 0.7350 0.7350 0.7330 0.7330
15.803000 0.7330 0.7330 0.7330 0.7330 0.7330
15.837047 0.7310 0.7310 0.7310 0.7310 0.7290
15.871000 0.7290 0.7280 0.7280 0.7280 0.7280
15.905047 0.7260 0.7260 0.7260 0.7260 0.7260
15.939000 0.7260 0.7260 0.7260 0.7260 0.7260
15.973047 0.7260 0.7260 0.7260 0.7260 0.7260
16.007000 0.7260 0.7260
##END=
