##TITLE=BENZYLAMINE, 2,4-DIMETHYL-
##JCAMP-DX=4.24
##DATA TYPE=INFRARED SPECTRUM
##CLASS=COBLENTZ III
##ORIGIN=DOW CHEMICAL COMPANY
##OWNER=COBLENTZ SOC.
Collection (C) 2018 copyright by the U.S. Secretary of Commerce
on behalf of the United States of America. All rights reserved.
##DATE=1966/02/03
##NAMES=2,4-dimethylbenzylamine
(2,4-dimethylphenyl)methanamine
##CAS REGISTRY NO=94-98-4
##MOLFORM=C9 H13 N
##SOURCE REFERENCE=COBLENTZ NO. 06552
##$NIST SOURCE=COBLENTZ
##$NIST IMAGE=cob6552
##SPECTROMETER/DATA SYSTEM=DOW KBr FOREPRISM-GRATING
##INSTRUMENT PARAMETERS=BLAZED AT 3.5, 12.0, 20.0 MICRON AND CHANGED AT 5.0, 7.5, 14.9 MICRON
##STATE=LIQUID (NEAT)
##PATH LENGTH=CAPILLARY
##SAMPLING PROCEDURE=TRANSMISSION
##RESOLUTION=2
##DATA PROCESSING=DIGITIZED BY COBLENTZ SOCIETY (BATCH I) FROM HARD COPY
##XUNITS=1/CM
##YUNITS=TRANSMITTANCE
##XLABEL=Wavenumbers (cm-1)
##YLABEL=% Transmission
##XFACTOR=1
##YFACTOR=1
##DELTAX=1
##FIRSTX=457
##LASTX=3800
##FIRSTY=0.8169
##MAXX=3800
##MINX=457
##MAXY=0.9163
##MINY=0.286
##NPOINTS=3344
##XYDATA=(X++(Y..Y))
457.000000 0.8169 0.8211 0.8243 0.8271 0.8296
462.000000 0.8310 0.8324 0.8337 0.8340 0.8342
467.000000 0.8345 0.8348 0.8350 0.8351 0.8351
472.000000 0.8352 0.8353 0.8353 0.8353 0.8351
477.000000 0.8349 0.8347 0.8345 0.8343 0.8338
482.000000 0.8330 0.8321 0.8315 0.8301 0.8280
487.000000 0.8259 0.8237 0.8216 0.8194 0.8165
492.000000 0.8137 0.8108 0.8080 0.8051 0.8025
497.000000 0.8001 0.7976 0.7953 0.7928 0.7906
502.000000 0.7888 0.7871 0.7862 0.7858 0.7855
507.000000 0.7856 0.7856 0.7858 0.7868 0.7882
512.000000 0.7896 0.7908 0.7922 0.7945 0.7968
517.000000 0.7995 0.8043 0.8091 0.8140 0.8191
522.000000 0.8239 0.8268 0.8285 0.8288 0.8292
527.000000 0.8285 0.8296 0.8263 0.8244 0.8223
532.000000 0.8195 0.8164 0.8121 0.8076 0.8026
537.000000 0.7957 0.7886 0.7811 0.7710 0.7656
542.000000 0.7654 0.7654 0.7828 0.7918 0.8000
547.000000 0.8057 0.8101 0.8132 0.8135 0.8138
552.000000 0.8141 0.8142 0.8143 0.8157 0.8197
557.000000 0.8228 0.8235 0.8239 0.8266 0.8224
562.000000 0.8213 0.8184 0.8155 0.8086 0.8041
567.000000 0.7997 0.7939 0.7797 0.7655 0.7512
572.000000 0.7369 0.7228 0.7086 0.6944 0.6865
577.000000 0.6865 0.6861 0.6937 0.7151 0.7368
582.000000 0.7583 0.7799 0.8014 0.8141 0.8232
587.000000 0.8285 0.8336 0.8375 0.8399 0.8406
592.000000 0.8414 0.8404 0.8391 0.8377 0.8351
597.000000 0.8336 0.8338 0.8346 0.8361 0.8400
602.000000 0.8425 0.8449 0.8465 0.8482 0.8493
607.000000 0.8503 0.8512 0.8521 0.8533 0.8545
612.000000 0.8557 0.8568 0.8581 0.8589 0.8595
617.000000 0.8601 0.8607 0.8613 0.8618 0.8618
622.000000 0.8618 0.8618 0.8641 0.8616 0.8615
627.000000 0.8614 0.8614 0.8615 0.8616 0.8617
632.000000 0.8618 0.8620 0.8621 0.8621 0.8621
637.000000 0.8621 0.8621 0.8621 0.8621 0.8621
642.000000 0.8620 0.8620 0.8618 0.8618 0.8618
647.000000 0.8618 0.8618 0.8614 0.8603 0.8592
652.000000 0.8581 0.8557 0.8528 0.8500 0.8471
657.000000 0.8438 0.8401 0.8384 0.8385 0.8387
662.000000 0.8418 0.8460 0.8488 0.8502 0.8515
667.000000 0.8525 0.8535 0.8545 0.8553 0.8558
672.000000 0.8560 0.8560 0.8560 0.8559 0.8557
677.000000 0.8556 0.8554 0.8549 0.8541 0.8533
682.000000 0.8525 0.8512 0.8498 0.8483 0.8468
687.000000 0.8445 0.8421 0.8395 0.8362 0.8328
692.000000 0.8290 0.8238 0.8186 0.8134 0.8069
697.000000 0.8005 0.7940 0.7811 0.7658 0.7441
702.000000 0.7418 0.7411 0.7415 0.7442 0.7426
707.000000 0.7451 0.7518 0.7608 0.7700 0.7791
712.000000 0.7882 0.7972 0.8062 0.8155 0.8195
717.000000 0.8194 0.8194 0.8192 0.8191 0.8189
722.000000 0.8178 0.8151 0.8119 0.8089 0.8057
727.000000 0.8025 0.7993 0.7960 0.7925 0.7875
732.000000 0.7825 0.7781 0.7745 0.7708 0.7671
737.000000 0.7635 0.7594 0.7554 0.7408 0.7115
742.000000 0.6824 0.6699 0.6578 0.6462 0.6368
747.000000 0.6322 0.6322 0.6322 0.6334 0.6425
752.000000 0.6515 0.6607 0.6699 0.6790 0.6881
757.000000 0.6972 0.7064 0.7096 0.7091 0.7086
762.000000 0.7118 0.7065 0.7026 0.6891 0.6689
767.000000 0.6486 0.6284 0.6081 0.5879 0.5842
772.000000 0.5825 0.5923 0.6062 0.6203 0.6342
777.000000 0.6482 0.6621 0.6761 0.6830 0.6847
782.000000 0.6841 0.6896 0.6818 0.6806 0.6795
787.000000 0.6768 0.6734 0.6642 0.6518 0.6393
792.000000 0.6269 0.6145 0.6020 0.5896 0.5771
797.000000 0.5647 0.5522 0.5398 0.5273 0.5149
802.000000 0.5025 0.4892 0.4830 0.4668 0.4484
807.000000 0.4326 0.4154 0.3921 0.3688 0.3475
812.000000 0.3303 0.3143 0.3014 0.2975 0.2949
817.000000 0.2950 0.2951 0.3145 0.3344 0.3534
822.000000 0.3609 0.3675 0.3752 0.3882 0.4042
827.000000 0.4179 0.4657 0.4758 0.4856 0.4943
832.000000 0.5005 0.5043 0.5077 0.5103 0.5130
837.000000 0.5153 0.5139 0.5139 0.5138 0.5138
842.000000 0.5134 0.5129 0.5124 0.5116 0.5106
847.000000 0.5096 0.5086 0.5076 0.5066 0.5055
852.000000 0.5045 0.5035 0.5025 0.5016 0.5006
857.000000 0.4997 0.4993 0.4994 0.4996 0.4997
862.000000 0.5004 0.5016 0.5025 0.5027 0.5029
867.000000 0.5021 0.4976 0.4749 0.4664 0.4638
872.000000 0.4625 0.4636 0.4633 0.4676 0.4731
877.000000 0.4786 0.4840 0.4895 0.4950 0.5005
882.000000 0.5060 0.5114 0.5169 0.5224 0.5279
887.000000 0.5334 0.5389 0.5443 0.5498 0.5553
892.000000 0.5608 0.5662 0.5718 0.5772 0.5827
897.000000 0.5882 0.5937 0.5992 0.6047 0.6101
902.000000 0.6152 0.6203 0.6255 0.6307 0.6345
907.000000 0.6379 0.6415 0.6485 0.6568 0.6678
912.000000 0.6768 0.6834 0.6895 0.6906 0.6907
917.000000 0.6907 0.6906 0.6904 0.6904 0.6904
922.000000 0.6915 0.6925 0.6958 0.7011 0.7096
927.000000 0.7158 0.7214 0.7268 0.7321 0.7372
932.000000 0.7376 0.7375 0.7374 0.7371 0.7368
937.000000 0.7365 0.7364 0.7395 0.7445 0.7495
942.000000 0.7531 0.7565 0.7601 0.7637 0.7674
947.000000 0.7711 0.7748 0.7783 0.7818 0.7853
952.000000 0.7887 0.7921 0.7953 0.7986 0.8018
957.000000 0.8051 0.8075 0.8096 0.8108 0.8105
962.000000 0.8114 0.8099 0.8096 0.8093 0.8087
967.000000 0.8075 0.8064 0.8053 0.8042 0.8028
972.000000 0.8012 0.7997 0.7982 0.7965 0.7950
977.000000 0.7933 0.7917 0.7901 0.7885 0.7869
982.000000 0.7856 0.7858 0.7868 0.7861 0.7862
987.000000 0.7869 0.7876 0.7886 0.7900 0.7914
992.000000 0.7928 0.7942 0.7956 0.7968 0.7986
997.000000 0.8003 0.8019 0.8037 0.8056 0.8075
1002.000000 0.8084 0.8095 0.8065 0.8041 0.8017
1007.000000 0.7992 0.7968 0.7944 0.7918 0.7887
1012.000000 0.7848 0.7808 0.7768 0.7730 0.7675
1017.000000 0.7617 0.7558 0.7501 0.7438 0.7375
1022.000000 0.7311 0.7219 0.7122 0.7008 0.6864
1027.000000 0.6737 0.6628 0.6550 0.6478 0.6434
1032.000000 0.6421 0.6422 0.6430 0.6437 0.6415
1037.000000 0.6543 0.6611 0.6681 0.6749 0.6818
1042.000000 0.6883 0.6901 0.6915 0.6931 0.6951
1047.000000 0.6972 0.6994 0.7022 0.7056 0.7106
1052.000000 0.7156 0.7278 0.7401 0.7471 0.7534
1057.000000 0.7589 0.7643 0.7697 0.7747 0.7789
1062.000000 0.7832 0.7874 0.7901 0.7926 0.7954
1067.000000 0.7984 0.8018 0.8051 0.8084 0.8107
1072.000000 0.8130 0.8153 0.8175 0.8210 0.8247
1077.000000 0.8284 0.8320 0.8349 0.8378 0.8407
1082.000000 0.8434 0.8439 0.8445 0.8445 0.8445
1087.000000 0.8439 0.8433 0.8423 0.8407 0.8386
1092.000000 0.8351 0.8344 0.8345 0.8345 0.8370
1097.000000 0.8396 0.8427 0.8462 0.8504 0.8532
1102.000000 0.8559 0.8585 0.8606 0.8620 0.8624
1107.000000 0.8627 0.8631 0.8628 0.8627 0.8624
1112.000000 0.8637 0.8616 0.8613 0.8609 0.8605
1117.000000 0.8601 0.8598 0.8594 0.8590 0.8587
1122.000000 0.8584 0.8581 0.8578 0.8575 0.8571
1127.000000 0.8568 0.8567 0.8564 0.8561 0.8560
1132.000000 0.8559 0.8558 0.8557 0.8556 0.8555
1137.000000 0.8542 0.8528 0.8515 0.8499 0.8446
1142.000000 0.8418 0.8418 0.8418 0.8421 0.8425
1147.000000 0.8428 0.8415 0.8397 0.8375 0.8336
1152.000000 0.8304 0.8274 0.8227 0.8165 0.8049
1157.000000 0.7974 0.7957 0.7931 0.8007 0.8096
1162.000000 0.8184 0.8273 0.8361 0.8449 0.8505
1167.000000 0.8553 0.8593 0.8634 0.8668 0.8691
1172.000000 0.8696 0.8698 0.8698 0.8694 0.8691
1177.000000 0.8675 0.8656 0.8628 0.8602 0.8590
1182.000000 0.8585 0.8649 0.8728 0.8744 0.8753
1187.000000 0.8755 0.8757 0.8757 0.8757 0.8754
1192.000000 0.8751 0.8749 0.8746 0.8743 0.8740
1197.000000 0.8735 0.8730 0.8725 0.8721 0.8716
1202.000000 0.8712 0.8707 0.8702 0.8697 0.8696
1207.000000 0.8695 0.8693 0.8692 0.8698 0.8703
1212.000000 0.8708 0.8721 0.8735 0.8749 0.8758
1217.000000 0.8764 0.8770 0.8775 0.8782 0.8793
1222.000000 0.8802 0.8804 0.8832 0.8809 0.8811
1227.000000 0.8804 0.8797 0.8782 0.8762 0.8742
1232.000000 0.8721 0.8686 0.8644 0.8584 0.8515
1237.000000 0.8453 0.8392 0.8332 0.8277 0.8227
1242.000000 0.8190 0.8187 0.8188 0.8189 0.8204
1247.000000 0.8223 0.8244 0.8266 0.8292 0.8317
1252.000000 0.8361 0.8392 0.8405 0.8407 0.8408
1257.000000 0.8409 0.8409 0.8410 0.8410 0.8400
1262.000000 0.8391 0.8381 0.8371 0.8361 0.8347
1267.000000 0.8325 0.8305 0.8282 0.8252 0.8221
1272.000000 0.8192 0.8161 0.8131 0.8100 0.8045
1277.000000 0.8015 0.7996 0.7988 0.7992 0.7999
1282.000000 0.8003 0.8012 0.8035 0.8058 0.8084
1287.000000 0.8110 0.8143 0.8176 0.8208 0.8238
1292.000000 0.8267 0.8290 0.8308 0.8325 0.8348
1297.000000 0.8340 0.8335 0.8325 0.8315 0.8301
1302.000000 0.8277 0.8244 0.8210 0.8168 0.8155
1307.000000 0.8146 0.8141 0.8143 0.8155 0.8167
1312.000000 0.8184 0.8201 0.8218 0.8236 0.8253
1317.000000 0.8263 0.8270 0.8275 0.8278 0.8284
1322.000000 0.8281 0.8278 0.8271 0.8259 0.8246
1327.000000 0.8228 0.8210 0.8192 0.8175 0.8156
1332.000000 0.8137 0.8118 0.8100 0.8081 0.8058
1337.000000 0.8035 0.8014 0.7994 0.7972 0.7951
1342.000000 0.7931 0.7911 0.7890 0.7867 0.7845
1347.000000 0.7821 0.7800 0.7776 0.7755 0.7741
1352.000000 0.7726 0.7718 0.7725 0.7733 0.7737
1357.000000 0.7737 0.7737 0.7730 0.7722 0.7712
1362.000000 0.7682 0.7624 0.7561 0.7497 0.7432
1367.000000 0.7275 0.7121 0.6975 0.6832 0.6380
1372.000000 0.6069 0.5899 0.5774 0.5675 0.5652
1377.000000 0.5651 0.5687 0.5781 0.5883 0.5985
1382.000000 0.6088 0.6190 0.6292 0.6395 0.6497
1387.000000 0.6599 0.6701 0.6914 0.7101 0.7204
1392.000000 0.7283 0.7338 0.7408 0.7495 0.7528
1397.000000 0.7549 0.7535 0.7536 0.7531 0.7519
1402.000000 0.7494 0.7465 0.7436 0.7414 0.7405
1407.000000 0.7403 0.7399 0.7394 0.7388 0.7382
1412.000000 0.7371 0.7360 0.7337 0.7303 0.7268
1417.000000 0.7228 0.7186 0.7140 0.7088 0.7037
1422.000000 0.6985 0.6915 0.6839 0.6753 0.6649
1427.000000 0.6556 0.6474 0.6390 0.6295 0.6200
1432.000000 0.6072 0.5943 0.5815 0.5687 0.5558
1437.000000 0.5430 0.5301 0.5195 0.5106 0.4930
1442.000000 0.4810 0.4707 0.4600 0.4486 0.4421
1447.000000 0.4365 0.4328 0.4301 0.4273 0.4245
1452.000000 0.4217 0.4186 0.4082 0.4123 0.4112
1457.000000 0.4115 0.4118 0.4140 0.4162 0.4186
1462.000000 0.4210 0.4235 0.4275 0.4315 0.4350
1467.000000 0.4381 0.4410 0.4455 0.4517 0.4609
1472.000000 0.4715 0.4854 0.5074 0.5235 0.5364
1477.000000 0.5459 0.5553 0.5687 0.5802 0.5894
1482.000000 0.5932 0.5969 0.5992 0.6049 0.6006
1487.000000 0.6004 0.6000 0.5980 0.5955 0.5909
1492.000000 0.5851 0.5784 0.5710 0.5633 0.5531
1497.000000 0.5423 0.5271 0.5019 0.4692 0.4365
1502.000000 0.4038 0.3730 0.3754 0.3756 0.3938
1507.000000 0.4296 0.4654 0.5012 0.5370 0.5728
1512.000000 0.6086 0.6341 0.6482 0.6614 0.6740
1517.000000 0.6858 0.6950 0.7017 0.7085 0.7132
1522.000000 0.7168 0.7180 0.7190 0.7190 0.7190
1527.000000 0.7188 0.7185 0.7182 0.7178 0.7175
1532.000000 0.7168 0.7161 0.7155 0.7142 0.7125
1537.000000 0.7108 0.7092 0.7081 0.7071 0.7060
1542.000000 0.7049 0.7041 0.7039 0.7036 0.7034
1547.000000 0.7031 0.7028 0.7025 0.7025 0.7025
1552.000000 0.7025 0.7026 0.7028 0.7028 0.7031
1557.000000 0.7022 0.6999 0.6972 0.6944 0.6915
1562.000000 0.6885 0.6855 0.6811 0.6769 0.6726
1567.000000 0.6685 0.6643 0.6597 0.6546 0.6496
1572.000000 0.6446 0.6395 0.6345 0.6295 0.6246
1577.000000 0.6197 0.6147 0.6105 0.6066 0.6027
1582.000000 0.5988 0.5949 0.5910 0.5877 0.5868
1587.000000 0.5850 0.5852 0.5857 0.5869 0.5891
1592.000000 0.5929 0.5955 0.5973 0.5984 0.5995
1597.000000 0.5993 0.6017 0.5975 0.5960 0.5936
1602.000000 0.5903 0.5870 0.5809 0.5726 0.5636
1607.000000 0.5494 0.5352 0.5231 0.5112 0.4993
1612.000000 0.4866 0.4727 0.4612 0.4551 0.4533
1617.000000 0.4530 0.4544 0.4972 0.5246 0.5520
1622.000000 0.5783 0.5897 0.6001 0.6103 0.6221
1627.000000 0.6325 0.6408 0.6475 0.6525 0.6571
1632.000000 0.6601 0.6630 0.6658 0.6687 0.6715
1637.000000 0.6744 0.6771 0.6818 0.6868 0.6935
1642.000000 0.7001 0.7075 0.7168 0.7256 0.7341
1647.000000 0.7422 0.7495 0.7550 0.7606 0.7658
1652.000000 0.7694 0.7730 0.7765 0.7801 0.7834
1657.000000 0.7867 0.7900 0.7934 0.7958 0.7985
1662.000000 0.8011 0.8036 0.8061 0.8088 0.8112
1667.000000 0.8139 0.8164 0.8190 0.8215 0.8239
1672.000000 0.8259 0.8280 0.8301 0.8321 0.8342
1677.000000 0.8358 0.8374 0.8390 0.8406 0.8421
1682.000000 0.8438 0.8454 0.8470 0.8481 0.8493
1687.000000 0.8505 0.8517 0.8528 0.8540 0.8552
1692.000000 0.8564 0.8575 0.8583 0.8590 0.8598
1697.000000 0.8605 0.8612 0.8620 0.8627 0.8634
1702.000000 0.8642 0.8649 0.8657 0.8664 0.8671
1707.000000 0.8678 0.8686 0.8694 0.8701 0.8708
1712.000000 0.8716 0.8723 0.8731 0.8738 0.8744
1717.000000 0.8750 0.8756 0.8762 0.8768 0.8771
1722.000000 0.8773 0.8775 0.8775 0.8778 0.8780
1727.000000 0.8780 0.8778 0.8775 0.8775 0.8773
1732.000000 0.8771 0.8770 0.8768 0.8764 0.8756
1737.000000 0.8748 0.8740 0.8732 0.8725 0.8721
1742.000000 0.8715 0.8710 0.8709 0.8709 0.8710
1747.000000 0.8711 0.8713 0.8715 0.8717 0.8718
1752.000000 0.8721 0.8725 0.8728 0.8730 0.8733
1757.000000 0.8736 0.8740 0.8744 0.8747 0.8755
1762.000000 0.8763 0.8766 0.8768 0.8775 0.8780
1767.000000 0.8785 0.8791 0.8797 0.8803 0.8809
1772.000000 0.8813 0.8816 0.8818 0.8820 0.8823
1777.000000 0.8825 0.8827 0.8830 0.8833 0.8838
1782.000000 0.8842 0.8847 0.8851 0.8856 0.8860
1787.000000 0.8865 0.8867 0.8868 0.8868 0.8870
1792.000000 0.8870 0.8871 0.8871 0.8871 0.8871
1797.000000 0.8868 0.8866 0.8864 0.8862 0.8859
1802.000000 0.8857 0.8854 0.8852 0.8849 0.8846
1807.000000 0.8844 0.8841 0.8839 0.8838 0.8838
1812.000000 0.8837 0.8837 0.8836 0.8836 0.8835
1817.000000 0.8835 0.8834 0.8834 0.8832 0.8830
1822.000000 0.8828 0.8827 0.8825 0.8823 0.8821
1827.000000 0.8818 0.8817 0.8815 0.8813 0.8810
1832.000000 0.8807 0.8805 0.8802 0.8800 0.8797
1837.000000 0.8795 0.8792 0.8789 0.8787 0.8784
1842.000000 0.8782 0.8778 0.8777 0.8775 0.8773
1847.000000 0.8771 0.8768 0.8767 0.8765 0.8763
1852.000000 0.8760 0.8758 0.8756 0.8754 0.8753
1857.000000 0.8752 0.8751 0.8750 0.8749 0.8748
1862.000000 0.8747 0.8746 0.8745 0.8744 0.8744
1867.000000 0.8743 0.8742 0.8741 0.8740 0.8738
1872.000000 0.8733 0.8727 0.8721 0.8716 0.8711
1877.000000 0.8705 0.8699 0.8694 0.8688 0.8677
1882.000000 0.8666 0.8656 0.8645 0.8634 0.8624
1887.000000 0.8613 0.8604 0.8601 0.8598 0.8594
1892.000000 0.8591 0.8588 0.8585 0.8586 0.8587
1897.000000 0.8577 0.8577 0.8578 0.8578 0.8578
1902.000000 0.8578 0.8581 0.8583 0.8585 0.8587
1907.000000 0.8589 0.8591 0.8593 0.8597 0.8605
1912.000000 0.8613 0.8620 0.8628 0.8634 0.8640
1917.000000 0.8645 0.8651 0.8656 0.8662 0.8667
1922.000000 0.8673 0.8677 0.8682 0.8687 0.8692
1927.000000 0.8696 0.8701 0.8706 0.8710 0.8715
1932.000000 0.8720 0.8725 0.8728 0.8733 0.8736
1937.000000 0.8740 0.8743 0.8747 0.8750 0.8754
1942.000000 0.8757 0.8761 0.8764 0.8766 0.8768
1947.000000 0.8770 0.8771 0.8774 0.8775 0.8778
1952.000000 0.8787 0.8796 0.8805 0.8814 0.8823
1957.000000 0.8830 0.8834 0.8839 0.8838 0.8833
1962.000000 0.8823 0.8812 0.8808 0.8804 0.8800
1967.000000 0.8800 0.8799 0.8799 0.8798 0.8798
1972.000000 0.8797 0.8797 0.8796 0.8796 0.8796
1977.000000 0.8796 0.8796 0.8796 0.8798 0.8800
1982.000000 0.8802 0.8804 0.8806 0.8808 0.8810
1987.000000 0.8820 0.8849 0.8878 0.8907 0.8936
1992.000000 0.8965 0.8994 0.9023 0.9052 0.9081
1997.000000 0.9110 0.9137 0.9137 0.9139 0.9141
2002.000000 0.9144 0.9145 0.9146 0.9146 0.9147
2007.000000 0.9147 0.9148 0.9148 0.9148 0.9148
2012.000000 0.9149 0.9150 0.9151 0.9152 0.9153
2017.000000 0.9154 0.9155 0.9156 0.9157 0.9157
2022.000000 0.9158 0.9159 0.9160 0.9161 0.9162
2027.000000 0.9162 0.9163 0.9163 0.9162 0.9162
2032.000000 0.9161 0.9160 0.9159 0.9158 0.9157
2037.000000 0.9155 0.9154 0.9153 0.9152 0.9150
2042.000000 0.9149 0.9148 0.9147 0.9147 0.9147
2047.000000 0.9147 0.9147 0.9147 0.9147 0.9147
2052.000000 0.9147 0.9147 0.9147 0.9147 0.9147
2057.000000 0.9147 0.9147 0.9147 0.9148 0.9148
2062.000000 0.9148 0.9148 0.9148 0.9148 0.9148
2067.000000 0.9148 0.9148 0.9148 0.9148 0.9148
2072.000000 0.9148 0.9148 0.9148 0.9148 0.9148
2077.000000 0.9148 0.9148 0.9148 0.9148 0.9147
2082.000000 0.9147 0.9146 0.9146 0.9145 0.9145
2087.000000 0.9145 0.9145 0.9144 0.9144 0.9143
2092.000000 0.9143 0.9142 0.9142 0.9141 0.9141
2097.000000 0.9141 0.9141 0.9140 0.9140 0.9139
2102.000000 0.9139 0.9138 0.9138 0.9137 0.9136
2107.000000 0.9135 0.9135 0.9134 0.9134 0.9133
2112.000000 0.9133 0.9132 0.9131 0.9130 0.9130
2117.000000 0.9128 0.9128 0.9128 0.9128 0.9127
2122.000000 0.9125 0.9125 0.9125 0.9124 0.9124
2127.000000 0.9123 0.9123 0.9121 0.9121 0.9120
2132.000000 0.9120 0.9118 0.9118 0.9118 0.9118
2137.000000 0.9117 0.9116 0.9115 0.9115 0.9114
2142.000000 0.9113 0.9112 0.9112 0.9111 0.9110
2147.000000 0.9109 0.9109 0.9108 0.9107 0.9106
2152.000000 0.9106 0.9105 0.9104 0.9103 0.9103
2157.000000 0.9102 0.9102 0.9101 0.9100 0.9099
2162.000000 0.9099 0.9098 0.9097 0.9096 0.9096
2167.000000 0.9095 0.9094 0.9093 0.9093 0.9092
2172.000000 0.9091 0.9090 0.9090 0.9089 0.9088
2177.000000 0.9087 0.9087 0.9086 0.9085 0.9084
2182.000000 0.9084 0.9083 0.9083 0.9082 0.9081
2187.000000 0.9080 0.9080 0.9078 0.9078 0.9077
2192.000000 0.9077 0.9075 0.9075 0.9074 0.9074
2197.000000 0.9073 0.9071 0.9071 0.9071 0.9070
2202.000000 0.9068 0.9068 0.9068 0.9067 0.9066
2207.000000 0.9065 0.9065 0.9064 0.9063 0.9062
2212.000000 0.9061 0.9060 0.9060 0.9059 0.9058
2217.000000 0.9057 0.9057 0.9056 0.9055 0.9054
2222.000000 0.9054 0.9053 0.9006 0.9051 0.9051
2227.000000 0.9050 0.9049 0.9048 0.9048 0.9047
2232.000000 0.9046 0.9045 0.9045 0.9044 0.9044
2237.000000 0.9043 0.9043 0.9042 0.9042 0.9041
2242.000000 0.9041 0.9040 0.9040 0.9039 0.9039
2247.000000 0.9038 0.9038 0.9037 0.9037 0.9036
2252.000000 0.9036 0.9035 0.9035 0.9034 0.9034
2257.000000 0.9033 0.9032 0.9031 0.9030 0.9028
2262.000000 0.9028 0.9027 0.9025 0.9025 0.9024
2267.000000 0.9021 0.9021 0.9020 0.9018 0.9018
2272.000000 0.9017 0.9016 0.9015 0.9014 0.9013
2277.000000 0.9012 0.9011 0.9010 0.9009 0.9008
2282.000000 0.9007 0.9006 0.9005 0.9004 0.9003
2287.000000 0.9002 0.9001 0.9000 0.9000 0.8999
2292.000000 0.8998 0.8997 0.8997 0.8996 0.8996
2297.000000 0.8995 0.8994 0.8993 0.8993 0.8992
2302.000000 0.8992 0.8992 0.8993 0.9005 0.9018
2307.000000 0.9038 0.9059 0.9071 0.9085 0.9090
2312.000000 0.9095 0.9094 0.9094 0.9093 0.9093
2317.000000 0.9092 0.9092 0.9091 0.9091 0.9090
2322.000000 0.9089 0.9088 0.9087 0.9086 0.9085
2327.000000 0.9083 0.9081 0.9078 0.9075 0.9074
2332.000000 0.9071 0.9068 0.9067 0.9065 0.9063
2337.000000 0.9060 0.9058 0.9055 0.9053 0.9050
2342.000000 0.9048 0.9045 0.9043 0.9040 0.9038
2347.000000 0.9035 0.9033 0.9030 0.9028 0.9025
2352.000000 0.9021 0.9018 0.9016 0.9011 0.9007
2357.000000 0.9002 0.8998 0.8993 0.8989 0.8984
2362.000000 0.8978 0.8974 0.8970 0.8964 0.8959
2367.000000 0.8952 0.8945 0.8938 0.8932 0.8925
2372.000000 0.8918 0.8911 0.8905 0.8898 0.8891
2377.000000 0.8884 0.8878 0.8873 0.8868 0.8863
2382.000000 0.8858 0.8853 0.8848 0.8843 0.8838
2387.000000 0.8833 0.8828 0.8823 0.8818 0.8813
2392.000000 0.8808 0.8803 0.8799 0.8797 0.8796
2397.000000 0.8794 0.8793 0.8792 0.8791 0.8790
2402.000000 0.8789 0.8787 0.8786 0.8785 0.8784
2407.000000 0.8783 0.8782 0.8781 0.8780 0.8780
2412.000000 0.8781 0.8782 0.8783 0.8783 0.8784
2417.000000 0.8784 0.8785 0.8785 0.8785 0.8782
2422.000000 0.8778 0.8775 0.8773 0.8770 0.8768
2427.000000 0.8765 0.8762 0.8759 0.8756 0.8753
2432.000000 0.8750 0.8747 0.8745 0.8742 0.8739
2437.000000 0.8736 0.8734 0.8731 0.8728 0.8725
2442.000000 0.8723 0.8720 0.8717 0.8714 0.8712
2447.000000 0.8709 0.8706 0.8703 0.8701 0.8698
2452.000000 0.8695 0.8692 0.8690 0.8687 0.8684
2457.000000 0.8681 0.8678 0.8677 0.8675 0.8673
2462.000000 0.8671 0.8670 0.8668 0.8666 0.8665
2467.000000 0.8663 0.8661 0.8659 0.8658 0.8656
2472.000000 0.8655 0.8653 0.8651 0.8649 0.8648
2477.000000 0.8646 0.8644 0.8642 0.8641 0.8639
2482.000000 0.8637 0.8635 0.8634 0.8633 0.8632
2487.000000 0.8630 0.8628 0.8628 0.8627 0.8625
2492.000000 0.8624 0.8623 0.8621 0.8620 0.8618
2497.000000 0.8618 0.8617 0.8615 0.8614 0.8613
2502.000000 0.8612 0.8611 0.8610 0.8608 0.8607
2507.000000 0.8605 0.8604 0.8602 0.8600 0.8598
2512.000000 0.8596 0.8594 0.8593 0.8591 0.8589
2517.000000 0.8587 0.8585 0.8583 0.8582 0.8580
2522.000000 0.8578 0.8575 0.8574 0.8571 0.8571
2527.000000 0.8568 0.8567 0.8565 0.8563 0.8561
2532.000000 0.8559 0.8557 0.8555 0.8553 0.8551
2537.000000 0.8548 0.8546 0.8544 0.8542 0.8540
2542.000000 0.8538 0.8536 0.8534 0.8531 0.8528
2547.000000 0.8527 0.8525 0.8523 0.8521 0.8518
2552.000000 0.8517 0.8514 0.8512 0.8510 0.8508
2557.000000 0.8506 0.8504 0.8502 0.8500 0.8497
2562.000000 0.8495 0.8493 0.8491 0.8489 0.8487
2567.000000 0.8485 0.8483 0.8480 0.8478 0.8475
2572.000000 0.8474 0.8471 0.8470 0.8468 0.8466
2577.000000 0.8463 0.8461 0.8459 0.8457 0.8455
2582.000000 0.8453 0.8451 0.8449 0.8446 0.8444
2587.000000 0.8442 0.8440 0.8438 0.8436 0.8434
2592.000000 0.8432 0.8428 0.8427 0.8425 0.8423
2597.000000 0.8421 0.8418 0.8417 0.8415 0.8412
2602.000000 0.8410 0.8408 0.8406 0.8404 0.8402
2607.000000 0.8400 0.8398 0.8395 0.8393 0.8391
2612.000000 0.8389 0.8387 0.8385 0.8383 0.8381
2617.000000 0.8378 0.8375 0.8374 0.8371 0.8370
2622.000000 0.8368 0.8366 0.8364 0.8361 0.8359
2627.000000 0.8357 0.8355 0.8353 0.8351 0.8349
2632.000000 0.8347 0.8344 0.8342 0.8340 0.8338
2637.000000 0.8336 0.8334 0.8332 0.8331 0.8328
2642.000000 0.8328 0.8325 0.8325 0.8323 0.8321
2647.000000 0.8320 0.8318 0.8316 0.8314 0.8312
2652.000000 0.8310 0.8308 0.8306 0.8304 0.8302
2657.000000 0.8300 0.8298 0.8296 0.8294 0.8292
2662.000000 0.8290 0.8288 0.8286 0.8283 0.8280
2667.000000 0.8277 0.8274 0.8271 0.8268 0.8266
2672.000000 0.8263 0.8260 0.8257 0.8254 0.8251
2677.000000 0.8248 0.8245 0.8242 0.8239 0.8235
2682.000000 0.8232 0.8228 0.8225 0.8221 0.8218
2687.000000 0.8215 0.8212 0.8208 0.8205 0.8201
2692.000000 0.8198 0.8194 0.8191 0.8185 0.8180
2697.000000 0.8174 0.8168 0.8162 0.8157 0.8151
2702.000000 0.8145 0.8139 0.8133 0.8126 0.8121
2707.000000 0.8115 0.8108 0.8096 0.8083 0.8068
2712.000000 0.8056 0.8041 0.8026 0.8006 0.7986
2717.000000 0.7965 0.7945 0.7924 0.7904 0.7865
2722.000000 0.7828 0.7793 0.7758 0.7725 0.7695
2727.000000 0.7657 0.7619 0.7592 0.7549 0.7567
2732.000000 0.7568 0.7569 0.7571 0.7587 0.7601
2737.000000 0.7618 0.7634 0.7649 0.7665 0.7676
2742.000000 0.7689 0.7698 0.7707 0.7711 0.7712
2747.000000 0.7711 0.7711 0.7706 0.7734 0.7695
2752.000000 0.7689 0.7681 0.7672 0.7665 0.7657
2757.000000 0.7649 0.7641 0.7632 0.7622 0.7611
2762.000000 0.7601 0.7589 0.7578 0.7565 0.7555
2767.000000 0.7537 0.7519 0.7501 0.7484 0.7471
2772.000000 0.7458 0.7446 0.7434 0.7421 0.7410
2777.000000 0.7397 0.7385 0.7372 0.7361 0.7351
2782.000000 0.7342 0.7331 0.7321 0.7310 0.7299
2787.000000 0.7288 0.7278 0.7267 0.7257 0.7245
2792.000000 0.7233 0.7215 0.7198 0.7182 0.7165
2797.000000 0.7150 0.7135 0.7083 0.7032 0.6998
2802.000000 0.6964 0.6934 0.6904 0.6874 0.6845
2807.000000 0.6815 0.6786 0.6751 0.6717 0.6678
2812.000000 0.6639 0.6599 0.6558 0.6511 0.6465
2817.000000 0.6418 0.6373 0.6327 0.6281 0.6237
2822.000000 0.6193 0.6149 0.6105 0.6044 0.5983
2827.000000 0.5920 0.5858 0.5779 0.5700 0.5618
2832.000000 0.5537 0.5431 0.5325 0.5193 0.5062
2837.000000 0.5028 0.4994 0.4956 0.4918 0.4872
2842.000000 0.4826 0.4780 0.4734 0.4678 0.4623
2847.000000 0.4568 0.4514 0.4464 0.4415 0.4358
2852.000000 0.4301 0.4208 0.4115 0.4018 0.3922
2857.000000 0.3857 0.3792 0.3764 0.3737 0.3734
2862.000000 0.3732 0.3732 0.3732 0.3732 0.3732
2867.000000 0.3740 0.3745 0.3760 0.3777 0.3796
2872.000000 0.3814 0.3832 0.3852 0.3870 0.3888
2877.000000 0.3906 0.3924 0.3932 0.3943 0.3949
2882.000000 0.3956 0.3955 0.3971 0.3950 0.3948
2887.000000 0.3940 0.3932 0.3925 0.3916 0.3905
2892.000000 0.3893 0.3875 0.3858 0.3836 0.3814
2897.000000 0.3775 0.3737 0.3697 0.3657 0.3614
2902.000000 0.3571 0.3523 0.3476 0.3425 0.3374
2907.000000 0.3318 0.3262 0.3192 0.3123 0.3049
2912.000000 0.2976 0.2938 0.2901 0.2894 0.2888
2917.000000 0.2889 0.2860 0.2897 0.2903 0.2918
2922.000000 0.2934 0.2954 0.2975 0.3011 0.3047
2927.000000 0.3127 0.3207 0.3342 0.3478 0.3493
2932.000000 0.3508 0.3520 0.3532 0.3538 0.3543
2937.000000 0.3548 0.3553 0.3559 0.3568 0.3575
2942.000000 0.3582 0.3610 0.3639 0.3697 0.3755
2947.000000 0.3798 0.3842 0.3875 0.3908 0.3938
2952.000000 0.3968 0.3980 0.3994 0.4000 0.4009
2957.000000 0.4016 0.4024 0.4032 0.4043 0.4059
2962.000000 0.4077 0.4125 0.4173 0.4220 0.4267
2967.000000 0.4317 0.4368 0.4416 0.4465 0.4504
2972.000000 0.4544 0.4588 0.4632 0.4678 0.4724
2977.000000 0.4810 0.4899 0.4969 0.5040 0.5054
2982.000000 0.5068 0.5069 0.5071 0.5071 0.5071
2987.000000 0.5070 0.5069 0.5060 0.5051 0.5030
2992.000000 0.5009 0.4985 0.4960 0.4929 0.4898
2997.000000 0.4815 0.4732 0.4628 0.4524 0.4505
3002.000000 0.4486 0.4489 0.4493 0.4498 0.4504
3007.000000 0.4522 0.4482 0.4586 0.4632 0.4701
3012.000000 0.4771 0.4818 0.4866 0.4906 0.4947
3017.000000 0.5006 0.5065 0.5142 0.5219 0.5260
3022.000000 0.5304 0.5338 0.5373 0.5396 0.5420
3027.000000 0.5444 0.5468 0.5490 0.5512 0.5534
3032.000000 0.5556 0.5580 0.5605 0.5653 0.5701
3037.000000 0.5748 0.5795 0.5888 0.5982 0.6059
3042.000000 0.6137 0.6200 0.6264 0.6330 0.6397
3047.000000 0.6451 0.6506 0.6558 0.6611 0.6648
3052.000000 0.6684 0.6715 0.6747 0.6767 0.6788
3057.000000 0.6795 0.6803 0.6810 0.6818 0.6825
3062.000000 0.6835 0.6845 0.6856 0.6865 0.6876
3067.000000 0.6888 0.6899 0.6915 0.6933 0.6950
3072.000000 0.6967 0.6992 0.7018 0.7046 0.7075
3077.000000 0.7104 0.7133 0.7160 0.7187 0.7214
3082.000000 0.7241 0.7268 0.7297 0.7325 0.7355
3087.000000 0.7383 0.7411 0.7437 0.7461 0.7483
3092.000000 0.7504 0.7507 0.7511 0.7511 0.7546
3097.000000 0.7515 0.7515 0.7515 0.7514 0.7511
3102.000000 0.7510 0.7504 0.7499 0.7493 0.7487
3107.000000 0.7481 0.7475 0.7467 0.7458 0.7451
3112.000000 0.7443 0.7435 0.7428 0.7419 0.7438
3117.000000 0.7414 0.7415 0.7418 0.7419 0.7435
3122.000000 0.7450 0.7467 0.7485 0.7498 0.7511
3127.000000 0.7515 0.7519 0.7521 0.7522 0.7524
3132.000000 0.7524 0.7522 0.7521 0.7518 0.7517
3137.000000 0.7514 0.7511 0.7507 0.7501 0.7497
3142.000000 0.7492 0.7487 0.7482 0.7476 0.7471
3147.000000 0.7465 0.7458 0.7451 0.7443 0.7435
3152.000000 0.7428 0.7418 0.7411 0.7401 0.7393
3157.000000 0.7384 0.7375 0.7365 0.7358 0.7349
3162.000000 0.7340 0.7332 0.7324 0.7315 0.7308
3167.000000 0.7300 0.7293 0.7285 0.7276 0.7268
3172.000000 0.7261 0.7254 0.7247 0.7242 0.7238
3177.000000 0.7234 0.7231 0.7226 0.7224 0.7219
3182.000000 0.7217 0.7212 0.7210 0.7206 0.7203
3187.000000 0.7201 0.7201 0.7201 0.7201 0.7200
3192.000000 0.7200 0.7200 0.7200 0.7199 0.7199
3197.000000 0.7198 0.7198 0.7196 0.7195 0.7194
3202.000000 0.7193 0.7192 0.7191 0.7190 0.7189
3207.000000 0.7187 0.7186 0.7183 0.7181 0.7178
3212.000000 0.7175 0.7171 0.7168 0.7165 0.7164
3217.000000 0.7160 0.7157 0.7151 0.7148 0.7143
3222.000000 0.7138 0.7133 0.7128 0.7122 0.7118
3227.000000 0.7108 0.7101 0.7092 0.7083 0.7074
3232.000000 0.7065 0.7056 0.7047 0.7035 0.7024
3237.000000 0.7011 0.6999 0.6987 0.6975 0.6960
3242.000000 0.6945 0.6928 0.6912 0.6896 0.6880
3247.000000 0.6862 0.6847 0.6831 0.6815 0.6798
3252.000000 0.6781 0.6764 0.6747 0.6730 0.6712
3257.000000 0.6696 0.6678 0.6661 0.6645 0.6628
3262.000000 0.6611 0.6593 0.6575 0.6556 0.6537
3267.000000 0.6517 0.6497 0.6476 0.6458 0.6438
3272.000000 0.6418 0.6398 0.6379 0.6359 0.6339
3277.000000 0.6319 0.6299 0.6279 0.6260 0.6240
3282.000000 0.6220 0.6200 0.6181 0.6162 0.6145
3287.000000 0.6135 0.6126 0.6116 0.6107 0.6097
3292.000000 0.6088 0.6078 0.6069 0.6060 0.6051
3297.000000 0.6050 0.6049 0.6049 0.6050 0.6050
3302.000000 0.6051 0.6059 0.6067 0.6081 0.6095
3307.000000 0.6110 0.6125 0.6148 0.6171 0.6194
3312.000000 0.6217 0.6238 0.6259 0.6280 0.6301
3317.000000 0.6321 0.6342 0.6360 0.6378 0.6396
3322.000000 0.6414 0.6432 0.6450 0.6468 0.6486
3327.000000 0.6499 0.6511 0.6515 0.6519 0.6518
3332.000000 0.6546 0.6515 0.6514 0.6504 0.6494
3337.000000 0.6484 0.6474 0.6461 0.6450 0.6437
3342.000000 0.6425 0.6405 0.6385 0.6364 0.6344
3347.000000 0.6310 0.6279 0.6245 0.6212 0.6173
3352.000000 0.6135 0.6096 0.6058 0.6039 0.6020
3357.000000 0.6001 0.5983 0.5964 0.5946 0.5927
3362.000000 0.5909 0.5890 0.5872 0.5873 0.5874
3367.000000 0.5876 0.5869 0.5883 0.5888 0.5894
3372.000000 0.5900 0.5910 0.5921 0.5951 0.5982
3377.000000 0.6021 0.6060 0.6101 0.6141 0.6180
3382.000000 0.6220 0.6259 0.6299 0.6339 0.6379
3387.000000 0.6418 0.6458 0.6504 0.6550 0.6598
3392.000000 0.6647 0.6694 0.6742 0.6790 0.6839
3397.000000 0.6889 0.6939 0.6989 0.7039 0.7090
3402.000000 0.7142 0.7192 0.7243 0.7268 0.7296
3407.000000 0.7321 0.7349 0.7368 0.7387 0.7398
3412.000000 0.7410 0.7421 0.7433 0.7444 0.7456
3417.000000 0.7467 0.7478 0.7489 0.7500 0.7507
3422.000000 0.7515 0.7521 0.7530 0.7537 0.7545
3427.000000 0.7551 0.7560 0.7567 0.7575 0.7582
3432.000000 0.7589 0.7594 0.7600 0.7605 0.7611
3437.000000 0.7615 0.7621 0.7625 0.7632 0.7637
3442.000000 0.7643 0.7648 0.7653 0.7658 0.7664
3447.000000 0.7668 0.7675 0.7680 0.7685 0.7690
3452.000000 0.7696 0.7701 0.7707 0.7711 0.7717
3457.000000 0.7721 0.7728 0.7733 0.7738 0.7743
3462.000000 0.7749 0.7754 0.7758 0.7764 0.7769
3467.000000 0.7775 0.7780 0.7785 0.7791 0.7796
3472.000000 0.7801 0.7806 0.7811 0.7815 0.7821
3477.000000 0.7826 0.7832 0.7837 0.7843 0.7848
3482.000000 0.7853 0.7858 0.7864 0.7868 0.7874
3487.000000 0.7878 0.7885 0.7890 0.7895 0.7900
3492.000000 0.7906 0.7911 0.7915 0.7921 0.7926
3497.000000 0.7932 0.7937 0.7942 0.7948 0.7953
3502.000000 0.7958 0.7962 0.7968 0.7974 0.7978
3507.000000 0.7984 0.7990 0.7995 0.8000 0.8005
3512.000000 0.8011 0.8015 0.8021 0.8026 0.8033
3517.000000 0.8038 0.8044 0.8049 0.8055 0.8060
3522.000000 0.8065 0.8069 0.8075 0.8081 0.8087
3527.000000 0.8092 0.8098 0.8103 0.8108 0.8114
3532.000000 0.8119 0.8125 0.8131 0.8136 0.8141
3537.000000 0.8145 0.8150 0.8155 0.8160 0.8164
3542.000000 0.8168 0.8174 0.8178 0.8183 0.8188
3547.000000 0.8193 0.8198 0.8202 0.8207 0.8212
3552.000000 0.8217 0.8221 0.8227 0.8231 0.8236
3557.000000 0.8241 0.8246 0.8250 0.8255 0.8260
3562.000000 0.8265 0.8268 0.8273 0.8277 0.8281
3567.000000 0.8285 0.8289 0.8292 0.8296 0.8300
3572.000000 0.8304 0.8308 0.8312 0.8316 0.8320
3577.000000 0.8324 0.8328 0.8332 0.8336 0.8339
3582.000000 0.8343 0.8347 0.8351 0.8355 0.8359
3587.000000 0.8362 0.8366 0.8368 0.8371 0.8375
3592.000000 0.8378 0.8382 0.8385 0.8388 0.8391
3597.000000 0.8394 0.8398 0.8398 0.8399 0.8399
3602.000000 0.8399 0.8399 0.8400 0.8396 0.8393
3607.000000 0.8389 0.8385 0.8381 0.8378 0.8374
3612.000000 0.8371 0.8367 0.8363 0.8360 0.8358
3617.000000 0.8355 0.8353 0.8350 0.8348 0.8345
3622.000000 0.8343 0.8341 0.8339 0.8336 0.8336
3627.000000 0.8336 0.8338 0.8342 0.8346 0.8349
3632.000000 0.8353 0.8356 0.8359 0.8361 0.8364
3637.000000 0.8366 0.8368 0.8370 0.8373 0.8375
3642.000000 0.8377 0.8378 0.8382 0.8384 0.8386
3647.000000 0.8389 0.8393 0.8398 0.8403 0.8407
3652.000000 0.8412 0.8417 0.8421 0.8427 0.8432
3657.000000 0.8440 0.8448 0.8456 0.8464 0.8471
3662.000000 0.8480 0.8486 0.8492 0.8491 0.8491
3667.000000 0.8490 0.8490 0.8489 0.8489 0.8488
3672.000000 0.8488 0.8471 0.8454 0.8441 0.8428
3677.000000 0.8427 0.8425 0.8423 0.8421 0.8420
3682.000000 0.8420 0.8420 0.8421 0.8421 0.8421
3687.000000 0.8425 0.8428 0.8445 0.8462 0.8486
3692.000000 0.8510 0.8514 0.8518 0.8518 0.8520
3697.000000 0.8520 0.8520 0.8520 0.8520 0.8520
3702.000000 0.8520 0.8518 0.8518 0.8518 0.8518
3707.000000 0.8518 0.8518 0.8517 0.8516 0.8515
3712.000000 0.8514 0.8513 0.8512 0.8511 0.8510
3717.000000 0.8509 0.8508 0.8507 0.8506 0.8505
3722.000000 0.8504 0.8504 0.8505 0.8505 0.8506
3727.000000 0.8506 0.8506 0.8506 0.8507 0.8507
3732.000000 0.8507 0.8507 0.8507 0.8507 0.8507
3737.000000 0.8507 0.8507 0.8506 0.8506 0.8506
3742.000000 0.8506 0.8505 0.8505 0.8505 0.8505
3747.000000 0.8504 0.8504 0.8504 0.8504 0.8503
3752.000000 0.8503 0.8503 0.8503 0.8503 0.8503
3757.000000 0.8503 0.8504 0.8505 0.8506 0.8506
3762.000000 0.8507 0.8508 0.8509 0.8510 0.8511
3767.000000 0.8511 0.8512 0.8513 0.8514 0.8514
3772.000000 0.8515 0.8516 0.8517 0.8518 0.8518
3777.000000 0.8518 0.8518 0.8518 0.8520 0.8520
3782.000000 0.8520 0.8520 0.8521 0.8521 0.8521
3787.000000 0.8521 0.8521 0.8521 0.8521 0.8521
3792.000000 0.8523 0.8523 0.8523 0.8523 0.8524
3797.000000 0.8524 0.8524 0.8524 0.8525
##END=
