##TITLE=1,2-Dimethylbenzene
##JCAMP-DX=4.24
##DATA TYPE=INFRARED SPECTRUM
##CLASS=IUPAC A
##ORIGIN=NIST, Analytical Chemistry Division, 301-975-3108
##OWNER=COPYRIGHT (C) 2001 by the U.S. Secretary of Commerce
##DATE=01/06/01
##$SPECTRA VERSION=1.10
##$UNCERTAINTY IN Y=2.2 % relative (B=1.21E-04,C=1.57E-9,D=3.06E-14)
##CAS NAME=1,2-Dimethylbenzene
##CAS REGISTRY NO=95-47-6
##MOLFORM=1,2-( C H3)2 C6 H4
##MP=-25.18 C
##BP=144.4 C
##$NIST SOURCE=QUANT-IR
##SPECTROMETER/DATA SYSTEM=IFS66V (Bruker)
##INSTRUMENT PARAMETERS=KBr Beam Splitter; MCT Detector; Multipass cell
##STATE=gas
##SAMPLE DESCRIPTION=o-Xylene Primary Gas Standard
##PRESSURE=101.3 Pa
##TEMPERATURE=23 C
##SAMPLING PROCEDURE=1 L/min Flow
##RESOLUTION=1.9290
##DATA PROCESSING=Triangular Apodization
##XUNITS=cm-1
##YUNITS=(micromol/mol)-1m-1 (base 10)
##XFACTOR=1.0
##YFACTOR=18.189E-13
##DELTAX=0.9645
##FIRSTX=575.652
##LASTX=3974.606
##FIRSTY=2.89E-06
##MAXX=3973.64
##MINX=575.65
##MAXY=.0010561
##MINY=-1.67E-06
##NPOINTS=3526
##XYDATA=(X++(Y..Y))
575.65 1590620 1329955 1163554 983824 1239479 2290683
580.47 2242539 1404909 1350100 1604582 1531494 1745959
586.26 2021973 1825167 1590184 1543509 1225556 787314
592.04 654041 401864 432387 506359 338930 347961
597.83 328273 21344-65590 112131-17086-36555
603.62 58446 85841 149135 62922-60061-79672
609.40-121399-7903 166691 279863 175766 46134
615.19 103959 20729-58043-5548-69372-91232
620.97 15299 169620 143865-10447 23959 33354
626.76 60288 18718 10526 3384-77791 32801
632.54 66366 66728 61882 27328 61154 13308
638.33-13836 67702 12964 40668 81209-29392
644.11-53334 105197 134959 2581-34418 62633
649.90 84269 46107 51179 76521 19249 40029
655.68 90916 103995 163925 253809 226265 137302
661.47 104022 200835 245898 254196 131609-313067
667.26-288446 59292 174119 263649 203380 244529
673.04 293749 197358 216912 259835 163344 237497
678.83 256356 240532 245503 255508 308565 370802
684.61 308594 297533 379936 422652 524428 634236
690.40 553849 608674 654240 683747 675568 630114
696.18 789004 1002615 950509 950688 916103 979859
701.97 1137942 1240998 1215747 1285139 1306375 1444380
707.75 1617393 1861034 2062135 2457820 2958788 3560072
713.54 4279416 5439205 6727359 8564737 10920468 14073419
719.32 18095993 23336056 29620128 37624754 47086240 58165462
725.11 70076710 81500055 92064442 102891984 111753338 118675528
730.90 122389778 123680997 121740361 119619193 118032458 124676231
736.68 140772937 183929302 305191692 567933407 580604322 273226933
742.47 136515503 122611809 114900947 119196688 122668628 128433775
748.25 130561569 130657977 125939792 118344140 107420543 95274247
754.04 81869653 68840062 56219944 45235180 35547229 27614744
759.82 21058004 16123919 12163033 9320116 7114245 5601990
765.61 4529187 3925420 3302209 2684288 2104544 1908767
771.39 1771326 1623225 1457374 1430807 1305189 1262353
777.18 1138862 1119739 1084773 1030482 947626 958254
782.96 829784 777319 803281 803715 803843 766340
788.75 713443 679847 598672 665961 674812 619051
794.53 532411 537879 491579 419947 387676 420923
800.32 448420 483517 483967 546225 554211 545899
806.11 548468 537964 532146 568742 599127 620596
811.89 676012 775274 787947 849092 865962 883811
817.68 922942 927569 985688 1112793 1077900 1012562
823.46 1019443 1004069 921273 829510 818472 902940
829.25 957282 850718 716539 656490 595992 606759
835.03 653486 609483 506344 479380 435244 387073
840.82 401110 421659 450379 457581 365453 342311
846.60 377820 453289 436910 486846 597560 611048
852.39 645014 727070 876774 1035031 1022939 991180
858.17 1070523 1150239 1199351 1332386 1453811 1506340
863.96 1533232 1579021 1664740 1727636 1734366 1722749
869.75 1669675 1610729 1620891 1569399 1545480 1555551
875.53 1434186 1396810 1310661 1224822 1185849 1069972
881.32 976909 920507 869283 792687 725084 715647
887.10 737252 749754 741720 740066 732395 753656
892.89 780706 839437 908917 973369 1013259 1025735
898.67 1041788 1076144 1086679 1057414 1024409 1013932
904.46 1054566 1044934 1006382 1053693 1110981 1147540
910.24 1167710 1140666 1112327 1100962 1107720 1178039
916.03 1203909 1180154 1220411 1227530 1222074 1277647
921.81 1337623 1327670 1314243 1380684 1445691 1584084
927.60 1835933 2297252 3105772 3408196 2839941 2259832
933.39 1944927 1795129 1717701 1709310 1744811 1846319
939.17 1904356 1927714 1949095 1923943 1887317 1809597
944.96 1736963 1658405 1560566 1492836 1362217 1298576
950.74 1277560 1236487 1237379 1190091 1179110 1196385
956.53 1206273 1198394 1189445 1259203 1286388 1293563
962.31 1388366 1499114 1643224 1841077 2036522 2312824
968.10 2706894 3198374 3765809 4444663 5251330 6155906
973.88 7105620 8040780 8943204 9704775 10336914 10773147
979.67 11019023 11209896 11634827 12434706 13024321 12763360
985.45 12204191 12458150 12619024 12162947 11892593 11648898
991.24 11146386 10470511 9760929 9020799 8220485 7384416
997.03 6676033 6114408 5674388 5419151 5269862 5192592
1002.81 5263600 5354699 5492238 5723930 6016428 6343421
1008.60 6737804 7115758 7483990 7953730 8304072 8420365
1014.38 8489369 8544034 8665750 8807454 9214596 9678259
1020.17 10308428 10811779 13720021 16778763 13071898 9214816
1025.95 8398837 7907951 7776080 7637344 7625696 7417264
1031.74 7128569 6895664 6718265 6538797 6462797 6431676
1037.52 6543987 6888282 7525964 8576033 10005952 11753370
1043.31 13847179 16051379 18079118 19736032 20534108 20419113
1049.09 19609200 18447104 18136851 21411243 25538533 23554113
1054.88 19207215 17771923 18142237 19002974 19478752 19186752
1060.67 18086882 16330378 14127057 11722365 9471363 7516857
1066.45 5865259 4646596 3678858 2926880 2378626 1920178
1072.24 1605826 1425454 1294502 1143305 1052472 1013596
1078.02 919049 844376 787194 752495 730883 694641
1083.81 706602 738782 750994 752560 781856 758517
1089.59 739935 783709 788320 776641 800022 832686
1095.38 798336 839219 966356 1081028 1172442 1266716
1101.16 1406509 1609798 1859253 2127241 2506890 2996428
1106.95 3525043 4121464 4795077 5545533 6342442 7166827
1112.73 7971890 8722085 9356917 9828509 10105135 9997326
1118.52 9504905 9047413 9135394 9694246 10281839 10735002
1124.31 10975859 11000974 10873903 10527887 10065290 9587950
1130.09 9099642 8579610 8037481 7568055 7172515 6866022
1135.88 6623553 6368829 6127213 5823014 5383853 4975675
1141.66 4723814 4668053 4679785 4693640 4669392 4609838
1147.45 4554600 4457872 4304162 4120299 3932726 3713139
1153.23 3489038 3265173 3028572 2814580 2712988 2595124
1159.02 2437584 2354781 2299010 2349769 2407033 2357791
1164.80 2320393 2294579 2197648 2081956 2046469 2070363
1170.59 2057457 2021359 1982180 1917721 1890976 1883468
1176.37 1845850 1837258 1842972 1775711 1687239 1642178
1182.16 1648882 1629767 1556565 1501761 1443020 1386307
1187.95 1350178 1344305 1319378 1287087 1256802 1220181
1193.73 1213934 1229122 1213774 1167693 1134115 1141592
1199.52 1151250 1120253 1150059 1186341 1235247 1306818
1205.30 1316105 1373385 1482908 1561427 1686108 1907028
1211.09 2149269 2417463 2743262 3118522 3481453 3802618
1216.87 4081234 4257455 4371698 4458686 4512930 4567021
1222.66 4685045 4832938 4958684 4914444 4489695 4186989
1228.44 4291329 4372893 4316035 4167377 3893374 3505192
1234.23 3055016 2593484 2119790 1699847 1338280 1054669
1240.01 870266 751879 664714 577955 504841 475442
1245.80 490095 462116 443225 482658 511830 510921
1251.59 520840 551102 569808 590509 610509 625107
1257.37 654285 699235 704482 717164 744104 752155
1263.16 776028 820190 819259 793322 783319 809716
1268.94 831069 819771 836025 839830 858217 872214
1274.73 873967 912858 947737 955686 964748 988089
1280.51 1039143 1058998 1061531 1110275 1126495 1106717
1286.30 1137123 1135408 1082472 1068793 1080847 1105094
1292.08 1111245 1143719 1176685 1158802 1121259 1084273
1297.87 1039106 1016452 987890 966011 948778 933475
1303.65 919188 909842 888698 877696 920412 948963
1309.44 980541 988063 954467 981734 1032616 1072775
1315.23 1097213 1113288 1143097 1173981 1205813 1235034
1321.01 1288683 1306987 1333035 1377250 1426501 1464252
1326.80 1460408 1504853 1575103 1619388 1690482 1809606
1332.58 1889193 1877676 1786068 1741659 1725397 1758377
1338.37 1843023 1858273 1901214 1945024 1968346 2020364
1344.15 2110879 2137474 2150753 2224397 2206703 2170470
1349.94 2132264 2113367 2193085 2323532 2609777 2717670
1355.72 2726661 2818308 2730653 2715412 2850013 3027187
1361.51 3161460 3278342 3513573 3789142 4069977 4404738
1367.29 4810668 5280073 5751816 6270704 6769453 7214004
1373.08 7670913 8089192 8388304 8369671 8087815 8032756
1378.87 8853330 10600902 12320695 13325389 13735651 13799067
1384.65 13544348 13001396 12845516 14366115 15058063 13107215
1390.44 11403129 11064541 11351073 11768312 12046574 11946763
1396.22 11378226 10407136 9212812 8037402 6929726 5982026
1402.01 5275179 4798117 4536158 4379407 4237771 4136569
1407.79 4105942 4085265 4076942 4090647 4128076 4207105
1413.58 4332923 4432624 4516193 4618013 4729463 4877465
1419.36 5019091 5112317 5284732 5544922 5890854 6321716
1425.15 6853020 7408092 8012198 8689322 9390620 10199483
1430.93 11043768 11836522 12585524 13247563 13691811 14122836
1436.72 15015798 16300861 17888809 19661029 21660367 23866150
1442.51 26261943 28524828 30874573 32466097 33754217 34954773
1448.29 35346469 36982164 39393463 41694882 43913607 46181484
1454.08 48808924 51661123 55435657 60113090 64805509 68126939
1459.86 70746202 74659450 77626246 79192595 78736060 76402700
1465.65 74888586 74102346 73206813 71972671 69749921 66553167
1471.43 65062345 66877858 69831847 70775234 68860890 65091452
1477.22 60582685 56769929 53973121 51728247 49323355 46683656
1483.00 44914241 44237124 44152211 44604181 45625599 47267990
1488.79 49382597 51909188 54464217 57437073 60664030 64534249
1494.57 65575353 61530791 58581963 59024365 61594304 68538118
1500.36 72110144 61155839 52093535 52236078 53219657 53573164
1506.15 52041917 48786748 43687265 37543139 31098726 24992846
1511.93 19728758 15556218 12333676 10010224 8305489 7214275
1517.72 6532672 6005348 5491927 5236793 5178991 5091923
1523.50 4974166 4839734 4793534 4711370 4606583 4560362
1529.29 4508432 4470985 4444644 4427559 4439522 4482592
1535.07 4461388 4455018 4316479 4034335 3975731 4081347
1540.86 4065863 4075357 4106944 4019635 3994336 4059529
1546.64 4028935 3994468 3954366 3919278 3909244 3860020
1552.43 3723389 3629400 3690723 3668803 3477590 3306549
1558.21 3286554 3294531 3421395 3490806 3436930 3379987
1564.00 3300135 3262079 3258122 3275139 3209161 3175060
1569.79 3312294 3435989 3551467 3720732 3910199 3977986
1575.57 4256966 4831261 5265302 5699987 6158869 6593666
1581.36 7028429 7479700 8012402 8656424 9394866 10227032
1587.14 11086407 11887191 12557410 13106140 13614241 13989893
1592.93 14107375 13913595 13349615 12698593 12484493 13101982
1598.71 14364409 15529055 16169368 16430215 16588180 16726324
1604.50 16740348 16603852 16321931 15832680 15051851 13974966
1610.28 12716727 11584349 11034267 11231108 11788228 12013756
1616.07 11933843 11824283 11457995 10809995 10017237 9167863
1621.85 8142563 7115395 6238463 5357305 4545942 3858942
1627.64 3294128 2838783 2444924 2123962 1863725 1650865
1633.43 1405593 1121792 1081789 1069507 992396 945456
1639.21 865292 820465 786236 740639 713306 609579
1645.00 493360 572810 609190 648377 688778 679192
1650.78 504619 259644 441028 767241 964698 1139126
1656.57 1316757 1512218 1748229 2018155 2279076 2488746
1662.35 2736506 2989577 3071413 3079975 3079676 3082134
1668.14 3195770 3528635 3596668 3302061 3136175 3102828
1673.92 3066003 3168660 3322269 3273614 3104532 2852629
1679.71 2548418 2204003 1862181 1555953 1254751 1244181
1685.49 1343248 1295620 1233004 1140971 1066465 1025932
1691.28 998366 963142 963855 761384 655757 900623
1697.07 1034067 977714 825826 962372 1253524 1369433
1702.85 1424876 1539378 1665378 1741475 1844010 1875290
1708.64 1856852 1792948 1773641 1846517 1938396 1998190
1714.42 2047296 1850543 1500924 1536311 1695691 1755357
1720.21 1744478 1665626 1549689 1381912 1236534 1111833
1725.99 986610 886007 768946 688167 669284 634816
1731.78 526700 408893 453729 590968 634535 633317
1737.56 631526 591813 608367 645447 634600 641722
1743.35 690928 726916 721836 730440 734922 735446
1749.13 722708 648977 713126 813346 840692 879522
1754.92 875806 890138 972574 1021712 1036414 1027851
1760.71 977807 1017424 1070959 1124755 1174439 1179361
1766.49 1192196 1298855 1519996 1699683 1869436 2024080
1772.28 2302920 2708477 3061560 3441868 3813619 4139341
1778.06 4460808 4714460 4894358 5034408 5021599 4803751
1783.85 4438546 4094226 4024025 4310188 4738036 5013677
1789.63 5003206 4779227 4469316 4239530 3960209 3556782
1795.42 3110057 2687708 2321506 1976106 1679928 1384239
1801.20 1125716 945064 832001 711053 628037 582356
1806.99 535226 548069 535906 538475 619151 753151
1812.77 899255 1083163 1347921 1648510 1958019 2275945
1818.56 2610851 2912116 3115560 3216628 3235131 3172624
1824.35 3081982 3141771 3397704 3874605 3803361 2927723
1830.13 2616147 2890350 3122775 3223801 3096517 2822069
1835.92 2453507 2027601 1589085 1213257 935797 734935
1841.70 597987 461384 421928 545402 679371 815801
1847.49 982531 1170280 1406481 1656739 1871604 2040070
1853.27 2190139 2292703 2351245 2404924 2455795 2621050
1859.06 2847631 2885764 2770064 2704978 2727711 2773941
1864.84 2839948 2912005 2947340 2899005 2811718 2770720
1870.63 2680146 2539432 2432239 2379594 2342690 2319937
1876.41 2321209 2295107 2305061 2347620 2391093 2563239
1882.20 2840559 3123619 3377617 3611436 3856693 4143808
1887.99 4479797 4897920 5370647 5823497 6246135 6632916
1893.77 6951813 7165295 7240987 7176805 6937566 6472335
1899.56 5892890 5530200 5733676 6331029 6779913 6846078
1905.34 6587483 6165652 5703984 5169385 4561616 3961281
1911.13 3350404 2746476 2213663 1755085 1389734 1079062
1916.91 832624 684884 572293 481715 426129 420571
1922.70 450382 500710 582268 698947 894609 1149966
1928.48 1436280 1764756 2151212 2593172 3064997 3519990
1934.27 3941087 4321269 4613202 4704289 4687049 4670759
1940.05 4582356 4619740 5253051 5849464 4909502 3833309
1945.84 3960297 4359680 4615911 4620192 4387689 3952317
1951.63 3379762 2741735 2134792 1643711 1254659 993574
1957.41 827695 732385 675033 622120 611506 626568
1963.20 644953 648475 612798 554547 552522 550905
1968.98 536363 540424 517967 496246 535518 505903
1974.77 425035 415670 413745 401014 401200 395712
1980.55 383523 376985 350178 311153 289114 288641
1986.34 286629 275405 255942 240057 231779 195608
1992.12 174157 164142 145864 141753 122247 112395
1997.91 132012 146291 133238 107945 90581 66776
2003.69 37253 34775 82370 29288-54786-23826
2009.48-27877-44608-20779 8627 13516 14549
2015.27 16192 21590 45119 70810 69798 27801
2021.05 2529 2051-14092-38732-43264-44740
2026.84-37937-25735-25534-35432-44837-50012
2032.62-46782-44713-58473-56788-45398-37750
2038.41-47071-42428-21847-15183-12203-10807
2044.19-1407 1231-5102-4798-5260-16214
2049.98-35226-43859-39128-18064-32497-50191
2055.76-63023-96450-105406-128103-142027-146048
2061.55-161598-182999-192419-185840-189714-190327
2067.33-196366-200761-199676-188341-186092-183565
2073.12-158054-162258-177270-163130-143394-153215
2078.91-162124-145989-132977-131077-117251-88583
2084.69-50136-57809-85794-90314-86794-76560
2090.48-99044-125400-140400-140823-133472-101768
2096.26-62353-15973 21573-1958 225 30762
2102.05 80402 91400 78185 85922 127895 165978
2107.83 158102 156408 187172 230631 225669 242900
2113.62 315698 385217 387892 341412 310976 332299
2119.40 305897 276171 273598 255116 202267 127346
2125.19 106689 114599 114016 106545 106884 68002
2130.97 9515-33590-82516-116990-134296-167566
2136.76-192048-183498-169992-186821-190966-159719
2142.55-157006-163092-144633-132928-131761-133022
2148.33-113697-79765-63505-76525-92079-84203
2154.12-75760-65091-11368 49842 32038-2572
2159.90 3842-3677-40718-64868-49442-23407
2165.69-34707-52957-34663-49126-113869-110553
2171.47-66330-91735-135868-115742-74466-98770
2177.26-106368-69247-61882-112019-124243-77910
2183.04-80295-112926-86871-43328-37843-36719
2188.83-16995-11608-29110 6683 74962 118354
2194.61 162334 221479 250521 265464 298640 315528
2200.40 329724 350392 398210 488668 499208 490808
2206.19 502289 483864 503342 527050 568719 603194
2211.97 564856 493509 437606 395498 343653 325360
2217.76 331470 313627 314820 319875 299465 258830
2223.54 215930 211982 219947 208180 187791 157402
2229.33 142334 128473 115107 114375 124505 121666
2235.11 88853 70730 65826 39658 11577 18878
2240.90 8026-3864-5995-8207-26056-62393
2246.68-82126-95767-99479-97697-78097-57575
2252.47-48781-29736-3457 12276 22018 49588
2258.25 78851 100026 125362 154049 205466 248009
2264.04 277781 316491 364912 414259 465509 507357
2269.83 535779 568472 593280 592809 582182 569397
2275.61 561519 542968 529626 498837 468687 490355
2281.40 500807 463787 434947 417514 388253 367548
2287.18 326076 245081 192134 174289 168889 155015
2292.97 164155 147473 132833 138845 91620 66371
2298.75 64766 62349 78901 74902 111468 129840
2304.54 147293 158388 213802 253454 311961 355783
2310.32 420102 458819 447527 437237 378218 351745
2316.11 320646 390478 514139 473258 273065 259656
2321.89 270202 274924 261289 237173 154705 98440
2327.68 56930-13486-91369-168465-187673-133345
2333.47-80437-50281-19723 54789 125628 165761
2339.25 211623 231524 215768 197825 193334 199164
2345.04 263590 391465 572163 682170 654363 524750
2350.82 369745 202838 26844-135902-305446-454741
2356.61-596657-743943-826252-865228-880086-902164
2362.39-918146-920010-899436-853699-809398-746847
2368.18-657258-571453-483706-423647-375028-306032
2373.96-250542-198185-154089-99847-58838-43366
2379.75-49859-23114 24277 32911 61333 73755
2385.53 80944 89533 75575 73890 83053 96926
2391.32 125022 147979 129871 132534 159079 151039
2397.11 156110 204073 236875 255492 300898 322979
2402.89 342669 399681 463532 492140 545693 624777
2408.68 619578 590308 575984 561676 579974 622172
2414.46 653565 697923 761662 796348 796571 768862
2420.25 809573 883639 900081 909189 910075 923107
2426.03 970613 1023983 1077671 1086198 1112549 1159317
2431.82 1159785 1192543 1241103 1260820 1301381 1343751
2437.60 1340625 1317066 1297096 1299996 1314742 1296245
2443.39 1274920 1273070 1269922 1227080 1146071 1079224
2449.17 1050009 1064876 1050978 1046931 1009266 941075
2454.96 888363 802201 714294 631068 581781 552928
2460.75 503408 437078 431020 446217 424977 417534
2466.53 408824 396692 369266 331734 315845 309673
2472.32 300900 282509 287379 317497 323442 297037
2478.10 304381 313935 301134 311172 328212 329373
2483.89 333516 333508 317389 307091 290498 308009
2489.67 331014 319782 332502 308491 264621 255195
2495.46 244255 273454 319232 300577 271408 243592
2501.24 232149 244861 233962 234530 237412 217701
2507.03 208896 203546 192042 198488 209385 201587
2512.81 173717 174882 146803 123225 153792 174816
2518.60 154937 112184 80310 54900 55691 36376
2524.39 10278 14142 13666-5243-20995-25880
2530.17-11030 5571 4875-19460-17551-18492
2535.96-44024-44387-55315-56677-26220-21539
2541.74-38929-21795 453 33489 23893 23823
2547.53 41088 49706 94821 126303 168021 206866
2553.31 242979 285765 359222 481304 560066 583920
2559.10 613614 680299 755565 804773 889770 1023940
2564.88 1109624 1144021 1178300 1255600 1347141 1436716
2570.67 1535081 1586232 1618857 1635661 1617841 1589242
2576.45 1564370 1534854 1502927 1481173 1495661 1520924
2582.24 1505413 1471271 1376184 1216076 1078107 1001297
2588.03 962181 918897 845968 805186 728832 605411
2593.81 562456 531968 480839 453979 445663 444094
2599.60 437962 430548 432038 456358 503705 535010
2605.38 548438 575775 604783 588514 580264 604944
2611.17 623338 627328 626481 608829 551300 533394
2616.95 548025 568506 553655 530440 501952 445967
2622.74 411672 368752 287461 226521 218754 175023
2628.52 109212 113270 132654 126786 139054 111807
2634.31 68003 59946 46403 11795 4579 10321
2640.09-8630 3108 22612 24115 18582 19703
2645.88 33706 22065 12118 13459 9938 17353
2651.67 45381 43490 49409 55520 53651 80660
2657.45 98485 94971 92594 102325 101462 108120
2663.24 118398 120527 154246 178221 193673 221886
2669.02 234504 261358 302778 306680 295532 310902
2674.81 319121 321859 342045 367872 351411 317056
2680.59 342869 373864 367886 364633 375321 370377
2686.38 355534 333129 330177 357613 356364 354929
2692.16 360353 344626 346935 366395 340318 310177
2697.95 311347 341449 366542 391071 408511 415555
2703.73 469940 531200 567521 591769 607506 655990
2709.52 712738 746992 782167 850856 931878 988200
2715.31 1057942 1177937 1319581 1464614 1601364 1693644
2721.09 1814735 1948101 2064733 2208458 2370685 2565293
2726.88 2788805 3038192 3320723 3642234 4054287 4532029
2732.66 4976637 5437849 5823460 6054454 6216630 6250869
2738.45 6249655 6266529 6585963 7082610 6942705 6444114
2744.23 6140539 6074319 6166345 6311099 6386219 6223016
2750.02 5829197 5271718 4649638 4064871 3511622 3027383
2755.80 2650993 2379818 2209157 2057111 1972318 2018149
2761.59 2097220 2131563 2185479 2278031 2345103 2379816
2767.37 2383790 2430048 2533470 2687095 2726038 2582751
2773.16 2518211 2603086 2721400 2793754 2841038 2847736
2778.95 2777655 2660976 2529567 2371569 2214789 2097567
2784.73 2049269 2021415 1961760 1941068 1918231 1886242
2790.52 1896645 1891408 1894811 1876222 1879330 1900656
2796.30 1924572 1978688 2016831 2048823 2074803 2128317
2802.09 2197700 2274328 2403894 2523347 2608671 2717515
2807.87 2827407 2917118 3012344 3159254 3300765 3456262
2813.66 3609506 3651903 3730700 3849287 3925406 4057215
2819.44 4188598 4332684 4540798 4790790 5051472 5234112
2825.23 5359654 5430069 5508262 5621353 5759188 5935542
2831.01 6080899 6217445 6360812 6479190 6581140 6698118
2836.80 6872570 7107458 7413681 7761734 8132886 8493804
2842.59 8806316 9155248 9592832 10057761 10516100 11002493
2848.37 11592564 12284210 13027975 13809788 14715365 15856453
2854.16 17231445 18811412 20460388 22216789 24100201 25981533
2859.94 27917049 29865376 31835879 33810689 35868130 38030574
2865.73 40305777 42747168 44912414 46919590 49108750 51419621
2871.51 53610725 55629088 57485027 59067223 60500716 61832891
2877.30 63010954 64142780 65113074 65641808 65986121 65978485
2883.08 65388140 64871268 64719706 64722706 64471479 63764836
2888.87 62787797 61939793 61287492 60549597 59729960 58791661
2894.65 57652184 56411296 55080791 53704003 52418322 51252698
2900.44 50518697 50230665 49979328 49671870 49240914 48583491
2906.23 48042643 47943145 48213339 48909868 50075061 51334133
2912.01 52236271 53105571 54081532 55184037 56720227 58675516
2917.80 61026283 63752845 66971029 70542738 74019751 77341860
2923.58 80692006 84105458 87533447 90774082 93825258 96850331
2929.37 100094704 103646190 106891924 108418271 109314464 111172402
2935.15 113198141 114933267 116388171 117309735 117547471 117081392
2940.94 115700972 113930174 112116903 110517970 110064260 113115699
2946.72 123694299 129413743 125108321 121820284 120667805 118239646
2952.51 112344117 105041127 98226651 92744978 88677121 85848293
2958.29 83931654 82516995 81309395 80525467 79995280 79287691
2964.08 78976157 79274653 80266760 82054308 84486003 87315170
2969.87 90492431 93763001 96802940 99405767 101151689 101686435
2975.65 100792860 98187049 93781749 88694065 85203485 85301228
2981.44 88594696 91941745 92769391 91013135 87529399 83015526
2987.22 77686951 71718552 65528433 59400678 53671108 48552077
2993.01 44054949 40294611 37174579 34551904 32351014 30451977
2998.79 28852878 27463832 26465843 26140163 26484735 27336252
3004.58 28330715 29354523 30558611 32078828 33964665 36262600
3010.36 39113989 42607245 46752712 51558800 56906470 62700815
3016.15 68748492 74720847 80421121 85509399 89815868 93174230
3021.93 95140256 95276830 93825755 92332196 93480222 98928211
3027.72 106385190 111601122 113006636 111899082 109665582 106818304
3033.51 103315475 98340296 92254809 86180018 81020380 77122064
3039.29 73930073 70992812 68046294 65087801 62184786 59583189
3045.08 57362672 55509059 54150998 53375172 53105230 53398394
3050.86 54341130 55783658 57339700 58776285 60399175 62360987
3056.65 64425126 66397010 68204461 69784745 71132696 72378840
3062.43 73960314 75868801 77448599 78626299 79435142 80225396
3068.22 81217981 81965193 82234767 81797422 80666169 79003002
3074.00 76822475 74512773 72501777 71174418 70712215 70570921
3079.79 70072185 68815255 66736745 64052704 61039019 57936532
3085.57 54876525 52094345 49819214 47915686 45821844 43138915
3091.36 39940221 37165905 35344580 33754691 31973645 29862647
3097.15 27456711 24988170 22621606 20546959 18830420 17512210
3102.93 16602954 16021845 15754398 15691390 15775520 16003364
3108.72 16250485 16417606 16467866 16384388 16112523 15666900
3114.50 15134608 14555174 14092403 13870842 13861953 13949607
3120.29 13810159 13292288 12595300 11840600 11021732 10131606
3126.07 9178407 8229249 7296166 6484036 5797922 5177334
3131.86 4640285 4208894 3874783 3541398 3270377 3090839
3137.64 2954557 2827991 2693074 2561285 2488758 2461458
3143.43 2370706 2295531 2250840 2175544 2122392 2108579
3149.21 2066185 2013805 2012721 1982012 1913492 1905200
3155.00 1954185 1952956 1959023 1965811 1958787 1949270
3160.79 1942393 1959294 1930346 1899613 1915418 1946729
3166.57 1953911 1958070 1958695 1920821 1878332 1869366
3172.36 1872292 1831726 1756040 1699532 1675057 1613348
3178.14 1509346 1456124 1390844 1289681 1203169 1159522
3183.93 1104158 1006672 956268 938374 891146 877741
3189.71 854639 833412 833615 790883 750659 715297
3195.50 675516 650850 655856 628429 612295 590200
3201.28 540351 529778 505478 473736 458332 451694
3207.07 438147 426288 423215 389616 346762 322127
3212.85 324950 311135 286003 302913 290999 258958
3218.64 272201 306546 291426 282505 315831 343421
3224.43 360104 312902 285859 268760 217468 190945
3230.21 210128 223191 196493 180637 176588 190489
3236.00 200328 152386 83429 111242 137362 113522
3241.78 119769 129947 138186 141420 105805 71303
3247.57 73571 50240 31667 56368 77297 71363
3253.35 58045 37459 45717 65132 46411 45044
3259.14 45563 30036 43387 70557 38942 2451
3264.92-24950 21727 63853 56321 58118 47849
3270.71 63120 62582 49542 21915-23115 6239
3276.49 58688 59373 79031 66736 23878 15845
3282.28 56200 76574 98968 95481 59929 64305
3288.07 43915 25891 84430 141912 116569 78286
3293.85 69251 101199 153727 151173 103193 74207
3299.64 91982 107300 99397 103005 120579 132978
3305.42 105719 93988 75284 32349 72981 141047
3311.21 127227 123591 98061 68678 100064 106018
3316.99 108674 94793 48575 16774 10085-36650
3322.78 8172 54291-1799-22729-24998-7703
3328.56-2657-17101-9007-12093-22171-12077
3334.35-39024-58698-31809-26074 5541 37308
3340.13 13829-8778-16105-25344-17057 10608
3345.92-42997-36992 16809-2989 7659 2291
3351.71-30250-9823 4213-37404-30467 29208
3357.49 41691 30168 25503 43700 28414 28770
3363.28 80761 63340 42186 31187 18380 62233
3369.06 86240 80893 108112 103074 137770 187975
3374.85 184472 208007 224821 204623 157920 118156
3380.63 118128 176617 228103 219693 223016 187441
3386.42 185801 177001 173985 208935 189577 209677
3392.20 174563 124601 139498 127317 74948 83540
3397.99 54663-8431-27520-1108 7495-48364
3403.77-28960 320-48729-79644-30622-58058
3409.56-78629-50959-48029-47797-103223-89327
3415.35-34058-26356-31021-70937-69030-16939
3421.13-19686-22523-57326-45095-27206-18968
3426.92-1888-50241-5681 43764 47242 38059
3432.70-7199-28974-1427 85984 76258 10044
3438.49 37490 47281 28435 55477 63720 27415
3444.27 60919 108508 54439 107637 133200 105054
3450.06 190700 206555 206984 220743 177153 158406
3455.84 225855 236937 243196 283920 260602 257364
3461.63 287888 237920 235585 226529 244315 304953
3467.41 282919 209631 134290 163033 242381 218550
3473.20 132637 115769 110106 100176 126805 81299
3478.99 26939 56822 104671 102662 52602 84172
3484.77 85494 44768 40047 25697-13212-17177
3490.56-41945-30283-30051-46876-16105-55774
3496.34-98174-94684-67258-87927-106735-92651
3502.13-99513-120650-104347-119121-131194-82109
3507.91-78503-82489-87208-112356-133942-139478
3513.70-127880-100997-94177-96654-118782-104219
3519.48-91201-126633-99524-105246-139854-112385
3525.27-101598-102923-102843-120812-82105-76478
3531.05-93563-48030-77141-119491-122989-78211
3536.84-75385-101358-68371-106320-107486-79708
3542.63-60096-45530-79741-68720-58420-61430
3548.41-43634-46193-78732-66338 13699 11906
3554.20-30729-59291-86933-86771-83524-61605
3559.98-71039-44702 9164-29220-66683-63648
3565.77-56636-72944-37506 18327-13425-18854
3571.55-2991-15160 5141 20212 3911 24713
3577.34 53413 51510 28716 43563 68263 82369
3583.12 92905 86835-8462-69062-32330-38290
3588.91 2604 61433 49071 22176 87603 124318
3594.69 82524 101621 111192 91345 141614 161449
3600.48 203054 226278 237248 214187 174998 191259
3606.27 182846 196274 175795 187199 186524 144788
3612.05 170476 169109 112259 99674 58644 53310
3617.84 6325-59084-11829-43317-66434-57443
3623.62-80131-91461-88172-156180-272382-307892
3629.41-217424-145027-141268-100424-67524-59007
3635.19-89748-108735-84469-72452-88844-109863
3640.98-94869-83439-54533-40932-61533-107473
3646.76-131104-204270-247064-175276-123259-94268
3652.55-84323-52347-106214-151533-96200-39669
3658.33-16415-36111-37024-64353-62708-51579
3664.12-56203-81420-145266-162997-143852-216044
3669.91-262749-143410-110596-186568-271110-304905
3675.69-195641-106457-152021-181989-157949-120523
3681.48-90271-91874-97692-99430-107214-174648
3687.26-322731-260330-174383-179997-98032-75547
3693.05-79692-62965-60104-80501-103685-112813
3698.83-122373-118567-142178-115525-116474-157138
3704.62-149845-134856-150593-190391-245590-216087
3710.40-237133-330291-228258-152968-164086-176772
3716.19-171566-146168-144684-122897-141396-165160
3721.97-152734-168015-179143-180695-150148-129029
3727.76-146029-136692-122726-236033-239894-153539
3733.55-210424-236129-261758-237001-150408-87432
3739.33-92017-116203-73404-115481-370820-303189
3745.12-18400 20786 4259-137691-111296 14770
3750.90-84863-5281 151645 184849 173073 160114
3756.69 203717 174868 102858 154630 219454 202382
3762.47 211147 232111 186080 167072 155567 102609
3768.26 4103-40718 16544 12437-18089-11849
3774.04 4096-7462-25019-41993-45739-66217
3779.83-35690-14573-31564-23082-31937-9576
3785.61 45420 73933 54606 66320 95790 71914
3791.40 74993 77580 86859 98539 26124 33108
3797.19 131803 128521 35440-100289-49768 106908
3802.97 153696 156490 78850-30630 35941 168534
3808.76 173361 170966 163185 137673 177723 194681
3814.54 23650 10904 195580 237435 200116 110954
3820.33 82524 193557 306038 351617 388570 403186
3826.11 399684 433742 462062 474348 421077 399079
3831.90 455079 459756 446202 486058 424668 261831
3837.68 365111 479267 451984 487904 516277 509878
3843.47 544338 548806 556588 617714 623551 610714
3849.25 618148 507503 479692 527116 404082 579800
3855.04 788789 813402 845106 838955 816420 797332
3860.83 804414 867989 894367 833436 862377 938039
3866.61 961086 889372 770078 795724 862868 877582
3872.40 874440 871707 898742 920558 951527 990573
3878.18 1009650 987443 978200 1005405 1011681 1021109
3883.97 998372 981387 1092707 1190896 1244405 1249014
3889.75 1201007 1242495 1344914 1379292 1415681 1446154
3895.54 1474778 1485166 1411810 1399165 1482360 1513216
3901.32 1564354 1560548 1446660 1434912 1448847 1447174
3907.11 1430415 1377628 1303667 1207094 1126761 1078917
3912.89 1025154 970680 910280 828140 778949 739572
3918.68 684709 679134 700178 676308 643055 604418
3924.47 558587 561752 532661 497860 450754 405282
3930.25 410384 388755 398144 418159 398776 394165
3936.04 396438 377188 371570 384536 380468 360553
3941.82 356344 376359 401188 440693 428350 429047
3947.61 481455 450657 434979 506847 552096 547409
3953.39 563771 542201 551943 598018 571690 576500
3959.18 650802 655747 637743 651721 687658 675469
3964.96 650544 644165 610566 660672 691899 671169
3970.75 620682 572441 553369 561454
##END=
