##TITLE=o-Cresol
##JCAMP-DX=4.24
##DATA TYPE=INFRARED SPECTRUM
##CLASS=COBLENTZ III
##ORIGIN=SOUTHERN RESEARCH INSTITUTE
##OWNER=Copyright (C) 1987 by the Coblentz Society
Collection (C) 2018 copyright by the U.S. Secretary of Commerce
on behalf of the United States of America. All rights reserved.
##DATE=1960/03/04
##CAS REGISTRY NO=95-48-7
##MOLFORM=C7 H8 O
##BP=190 C
##SOURCE REFERENCE=COBLENTZ NO. 8289
##$NIST SOURCE=COBLENTZ
##$NIST IMAGE=cob8289
##SPECTROMETER/DATA SYSTEM=PERKIN-ELMER 21 (GRATING)
##INSTRUMENT PARAMETERS=FILTER CHANGE ABOUT 1025 CM^-^1
##STATE=LIQUID (NEAT)
##PATH LENGTH=CAPILLARY
##SAMPLING PROCEDURE=TRANSMISSION
##RESOLUTION=2
##DATA PROCESSING=DIGITIZED BY COBLENTZ SOCIETY (BATCH II) FROM HARD COPY (ADJUSTED \addcm-1\8-5-0\)
##XUNITS=1/CM
##YUNITS=TRANSMITTANCE
##XFACTOR=1.0
##YFACTOR=1
##DELTAX=1.002919
##FIRSTX=600.505
##LASTX=4009.43
##FIRSTY=0.529
##MAXX=4009.43
##MINX=600.505
##MAXY=0.9112
##MINY=0.144575
##NPOINTS=3400
##XYDATA=(X++(Y..Y))
600.505000 0.5290 0.5285 0.5281 0.5280 0.5279
605.519593 0.5278 0.5281 0.5284 0.5287 0.5290
610.534187 0.5293 0.5297 0.5302 0.5308 0.5314
615.548780 0.5330 0.5325 0.5330 0.5335 0.5340
620.563374 0.5345 0.5350 0.5355 0.5359 0.5364
625.577967 0.5369 0.5374 0.5379 0.5384 0.5389
630.592561 0.5395 0.5400 0.5405 0.5410 0.5416
635.607154 0.5421 0.5426 0.5431 0.5437 0.5442
640.621748 0.5447 0.5452 0.5457 0.5463 0.5469
645.636341 0.5478 0.5486 0.5495 0.5504 0.5513
650.650935 0.5522 0.5531 0.5545 0.5563 0.5581
655.665528 0.5599 0.5617 0.5635 0.5653 0.5673
660.680122 0.5692 0.5711 0.5731 0.5751 0.5770
665.694715 0.5797 0.5825 0.5853 0.5878 0.5897
670.709309 0.5916 0.5936 0.5955 0.5966 0.5974
675.723902 0.5983 0.5992 0.6001 0.6007 0.6013
680.738496 0.6019 0.6024 0.6030 0.6030 0.6038
685.753089 0.6041 0.6042 0.6044 0.6045 0.6047
690.767683 0.6046 0.6043 0.6040 0.6037 0.6033
695.782276 0.6030 0.6021 0.6011 0.6002 0.5992
700.796870 0.5983 0.5963 0.5929 0.5886 0.5834
705.811463 0.5782 0.5506 0.5278 0.5183 0.5117
710.826057 0.5052 0.4986 0.4939 0.4918 0.4892
715.840650 0.4929 0.4986 0.5240 0.5557 0.5772
720.855244 0.5834 0.5854 0.5870 0.5879 0.5891
725.869837 0.5890 0.5886 0.5879 0.5869 0.5848
730.884431 0.5801 0.5743 0.5681 0.5618 0.5547
735.899024 0.5465 0.5367 0.5251 0.5143 0.4945
740.913618 0.4625 0.4272 0.3919 0.3566 0.3213
745.928211 0.2860 0.2507 0.2154 0.1801 0.1593
750.942805 0.1513 0.1474 0.1458 0.1446 0.1473
755.957398 0.1505 0.1532 0.1637 0.1875 0.2161
760.971992 0.2446 0.2731 0.3016 0.3301 0.3587
765.986585 0.3872 0.4158 0.4443 0.4728 0.5014
771.001179 0.5299 0.5585 0.6092 0.6462 0.6661
776.015772 0.6830 0.7004 0.7200 0.7350 0.7452
781.030366 0.7510 0.7549 0.7588 0.7620 0.7644
786.044959 0.7666 0.7685 0.7695 0.7701 0.7706
791.059553 0.7712 0.7715 0.7716 0.7718 0.7719
796.074146 0.7721 0.7722 0.7722 0.7721 0.7721
801.088739 0.7734 0.7730 0.7719 0.7717 0.7715
806.103333 0.7713 0.7711 0.7709 0.7706 0.7701
811.117926 0.7694 0.7687 0.7675 0.7660 0.7645
816.132520 0.7630 0.7616 0.7599 0.7581 0.7563
821.147113 0.7545 0.7528 0.7513 0.7498 0.7483
826.161707 0.7468 0.7451 0.7426 0.7395 0.7356
831.176300 0.7292 0.7188 0.7074 0.6973 0.6855
836.190894 0.6615 0.6256 0.5880 0.5504 0.5128
841.205487 0.4751 0.4394 0.4215 0.4197 0.4190
846.220081 0.4193 0.4172 0.4494 0.5286 0.6168
851.234674 0.7032 0.7523 0.7678 0.7854 0.7959
856.249268 0.8018 0.8078 0.8131 0.8176 0.8221
861.263861 0.8260 0.8290 0.8318 0.8345 0.8369
866.278455 0.8387 0.8403 0.8418 0.8431 0.8437
871.293048 0.8442 0.8446 0.8449 0.8451 0.8452
876.307642 0.8454 0.8456 0.8457 0.8459 0.8460
881.322235 0.8461 0.8462 0.8462 0.8463 0.8464
886.336829 0.8478 0.8484 0.8466 0.8465 0.8464
891.351422 0.8463 0.8461 0.8460 0.8459 0.8457
896.366016 0.8456 0.8455 0.8453 0.8451 0.8448
901.380609 0.8445 0.8442 0.8439 0.8436 0.8433
906.395203 0.8430 0.8425 0.8419 0.8412 0.8406
911.409796 0.8397 0.8381 0.8365 0.8349 0.8332
916.424390 0.8316 0.8299 0.8281 0.8263 0.8245
921.438983 0.8225 0.8201 0.8174 0.8148 0.8121
926.453577 0.8090 0.8062 0.8046 0.8039 0.8034
931.468170 0.8034 0.8036 0.8039 0.8045 0.8060
936.482764 0.8072 0.8093 0.8116 0.8142 0.8178
941.497357 0.8217 0.8293 0.8390 0.8363 0.8397
946.511951 0.8405 0.8411 0.8413 0.8414 0.8415
951.526544 0.8414 0.8409 0.8399 0.8388 0.8373
956.541138 0.8357 0.8340 0.8322 0.8300 0.8278
961.555731 0.8257 0.8238 0.8218 0.8198 0.8178
966.570325 0.8156 0.8130 0.8104 0.8077 0.8047
971.584918 0.8009 0.7971 0.7932 0.7888 0.7846
976.599512 0.7811 0.7777 0.7743 0.7709 0.7676
981.614105 0.7645 0.7618 0.7599 0.7583 0.7577
986.628699 0.7577 0.7592 0.7670 0.7776 0.7880
991.643292 0.7985 0.8090 0.8188 0.8251 0.8287
996.657886 0.8318 0.8347 0.8373 0.8396 0.8414
1001.672479 0.8433 0.8447 0.8456 0.8465 0.8474
1006.687072 0.8483 0.8488 0.8493 0.8498 0.8502
1011.701666 0.8506 0.8510 0.8515 0.8517 0.8520
1016.716259 0.8522 0.8524 0.8526 0.8529 0.8533
1021.730853 0.8536 0.8526 0.8416 0.8278 0.8139
1026.745446 0.8000 0.7862 0.7723 0.7584 0.7445
1031.760040 0.7307 0.7169 0.7030 0.6892 0.6753
1036.774633 0.6614 0.6476 0.6337 0.6198 0.6059
1041.789227 0.5921 0.5789 0.5735 0.5735 0.5743
1046.803820 0.5822 0.6312 0.6803 0.7294 0.7779
1051.818414 0.8172 0.8216 0.8243 0.8262 0.8267
1056.833007 0.8269 0.8269 0.8269 0.8269 0.8268
1061.847601 0.8268 0.8284 0.8263 0.8259 0.8253
1066.862194 0.8246 0.8234 0.8220 0.8204 0.8186
1071.876788 0.8163 0.8140 0.8112 0.8080 0.8047
1076.891381 0.8010 0.7968 0.7917 0.7872 0.7830
1081.905975 0.7788 0.7742 0.7674 0.7607 0.7539
1086.920568 0.7463 0.7381 0.7299 0.7218 0.7137
1091.935162 0.7049 0.6948 0.6847 0.6377 0.6264
1096.949755 0.6178 0.6064 0.5382 0.4685 0.3988
1101.964349 0.3291 0.2739 0.2633 0.2579 0.2558
1106.978942 0.2550 0.2551 0.2611 0.2539 0.2938
1111.993536 0.3128 0.3192 0.3629 0.4235 0.4857
1117.008129 0.5480 0.6103 0.6724 0.7347 0.7624
1122.022723 0.7704 0.7724 0.7736 0.7746 0.7753
1127.037316 0.7757 0.7761 0.7741 0.7751 0.7752
1132.051910 0.7741 0.7727 0.7711 0.7695 0.7677
1137.066503 0.7651 0.7607 0.7559 0.7506 0.7423
1142.081097 0.7284 0.7120 0.6951 0.6783 0.6614
1147.095690 0.6446 0.6278 0.6110 0.5942 0.5782
1152.110284 0.5682 0.5623 0.5579 0.5541 0.5504
1157.124877 0.5455 0.5398 0.5337 0.5261 0.5174
1162.139471 0.5046 0.4839 0.4593 0.4346 0.4099
1167.154064 0.3852 0.3617 0.3473 0.3373 0.3293
1172.168658 0.3277 0.3255 0.3255 0.3284 0.3302
1177.183251 0.3328 0.3377 0.3466 0.3584 0.3712
1182.197845 0.3841 0.3969 0.4098 0.4226 0.4355
1187.212438 0.4514 0.4648 0.4650 0.4659 0.4660
1192.227032 0.4612 0.4574 0.4503 0.4389 0.4262
1197.241625 0.4135 0.4008 0.3882 0.3754 0.3628
1202.256218 0.3501 0.3362 0.3243 0.3276 0.3273
1207.270812 0.3277 0.3290 0.3329 0.3387 0.3446
1212.285405 0.3504 0.3561 0.3619 0.3678 0.3735
1217.299999 0.3789 0.3818 0.3821 0.3836 0.3800
1222.314592 0.3789 0.3776 0.3760 0.3743 0.3722
1227.329186 0.3688 0.3621 0.3505 0.3389 0.3274
1232.343779 0.3158 0.3043 0.2928 0.2812 0.2697
1237.358373 0.2582 0.2481 0.2432 0.2402 0.2397
1242.372966 0.2394 0.2388 0.2409 0.2417 0.2442
1247.387560 0.2532 0.2704 0.2877 0.3050 0.3223
1252.402153 0.3393 0.3520 0.3542 0.3565 0.3596
1257.416747 0.3751 0.3918 0.4085 0.4253 0.4420
1262.431340 0.4587 0.4726 0.4745 0.4763 0.4786
1267.445934 0.5133 0.5577 0.6024 0.6471 0.6935
1272.460527 0.7053 0.7215 0.7278 0.7334 0.7382
1277.475121 0.7423 0.7463 0.7510 0.7552 0.7568
1282.489714 0.7573 0.7574 0.7574 0.7574 0.7585
1287.504308 0.7567 0.7557 0.7547 0.7519 0.7484
1292.518901 0.7395 0.7279 0.7160 0.7040 0.6922
1297.533495 0.6802 0.6683 0.6564 0.6447 0.6462
1302.548088 0.6547 0.6751 0.6981 0.7211 0.7379
1307.562682 0.7420 0.7421 0.7420 0.7418 0.7431
1312.577275 0.7406 0.7373 0.7321 0.7234 0.7060
1317.591869 0.6862 0.6663 0.6465 0.6266 0.6068
1322.606462 0.5869 0.5670 0.5472 0.5273 0.5074
1327.621056 0.4988 0.4978 0.4976 0.4987 0.5007
1332.635649 0.5034 0.5067 0.5115 0.5165 0.5211
1337.650243 0.5259 0.5308 0.5345 0.5370 0.5391
1342.664836 0.5410 0.5425 0.5439 0.5451 0.5460
1347.679430 0.5467 0.5473 0.5479 0.5486 0.5493
1352.694023 0.5501 0.5508 0.5516 0.5527 0.5541
1357.708617 0.5555 0.5581 0.5619 0.5652 0.5676
1362.723210 0.5697 0.5709 0.5717 0.5737 0.5767
1367.737804 0.5815 0.5875 0.5926 0.5971 0.6001
1372.752397 0.6017 0.6028 0.6033 0.6037 0.6041
1377.766991 0.6044 0.6045 0.6045 0.6046 0.6048
1382.781584 0.6052 0.6056 0.6067 0.6090 0.6132
1387.796178 0.6200 0.6285 0.6447 0.6654 0.6781
1392.810771 0.6898 0.7038 0.7157 0.7232 0.7284
1397.825364 0.7334 0.7378 0.7420 0.7456 0.7482
1402.839958 0.7505 0.7524 0.7539 0.7552 0.7560
1407.854551 0.7562 0.7563 0.7564 0.7563 0.7555
1412.869145 0.7544 0.7561 0.7559 0.7556 0.7553
1417.883738 0.7550 0.7545 0.7539 0.7532 0.7524
1422.898332 0.7516 0.7506 0.7494 0.7483 0.7469
1427.912925 0.7448 0.7421 0.7383 0.7331 0.7238
1432.927519 0.7102 0.6959 0.6816 0.6673 0.6531
1437.942112 0.6387 0.6245 0.6102 0.5959 0.5819
1442.956706 0.5692 0.5539 0.5271 0.5188 0.5133
1447.971299 0.5101 0.5068 0.5038 0.5013 0.4993
1452.985893 0.4974 0.4952 0.4919 0.4840 0.4490
1458.000486 0.4092 0.3694 0.3313 0.3102 0.2953
1463.015080 0.2886 0.2848 0.2831 0.2837 0.2827
1468.029673 0.2834 0.2892 0.3203 0.3512 0.3823
1473.044267 0.4134 0.4443 0.4754 0.5062 0.5268
1478.058860 0.5288 0.5294 0.5298 0.5298 0.5345
1483.073454 0.5282 0.5096 0.4882 0.4667 0.4453
1488.088047 0.4239 0.4025 0.3810 0.3596 0.3382
1493.102641 0.3325 0.3323 0.3344 0.3407 0.3490
1498.117234 0.3572 0.3657 0.3704 0.3732 0.3758
1503.131828 0.3783 0.3802 0.3811 0.3820 0.3889
1508.146421 0.4277 0.4708 0.4900 0.4970 0.5007
1513.161015 0.5041 0.5075 0.5318 0.5736 0.6180
1518.175608 0.6623 0.7067 0.7499 0.7702 0.7796
1523.190202 0.7876 0.7947 0.8015 0.8082 0.8157
1528.204795 0.8259 0.8348 0.8398 0.8438 0.8462
1533.219389 0.8477 0.8491 0.8502 0.8509 0.8515
1538.233982 0.8520 0.8526 0.8532 0.8538 0.8538
1543.248576 0.8537 0.8537 0.8533 0.8533 0.8530
1548.263169 0.8525 0.8520 0.8514 0.8506 0.8498
1553.277763 0.8489 0.8480 0.8467 0.8452 0.8437
1558.292356 0.8421 0.8403 0.8386 0.8368 0.8349
1563.306950 0.8325 0.8292 0.8257 0.8220 0.8184
1568.321543 0.8143 0.8100 0.8013 0.7895 0.7800
1573.336137 0.7733 0.7672 0.7432 0.7107 0.6818
1578.350730 0.6530 0.6241 0.5952 0.5664 0.5375
1583.365324 0.5086 0.4798 0.4509 0.4207 0.4010
1588.379917 0.3923 0.3860 0.3820 0.3791 0.3779
1593.394511 0.3778 0.3778 0.3784 0.3855 0.4230
1598.409104 0.4876 0.5522 0.6114 0.6434 0.6486
1603.423697 0.6516 0.6542 0.6565 0.6587 0.6608
1608.438291 0.6629 0.6650 0.6675 0.6708 0.6752
1613.452884 0.6889 0.7103 0.7285 0.7467 0.7648
1618.467478 0.7830 0.8012 0.8193 0.8327 0.8441
1623.482071 0.8548 0.8585 0.8607 0.8629 0.8650
1628.496665 0.8671 0.8689 0.8705 0.8721 0.8735
1633.511258 0.8746 0.8757 0.8769 0.8780 0.8791
1638.525852 0.8799 0.8807 0.8815 0.8822 0.8830
1643.540445 0.8836 0.8840 0.8843 0.8847 0.8850
1648.555039 0.8849 0.8850 0.8853 0.8852 0.8852
1653.569632 0.8850 0.8846 0.8842 0.8838 0.8834
1658.584226 0.8830 0.8825 0.8820 0.8816 0.8810
1663.598819 0.8802 0.8791 0.8781 0.8771 0.8763
1668.613413 0.8755 0.8747 0.8739 0.8732 0.8726
1673.628006 0.8720 0.8713 0.8707 0.8703 0.8700
1678.642600 0.8697 0.8693 0.8690 0.8687 0.8688
1683.657193 0.8691 0.8694 0.8698 0.8704 0.8711
1688.671787 0.8720 0.8730 0.8741 0.8753 0.8764
1693.686380 0.8775 0.8786 0.8796 0.8806 0.8814
1698.700974 0.8822 0.8830 0.8838 0.8844 0.8848
1703.715567 0.8853 0.8857 0.8862 0.8866 0.8870
1708.730161 0.8873 0.8876 0.8879 0.8882 0.8885
1713.744754 0.8888 0.8890 0.8892 0.8893 0.8895
1718.759348 0.8896 0.8895 0.8895 0.8895 0.8894
1723.773941 0.8894 0.8894 0.8893 0.8892 0.8891
1728.788535 0.8891 0.8890 0.8889 0.8888 0.8887
1733.803128 0.8886 0.8884 0.8883 0.8881 0.8880
1738.817722 0.8878 0.8876 0.8875 0.8873 0.8872
1743.832315 0.8870 0.8866 0.8862 0.8859 0.8855
1748.846909 0.8848 0.8840 0.8832 0.8824 0.8812
1753.861502 0.8799 0.8785 0.8768 0.8749 0.8731
1758.876096 0.8718 0.8707 0.8700 0.8698 0.8696
1763.890689 0.8693 0.8691 0.8689 0.8687 0.8688
1768.905283 0.8689 0.8691 0.8696 0.8704 0.8711
1773.919876 0.8721 0.8730 0.8740 0.8749 0.8759
1778.934470 0.8768 0.8777 0.8787 0.8796 0.8806
1783.949063 0.8815 0.8825 0.8837 0.8850 0.8863
1788.963657 0.8871 0.8877 0.8883 0.8884 0.8885
1793.978250 0.8886 0.8887 0.8888 0.8887 0.8886
1798.992843 0.8884 0.8882 0.8881 0.8879 0.8877
1804.007437 0.8876 0.8875 0.8874 0.8873 0.8872
1809.022030 0.8873 0.8875 0.8883 0.8893 0.8902
1814.036624 0.8912 0.8922 0.8932 0.8942 0.8954
1819.051217 0.8965 0.8976 0.8980 0.8980 0.8980
1824.065811 0.8980 0.8978 0.8974 0.8968 0.8963
1829.080404 0.8957 0.8951 0.8942 0.8933 0.8925
1834.094998 0.8918 0.8911 0.8904 0.8898 0.8892
1839.109591 0.8886 0.8884 0.8883 0.8882 0.8882
1844.124185 0.8882 0.8882 0.8882 0.8882 0.8881
1849.138778 0.8881 0.8881 0.8881 0.8881 0.8881
1854.153372 0.8881 0.8881 0.8879 0.8878 0.8876
1859.167965 0.8875 0.8873 0.8872 0.8870 0.8868
1864.182559 0.8864 0.8860 0.8856 0.8852 0.8849
1869.197152 0.8845 0.8841 0.8836 0.8827 0.8818
1874.211746 0.8808 0.8796 0.8782 0.8768 0.8754
1879.226339 0.8744 0.8733 0.8722 0.8713 0.8708
1884.240933 0.8703 0.8699 0.8696 0.8698 0.8701
1889.255526 0.8703 0.8706 0.8709 0.8717 0.8724
1894.270120 0.8731 0.8740 0.8750 0.8761 0.8772
1899.284713 0.8783 0.8795 0.8809 0.8824 0.8838
1904.299307 0.8843 0.8848 0.8852 0.8857 0.8861
1909.313900 0.8865 0.8869 0.8872 0.8870 0.8869
1914.328494 0.8867 0.8864 0.8862 0.8861 0.8860
1919.343087 0.8859 0.8857 0.8856 0.8855 0.8856
1924.357681 0.8857 0.8857 0.8858 0.8859 0.8860
1929.372274 0.8860 0.8861 0.8861 0.8861 0.8861
1934.386868 0.8862 0.8863 0.8865 0.8867 0.8869
1939.401461 0.8871 0.8877 0.8883 0.8890 0.8896
1944.416055 0.8903 0.8910 0.8917 0.8924 0.8931
1949.430648 0.8939 0.8947 0.8957 0.8967 0.8976
1954.445242 0.8985 0.8994 0.8999 0.9003 0.9007
1959.459835 0.9008 0.9008 0.9008 0.9008 0.9008
1964.474429 0.9009 0.9009 0.9009 0.9009 0.9009
1969.489022 0.9010 0.9010 0.9010 0.9010 0.9010
1974.503616 0.9011 0.9010 0.9010 0.9010 0.9009
1979.518209 0.9009 0.9009 0.9008 0.9008 0.9007
1984.532803 0.9006 0.9005 0.9005 0.9004 0.9003
1989.547396 0.9002 0.9002 0.9003 0.9004 0.9004
1994.561989 0.9005 0.9005 0.9006 0.9006 0.9007
1999.576583 0.9007 0.9008 0.9010 0.9012 0.9015
2004.591176 0.9017 0.9020 0.9024 0.9031 0.9037
2009.605770 0.9043 0.9048 0.9053 0.9059 0.9065
2014.620363 0.9071 0.9075 0.9078 0.9080 0.9083
2019.634957 0.9086 0.9087 0.9087 0.9087 0.9087
2024.649550 0.9087 0.9087 0.9087 0.9087 0.9086
2029.664144 0.9086 0.9086 0.9086 0.9086 0.9086
2034.678737 0.9085 0.9085 0.9085 0.9085 0.9085
2039.693331 0.9084 0.9084 0.9084 0.9084 0.9083
2044.707924 0.9083 0.9083 0.9082 0.9082 0.9081
2049.722518 0.9081 0.9080 0.9080 0.9079 0.9079
2054.737111 0.9078 0.9078 0.9076 0.9075 0.9073
2059.751705 0.9072 0.9070 0.9069 0.9068 0.9066
2064.766298 0.9065 0.9063 0.9062 0.9060 0.9059
2069.780892 0.9057 0.9056 0.9054 0.9053 0.9052
2074.795485 0.9051 0.9050 0.9049 0.9048 0.9047
2079.810079 0.9045 0.9044 0.9043 0.9042 0.9041
2084.824672 0.9040 0.9039 0.9038 0.9037 0.9037
2089.839266 0.9036 0.9036 0.9036 0.9035 0.9035
2094.853859 0.9035 0.9036 0.9037 0.9038 0.9039
2099.868453 0.9041 0.9042 0.9043 0.9044 0.9046
2104.883046 0.9050 0.9054 0.9057 0.9061 0.9064
2109.897640 0.9068 0.9072 0.9076 0.9080 0.9084
2114.912233 0.9088 0.9091 0.9093 0.9096 0.9099
2119.926827 0.9102 0.9105 0.9107 0.9108 0.9109
2124.941420 0.9109 0.9110 0.9111 0.9111 0.9112
2129.956014 0.9112 0.9112 0.9112 0.9112 0.9112
2134.970607 0.9112 0.9111 0.9111 0.9111 0.9111
2139.985201 0.9111 0.9110 0.9110 0.9110 0.9110
2144.999794 0.9110 0.9110 0.9110 0.9110 0.9109
2150.014388 0.9109 0.9109 0.9108 0.9108 0.9107
2155.028981 0.9106 0.9106 0.9105 0.9104 0.9104
2160.043575 0.9103 0.9103 0.9103 0.9103 0.9103
2165.058168 0.9103 0.9103 0.9103 0.9103 0.9103
2170.072762 0.9103 0.9103 0.9103 0.9103 0.9102
2175.087355 0.9102 0.9102 0.9103 0.9103 0.9103
2180.101949 0.9103 0.9103 0.9104 0.9104 0.9104
2185.116542 0.9104 0.9104 0.9105 0.9105 0.9105
2190.131136 0.9105 0.9105 0.9106 0.9106 0.9106
2195.145729 0.9106 0.9105 0.9104 0.9103 0.9102
2200.160322 0.9101 0.9100 0.9099 0.9098 0.9097
2205.174916 0.9096 0.9096 0.9095 0.9094 0.9093
2210.189509 0.9092 0.9091 0.9090 0.9089 0.9088
2215.204103 0.9087 0.9086 0.9084 0.9083 0.9082
2220.218696 0.9080 0.9079 0.9078 0.9076 0.9075
2225.233290 0.9074 0.9073 0.9071 0.9070 0.9069
2230.247883 0.9067 0.9066 0.9065 0.9063 0.9062
2235.262477 0.9061 0.9059 0.9058 0.9056 0.9054
2240.277070 0.9052 0.9050 0.9048 0.9046 0.9044
2245.291664 0.9042 0.9039 0.9037 0.9035 0.9033
2250.306257 0.9031 0.9029 0.9027 0.9025 0.9022
2255.320851 0.9020 0.9018 0.9015 0.9012 0.9008
2260.335444 0.9005 0.9001 0.8997 0.8994 0.8990
2265.350038 0.8987 0.8983 0.8979 0.8976 0.8972
2270.364631 0.8969 0.8965 0.8960 0.8954 0.8947
2275.379225 0.8941 0.8934 0.8927 0.8920 0.8913
2280.393818 0.8906 0.8899 0.8893 0.8887 0.8881
2285.408412 0.8875 0.8869 0.8864 0.8858 0.8852
2290.423005 0.8846 0.8840 0.8834 0.8829 0.8824
2295.437599 0.8820 0.8815 0.8810 0.8806 0.8801
2300.452192 0.8796 0.8792 0.8787 0.8783 0.8778
2305.466786 0.8773 0.8769 0.8764 0.8760 0.8755
2310.481379 0.8751 0.8748 0.8746 0.8747 0.8748
2315.495973 0.8749 0.8749 0.8750 0.8753 0.8758
2320.510566 0.8765 0.8771 0.8777 0.8784 0.8790
2325.525160 0.8796 0.8803 0.8812 0.8820 0.8829
2330.539753 0.8837 0.8845 0.8850 0.8854 0.8857
2335.554347 0.8860 0.8863 0.8867 0.8874 0.8882
2340.568940 0.8892 0.8904 0.8917 0.8930 0.8943
2345.583534 0.8952 0.8959 0.8967 0.8974 0.8981
2350.598127 0.8986 0.8988 0.8989 0.8991 0.8992
2355.612721 0.8994 0.8996 0.8997 0.8998 0.8998
2360.627314 0.8997 0.8997 0.8997 0.8996 0.8996
2365.641908 0.8995 0.8993 0.8990 0.8988 0.8985
2370.656501 0.8980 0.8975 0.8971 0.8966 0.8961
2375.671095 0.8957 0.8952 0.8944 0.8935 0.8927
2380.685688 0.8917 0.8907 0.8897 0.8887 0.8877
2385.700282 0.8866 0.8857 0.8848 0.8840 0.8831
2390.714875 0.8823 0.8814 0.8806 0.8798 0.8792
2395.729468 0.8786 0.8780 0.8773 0.8767 0.8761
2400.744062 0.8757 0.8754 0.8750 0.8746 0.8743
2405.758655 0.8739 0.8735 0.8733 0.8731 0.8730
2410.773249 0.8728 0.8726 0.8725 0.8723 0.8722
2415.787842 0.8720 0.8719 0.8719 0.8718 0.8718
2420.802436 0.8717 0.8717 0.8716 0.8716 0.8715
2425.817029 0.8715 0.8714 0.8714 0.8714 0.8713
2430.831623 0.8713 0.8713 0.8712 0.8712 0.8712
2435.846216 0.8711 0.8711 0.8711 0.8711 0.8710
2440.860810 0.8710 0.8710 0.8709 0.8708 0.8708
2445.875403 0.8707 0.8706 0.8706 0.8705 0.8704
2450.889997 0.8704 0.8703 0.8702 0.8702 0.8701
2455.904590 0.8700 0.8699 0.8699 0.8698 0.8697
2460.919184 0.8697 0.8696 0.8695 0.8695 0.8694
2465.933777 0.8693 0.8692 0.8691 0.8690 0.8689
2470.948371 0.8688 0.8687 0.8686 0.8685 0.8684
2475.962964 0.8683 0.8682 0.8681 0.8680 0.8679
2480.977558 0.8678 0.8677 0.8676 0.8675 0.8674
2485.992151 0.8673 0.8672 0.8671 0.8670 0.8669
2491.006745 0.8668 0.8667 0.8666 0.8665 0.8665
2496.021338 0.8665 0.8664 0.8664 0.8664 0.8664
2501.035932 0.8663 0.8663 0.8663 0.8663 0.8663
2506.050525 0.8662 0.8662 0.8662 0.8662 0.8661
2511.065119 0.8661 0.8661 0.8661 0.8661 0.8660
2516.079712 0.8660 0.8660 0.8660 0.8659 0.8659
2521.094306 0.8659 0.8659 0.8660 0.8660 0.8660
2526.108899 0.8660 0.8660 0.8661 0.8661 0.8661
2531.123493 0.8661 0.8661 0.8662 0.8662 0.8662
2536.138086 0.8662 0.8662 0.8663 0.8663 0.8663
2541.152680 0.8663 0.8663 0.8664 0.8664 0.8664
2546.167273 0.8664 0.8664 0.8665 0.8665 0.8665
2551.181867 0.8665 0.8665 0.8666 0.8666 0.8666
2556.196460 0.8666 0.8665 0.8665 0.8665 0.8664
2561.211054 0.8664 0.8664 0.8663 0.8663 0.8663
2566.225647 0.8662 0.8662 0.8662 0.8661 0.8661
2571.240241 0.8661 0.8660 0.8660 0.8660 0.8659
2576.254834 0.8659 0.8659 0.8659 0.8658 0.8658
2581.269428 0.8658 0.8657 0.8657 0.8657 0.8656
2586.284021 0.8656 0.8655 0.8655 0.8654 0.8654
2591.298614 0.8653 0.8653 0.8652 0.8652 0.8651
2596.313208 0.8651 0.8650 0.8650 0.8649 0.8649
2601.327801 0.8648 0.8648 0.8647 0.8647 0.8646
2606.342395 0.8645 0.8645 0.8645 0.8645 0.8645
2611.356988 0.8645 0.8645 0.8645 0.8645 0.8645
2616.371582 0.8645 0.8645 0.8645 0.8645 0.8645
2621.386175 0.8645 0.8645 0.8645 0.8645 0.8645
2626.400769 0.8645 0.8645 0.8645 0.8644 0.8643
2631.415362 0.8643 0.8642 0.8641 0.8641 0.8640
2636.429956 0.8639 0.8637 0.8636 0.8635 0.8633
2641.444549 0.8632 0.8630 0.8629 0.8628 0.8626
2646.459143 0.8624 0.8621 0.8617 0.8614 0.8611
2651.473736 0.8608 0.8604 0.8601 0.8598 0.8595
2656.488330 0.8591 0.8587 0.8583 0.8579 0.8575
2661.502923 0.8571 0.8567 0.8563 0.8559 0.8555
2666.517517 0.8551 0.8548 0.8544 0.8540 0.8536
2671.532110 0.8532 0.8529 0.8528 0.8526 0.8525
2676.546704 0.8524 0.8522 0.8521 0.8520 0.8518
2681.561297 0.8517 0.8516 0.8516 0.8516 0.8516
2686.575891 0.8516 0.8517 0.8517 0.8517 0.8517
2691.590484 0.8517 0.8518 0.8518 0.8518 0.8518
2696.605078 0.8518 0.8519 0.8519 0.8519 0.8520
2701.619671 0.8522 0.8523 0.8524 0.8526 0.8527
2706.634265 0.8528 0.8530 0.8533 0.8535 0.8537
2711.648858 0.8539 0.8542 0.8544 0.8547 0.8549
2716.663452 0.8552 0.8555 0.8557 0.8560 0.8563
2721.678045 0.8568 0.8573 0.8578 0.8584 0.8589
2726.692639 0.8594 0.8599 0.8605 0.8610 0.8616
2731.707232 0.8621 0.8625 0.8630 0.8635 0.8639
2736.721826 0.8642 0.8645 0.8647 0.8650 0.8653
2741.736419 0.8655 0.8658 0.8660 0.8662 0.8662
2746.751013 0.8663 0.8664 0.8665 0.8665 0.8666
2751.765606 0.8666 0.8666 0.8665 0.8665 0.8664
2756.780200 0.8663 0.8663 0.8662 0.8662 0.8661
2761.794793 0.8660 0.8660 0.8659 0.8659 0.8658
2766.809387 0.8657 0.8655 0.8653 0.8651 0.8649
2771.823980 0.8648 0.8646 0.8644 0.8642 0.8640
2776.838574 0.8639 0.8636 0.8633 0.8629 0.8626
2781.853167 0.8622 0.8619 0.8616 0.8612 0.8609
2786.867761 0.8605 0.8602 0.8599 0.8595 0.8592
2791.882354 0.8586 0.8580 0.8573 0.8567 0.8561
2796.896947 0.8555 0.8548 0.8542 0.8535 0.8526
2801.911541 0.8516 0.8506 0.8496 0.8486 0.8476
2806.926134 0.8466 0.8456 0.8446 0.8435 0.8418
2811.940728 0.8401 0.8384 0.8366 0.8349 0.8332
2816.955321 0.8314 0.8299 0.8284 0.8268 0.8252
2821.969915 0.8237 0.8221 0.8206 0.8190 0.8171
2826.984508 0.8150 0.8128 0.8106 0.8085 0.8062
2831.999102 0.8035 0.8006 0.7977 0.7948 0.7920
2837.013695 0.7897 0.7873 0.7850 0.7826 0.7803
2842.028289 0.7781 0.7763 0.7749 0.7742 0.7736
2847.042882 0.7731 0.7729 0.7726 0.7723 0.7722
2852.057476 0.7721 0.7720 0.7719 0.7718 0.7717
2857.072069 0.7716 0.7715 0.7714 0.7713 0.7712
2862.086663 0.7711 0.7710 0.7709 0.7708 0.7706
2867.101256 0.7704 0.7700 0.7696 0.7690 0.7682
2872.115850 0.7673 0.7664 0.7655 0.7643 0.7630
2877.130443 0.7617 0.7604 0.7591 0.7577 0.7562
2882.145037 0.7546 0.7530 0.7514 0.7498 0.7482
2887.159630 0.7467 0.7452 0.7436 0.7421 0.7406
2892.174224 0.7391 0.7373 0.7349 0.7325 0.7300
2897.188817 0.7276 0.7253 0.7234 0.7215 0.7196
2902.203411 0.7178 0.7164 0.7154 0.7143 0.7134
2907.218004 0.7128 0.7124 0.7120 0.7116 0.7112
2912.232598 0.7108 0.7106 0.7104 0.7102 0.7098
2917.247191 0.7096 0.7098 0.7099 0.7100 0.7102
2922.261785 0.7104 0.7106 0.7108 0.7109 0.7111
2927.276378 0.7113 0.7115 0.7117 0.7119 0.7122
2932.290972 0.7127 0.7131 0.7135 0.7139 0.7144
2937.305565 0.7148 0.7152 0.7156 0.7161 0.7165
2942.320159 0.7169 0.7175 0.7181 0.7188 0.7195
2947.334752 0.7202 0.7214 0.7228 0.7243 0.7256
2952.349346 0.7268 0.7281 0.7293 0.7306 0.7318
2957.363939 0.7330 0.7341 0.7353 0.7364 0.7376
2962.378533 0.7387 0.7398 0.7409 0.7418 0.7427
2967.393126 0.7437 0.7446 0.7455 0.7463 0.7469
2972.407720 0.7474 0.7478 0.7483 0.7487 0.7490
2977.422313 0.7489 0.7488 0.7487 0.7487 0.7488
2982.436907 0.7488 0.7484 0.7482 0.7477 0.7471
2987.451500 0.7465 0.7460 0.7453 0.7445 0.7438
2992.466093 0.7430 0.7421 0.7409 0.7398 0.7387
2997.480687 0.7368 0.7337 0.7279 0.7205 0.7144
3002.495280 0.7092 0.7044 0.6999 0.6958 0.6919
3007.509874 0.6879 0.6850 0.6836 0.6825 0.6816
3012.524467 0.6810 0.6805 0.6801 0.6798 0.6795
3017.539061 0.6792 0.6790 0.6791 0.6795 0.6799
3022.553654 0.6803 0.6809 0.6818 0.6827 0.6837
3027.568248 0.6850 0.6867 0.6884 0.6901 0.6922
3032.582841 0.6948 0.6974 0.6999 0.7024 0.7048
3037.597435 0.7071 0.7092 0.7113 0.7134 0.7153
3042.612028 0.7169 0.7185 0.7201 0.7217 0.7232
3047.626622 0.7247 0.7263 0.7278 0.7293 0.7308
3052.641215 0.7324 0.7339 0.7353 0.7367 0.7381
3057.655809 0.7395 0.7408 0.7422 0.7436 0.7450
3062.670402 0.7463 0.7477 0.7493 0.7510 0.7526
3067.684996 0.7542 0.7558 0.7574 0.7591 0.7607
3072.699589 0.7622 0.7637 0.7652 0.7668 0.7683
3077.714183 0.7698 0.7713 0.7728 0.7740 0.7752
3082.728776 0.7763 0.7775 0.7787 0.7799 0.7807
3087.743370 0.7814 0.7820 0.7826 0.7832 0.7837
3092.757963 0.7840 0.7840 0.7839 0.7841 0.7843
3097.772557 0.7843 0.7843 0.7842 0.7842 0.7842
3102.787150 0.7841 0.7841 0.7839 0.7836 0.7833
3107.801744 0.7830 0.7827 0.7824 0.7821 0.7817
3112.816337 0.7813 0.7808 0.7804 0.7799 0.7795
3117.830931 0.7790 0.7784 0.7776 0.7769 0.7761
3122.845524 0.7754 0.7746 0.7736 0.7725 0.7715
3127.860118 0.7705 0.7695 0.7685 0.7674 0.7663
3132.874711 0.7653 0.7642 0.7631 0.7620 0.7609
3137.889305 0.7599 0.7588 0.7577 0.7567 0.7556
3142.903898 0.7546 0.7535 0.7525 0.7514 0.7504
3147.918492 0.7493 0.7482 0.7469 0.7455 0.7441
3152.933085 0.7427 0.7413 0.7399 0.7384 0.7368
3157.947679 0.7353 0.7337 0.7321 0.7305 0.7289
3162.962272 0.7274 0.7257 0.7238 0.7217 0.7197
3167.976866 0.7177 0.7157 0.7135 0.7102 0.7065
3172.991459 0.7024 0.6978 0.6938 0.6910 0.6885
3178.006053 0.6867 0.6852 0.6836 0.6821 0.6805
3183.020646 0.6788 0.6772 0.6755 0.6739 0.6722
3188.035239 0.6705 0.6687 0.6667 0.6646 0.6626
3193.049833 0.6604 0.6585 0.6567 0.6549 0.6531
3198.064426 0.6513 0.6494 0.6476 0.6458 0.6440
3203.079020 0.6419 0.6397 0.6374 0.6351 0.6328
3208.093613 0.6305 0.6284 0.6263 0.6242 0.6222
3213.108207 0.6201 0.6180 0.6160 0.6139 0.6118
3218.122800 0.6096 0.6072 0.6048 0.6024 0.6001
3223.137394 0.5977 0.5953 0.5929 0.5905 0.5881
3228.151987 0.5858 0.5835 0.5811 0.5788 0.5764
3233.166581 0.5741 0.5718 0.5694 0.5670 0.5649
3238.181174 0.5630 0.5610 0.5591 0.5572 0.5552
3243.195768 0.5533 0.5514 0.5495 0.5475 0.5456
3248.210361 0.5437 0.5417 0.5397 0.5376 0.5356
3253.224955 0.5335 0.5314 0.5294 0.5274 0.5253
3258.239548 0.5233 0.5212 0.5192 0.5171 0.5150
3263.254142 0.5129 0.5108 0.5087 0.5066 0.5045
3268.268735 0.5024 0.5003 0.4982 0.4962 0.4941
3273.283329 0.4921 0.4900 0.4880 0.4859 0.4839
3278.297922 0.4819 0.4799 0.4778 0.4758 0.4738
3283.312516 0.4717 0.4697 0.4677 0.4657 0.4636
3288.327109 0.4615 0.4593 0.4572 0.4550 0.4529
3293.341703 0.4508 0.4487 0.4465 0.4444 0.4423
3298.356296 0.4402 0.4382 0.4364 0.4346 0.4328
3303.370890 0.4310 0.4292 0.4274 0.4256 0.4238
3308.385483 0.4220 0.4202 0.4186 0.4171 0.4157
3313.400077 0.4142 0.4127 0.4112 0.4098 0.4083
3318.414670 0.4069 0.4054 0.4040 0.4025 0.4011
3323.429264 0.3998 0.3986 0.3974 0.3962 0.3950
3328.443857 0.3938 0.3926 0.3914 0.3901 0.3889
3333.458451 0.3877 0.3865 0.3853 0.3841 0.3829
3338.473044 0.3817 0.3805 0.3795 0.3786 0.3776
3343.487638 0.3766 0.3757 0.3747 0.3738 0.3728
3348.502231 0.3718 0.3709 0.3699 0.3690 0.3680
3353.516825 0.3670 0.3661 0.3651 0.3642 0.3634
3358.531418 0.3625 0.3616 0.3607 0.3599 0.3590
3363.546012 0.3581 0.3572 0.3564 0.3555 0.3546
3368.560605 0.3537 0.3529 0.3521 0.3513 0.3506
3373.575199 0.3498 0.3491 0.3483 0.3476 0.3468
3378.589792 0.3461 0.3453 0.3445 0.3437 0.3430
3383.604386 0.3425 0.3419 0.3413 0.3408 0.3402
3388.618979 0.3397 0.3391 0.3385 0.3381 0.3379
3393.633572 0.3377 0.3375 0.3373 0.3371 0.3372
3398.648166 0.3382 0.3373 0.3374 0.3375 0.3376
3403.662759 0.3377 0.3378 0.3379 0.3380 0.3383
3408.677353 0.3387 0.3390 0.3394 0.3398 0.3402
3413.691946 0.3406 0.3411 0.3416 0.3421 0.3426
3418.706540 0.3430 0.3435 0.3440 0.3445 0.3450
3423.721133 0.3455 0.3460 0.3465 0.3471 0.3476
3428.735727 0.3481 0.3486 0.3492 0.3497 0.3501
3433.750320 0.3504 0.3507 0.3510 0.3514 0.3517
3438.764914 0.3520 0.3523 0.3525 0.3527 0.3529
3443.779507 0.3530 0.3532 0.3534 0.3535 0.3537
3448.794101 0.3539 0.3541 0.3543 0.3546 0.3549
3453.808694 0.3553 0.3556 0.3559 0.3563 0.3569
3458.823288 0.3575 0.3582 0.3588 0.3594 0.3600
3463.837881 0.3606 0.3612 0.3618 0.3624 0.3630
3468.852475 0.3636 0.3643 0.3650 0.3657 0.3664
3473.867068 0.3671 0.3678 0.3685 0.3692 0.3699
3478.881662 0.3705 0.3712 0.3718 0.3724 0.3730
3483.896255 0.3736 0.3742 0.3748 0.3755 0.3764
3488.910849 0.3773 0.3782 0.3791 0.3800 0.3809
3493.925442 0.3818 0.3827 0.3836 0.3845 0.3854
3498.940036 0.3863 0.3872 0.3881 0.3889 0.3898
3503.954629 0.3907 0.3916 0.3925 0.3934 0.3944
3508.969223 0.3954 0.3966 0.3977 0.3991 0.4006
3513.983816 0.4021 0.4036 0.4053 0.4078 0.4106
3518.998410 0.4133 0.4160 0.4187 0.4214 0.4242
3524.013003 0.4270 0.4298 0.4326 0.4354 0.4382
3529.027597 0.4410 0.4438 0.4465 0.4492 0.4519
3534.042190 0.4547 0.4577 0.4610 0.4643 0.4676
3539.056784 0.4709 0.4742 0.4773 0.4805 0.4837
3544.071377 0.4869 0.4900 0.4932 0.4964 0.4997
3549.085971 0.5034 0.5070 0.5107 0.5144 0.5183
3554.100564 0.5229 0.5280 0.5331 0.5381 0.5429
3559.115158 0.5474 0.5519 0.5563 0.5609 0.5657
3564.129751 0.5706 0.5756 0.5806 0.5855 0.5915
3569.144345 0.6004 0.6103 0.6185 0.6248 0.6311
3574.158938 0.6370 0.6415 0.6453 0.6491 0.6528
3579.173532 0.6565 0.6601 0.6636 0.6671 0.6706
3584.188125 0.6741 0.6794 0.6882 0.6965 0.7033
3589.202718 0.7091 0.7134 0.7176 0.7217 0.7257
3594.217312 0.7293 0.7314 0.7324 0.7335 0.7345
3599.231905 0.7356 0.7484 0.7708 0.7782 0.7824
3604.246499 0.7863 0.7899 0.7933 0.7962 0.7986
3609.261092 0.8012 0.8043 0.8075 0.8107 0.8138
3614.275686 0.8162 0.8186 0.8210 0.8234 0.8255
3619.290279 0.8274 0.8292 0.8310 0.8328 0.8346
3624.304873 0.8364 0.8382 0.8398 0.8411 0.8425
3629.319466 0.8438 0.8451 0.8464 0.8478 0.8491
3634.334060 0.8504 0.8518 0.8531 0.8545 0.8558
3639.348653 0.8571 0.8582 0.8590 0.8598 0.8607
3644.363247 0.8615 0.8623 0.8631 0.8637 0.8642
3649.377840 0.8647 0.8651 0.8656 0.8660 0.8665
3654.392434 0.8669 0.8674 0.8678 0.8682 0.8685
3659.407027 0.8688 0.8691 0.8694 0.8696 0.8699
3664.421621 0.8702 0.8705 0.8708 0.8711 0.8714
3669.436214 0.8716 0.8719 0.8721 0.8723 0.8724
3674.450808 0.8726 0.8727 0.8729 0.8730 0.8732
3679.465401 0.8733 0.8735 0.8736 0.8738 0.8739
3684.479995 0.8741 0.8742 0.8743 0.8744 0.8744
3689.494588 0.8745 0.8745 0.8746 0.8746 0.8747
3694.509182 0.8747 0.8747 0.8748 0.8748 0.8749
3699.523775 0.8749 0.8750 0.8750 0.8751 0.8751
3704.538369 0.8752 0.8752 0.8753 0.8753 0.8754
3709.552962 0.8754 0.8755 0.8755 0.8756 0.8756
3714.567556 0.8756 0.8756 0.8756 0.8755 0.8755
3719.582149 0.8755 0.8755 0.8755 0.8755 0.8755
3724.596743 0.8755 0.8755 0.8754 0.8754 0.8754
3729.611336 0.8754 0.8754 0.8754 0.8754 0.8754
3734.625930 0.8754 0.8753 0.8753 0.8753 0.8753
3739.640523 0.8753 0.8753 0.8753 0.8753 0.8753
3744.655117 0.8753 0.8752 0.8752 0.8752 0.8752
3749.669710 0.8752 0.8752 0.8752 0.8752 0.8752
3754.684304 0.8752 0.8751 0.8751 0.8751 0.8751
3759.698897 0.8751 0.8751 0.8751 0.8751 0.8751
3764.713491 0.8751 0.8750 0.8750 0.8750 0.8750
3769.728084 0.8750 0.8750 0.8750 0.8750 0.8750
3774.742678 0.8750 0.8749 0.8749 0.8750 0.8750
3779.757271 0.8750 0.8751 0.8751 0.8751 0.8752
3784.771864 0.8752 0.8753 0.8753 0.8753 0.8754
3789.786458 0.8754 0.8754 0.8755 0.8755 0.8756
3794.801051 0.8756 0.8756 0.8757 0.8757 0.8758
3799.815645 0.8758 0.8758 0.8759 0.8759 0.8759
3804.830238 0.8760 0.8760 0.8761 0.8761 0.8761
3809.844832 0.8762 0.8762 0.8762 0.8763 0.8763
3814.859425 0.8764 0.8764 0.8764 0.8765 0.8765
3819.874019 0.8766 0.8766 0.8766 0.8767 0.8767
3824.888612 0.8768 0.8769 0.8769 0.8770 0.8770
3829.903206 0.8771 0.8772 0.8772 0.8773 0.8773
3834.917799 0.8774 0.8774 0.8775 0.8776 0.8776
3839.932393 0.8777 0.8777 0.8778 0.8779 0.8779
3844.946986 0.8780 0.8780 0.8781 0.8781 0.8782
3849.961580 0.8783 0.8783 0.8784 0.8784 0.8785
3854.976173 0.8785 0.8786 0.8787 0.8787 0.8788
3859.990767 0.8788 0.8789 0.8790 0.8790 0.8790
3865.005360 0.8790 0.8790 0.8790 0.8790 0.8790
3870.019954 0.8790 0.8790 0.8790 0.8790 0.8790
3875.034547 0.8790 0.8790 0.8790 0.8790 0.8790
3880.049141 0.8790 0.8790 0.8790 0.8790 0.8790
3885.063734 0.8790 0.8790 0.8790 0.8790 0.8790
3890.078328 0.8790 0.8790 0.8790 0.8789 0.8789
3895.092921 0.8789 0.8789 0.8789 0.8789 0.8789
3900.107515 0.8789 0.8788 0.8788 0.8788 0.8788
3905.122108 0.8787 0.8787 0.8787 0.8786 0.8786
3910.136702 0.8786 0.8786 0.8785 0.8785 0.8785
3915.151295 0.8785 0.8784 0.8784 0.8784 0.8783
3920.165889 0.8783 0.8783 0.8783 0.8782 0.8782
3925.180482 0.8782 0.8782 0.8781 0.8781 0.8781
3930.195076 0.8780 0.8781 0.8782 0.8782 0.8783
3935.209669 0.8784 0.8784 0.8785 0.8786 0.8787
3940.224263 0.8787 0.8788 0.8789 0.8789 0.8790
3945.238856 0.8791 0.8791 0.8792 0.8793 0.8794
3950.253450 0.8794 0.8795 0.8796 0.8796 0.8797
3955.268043 0.8798 0.8799 0.8801 0.8823 0.8805
3960.282637 0.8804 0.8805 0.8806 0.8807 0.8808
3965.297230 0.8809 0.8810 0.8812 0.8813 0.8814
3970.311824 0.8815 0.8816 0.8817 0.8818 0.8819
3975.326417 0.8820 0.8821 0.8822 0.8823 0.8824
3980.341011 0.8825 0.8825 0.8826 0.8827 0.8828
3985.355604 0.8829 0.8829 0.8830 0.8831 0.8832
3990.370197 0.8834 0.8836 0.8838 0.8840 0.8842
3995.384791 0.8844 0.8849 0.8854 0.8860 0.8865
4000.399384 0.8877 0.8889 0.8894 0.8897 0.8899
4005.413978 0.8902 0.8904 0.8907 0.8909 0.8910
##END=
