##TITLE=BENZENE, 1,2-DIMETHYL-
##JCAMP-DX=4.24
##DATA TYPE=INFRARED SPECTRUM
##CLASS=COBLENTZ III
##ORIGIN=STANDARD OIL OF OHIO
##OWNER=COBLENTZ SOCIETY
Collection (C) 2018 copyright by the U.S. Secretary of Commerce
on behalf of the United States of America. All rights reserved.
##DATE=Not specified, most likely prior to 1970
##NAMES=o-xylene
o-XYLENE
##CAS REGISTRY NO=95-47-6
##MOLFORM=C8 H10
##SOURCE REFERENCE=COBLENTZ NO. 3576
##$NIST SOURCE=COBLENTZ
##$NIST IMAGE=cob3576
##SPECTROMETER/DATA SYSTEM=PERKIN-ELMER 521 (GRATING)
##INSTRUMENT PARAMETERS=FILTERS AT 3150, 2500, 2000, 1150, 700, 410. GRATING CHANGES: 2000, 630 CM^-^1
##STATE=LIQUID (NEAT)
##PATH LENGTH=0.0024 CM
##SAMPLING PROCEDURE=TRANSMISSION
##RESOLUTION=4
##DATA PROCESSING=DIGITIZED BY NIST FROM HARD COPY (FROM TWO SEGMENTS)
##XUNITS=1/CM
##YUNITS=TRANSMITTANCE
##XFACTOR=1.000000
##YFACTOR=1
##DELTAX=1.318110
##FIRSTX=593.585
##LASTX=3946.86
##FIRSTY=0.583
##MAXX=3946.86
##MINX=593.585
##MAXY=0.916
##MINY=0.0060001
##NPOINTS=2545
##XYDATA=(X++(Y..Y))
593.585000 0.5830 0.5820 0.5820 0.5820 0.5820
600.175550 0.5820 0.5830 0.5830 0.5840 0.5840
606.766100 0.5840 0.5860 0.5860 0.5870 0.5870
613.356650 0.5880 0.5900 0.5910 0.5920 0.5930
619.947200 0.5970 0.6010 0.6030 0.6040 0.6070
626.537750 0.6090 0.6130 0.6170 0.6200 0.6210
633.128300 0.6240 0.6270 0.6300 0.6300 0.6420
639.718850 0.6500 0.6520 0.6540 0.6590 0.6630
646.309400 0.6710 0.6800 0.6810 0.6820 0.6820
652.899950 0.6860 0.6900 0.6930 0.6970 0.7010
659.490500 0.7020 0.7030 0.7100 0.7140 0.7200
666.081050 0.7200 0.7210 0.7240 0.7250 0.7310
672.671600 0.7330 0.7360 0.7370 0.7410 0.7450
679.262150 0.7490 0.7510 0.7530 0.7530 0.7550
685.852700 0.7570 0.7570 0.7570 0.7580 0.7580
692.443250 0.7570 0.7570 0.7550 0.7540 0.7530
699.033800 0.7490 0.7460 0.7440 0.7400 0.7340
705.624350 0.7290 0.7240 0.7200 0.7021 0.6941
712.214900 0.6760 0.6690 0.6610 0.6480 0.6131
718.805450 0.5911 0.5751 0.5303 0.4734 0.4283
725.396000 0.3740 0.3210 0.2810 0.1902 0.1092
731.986550 0.0771 0.0491 0.0271 0.0141 0.0090
738.577100 0.0070 0.0060 0.0070 0.0190 0.0220
745.167650 0.0399 0.0599 0.1306 0.4260 0.4290
751.758200 0.4600 0.4920 0.5230 0.5539 0.5859
758.348750 0.6687 0.6899 0.7059 0.7199 0.7359
764.939300 0.7500 0.7620 0.7740 0.7830 0.7880
771.529850 0.7930 0.8010 0.8020 0.8020 0.8040
778.120400 0.8040 0.8060 0.8080 0.8150 0.8220
784.710950 0.8270 0.8310 0.8320 0.8360 0.8380
791.301500 0.8400 0.8420 0.8450 0.8510 0.8530
797.892050 0.8530 0.8560 0.8570 0.8590 0.8600
804.482600 0.8610 0.8610 0.8620 0.8620 0.8620
811.073150 0.8620 0.8620 0.8620 0.8610 0.8570
817.663700 0.8550 0.8520 0.8400 0.8320 0.8230
824.254250 0.8230 0.8339 0.8420 0.8549 0.8610
830.844800 0.8620 0.8620 0.8620 0.8620 0.8620
837.435350 0.8620 0.8620 0.8620 0.8610 0.8600
844.025900 0.8590 0.8530 0.8520 0.8510 0.8480
850.616450 0.8321 0.8300 0.8260 0.8250 0.8250
857.207000 0.8260 0.8260 0.8320 0.8340 0.8390
863.797550 0.8430 0.8530 0.8550 0.8570 0.8600
870.388100 0.8610 0.8620 0.8620 0.8620 0.8620
876.978650 0.8620 0.8610 0.8610 0.8610 0.8620
883.569200 0.8620 0.8640 0.8640 0.8650 0.8660
890.159750 0.8680 0.8700 0.8720 0.8720 0.8730
896.750300 0.8730 0.8730 0.8730 0.8730 0.8720
903.340850 0.8720 0.8700 0.8700 0.8690 0.8680
909.931400 0.8680 0.8660 0.8650 0.8620 0.8610
916.521950 0.8590 0.8560 0.8530 0.8520 0.8441
923.112500 0.8320 0.8280 0.8130 0.8020 0.7890
929.703050 0.7850 0.7910 0.7970 0.8020 0.8149
936.293600 0.8250 0.8270 0.8300 0.8310 0.8350
942.884150 0.8390 0.8430 0.8470 0.8490 0.8490
949.474700 0.8480 0.8470 0.8450 0.8430 0.8420
956.065250 0.8400 0.8380 0.8350 0.8320 0.8300
962.655800 0.8260 0.8230 0.8180 0.8130 0.8050
969.246350 0.8020 0.7920 0.7880 0.7751 0.7621
975.836900 0.7499 0.7110 0.7020 0.6720 0.6401
982.427450 0.5971 0.5950 0.5960 0.6119 0.6468
989.018000 0.6860 0.7100 0.7320 0.7440 0.7590
995.608550 0.7660 0.7680 0.7680 0.7581 0.7491
1002.199100 0.7400 0.7310 0.7190 0.7030 0.6900
1008.789650 0.6671 0.6431 0.6241 0.5842 0.5532
1015.380200 0.5259 0.4730 0.4550 0.4170 0.3990
1021.970750 0.3990 0.4538 0.4888 0.5646 0.6037
1028.561300 0.6840 0.7080 0.7210 0.7320 0.7330
1035.151850 0.7460 0.7480 0.7460 0.7440 0.7410
1041.742400 0.7210 0.7120 0.6740 0.6560 0.6370
1048.332950 0.5323 0.4364 0.3743 0.3740 0.4853
1054.923500 0.6121 0.6810 0.7230 0.7440 0.7799
1061.514050 0.7890 0.8059 0.8209 0.8300 0.8360
1068.104600 0.8400 0.8510 0.8520 0.8550 0.8570
1074.695150 0.8590 0.8600 0.8610 0.8620 0.8620
1081.285700 0.8640 0.8640 0.8640 0.8620 0.8620
1087.876250 0.8620 0.8610 0.8610 0.8600 0.8590
1094.466800 0.8560 0.8550 0.8530 0.8520 0.8490
1101.057350 0.8450 0.8400 0.8300 0.8210 0.8021
1107.647900 0.8009 0.7750 0.7540 0.6940 0.6730
1114.238450 0.6511 0.5842 0.4934 0.4930 0.5188
1120.829000 0.5601 0.5931 0.7030 0.7230 0.7530
1127.419550 0.7710 0.7810 0.7910 0.7960 0.8000
1134.010100 0.7960 0.7910 0.7870 0.7800 0.7700
1140.600650 0.7660 0.7580 0.7580 0.7709 0.7760
1147.191200 0.7840 0.7870 0.7880 0.7870 0.7850
1153.781750 0.7870 0.7920 0.7950 0.7960 0.8020
1160.372300 0.8040 0.8050 0.8120 0.8130 0.8140
1166.962850 0.8190 0.8220 0.8220 0.8230 0.8230
1173.553400 0.8250 0.8250 0.8230 0.8220 0.8170
1180.143950 0.8130 0.8090 0.8090 0.8140 0.8220
1186.734500 0.8260 0.8310 0.8390 0.8430 0.8440
1193.325050 0.8510 0.8510 0.8520 0.8520 0.8520
1199.915600 0.8520 0.8530 0.8530 0.8530 0.8520
1206.506150 0.8470 0.8440 0.8430 0.8420 0.8380
1213.096700 0.8340 0.8270 0.8140 0.8020 0.7910
1219.687250 0.7670 0.7670 0.7790 0.7810 0.8128
1226.277800 0.8260 0.8340 0.8390 0.8400 0.8510
1232.868350 0.8530 0.8560 0.8610 0.8620 0.8650
1239.458900 0.8660 0.8660 0.8680 0.8690 0.8690
1246.049450 0.8690 0.8690 0.8690 0.8690 0.8680
1252.640000 0.8680 0.8660 0.8660 0.8650 0.8640
1259.230550 0.8620 0.8620 0.8610 0.8590 0.8560
1265.821100 0.8530 0.8530 0.8520 0.8510 0.8480
1272.411650 0.8440 0.8430 0.8400 0.8390 0.8390
1279.002200 0.8360 0.8340 0.8320 0.8260 0.8190
1285.592750 0.8140 0.8140 0.8180 0.8210 0.8230
1292.183300 0.8310 0.8340 0.8380 0.8390 0.8430
1298.773850 0.8430 0.8440 0.8450 0.8470 0.8470
1305.364400 0.8470 0.8470 0.8470 0.8450 0.8450
1311.954950 0.8450 0.8440 0.8440 0.8440 0.8430
1318.545500 0.8430 0.8420 0.8400 0.8400 0.8390
1325.136050 0.8380 0.8360 0.8350 0.8340 0.8310
1331.726600 0.8310 0.8320 0.8340 0.8340 0.8320
1338.317150 0.8310 0.8280 0.8280 0.8270 0.8230
1344.907700 0.8230 0.8210 0.8180 0.8140 0.8120
1351.498250 0.8090 0.8050 0.7980 0.7880 0.7850
1358.088800 0.7720 0.7610 0.7540 0.7460 0.7190
1364.679350 0.7100 0.6821 0.6680 0.6521 0.6241
1371.269900 0.6009 0.5840 0.5699 0.5230 0.4900
1377.860450 0.4510 0.4211 0.4190 0.4210 0.4598
1384.451000 0.5142 0.5671 0.6101 0.6710 0.6820
1391.041550 0.7030 0.7180 0.7180 0.7160 0.7150
1397.632100 0.7140 0.7100 0.7030 0.7030 0.7010
1404.222650 0.6980 0.6940 0.6930 0.6860 0.6820
1410.813200 0.6780 0.6710 0.6610 0.6520 0.6420
1417.403750 0.6310 0.6250 0.6220 0.6051 0.5950
1423.994300 0.5919 0.5768 0.5002 0.5900 0.5800
1430.584850 0.5750 0.5710 0.5600 0.5441 0.5321
1437.175400 0.5239 0.4899 0.4509 0.4260 0.3890
1443.765950 0.3400 0.3300 0.3190 0.3100 0.3090
1450.356500 0.3090 0.3080 0.2969 0.2670 0.2310
1456.947050 0.1840 0.1840 0.2159 0.2140 0.2080
1463.537600 0.2009 0.1809 0.1559 0.1100 0.0780
1470.128150 0.0780 0.1159 0.1389 0.1908 0.3115
1476.718699 0.3301 0.3490 0.3520 0.3600 0.3790
1483.309249 0.4130 0.4160 0.4160 0.4090 0.4000
1489.899799 0.3679 0.3349 0.2929 0.2499 0.1630
1496.490349 0.0701 0.0700 0.1099 0.1140 0.1309
1503.080899 0.1641 0.2029 0.5333 0.6780 0.7060
1509.671449 0.7100 0.7110 0.7150 0.7250 0.7409
1516.261999 0.7510 0.7630 0.7790 0.7810 0.7890
1522.852549 0.7930 0.7950 0.7970 0.7980 0.8000
1529.443099 0.8000 0.8010 0.8020 0.8090 0.8170
1536.033649 0.8190 0.8220 0.8250 0.8270 0.8280
1542.624199 0.8300 0.8300 0.8300 0.8300 0.8300
1549.214749 0.8310 0.8320 0.8320 0.8340 0.8350
1555.805299 0.8340 0.8340 0.8340 0.8340 0.8340
1562.395849 0.8340 0.8340 0.8320 0.8320 0.8310
1568.986399 0.8310 0.8300 0.8280 0.8270 0.8250
1575.576949 0.8220 0.8090 0.8010 0.7930 0.7711
1582.167499 0.7479 0.7270 0.7270 0.7310 0.7420
1588.758049 0.7540 0.7540 0.7510 0.7420 0.7330
1595.348599 0.7229 0.7030 0.6910 0.6730 0.6640
1601.939149 0.6540 0.6210 0.5821 0.5601 0.5261
1608.529699 0.5261 0.5604 0.6821 0.7310 0.7550
1615.120249 0.7830 0.8050 0.8250 0.8350 0.8380
1621.710799 0.8431 0.8560 0.8620 0.8650 0.8660
1628.301349 0.8720 0.8750 0.8780 0.8810 0.8820
1634.891899 0.8850 0.8900 0.8910 0.8910 0.8900
1641.482449 0.8910 0.8940 0.8950 0.8960 0.8980
1648.072999 0.8990 0.8990 0.8990 0.8980 0.8950
1654.663549 0.8950 0.8920 0.8910 0.8910 0.8900
1661.254099 0.8870 0.8850 0.8770 0.8730 0.8690
1667.844649 0.8640 0.8590 0.8530 0.8520 0.8520
1674.435199 0.8520 0.8530 0.8570 0.8590 0.8610
1681.025749 0.8650 0.8740 0.8810 0.8860 0.8890
1687.616299 0.8900 0.8900 0.8900 0.8890 0.8870
1694.206849 0.8870 0.8890 0.8900 0.8900 0.8910
1700.797399 0.8910 0.8910 0.8910 0.8920 0.8920
1707.387949 0.8920 0.8900 0.8900 0.8870 0.8830
1713.978499 0.8810 0.8780 0.8780 0.8780 0.8790
1720.569049 0.8810 0.8820 0.8830 0.8850 0.8870
1727.159599 0.8900 0.8910 0.8950 0.9000 0.9020
1733.750149 0.9030 0.9040 0.9060 0.9060 0.9060
1740.340699 0.9060 0.9060 0.9060 0.9060 0.9040
1746.931249 0.9030 0.9030 0.9020 0.9020 0.9030
1753.521799 0.9030 0.9030 0.9040 0.9040 0.9040
1760.112349 0.9040 0.9030 0.9020 0.9020 0.9000
1766.702899 0.8990 0.8960 0.8950 0.8940 0.8910
1773.293449 0.8870 0.8850 0.8830 0.8750 0.8680
1779.883999 0.8599 0.8440 0.8340 0.8250 0.8140
1786.474549 0.8010 0.7980 0.7970 0.7980 0.8000
1793.065099 0.8181 0.8300 0.8380 0.8420 0.8560
1799.655649 0.8620 0.8750 0.8890 0.8960 0.8990
1806.246199 0.9020 0.9030 0.9030 0.9060 0.9060
1812.836749 0.9040 0.9030 0.9020 0.8980 0.8940
1819.427299 0.8919 0.8820 0.8780 0.8700 0.8610
1826.017849 0.8560 0.8530 0.8530 0.8550 0.8570
1832.608399 0.8590 0.8610 0.8650 0.8690 0.8780
1839.198949 0.8830 0.8910 0.8940 0.8980 0.8990
1845.789499 0.9000 0.8990 0.8950 0.8940 0.8890
1852.380049 0.8830 0.8810 0.8730 0.8690 0.8620
1858.970599 0.8590 0.8550 0.8530 0.8550 0.8560
1865.561149 0.8590 0.8610 0.8680 0.8690 0.8700
1872.151699 0.8700 0.8690 0.8660 0.8620 0.8600
1878.742249 0.8560 0.8520 0.8510 0.8490 0.8490
1885.332799 0.8510 0.8520 0.8510 0.8420 0.8320
1891.923349 0.8280 0.8150 0.8050 0.7950 0.7850
1898.513899 0.7749 0.7650 0.7650 0.7660 0.7810
1905.104449 0.7870 0.7910 0.8040 0.8260 0.8350
1911.694999 0.8531 0.8640 0.8720 0.8770 0.8820
1918.285549 0.8870 0.8910 0.8940 0.8950 0.8950
1924.876099 0.8920 0.8900 0.8890 0.8860 0.8830
1931.466649 0.8750 0.8720 0.8620 0.8570 0.8510
1938.057199 0.8400 0.8359 0.8260 0.8230 0.8230
1944.647749 0.8260 0.8260 0.8300 0.8350 0.8390
1951.238299 0.8491 0.8640 0.8660 0.8700 0.8700
1957.828849 0.8770 0.8810 0.8850 0.8900 0.8940
1964.419399 0.8950 0.9000 0.9020 0.9030 0.9030
1971.009949 0.9030 0.9040 0.9040 0.9040 0.9060
1977.600499 0.9060 0.9060 0.9070 0.9070 0.9070
1984.191049 0.9080 0.9080 0.9090 0.9090 0.9090
1990.781599 0.9090 0.9090 0.9080 0.9070 0.9040
1997.372149 0.9030 0.9060 0.9070 0.9110 0.9130
2003.962699 0.9150 0.9150 0.9130 0.9130 0.9120
2010.553249 0.9120 0.9120 0.9120 0.9120 0.9120
2017.143799 0.9120 0.9159 0.9160 0.9112 0.9110
2023.734349 0.9110 0.9110 0.9120 0.9130 0.9149
2030.324899 0.9160 0.9160 0.9151 0.9150 0.9150
2036.915449 0.9150 0.9131 0.9130 0.9121 0.9120
2043.505999 0.9120 0.9111 0.9110 0.9119 0.9129
2050.096549 0.9148 0.9132 0.9148 0.9150 0.9132
2056.687099 0.9148 0.9150 0.9150 0.9150 0.9150
2063.277649 0.9150 0.9159 0.9160 0.9151 0.9150
2069.868199 0.9123 0.9147 0.9159 0.9160 0.9160
2076.458749 0.9151 0.9133 0.9130 0.9121 0.9120
2083.049299 0.9120 0.9120 0.9120 0.9120 0.9129
2089.639849 0.9130 0.9130 0.9130 0.9130 0.9130
2096.230399 0.9130 0.9130 0.9130 0.9130 0.9122
2102.820949 0.9095 0.9082 0.9063 0.9060 0.9043
2109.411499 0.9040 0.9040 0.9056 0.9060 0.9060
2116.002049 0.9060 0.9060 0.9060 0.9068 0.9078
2122.592599 0.9104 0.9126 0.9130 0.9146 0.9150
2129.183149 0.9150 0.9150 0.9150 0.9150 0.9150
2135.773699 0.9150 0.9150 0.9150 0.9150 0.9150
2142.364249 0.9150 0.9150 0.9150 0.9150 0.9150
2148.954799 0.9150 0.9127 0.9120 0.9120 0.9120
2155.545349 0.9120 0.9120 0.9120 0.9120 0.9120
2162.135899 0.9127 0.9130 0.9130 0.9130 0.9130
2168.726449 0.9130 0.9130 0.9130 0.9130 0.9130
2175.316999 0.9130 0.9130 0.9130 0.9130 0.9130
2181.907549 0.9130 0.9130 0.9130 0.9130 0.9130
2188.498099 0.9123 0.9113 0.9110 0.9096 0.9083
2195.088649 0.9073 0.9063 0.9060 0.9046 0.9040
2201.679199 0.9040 0.9040 0.9053 0.9067 0.9077
2208.269749 0.9080 0.9080 0.9080 0.9087 0.9090
2214.860299 0.9090 0.9103 0.9110 0.9110 0.9110
2221.450849 0.9097 0.9090 0.9090 0.9084 0.9080
2228.041399 0.9080 0.9086 0.9090 0.9090 0.9102
2234.631949 0.9110 0.9110 0.9110 0.9110 0.9116
2241.222499 0.9120 0.9126 0.9130 0.9130 0.9130
2247.813049 0.9130 0.9124 0.9120 0.9120 0.9114
2254.403599 0.9110 0.9098 0.9090 0.9084 0.9080
2260.994149 0.9080 0.9080 0.9074 0.9064 0.9049
2267.584699 0.9029 0.9009 0.8994 0.8984 0.8980
2274.175249 0.8980 0.8980 0.8985 0.8995 0.9011
2280.765799 0.9020 0.9031 0.9051 0.9071 0.9085
2287.356349 0.9090 0.9100 0.9110 0.9100 0.9085
2293.946899 0.9080 0.9095 0.9115 0.9115 0.9095
2300.537449 0.9075 0.9065 0.9050 0.9040 0.9030
2307.127999 0.9020 0.9010 0.9000 0.8995 0.8990
2313.718549 0.8985 0.8980 0.8980 0.8990 0.9000
2320.309099 0.9009 0.9020 0.9020 0.9020 0.9011
2326.899649 0.8995 0.8985 0.8966 0.8945 0.8926
2333.490199 0.8892 0.8861 0.8837 0.8816 0.8810
2340.080749 0.8810 0.8819 0.8865 0.8949 0.9009
2346.671299 0.9024 0.9034 0.9040 0.9040 0.9040
2353.261849 0.9048 0.9060 0.9064 0.9070 0.9070
2359.852399 0.9070 0.9070 0.9070 0.9070 0.9070
2366.442949 0.9070 0.9070 0.9070 0.9070 0.9074
2373.033499 0.9080 0.9080 0.9080 0.9080 0.9080
2379.624049 0.9080 0.9080 0.9080 0.9080 0.9076
2386.214599 0.9070 0.9066 0.9053 0.9040 0.9033
2392.805149 0.9020 0.9013 0.8997 0.8987 0.8970
2399.395699 0.8947 0.8940 0.8943 0.8950 0.8950
2405.986249 0.8950 0.8950 0.8950 0.8947 0.8934
2412.576799 0.8920 0.8920 0.8917 0.8910 0.8907
2419.167349 0.8900 0.8900 0.8900 0.8900 0.8900
2425.757899 0.8897 0.8890 0.8890 0.8890 0.8893
2432.348449 0.8900 0.8900 0.8900 0.8897 0.8884
2438.938999 0.8867 0.8857 0.8850 0.8850 0.8855
2445.529549 0.8875 0.8895 0.8918 0.8945 0.8965
2452.120099 0.8983 0.8993 0.9005 0.9020 0.9020
2458.710649 0.9022 0.9030 0.9030 0.9030 0.9030
2465.301199 0.9030 0.9032 0.9040 0.9040 0.9040
2471.891749 0.9040 0.9040 0.9040 0.9040 0.9040
2478.482299 0.9040 0.9040 0.9044 0.9062 0.9070
2485.072849 0.9070 0.9072 0.9080 0.9080 0.9080
2491.663399 0.9078 0.9070 0.9068 0.9056 0.9040
2498.253949 0.9038 0.9030 0.9028 0.9020 0.9020
2504.844499 0.9020 0.9022 0.9030 0.9032 0.9040
2511.435049 0.9043 0.9061 0.9071 0.9082 0.9090
2518.025599 0.9090 0.9093 0.9110 0.9110 0.9107
2524.616149 0.9090 0.9090 0.9090 0.9090 0.9090
2531.206699 0.9090 0.9090 0.9090 0.9090 0.9089
2537.797249 0.9080 0.9080 0.9080 0.9080 0.9079
2544.387799 0.9069 0.9058 0.9039 0.9029 0.9018
2550.978349 0.9000 0.8999 0.8988 0.8958 0.8938
2557.568899 0.8919 0.8910 0.8910 0.8910 0.8910
2564.159449 0.8909 0.8898 0.8869 0.8850 0.8849
2570.749999 0.8829 0.8819 0.8808 0.8780 0.8769
2577.340549 0.8740 0.8730 0.8730 0.8731 0.8751
2583.931099 0.8783 0.8862 0.8911 0.8951 0.8980
2590.521649 0.8990 0.9000 0.9000 0.9000 0.9000
2597.112199 0.9000 0.8990 0.8990 0.8960 0.8950
2603.702749 0.8940 0.8940 0.8950 0.8960 0.8960
2610.293299 0.8980 0.9000 0.9020 0.9030 0.9040
2616.883849 0.9040 0.9059 0.9060 0.9060 0.9060
2623.474399 0.9070 0.9070 0.9070 0.9070 0.9070
2630.064949 0.9070 0.9070 0.9061 0.9060 0.9060
2636.655499 0.9060 0.9060 0.9060 0.9060 0.9060
2643.246049 0.9060 0.9060 0.9060 0.9041 0.9040
2649.836599 0.9040 0.9031 0.9030 0.9030 0.9021
2656.427149 0.9020 0.9020 0.9002 0.9000 0.9000
2663.017699 0.9000 0.8991 0.8990 0.8990 0.8990
2669.608249 0.8990 0.8963 0.8960 0.8960 0.8960
2676.198799 0.8951 0.8950 0.8950 0.8959 0.8960
2682.789349 0.8977 0.8980 0.8980 0.8980 0.8963
2689.379899 0.8960 0.8960 0.8960 0.8960 0.8952
2695.970449 0.8942 0.8940 0.8923 0.8920 0.8912
2702.560999 0.8902 0.8892 0.8873 0.8862 0.8852
2709.151549 0.8834 0.8822 0.8795 0.8741 0.8705
2715.742099 0.8659 0.8609 0.8535 0.8439 0.8388
2722.332649 0.8300 0.8264 0.8196 0.8076 0.8010
2728.923199 0.7849 0.7707 0.7522 0.7456 0.7473
2735.513749 0.7651 0.7801 0.8109 0.8283 0.8411
2742.104299 0.8533 0.8598 0.8641 0.8650 0.8658
2748.694849 0.8660 0.8652 0.8642 0.8617 0.8602
2755.285399 0.8578 0.8533 0.8460 0.8425 0.8420
2761.875949 0.8427 0.8445 0.8494 0.8517 0.8571
2768.466499 0.8597 0.8607 0.8617 0.8620 0.8620
2775.057049 0.8613 0.8610 0.8603 0.8600 0.8593
2781.647599 0.8576 0.8556 0.8529 0.8520 0.8513
2788.238149 0.8510 0.8496 0.8490 0.8483 0.8473
2794.828699 0.8456 0.8436 0.8410 0.8386 0.8353
2801.419249 0.8320 0.8290 0.8247 0.8217 0.8190
2808.009799 0.8160 0.8137 0.8110 0.8087 0.8054
2814.600349 0.8021 0.7978 0.7934 0.7901 0.7858
2821.190899 0.7814 0.7774 0.7722 0.7656 0.7605
2827.781449 0.7540 0.7466 0.7403 0.7336 0.7248
2834.371999 0.7167 0.7066 0.6940 0.6823 0.6737
2840.962549 0.6650 0.6472 0.6296 0.6168 0.5892
2847.553099 0.5310 0.4919 0.4767 0.4586 0.4336
2854.143649 0.4092 0.3849 0.3642 0.3518 0.3411
2860.734199 0.3349 0.3340 0.3363 0.3391 0.3400
2867.324749 0.3394 0.3384 0.3358 0.3323 0.3288
2873.915299 0.3237 0.3188 0.3143 0.3120 0.3125
2880.505849 0.3130 0.3135 0.3161 0.3196 0.3279
2887.096399 0.3367 0.3411 0.3456 0.3485 0.3500
2893.686949 0.3515 0.3520 0.3515 0.3479 0.3419
2900.277499 0.3370 0.3335 0.3300 0.3235 0.3120
2906.868049 0.3006 0.2876 0.2712 0.2508 0.2316
2913.458599 0.2148 0.1929 0.1709 0.1552 0.1467
2920.049149 0.1416 0.1395 0.1395 0.1409 0.1448
2926.639699 0.1489 0.1518 0.1545 0.1545 0.1522
2933.230249 0.1491 0.1476 0.1412 0.1309 0.1261
2939.820799 0.1246 0.1244 0.1259 0.1287 0.1366
2946.411349 0.1539 0.1764 0.1932 0.2024 0.2138
2953.001899 0.2276 0.2390 0.2489 0.2534 0.2540
2959.592449 0.2528 0.2506 0.2460 0.2352 0.2212
2966.182999 0.2054 0.1895 0.1721 0.1618 0.1612
2972.773549 0.1653 0.1755 0.1951 0.2206 0.2441
2979.364099 0.2642 0.3009 0.3411 0.3593 0.3748
2985.954649 0.3874 0.3950 0.3961 0.3987 0.4014
2992.545199 0.4072 0.4162 0.4234 0.4288 0.4350
2999.135749 0.4370 0.4316 0.4166 0.4050 0.3909
3005.726299 0.3626 0.3330 0.3184 0.2992 0.2700
3012.316849 0.2379 0.1986 0.1658 0.1464 0.1433
3018.907399 0.1449 0.1538 0.1736 0.1882 0.2022
3025.497949 0.2153 0.2271 0.2408 0.2538 0.2703
3032.088499 0.2918 0.3116 0.3420 0.3554 0.3640
3038.679049 0.3632 0.3607 0.3597 0.3571 0.3512
3045.269599 0.3474 0.3417 0.3362 0.3302 0.3280
3051.860149 0.3285 0.3313 0.3360 0.3392 0.3398
3058.450699 0.3383 0.3350 0.3308 0.3260 0.3221
3065.041249 0.3195 0.3212 0.3256 0.3405 0.3526
3071.631799 0.3697 0.3889 0.4029 0.4185 0.4261
3078.222349 0.4365 0.4489 0.4643 0.4881 0.5236
3084.812899 0.5605 0.5964 0.6311 0.6705 0.6827
3091.403449 0.6923 0.7022 0.7032 0.7040 0.7023
3097.993999 0.6932 0.6843 0.6789 0.6683 0.6642
3104.584549 0.6593 0.6557 0.6590 0.6875 0.7034
3111.175099 0.7185 0.7342 0.7511 0.7799 0.7872
3117.765649 0.8009 0.8069 0.8130 0.8194 0.8227
3124.356199 0.8274 0.8303 0.8323 0.8341 0.8354
3130.946749 0.8381 0.8394 0.8421 0.8432 0.8454
3137.537299 0.8481 0.8492 0.8511 0.8520 0.8521
3144.127849 0.8532 0.8551 0.8561 0.8570 0.8570
3150.718399 0.8570 0.8570 0.8570 0.8570 0.8570
3157.308949 0.8572 0.8591 0.8600 0.8601 0.8622
3163.899499 0.8652 0.8681 0.8703 0.8741 0.8752
3170.490049 0.8780 0.8781 0.8791 0.8810 0.8811
3177.080599 0.8820 0.8830 0.8831 0.8860 0.8860
3183.671149 0.8860 0.8860 0.8860 0.8860 0.8860
3190.261699 0.8860 0.8860 0.8860 0.8860 0.8860
3196.852249 0.8860 0.8860 0.8860 0.8870 0.8870
3203.442799 0.8870 0.8870 0.8890 0.8890 0.8890
3210.033349 0.8890 0.8900 0.8910 0.8920 0.8950
3216.623899 0.8950 0.8960 0.8950 0.8950 0.8960
3223.214449 0.8960 0.8960 0.8960 0.8979 0.8980
3229.804998 0.8980 0.8980 0.8980 0.8980 0.8980
3236.395548 0.8980 0.8980 0.8980 0.8980 0.8980
3242.986098 0.8980 0.8980 0.8980 0.8980 0.8980
3249.576648 0.8980 0.8980 0.8980 0.8980 0.8980
3256.167198 0.8980 0.8980 0.8980 0.8980 0.8980
3262.757748 0.8980 0.8980 0.8980 0.8980 0.8980
3269.348298 0.8980 0.8980 0.8980 0.8980 0.8980
3275.938848 0.8980 0.8980 0.8980 0.8980 0.8980
3282.529398 0.8980 0.8980 0.8980 0.8980 0.8980
3289.119948 0.8980 0.8980 0.8980 0.8980 0.8980
3295.710498 0.8980 0.8980 0.8980 0.8980 0.8980
3302.301048 0.8980 0.8980 0.8980 0.8980 0.8980
3308.891598 0.8980 0.8980 0.8980 0.8980 0.8980
3315.482148 0.8980 0.8980 0.8980 0.8980 0.8980
3322.072698 0.8980 0.8980 0.8980 0.8980 0.8980
3328.663248 0.8980 0.8980 0.8980 0.8980 0.8980
3335.253798 0.8980 0.8980 0.8980 0.8980 0.8980
3341.844348 0.8980 0.8980 0.8980 0.8980 0.8980
3348.434898 0.8980 0.8980 0.8980 0.8980 0.8980
3355.025448 0.8980 0.8980 0.8980 0.8980 0.8980
3361.615998 0.8980 0.8980 0.8980 0.8980 0.8980
3368.206548 0.8980 0.8980 0.8980 0.8980 0.8980
3374.797098 0.8980 0.8980 0.8987 0.8990 0.8990
3381.387648 0.8990 0.8990 0.8990 0.8990 0.8990
3387.978198 0.8990 0.8990 0.8990 0.8990 0.8990
3394.568748 0.8990 0.8990 0.8990 0.8990 0.8990
3401.159298 0.8990 0.8990 0.8983 0.8980 0.8980
3407.749848 0.8980 0.8980 0.8980 0.8967 0.8960
3414.340398 0.8960 0.8960 0.8960 0.8960 0.8960
3420.930948 0.8954 0.8956 0.8954 0.8944 0.8940
3427.521498 0.8940 0.8940 0.8940 0.8940 0.8940
3434.112048 0.8946 0.8950 0.8944 0.8940 0.8928
3440.702598 0.8920 0.8914 0.8910 0.8904 0.8900
3447.293148 0.8900 0.8900 0.8900 0.8906 0.8910
3453.883698 0.8910 0.8910 0.8904 0.8894 0.8890
3460.474248 0.8890 0.8890 0.8890 0.8890 0.8890
3467.064798 0.8890 0.8890 0.8890 0.8890 0.8890
3473.655348 0.8890 0.8890 0.8890 0.8890 0.8895
3480.245898 0.8900 0.8900 0.8895 0.8890 0.8890
3486.836448 0.8890 0.8890 0.8890 0.8890 0.8895
3493.426998 0.8900 0.8900 0.8900 0.8900 0.8900
3500.017548 0.8900 0.8900 0.8900 0.8900 0.8900
3506.608098 0.8900 0.8900 0.8905 0.8910 0.8910
3513.198648 0.8910 0.8910 0.8910 0.8910 0.8910
3519.789198 0.8905 0.8905 0.8910 0.8910 0.8910
3526.379748 0.8915 0.8920 0.8920 0.8920 0.8920
3532.970298 0.8929 0.8940 0.8940 0.8931 0.8929
3539.560848 0.8940 0.8944 0.8950 0.8950 0.8954
3546.151398 0.8960 0.8960 0.8960 0.8960 0.8960
3552.741948 0.8960 0.8956 0.8946 0.8940 0.8940
3559.332498 0.8940 0.8940 0.8940 0.8940 0.8940
3565.923048 0.8928 0.8910 0.8910 0.8906 0.8900
3572.513598 0.8900 0.8900 0.8896 0.8890 0.8890
3579.104148 0.8882 0.8870 0.8866 0.8860 0.8860
3585.694698 0.8864 0.8870 0.8877 0.8890 0.8890
3592.285248 0.8890 0.8890 0.8890 0.8890 0.8890
3598.875798 0.8893 0.8900 0.8900 0.8900 0.8900
3605.466348 0.8900 0.8903 0.8907 0.8903 0.8913
3612.056898 0.8920 0.8926 0.8940 0.8940 0.8943
3618.647448 0.8950 0.8950 0.8950 0.8953 0.8960
3625.237998 0.8960 0.8960 0.8960 0.8960 0.8960
3631.828548 0.8960 0.8957 0.8950 0.8950 0.8950
3638.419098 0.8950 0.8950 0.8950 0.8947 0.8940
3645.009648 0.8940 0.8935 0.8920 0.8920 0.8917
3651.600198 0.8910 0.8910 0.8910 0.8910 0.8910
3658.190748 0.8910 0.8908 0.8902 0.8910 0.8910
3664.781298 0.8908 0.8900 0.8900 0.8900 0.8900
3671.371848 0.8900 0.8900 0.8900 0.8900 0.8900
3677.962398 0.8900 0.8900 0.8900 0.8902 0.8910
3684.552948 0.8912 0.8924 0.8936 0.8920 0.8920
3691.143498 0.8924 0.8936 0.8920 0.8920 0.8920
3697.734048 0.8920 0.8920 0.8924 0.8940 0.8937
3704.324598 0.8920 0.8920 0.8918 0.8910 0.8910
3710.915148 0.8910 0.8910 0.8910 0.8910 0.8909
3717.505698 0.8902 0.8909 0.8900 0.8900 0.8899
3724.096248 0.8891 0.8900 0.8899 0.8890 0.8890
3730.686798 0.8890 0.8890 0.8886 0.8860 0.8860
3737.277348 0.8859 0.8850 0.8850 0.8850 0.8850
3743.867898 0.8851 0.8860 0.8861 0.8869 0.8860
3750.458448 0.8860 0.8861 0.8870 0.8870 0.8870
3757.048998 0.8870 0.8870 0.8870 0.8870 0.8870
3763.639548 0.8870 0.8870 0.8870 0.8870 0.8870
3770.230098 0.8870 0.8870 0.8870 0.8869 0.8860
3776.820648 0.8860 0.8860 0.8860 0.8860 0.8860
3783.411198 0.8860 0.8850 0.8860 0.8860 0.8860
3790.001748 0.8860 0.8860 0.8860 0.8850 0.8850
3796.592298 0.8850 0.8849 0.8820 0.8820 0.8810
3803.182848 0.8820 0.8820 0.8820 0.8820 0.8820
3809.773398 0.8820 0.8820 0.8810 0.8810 0.8810
3816.363948 0.8810 0.8790 0.8790 0.8780 0.8780
3822.954498 0.8780 0.8780 0.8770 0.8770 0.8770
3829.545048 0.8770 0.8770 0.8751 0.8750 0.8740
3836.135598 0.8740 0.8730 0.8721 0.8720 0.8720
3842.726148 0.8720 0.8701 0.8700 0.8700 0.8700
3849.316698 0.8691 0.8690 0.8690 0.8690 0.8690
3855.907248 0.8690 0.8690 0.8690 0.8690 0.8690
3862.497798 0.8681 0.8662 0.8660 0.8651 0.8650
3869.088348 0.8641 0.8640 0.8640 0.8640 0.8640
3875.678898 0.8640 0.8622 0.8620 0.8611 0.8610
3882.269448 0.8601 0.8600 0.8591 0.8590 0.8573
3888.859998 0.8570 0.8570 0.8570 0.8587 0.8590
3895.450548 0.8599 0.8609 0.8618 0.8637 0.8648
3902.041098 0.8675 0.8697 0.8700 0.8717 0.8728
3908.631648 0.8738 0.8740 0.8740 0.8748 0.8750
3915.222198 0.8766 0.8770 0.8778 0.8780 0.8780
3921.812748 0.8780 0.8780 0.8780 0.8780 0.8780
3928.403298 0.8780 0.8780 0.8780 0.8780 0.8780
3934.993848 0.8780 0.8756 0.8750 0.8750 0.8750
3941.584398 0.8750 0.8766 0.8770 0.8770 0.8770
##END=
