##TITLE=1,2-Dimethylbenzene
##JCAMP-DX=4.24
##DATA TYPE=INFRARED SPECTRUM
##CLASS=IUPAC A
##ORIGIN=NIST, Analytical Chemistry Division, 301-975-3108
##OWNER=COPYRIGHT (C) 2001 by the U.S. Secretary of Commerce
##DATE=01/06/01
##$SPECTRA VERSION=1.10
##$UNCERTAINTY IN Y=2.2 % relative (B=1.21E-04,C=1.57E-9,D=3.06E-14)
##CAS NAME=1,2-Dimethylbenzene
##CAS REGISTRY NO=95-47-6
##MOLFORM=1,2-( C H3)2 C6 H4
##MP=-25.18 C
##BP=144.4 C
##$NIST SOURCE=QUANT-IR
##SPECTROMETER/DATA SYSTEM=IFS66V (Bruker)
##INSTRUMENT PARAMETERS=KBr Beam Splitter; MCT Detector; Multipass cell
##STATE=gas
##SAMPLE DESCRIPTION=o-Xylene Primary Gas Standard
##PRESSURE=101.3 Pa
##TEMPERATURE=23 C
##SAMPLING PROCEDURE=1 L/min Flow
##RESOLUTION=0.9640
##DATA PROCESSING=Happ Genzel Apodization
##XUNITS=cm-1
##YUNITS=(micromol/mol)-1m-1 (base 10)
##XFACTOR=1.0
##YFACTOR=18.189E-13
##DELTAX=0.4820
##FIRSTX=575.17
##LASTX=3974.606
##FIRSTY=3.11E-06
##MAXX=3974.12
##MINX=575.17
##MAXY=.0015513
##MINY=-2.32E-06
##NPOINTS=7052
##XYDATA=(X++(Y..Y))
575.17 1710153 1801709 1457969 1306928 1149074 1023597
577.58 1176498 906913 543627 892888 1790161 2757725
580.47 3133431 2513449 1646893 1140805 1135360 1115430
583.37 1537732 1828162 1615750 1317270 1505337 1736994
586.26 2074789 2257635 2177691 1741114 1658671 1692451
589.15 1511694 1528949 1698046 1315750 859431 520208
592.04 606354 838759 558308 48432 163983 493594
594.94 612971 441687 382584 314740 233820 207923
597.83 478942 441557 142978-111161-241874-298507
600.72 47842 217754 95525-120485-265283-106322
603.62 67318 12625 15041 25054 85135 227491
606.51 112021 26826-48457-178183-155363-97927
609.40-107030-297952-247471 17024 70458 90473
612.29 281448 304311 345722 150366 5995-87340
615.19-19481 187903 141966-116597-140362-101055
618.08-97785-17177-70483-77261-191066-296251
620.97-69176 42331 25129 52522 361359 249333
623.86-127381-192786 4860-11868 12973-32513
626.76-64800 58160 120867-84625-150042-19563
629.65 48842 2815-154036-285885-58308 33363
632.54 33949 17394 29139-28242 64751 54864
635.44-54947-64404 14596-9873 50539 9906
638.33-173035-194550 76992 82956-29872-78696
641.22-79322-37681 60022 81908 5747-136430
644.11-218330-178567-36493 46017 192564 130364
647.01 6850-99546-160862-161143-68331 26095
649.90 48482 23079 26251-92627-16386-30454
652.79-19233 33271 35422-133256-140117-6479
655.68 15532-37769 82733-46224 42156 77890
658.58 139997 230427 225015 135680 136106 2738
661.47-22624-7968 17744 94269 253057 147736
664.36 160459 202439 208436 109106-33794-656618
667.26-953964-468313-13797-57480-46720 83448
670.15 239938 149876 142710 81180 63767 52209
673.04 242128 241941 172404-22888-24081 86259
675.93 191610 188672 40900-99991 42206 101411
678.83 144550 130552 71172 27332 113929 67922
681.72 106871 22366 65227 163916 220382 162813
684.61 211925 116511 61036 11386 106893 227609
687.50 257975 122801 166469 350429 463933 439298
690.40 397355 263313 295456 309714 469854 406742
693.29 390818 377030 449230 424535 367014 189828
696.18 289008 434285 750613 759011 658513 594134
699.08 620047 540004 589939 490998 521989 451004
701.97 637582 749868 824401 791356 759507 638889
704.86 806893 692097 737411 711148 722811 763508
707.75 880196 883568 1116457 1057965 1171587 1219150
710.65 1411177 1453781 1755869 2031521 2329691 2381786
713.54 2711072 3041821 3615046 4084475 4763942 5245897
716.43 6039644 6875730 8061742 9204150 10649689 12090029
719.32 14040925 16176335 18713766 21278016 24390191 27672528
722.22 31541424 35715321 40594812 45730780 51435930 57121044
725.11 63591665 70377485 76899058 81808728 87242076 93039391
728.00 98953597 104398487 109732759 113979067 117859868 120742817
730.90 123321940 124556871 125278318 124680626 123691089 121558827
733.79 119491132 116623788 114591017 112445420 112687457 114933777
736.68 121025186 128588197 140139489 159588935 201375712 283963190
739.57 429927678 645547653 852861369 767828621 419841077 197478803
742.47 131567867 113962275 107371475 106415762 106507897 108610057
745.36 110648508 114284096 117799164 122071112 125362698 128842102
748.25 131320684 133261056 133680316 133591084 131899373 129510355
751.14 125505056 121014357 115507908 109779413 103106418 96439490
754.04 89393478 82428351 75222842 68393289 61507539 55225771
756.93 49072495 43581362 38396581 33743821 29323716 25524820
759.82 21888357 19013737 16295003 14046987 11924802 10313279
762.72 8698376 7439334 6379281 5583375 4642398 4041365
765.61 3527471 3264105 2936635 2786700 2526395 2414011
768.50 2023395 1697646 1351868 1189657 1044256 1070843
771.39 1056471 1121856 999024 980998 797294 820354
774.29 847511 946605 776191 738197 769391 850241
777.18 661350 668130 642640 684930 673196 720166
780.07 671132 657967 546469 608754 559118 659187
782.96 610101 509087 355848 421062 477858 575326
785.86 491530 503336 488217 603019 566906 494214
788.75 421930 486551 480021 493988 320562 313995
791.64 371049 496218 488737 477246 452333 462728
794.54 351799 269431 315970 410248 325455 299476
797.43 281781 223229 146787 224499 181507 276150
800.32 243577 272014 310994 355783 316334 302901
803.21 318391 478539 407747 425684 402932 389002
806.11 427107 418912 390655 455522 332777 390487
809.00 437888 451227 415354 504236 499351 502154
811.89 464465 550703 637818 739649 654195 679508
814.78 704121 739943 835648 783575 707792 803068
817.68 819683 883156 809191 813832 855572 899356
820.57 927871 1123607 1169952 973856 894811 967553
823.46 937252 952746 951827 970326 909362 863125
826.36 760460 732493 705543 714531 745301 876512
829.25 900876 949940 905545 839737 643589 582640
832.14 655747 610250 478647 499364 522586 530730
835.03 530117 622246 655111 561987 449008 407243
837.93 404573 435587 397283 324284 346934 328533
840.82 220547 344470 388102 349706 322471 373409
843.71 457854 469864 300575 258270 256938 273378
846.60 245475 281858 355053 414677 423658 373416
849.50 257258 416308 546381 552668 554170 559477
852.39 518229 570267 629680 652909 682993 841932
855.28 966351 1044607 1056523 1011197 886186 924261
858.18 948855 1024913 1092571 1124259 1100721 1150942
861.07 1183615 1293547 1415090 1466724 1448512 1487280
863.96 1513764 1514866 1498225 1551486 1579850 1684976
866.85 1695521 1730095 1728010 1761506 1705163 1706659
869.75 1718748 1683614 1569725 1553763 1608596 1611115
872.64 1603006 1590604 1445173 1482811 1596162 1637584
875.53 1464374 1351261 1354407 1401500 1403310 1282833
878.42 1150388 1189693 1206608 1199575 1090513 1012313
881.32 971336 931725 885582 890489 828877 842013
884.21 817310 714864 675486 683886 634067 645872
887.10 666598 716220 686665 712494 705169 699339
890.00 680043 698657 695715 686520 643367 724890
892.89 738502 720951 714720 812209 869957 852853
895.78 892257 972574 974960 1004973 975973 995950
898.67 1016279 1007369 1006434 1072041 1075918 1075486
901.57 1048349 1025680 997442 1003672 962986 949135
904.46 983285 1050182 1058265 1023901 935106 970677
907.35 949770 1007794 1074980 1090371 1089821 1128313
910.24 1140251 1164518 1138967 1115515 1061806 1079455
913.14 1080565 1049665 1030036 1076495 1068680 1149423
916.03 1220173 1188754 1138198 1113129 1141890 1216557
918.92 1194747 1219594 1152246 1136367 1207158 1271996
921.82 1244528 1304686 1355830 1311858 1189606 1231191
924.71 1307949 1328056 1340156 1368516 1388334 1516426
927.60 1607957 1733000 1930413 2227774 2643507 3300022
930.49 3895242 3825824 3330076 2874137 2490987 2217759
933.39 1959979 1828348 1807483 1740710 1638332 1654752
936.28 1620000 1665605 1665055 1659825 1726809 1854465
939.17 1888957 1885048 1878951 1899827 1950560 1964922
942.06 1905322 1906711 1906169 1889327 1819038 1800410
944.96 1731365 1694482 1681503 1654352 1551199 1497259
947.85 1468449 1495088 1401360 1290895 1162952 1239373
950.74 1289015 1204611 1151700 1166995 1180552 1182861
953.64 1166764 1116607 1055794 1099404 1136046 1142927
956.53 1084390 1130044 1175797 1109548 1064971 1077493
959.42 1122559 1187436 1193191 1227581 1157825 1123491
962.31 1219672 1288415 1319675 1372172 1414265 1511917
965.21 1605195 1712956 1811445 1884035 1956685 2153376
968.10 2338445 2543901 2765877 3060573 3333439 3630647
970.99 3923540 4314877 4743169 5162676 5615712 6126699
973.88 6625368 7156772 7625378 8096191 8617025 9117722
976.78 9529375 9859543 10211872 10586454 10812916 10977864
979.67 11100260 11177548 11234409 11282222 11395173 11667900
982.56 12103729 12732746 13284899 13441587 13483638 13211036
985.46 12459476 12034642 12196196 12677768 13123618 13048388
988.35 12582162 12252578 12106042 12094129 12008416 11890239
991.24 11660060 11362343 10966117 10579437 10220833 9857860
994.13 9463883 9061164 8654557 8249459 7750680 7262685
997.03 6878998 6546407 6228780 5952013 5692374 5486581
999.92 5298093 5241669 5194076 5095896 5018121 5006936
1002.81 5027398 5128773 5196806 5218724 5227498 5349411
1005.70 5480661 5598872 5731135 5927416 6085405 6246769
1008.60 6448188 6683679 6909107 7117542 7233433 7425279
1011.49 7688045 8001711 8303161 8395220 8394005 8480648
1014.38 8496097 8487369 8467778 8530653 8575971 8634142
1017.28 8619064 8718231 8883890 9126876 9409346 9672662
1020.17 9926883 10293755 10416461 10592517 11259269 13115904
1023.06 17291876 21184329 17938827 12083968 9704040 8858248
1025.95 8307926 7967417 7812654 7732557 7675926 7595063
1028.85 7540411 7520036 7548767 7592691 7529021 7341575
1031.74 7204570 6978113 6825452 6782025 6682213 6553434
1034.63 6438849 6322326 6288154 6249221 6194177 6170819
1037.52 6150361 6213172 6335780 6540518 6809802 7114090
1040.42 7601894 8265181 8952625 9759174 10624584 11594339
1043.31 12677591 13894819 15147674 16332063 17470914 18552436
1046.20 19583330 20445823 21086243 21323219 21242346 21008583
1049.10 20616272 20004548 19201902 18252762 17501024 17375946
1051.99 18346030 21019404 25650384 28741773 27979855 24713331
1054.88 20934017 18648900 17559119 17329440 17618961 18162318
1057.77 18779165 19420211 19876920 20189750 20138149 19880996
1060.67 19453127 18763455 17835498 16812646 15671105 14429287
1063.56 13084979 11755353 10469954 9327821 8284549 7302904
1066.45 6323491 5513125 4852345 4330169 3859218 3356111
1069.34 2911139 2605544 2355542 2124231 1841495 1636901
1072.24 1461201 1349095 1261439 1205676 1153538 1125941
1075.13 1055454 952155 864804 885887 908456 885915
1078.02 822598 793978 726235 685012 696293 689763
1080.92 588841 616006 659827 621757 578959 562492
1083.81 562812 610037 621089 631674 651751 681883
1086.70 647048 632579 671547 725758 700204 682507
1089.59 606498 614062 686955 708844 710074 699247
1092.49 679718 682586 676098 692406 721238 781563
1095.38 740319 646216 627220 732155 800630 834719
1098.27 932106 1002191 1000636 1078388 1095600 1120613
1101.16 1205711 1271782 1350031 1469552 1602452 1744811
1104.06 1838043 1977173 2121578 2355674 2623985 2886122
1106.95 3131436 3419340 3715200 4020675 4363894 4741798
1109.84 5099822 5508973 5944453 6363952 6778099 7219141
1112.74 7692152 8112628 8451850 8912282 9288052 9576623
1115.63 9834834 10088624 10280638 10416647 10439812 10258906
1118.52 9980127 9599755 9180579 8919911 8825569 9016300
1121.41 9373114 9750757 10144956 10439698 10711680 10994154
1124.31 11138515 11244706 11267758 11237781 11211213 11144216
1127.20 10985378 10746019 10436632 10212922 9992774 9702221
1130.09 9418676 9212379 8948059 8639570 8347036 8040249
1132.98 7783178 7582001 7337741 7138433 6986057 6846106
1135.88 6733334 6624077 6514124 6377815 6224678 6144877
1138.77 6039896 5875162 5610118 5322789 5086197 4904236
1141.66 4701029 4583396 4569059 4618165 4626978 4635726
1144.56 4651766 4695673 4700109 4673373 4623768 4610932
1147.45 4592023 4574316 4534105 4487001 4396577 4334104
1150.34 4212508 4119292 4019795 3951361 3833785 3686758
1153.23 3573483 3478749 3360847 3225205 3116384 2982699
1156.13 2854740 2736571 2645865 2669402 2677036 2573772
1159.02 2401324 2352704 2350990 2295259 2229062 2230964
1161.91 2229103 2286390 2400329 2430560 2363133 2326360
1164.80 2290665 2297591 2298209 2294816 2248508 2172769
1167.70 2093287 2017375 1988768 1987132 2028870 2058173
1170.59 2041692 2059851 2000629 1993615 1982795 1972043
1173.48 1936482 1858102 1846641 1872427 1864644 1868178
1176.38 1836814 1822254 1794002 1797736 1839256 1857932
1179.27 1816298 1752160 1695144 1651834 1607899 1606534
1182.16 1602208 1616526 1656720 1642358 1556108 1510818
1185.05 1505827 1482373 1440883 1407743 1368341 1360988
1187.95 1318492 1297161 1301637 1330268 1317809 1274129
1190.84 1265346 1259975 1232939 1232839 1194494 1168651
1193.73 1163669 1177578 1183859 1197651 1211497 1195979
1196.62 1146223 1118761 1110848 1072830 1077092 1099579
1199.52 1097832 1151059 1095568 1018496 1059037 1117475
1202.41 1127736 1142994 1128121 1168675 1245456 1296053
1205.30 1275941 1231313 1246668 1321510 1372322 1422135
1208.20 1487524 1502117 1504147 1593601 1722645 1863612
1211.09 1975197 2083791 2237384 2380624 2514107 2719405
1213.98 2915368 3131595 3332877 3516387 3698737 3856426
1216.87 4014748 4165772 4287103 4343766 4357831 4438753
1219.77 4514163 4523237 4521757 4579270 4597689 4593867
1222.66 4631116 4748518 4853538 4911784 5002250 5079861
1225.55 5170390 5131511 4892528 4515992 4137160 4090357
1228.44 4214188 4334190 4447438 4505707 4434476 4400147
1231.34 4386615 4301043 4133712 3988635 3816821 3572015
1234.23 3318869 3076747 2832614 2613147 2338989 2051744
1237.12 1830420 1663473 1423378 1235768 1091806 952318
1240.02 833835 783887 715894 659469 630621 601327
1242.91 551157 499634 458812 437454 394284 395896
1245.80 414534 452993 447265 409555 350583 375009
1248.69 412640 431418 467321 475242 467785 481293
1251.59 458859 452041 502283 545881 502930 521197
1254.48 555964 565654 554055 571897 593474 598278
1257.37 583368 610638 656564 694516 689138 662828
1260.26 662834 700404 700454 717803 735655 718866
1263.16 712991 755665 774489 806160 830349 810903
1266.05 762489 760012 763696 750916 737649 776032
1268.94 828575 828379 782846 769637 808235 817489
1271.84 813877 809411 803584 834884 848304 866835
1274.73 826414 822941 861533 902455 905830 929277
1277.62 937445 945054 914052 925679 968893 960210
1280.51 945786 1044464 1075923 1033152 1007567 1040402
1283.41 1057216 1095222 1137127 1123101 1084464 1078174
1286.30 1081432 1122485 1157656 1155874 1072346 1022731
1289.19 1040466 1063868 1028280 1028755 1077320 1110258
1292.08 1085156 1058372 1091027 1146960 1155360 1159924
1294.98 1173157 1170724 1108262 1081956 1100688 1072639
1297.87 1025727 1002665 977358 1009604 985972 934888
1300.76 932013 957235 910349 919636 908734 883272
1303.66 903299 898195 853375 865603 895770 857286
1306.55 789748 826690 857238 890968 904623 911543
1309.44 922419 955635 971364 972344 936763 885977
1312.33 887647 941397 989636 995367 999715 1053512
1315.23 1064088 1068163 1055403 1071441 1091083 1116349
1318.12 1116721 1129924 1150533 1190147 1180752 1171162
1321.01 1214468 1292705 1283570 1253006 1255850 1301562
1323.90 1335771 1326780 1353355 1401607 1428293 1444053
1326.80 1434363 1396172 1404740 1471842 1510722 1538482
1329.69 1561036 1589849 1596668 1619553 1728681 1817961
1332.58 1843413 1892977 1911132 1882916 1817365 1727601
1335.48 1681850 1693400 1694300 1669319 1640319 1680519
1338.37 1765904 1841372 1836699 1776613 1797062 1877648
1341.26 1906290 1901050 1884756 1909486 1969875 1954451
1344.15 1970642 2101127 2178037 2083892 2002738 2130067
1347.05 2167580 2179567 2225057 2154848 2126468 2116755
1349.94 2050608 2101380 2052134 1929157 2001679 2198468
1352.83 2185867 2075230 2358157 2703685 2750412 2678805
1355.72 2579623 2648166 2775494 2816975 2744933 2646806
1358.62 2527620 2554146 2690523 2766313 2788858 2946880
1361.51 3060212 3088411 3054479 3133818 3276678 3385201
1364.40 3553241 3703712 3807837 3954108 4121500 4296522
1367.29 4488621 4709209 4951418 5223824 5470589 5680500
1370.19 5927017 6259416 6549777 6769315 6968107 7226635
1373.08 7443564 7699102 7950630 8124244 8355296 8506083
1375.97 8529668 8438709 8179135 7905835 7712004 7636062
1378.87 7835180 8452146 9453572 10668032 11800758 12706640
1381.76 13345284 13780108 13964400 14084181 14173287 14115944
1384.65 14015667 13801113 13430897 13044909 12630558 12418094
1387.54 13048765 14804286 16447372 16259774 14779774 13125686
1390.44 11733157 11018651 10768184 10826366 11040718 11337753
1393.33 11605964 11861060 12146297 12348721 12327224 12255205
1396.22 12043720 11652980 11143784 10577495 9918563 9201600
1399.11 8550049 7970131 7349725 6746629 6180107 5718090
1402.01 5326919 5000895 4700121 4485929 4374062 4280871
1404.90 4218974 4143337 4087896 4036339 3937519 3892341
1407.79 3893377 3926328 3894692 3866735 3862512 3893611
1410.69 3881092 3868161 3887325 3935843 3962758 3969524
1413.58 4042839 4189861 4213159 4218308 4260110 4323863
1416.47 4388836 4385852 4418868 4562436 4597822 4575793
1419.36 4764748 4885838 4782307 4808899 4920757 5019827
1422.26 5110070 5246611 5394139 5610791 5810390 6003119
1425.15 6271007 6585424 6890878 7136432 7376560 7728578
1428.04 8108422 8445168 8743560 9106465 9522959 9966257
1430.93 10408894 10827139 11273453 11645013 11996008 12404673
1433.83 12774665 13061029 13282902 13453111 13498265 13561153
1436.72 14002781 14586126 15143276 15841442 16637293 17504164
1439.61 18424376 19314673 20280962 21371975 22498710 23695450
1442.51 24926736 26152269 27495100 28690783 29597727 30982463
1445.40 32466691 33054083 32759405 33140044 35371678 35736848
1448.29 34479100 34653430 35593420 36766997 37993017 39279739
1451.18 40558615 41778616 42830882 43834109 44949959 46178978
1454.08 47382048 48698326 50167883 51692703 53152864 55152855
1456.97 58120852 60980774 63184567 65409018 68521036 69822896
1459.86 69465254 71046963 73877027 76432283 78088920 79468507
1462.75 80377702 81035473 81808825 80870949 78720740 77160479
1465.65 76181325 75657945 75320416 74989582 74562743 74180824
1468.54 73611034 72912959 72051674 70720301 68554629 66276960
1471.43 64621998 64289740 65214566 66958099 69231400 71404809
1474.33 72573941 72705377 71909115 70419203 68442905 66110491
1477.22 63411423 60761028 58447416 56615454 55124249 53841287
1480.11 52675524 51635201 50578764 49306343 47571958 45990747
1483.00 44836065 44178078 43762217 43558165 43486054 43539106
1485.90 43702009 44021316 44420391 45123344 45943046 46888817
1488.79 47947697 49175469 50553465 52003942 53294053 54621329
1491.68 56115430 57823123 59558937 61486710 63513589 65987637
1494.57 68486386 69195594 65481449 61066647 59082832 58303308
1497.47 58166100 58605546 59451322 61574179 65145683 69850922
1500.36 75955944 81136942 73421495 59102410 52150307 50568982
1503.25 50990678 51968652 53234708 54097248 54724788 55103324
1506.15 54624575 53530246 52288136 50320850 47749060 44750878
1509.04 41449010 37968633 34510804 31017265 27651124 24386452
1511.93 21427868 18842933 16566014 14532750 12773268 11250592
1514.82 10036540 9023128 8119426 7340414 6739690 6353244
1517.72 6111918 5822888 5614022 5393546 5165339 4930807
1520.61 4608891 4645519 4848901 4725915 4698275 4718673
1523.50 4679178 4646672 4568902 4422383 4472630 4548699
1526.39 4503708 4399572 4367273 4334107 4305924 4320155
1529.29 4294779 4250579 4268181 4255038 4216098 4230766
1532.18 4251918 4222684 4208423 4232701 4330009 4336117
1535.07 4324411 4303735 4321542 4324256 4334094 4253813
1537.97 4034953 3688316 3760621 3819110 3791736 4002099
1540.86 4040212 3876559 3845528 3994489 4004997 3991727
1543.75 4006472 3887119 3771672 3872950 3934420 3974637
1546.64 3978342 3932356 3883437 3875294 3908582 3877095
1549.54 3792325 3793320 3846221 3843852 3803328 3779166
1552.43 3715645 3653476 3526906 3383349 3557443 3695145
1555.32 3634758 3588503 3544164 3369338 3265238 3093342
1558.21 3051857 3292706 3198866 3000729 3207916 3438932
1561.11 3417977 3408472 3375616 3366122 3329159 3274925
1564.00 3228632 3186332 3153254 3139704 3119463 3147319
1566.89 3160248 3170350 3154985 3095700 2991319 2940561
1569.79 3076356 3202093 3273477 3298078 3317645 3412163
1572.68 3497647 3585361 3670061 3782402 3892353 3834969
1575.57 3641102 4000454 4513013 4748184 4948699 5166290
1578.46 5364336 5601235 5853776 6083442 6306984 6517181
1581.36 6727560 6951411 7169393 7389342 7619996 7908605
1584.25 8251900 8592920 8937845 9351985 9793570 10244866
1587.14 10701962 11175123 11615845 12034325 12400788 12731632
1590.03 13016411 13271067 13546382 13825305 14090076 14277902
1592.93 14348919 14359750 14333405 14188702 13848987 13414445
1595.82 12967399 12549879 12225619 12157349 12369776 12876688
1598.71 13617684 14470107 15277155 15882749 16260246 16509065
1601.61 16656648 16722389 16749133 16829040 16967738 17038048
1604.50 17037591 17060509 17020381 16908584 16794971 16657627
1607.39 16451780 16155042 15799614 15345869 14770169 14150163
1610.28 13446791 12696731 11963146 11367877 10900052 10712397
1613.18 10809256 11107408 11505329 11921050 12241750 12306002
1616.07 12039265 12054865 12188720 12076186 11908535 11722437
1618.96 11419459 11011415 10553847 10149978 9762872 9292364
1621.85 8772177 8223177 7554832 7004069 6655487 6214816
1624.75 5723844 5244378 4798799 4403077 4057885 3676330
1627.64 3377189 3141006 2897828 2669294 2469274 2300580
1630.53 2107661 1957875 1846275 1713233 1632310 1511442
1633.43 1411145 1329643 1126555 859512 805736 1019463
1636.32 1054986 937433 880981 901698 887154 863695
1639.21 805226 747798 733298 752652 708423 683575
1642.10 695417 669812 625438 630085 630272 591377
1645.00 395846 228291 441185 574628 505003 513257
1647.89 533510 586565 620843 660715 624156 623810
1650.78 629198 499494 138958 7762 6719 328403
1653.67 607932 656670 833506 915836 977337 1074039
1656.57 1177455 1239847 1361851 1452200 1559772 1694423
1659.46 1852282 2003966 2135603 2266046 2420453 2490294
1662.35 2543709 2748729 2946893 3075667 3124485 3107152
1665.25 3100411 3108947 3096475 3098483 3054994 3045695
1668.14 3124275 3110978 3301183 3686868 3874209 3774588
1671.03 3454127 3293654 3186720 3077632 3095578 3112594
1673.92 3109421 3028233 2989107 3191825 3375035 3417667
1676.82 3403433 3373267 3272493 3172032 3043764 2902726
1679.71 2736732 2568189 2383379 2192718 2003585 1819024
1682.60 1609716 1507935 1403465 1031771 919967 1252305
1685.49 1337011 1295550 1274249 1303661 1243581 1177215
1688.39 1149356 1128885 1036933 990166 1004593 989660
1691.28 959558 974945 918357 917987 942233 948535
1694.17 911582 791403 395513 359294 794623 934694
1697.07 963701 1029172 1047205 1010130 834278 631580
1699.96 680248 872402 1131724 1284030 1342514 1356102
1702.85 1380790 1421096 1408704 1504316 1652936 1696753
1705.74 1679308 1715254 1814550 1888371 1908121 1883196
1708.64 1877029 1888966 1840554 1773756 1717194 1740564
1711.53 1790638 1829323 1914128 1956893 1971643 2057703
1714.42 2072062 2077923 2134749 1983283 1596928 1214485
1717.31 1368503 1581522 1575442 1701263 1783389 1790554
1720.21 1784498 1780094 1741991 1684869 1635256 1567444
1723.10 1483116 1371912 1266134 1209187 1169980 1103117
1725.99 999781 945836 914383 863068 789502 733422
1728.89 658383 613581 637691 658838 630361 588119
1731.78 594923 539709 295265 337465 359580 293075
1734.67 522248 624056 606224 608618 620851 609345
1737.56 608495 614105 619845 529424 498776 605252
1740.46 629126 611372 622274 610371 589341 597357
1743.35 623782 677092 713014 707411 707039 705376
1746.24 690093 697540 724309 726846 700114 698141
1749.13 714646 737888 683029 517669 544148 720333
1752.03 765979 808903 798160 803875 848730 877908
1754.92 857965 845922 834254 828033 892409 965917
1757.81 1003838 1018674 1001691 1005596 1035577 1029491
1760.71 976555 873959 911920 1017800 1009593 1028412
1763.60 1045602 1082423 1143550 1155812 1129176 1124774
1766.49 1122503 1130094 1112314 1190107 1364572 1489432
1769.38 1585133 1677675 1724651 1784485 1984392 1969143
1772.28 1917334 2282562 2533475 2676093 2885736 3078938
1775.17 3242189 3457273 3696729 3881041 4028642 4193951
1778.06 4378920 4565674 4705253 4839359 4918566 4992291
1780.95 5102282 5201154 5228109 5170601 5078543 4928465
1783.85 4719938 4453266 4211929 4021291 3894034 3893547
1786.74 4046303 4303412 4580847 4847393 5065370 5218785
1789.63 5261277 5151572 5039025 4947375 4745921 4459236
1792.53 4386447 4378334 4221068 4040024 3830601 3615758
1795.42 3377877 3107275 2873478 2655682 2478638 2302438
1798.31 2103576 1904132 1765961 1654875 1481696 1286992
1801.20 1167732 1049376 914833 854207 796911 759398
1804.10 717676 628293 544704 534966 550876 519481
1806.99 459224 427685 449224 501946 487745 445610
1809.88 418089 452394 468805 520044 597800 679017
1812.77 755245 822542 895645 993751 1129429 1305230
1815.67 1451026 1603402 1785357 1948543 2101485 2275173
1818.56 2455283 2649645 2830389 2980683 3113155 3199845
1821.45 3255107 3301031 3308701 3292929 3274987 3233933
1824.35 3111518 3032742 3056758 3117267 3203788 3393750
1827.24 3693583 4082142 4356659 4267593 3511040 2594257
1830.13 2372567 2497637 2678973 2894547 3061196 3201632
1833.02 3321339 3352118 3318126 3207240 3059301 2897167
1835.92 2714722 2498004 2258466 2024018 1786436 1536431
1838.81 1296341 1133343 974429 825815 727381 648515
1841.70 544754 488968 470241 354067 212587 275476
1844.59 391441 448220 521020 613146 682101 722886
1847.49 812169 947459 1016510 1086075 1228496 1384581
1850.38 1517444 1640854 1769735 1885677 1979012 2041311
1853.27 2114390 2218848 2284779 2316859 2323024 2341910
1856.17 2404072 2412840 2393303 2433571 2479439 2607154
1859.06 2771826 2953287 2994392 2955171 2866518 2752170
1861.95 2710249 2685911 2676808 2722125 2756329 2769638
1864.84 2790465 2845172 2896677 2949965 2970034 2958176
1867.74 2996056 2964189 2816957 2776274 2827444 2794163
1870.63 2735149 2694445 2609486 2510576 2424846 2389773
1873.52 2374850 2328312 2321273 2316523 2277600 2266198
1876.41 2272470 2302480 2277918 2221353 2222973 2231782
1879.31 2276598 2307477 2276516 2271955 2352632 2482564
1882.20 2626209 2792972 2955353 3098880 3235309 3365869
1885.09 3471332 3581533 3719158 3821320 3954814 4124382
1887.99 4295926 4446180 4645784 4915109 5168946 5411441
1890.88 5671491 5906491 6131003 6347298 6568666 6770064
1893.77 6965972 7115084 7252730 7364530 7421141 7435855
1896.66 7415738 7381819 7279834 7126354 6889110 6573081
1899.56 6219588 5842900 5521189 5350944 5359175 5617524
1902.45 6040965 6463719 6811737 7036310 7127358 7109873
1905.34 6990467 6796777 6549140 6308898 6070461 5830824
1908.23 5572474 5272978 4939260 4601623 4284390 3983057
1911.13 3672521 3338771 2996276 2677622 2394298 2134909
1914.02 1877140 1633343 1443705 1291617 1119212 949925
1916.91 820376 687470 619699 572189 521683 465810
1919.81 395964 369537 344164 308249 285834 308607
1922.70 339868 348360 347470 396877 445396 465261
1925.59 520986 587892 661506 783961 941144 1052983
1928.48 1202365 1365694 1516024 1692950 1887627 2101656
1931.38 2328620 2572953 2820391 3091280 3332812 3569493
1934.27 3791674 4022407 4234317 4418489 4623071 4774410
1937.16 4845766 4836141 4778243 4756026 4762979 4760060
1940.05 4713756 4588451 4493129 4522651 4783728 5346242
1942.95 6017263 6555565 6315819 4949426 3780586 3518425
1945.84 3625554 3868819 4196898 4460212 4648046 4792615
1948.73 4849568 4811356 4716265 4562556 4358831 4088325
1951.63 3775193 3446908 3112336 2754860 2376441 2068372
1954.52 1804851 1562683 1338239 1142306 996891 878026
1957.41 814475 744551 664491 638420 652278 630447
1960.30 559550 544547 557507 568495 557258 576370
1963.20 619277 615282 625355 628941 617957 615077
1966.09 543854 488680 503677 543435 538382 525978
1968.98 509952 515088 512170 529299 527310 498246
1971.87 471533 460858 473944 534749 595447 510336
1974.77 387064 398611 403424 371548 398758 421182
1977.66 384065 363721 387676 398406 383334 384231
1980.55 376466 367395 369066 374625 358482 343963
1983.45 316754 284260 274988 275043 260621 272633
1986.34 287825 273863 265226 273426 251482 245964
1989.23 233273 217627 225541 238845 210025 174670
1992.12 152914 148170 173976 159836 118508 129204
1995.02 136048 130048 122675 106842 88381 88971
1997.91 97497 129085 141303 134751 147890 135111
2000.80 98006 99481 91288 73167 76553 57486
2003.69 31292 18709-129 10692 42501 84130
2006.59 131856 64077-124308-117430-54472-18581
2009.48-22450-51008-60688-69600-68063-32567
2012.37-12765 9133 4550 7354-541 635
2015.27 10425 6987 1636 2854 16316 46890
2018.16 57457 64793 80290 97446 47272 2204
2021.05-5870-7567-10300-7753-6859-12710
2023.94-45180-63860-64214-41047-62499-62362
2026.84-55701-52868-36238-28114-37053-25390
2029.73-36266-48860-47269-61591-58947-54702
2032.62-68098-63758-44514-40708-63662-87358
2035.51-66906-66855-65824-59268-36961-46360
2038.41-47465-57789-66354-65622-36880-14349
2041.30-23509-31182-21694-2356-22259-38029
2044.19-2849 4642-14389-407 2824-19221
2047.09-18453-6058-1788-12019-20937-3596
2049.98-37459-57377-42062-58320-59503-40723
2052.87-49643-9677 7905-46130-61106-66124
2055.76-45404-43356-104193-123020-113916-96048
2058.66-115331-155391-157975-144412-147746-164686
2061.55-156134-165870-185329-201277-208131-208506
2064.44-206064-186714-199851-200312-199399-215327
2067.33-187082-197942-232898-222855-183887-223616
2070.23-225274-194521-170759-197363-227604-188818
2073.12-175589-165855-144309-170229-190797-193843
2076.01-192033-174549-156517-141731-140372-166812
2078.91-185307-170784-173618-157727-140998-136153
2081.80-142148-147966-139472-129194-114273-96598
2084.69-74635-48168-9489-54827-108673-96142
2087.58-81893-107440-112333-82925-93721-69329
2090.48-72619-117011-130708-138079-145585-158067
2093.37-171459-157575-140320-166666-149657-110404
2096.26-91007-68776-48988-42700 20761 67020
2099.15 8061-37610-29531 1752-1729 13568
2102.05 38015 89787 127713 90624 52861 68536
2104.94 86833 61628 77004 113140 184184 185526
2107.83 146960 151419 152569 144698 147324 167987
2110.73 217212 262960 229963 215176 192931 233041
2113.62 278777 305648 361569 444522 420802 401721
2116.51 378734 351266 319635 282945 296707 378070
2119.40 366225 288954 265196 268317 298384 285157
2122.30 251018 267319 264936 213020 135881 98184
2125.19 87177 106033 96243 85404 141982 122018
2128.08 82826 98911 123219 121572 97917 71169
2130.97 41017-8434-28847-31806-62327-103203
2133.87-125254-138987-132289-142484-158817-190113
2136.76-206585-213588-217574-204432-178731-167335
2139.65-188885-202251-218642-218004-194509-159822
2142.55-142555-169378-187509-177788-171190-147277
2145.44-140335-150020-132722-135833-152926-146137
2148.33-144786-130339-94997-87539-66734-49521
2151.22-73695-84323-95428-106512-111243-98722
2154.12-70844-91051-97389-78918-63595-20960
2157.01 36162 72090 90759 37124-21960-17922
2159.90 11141-1477-10262 19732-9056-78105
2162.79-75576-67666-85717-70291-38910 706
2165.69-18494-57304-50742-55149-76386-44210
2168.58 16061-39730-121086-130506-152383-150430
2171.47-97639-28223-43647-124723-149351-134415
2174.37-165209-170989-83187-22589-88665-135826
2177.26-133497-113288-99258-91696-33176-40864
2180.15-93161-137322-165431-153808-122786-60737
2183.04-60415-90542-108139-148952-143579-110513
2185.94-50536-38105-51565-44642-44866-51682
2188.83-53976-22968 2315-18943-48849-55286
2191.72-46268-40384 45802 87811 76862 110626
2194.61 144374 140115 181428 241630 255056 248587
2197.51 242069 269209 274069 294801 327559 311024
2200.40 309404 317933 345924 346349 336560 386125
2203.29 448247 521890 552035 519925 457318 486910
2206.19 526372 524288 487423 465539 470657 518462
2209.08 539877 499115 539294 602426 611519 629025
2211.97 639487 583120 530922 493875 461624 436049
2214.86 407634 392428 377624 326456 288740 313999
2217.76 338612 330298 320428 302726 294748 312751
2220.65 325485 326506 319698 294750 289346 256082
2223.54 220171 195771 187509 200644 218370 226724
2226.43 205986 208013 198955 183999 167599 147565
2229.33 128184 132324 139138 119678 104784 95320
2232.22 111227 107812 103663 115650 137660 137243
2235.11 95214 71308 64973 65934 57013 63064
2238.01 54085 37899 11013-29277-6674 38416
2240.90 14911-18696-10931-7985-20706-12362
2243.79-10915-25756-6552-21799-59991-91174
2246.68-92559-84187-105675-133253-114138-101471
2249.58-121127-137554-106980-68798-99533-73224
2252.47-42086-74513-70346-37118-21564-15116
2255.36-5897 1162 13760 2289 616 47815
2258.25 68328 58667 77266 98267 90176 114979
2261.15 141232 121112 152122 225537 226937 229251
2264.04 269250 268281 284579 310782 331758 362644
2266.93 395911 410670 426270 489291 500414 495539
2269.83 540704 550779 542632 572894 612935 609495
2272.72 602258 602234 602010 592341 574687 568803
2275.61 579367 564660 559817 545731 536426 527390
2278.50 532863 511402 456023 438171 476739 496106
2281.40 512945 520956 497795 460132 441713 420654
2284.29 438733 427021 397208 381218 380734 370497
2287.18 359165 343296 287761 217300 181191 183554
2290.07 159110 146731 165565 160649 152247 138560
2292.97 127313 165444 182984 133125 104621 110586
2295.86 137612 167137 114647 58502 46583 43999
2298.75 56868 56957 36651 24465 67451 81588
2301.65 66984 23091 71936 109146 135744 109210
2304.54 110218 142363 151384 141754 125356 213326
2307.43 263271 250524 241731 285363 376102 393407
2310.32 345166 366958 520413 555513 447537 335528
2313.22 503294 553717 425037 220747 358265 478273
2316.11 350505 117727 299722 504465 519830 418081
2319.00 581424 683365 461259 4217 65227 463001
2321.89 440697 9228 112682 551990 431822-32767
2324.79 115058 571474 362276-207829-45261 477703
2327.68 185722-380745-22327 437480-115171-582808
2330.57-33485 255206-480291-668960 128919 203672
2333.47-542309-338215 400471 50039-562988-13672
2336.36 465915-142044-302651 467678 407241-260400
2339.25 105352 656076 140923-116833 479384 442768
2342.14-135874 138132 496064 86504-48070 358409
2345.04 275185 57147 336116 497732 418385 585562
2347.93 771537 786333 733949 688367 701615 623510
2350.82 352607 409077 458738 74794 67613 232088
2353.71-213410-234064 38993-501502-542668-164174
2356.61-752914-740469-369462-1074000-930741-536256
2359.50-1203300-896985-663656-1249653-754243-830981
2362.39-1276709-671833-1039532-1122765-695124-1176262
2365.29-843773-783535-1077784-650621-923083-808114
2368.18-630718-816894-502040-681283-529811-437243
2371.07-541853-338544-485975-364134-377567-295030
2373.96-260508-300374-217330-198579-156834-207065
2376.86-118480-93396-67317-63135-47493-40689
2379.75-37839-65040-86277-40270 25155 36858
2382.64 14277 15297 51056 52103 70812 90689
2385.53 59028 52813 104931 103109 66140 57642
2388.43 56418 71465 66787 57482 78933 95574
2391.32 90992 103704 146558 169673 125809 116585
2394.21 100749 101383 149962 167910 139182 136239
2397.11 125542 128046 145867 199148 239387 224877
2400.00 211653 249021 264761 286883 322003 326312
2402.89 297371 308238 366048 392107 416787 474017
2405.78 494241 479177 487323 526536 603434 674266
2408.68 660753 607339 603785 589680 567340 574407
2411.57 559570 529485 543277 571355 578601 617928
2414.46 638590 643418 650974 680515 736107 776074
2417.35 787577 803253 810510 808758 772046 744556
2420.25 737717 776180 879227 909559 893461 895084
2423.14 908300 910054 909190 898040 904791 894864
2426.03 931150 978335 987810 1024148 1045653 1101704
2428.93 1119349 1060949 1079839 1102292 1151159 1192006
2431.82 1169495 1132351 1159539 1200982 1220771 1258896
2434.71 1265695 1255075 1272507 1311083 1348609 1369276
2437.60 1376069 1351208 1338981 1322663 1321097 1291108
2440.50 1276101 1322220 1322742 1310948 1343863 1312000
2443.39 1269663 1273695 1283739 1288739 1284543 1277096
2446.28 1290718 1256393 1190711 1128865 1098436 1087993
2449.17 1038088 1007801 1048789 1104353 1071147 1033812
2452.07 1034305 1078108 1075197 1014328 966482 936660
2454.96 926647 904954 851388 798805 735970 711384
2457.85 670925 591003 563779 577682 558389 532373
2460.75 516819 511511 448750 383585 377950 422698
2463.64 429973 445378 429982 401058 396639 410953
2466.53 410553 394325 387301 389571 390035 353829
2469.42 330495 316861 284630 306648 307133 277461
2472.32 291103 301485 277457 249105 245425 279982
2475.21 291241 292783 331059 342017 289650 261828
2478.10 278791 286423 317112 312515 284308 280969
2480.99 291047 294706 305334 332674 327121 309706
2483.89 319777 329241 328068 336727 317137 295595
2486.78 302113 307671 280442 263114 274893 291202
2489.67 312067 359190 323851 272562 319868 349130
2492.57 341544 300725 256650 241320 246064 238914
2495.46 231114 221236 227459 239483 305794 352159
2498.35 325576 279620 268993 279623 241060 224431
2501.24 213006 209861 219250 250739 247092 200705
2504.14 209773 231658 242159 219607 224370 211186
2507.03 186693 191185 199746 205633 175800 164803
2509.92 179973 193490 192912 203250 198780 211165
2512.81 185202 132333 145399 190900 174706 120549
2515.71 98814 79339 126562 154046 155969 175449
2518.60 180269 161698 116306 82380 85790 80965
2521.49 36659 12402 42434 60217 34715 12837
2524.39 11754-21901-25143 10236 4553 5250
2527.28-15770-27617-21429-53766-53731-37858
2530.17-48901-39549-2225-2652-11855-1276
2533.06-9784-47114-62577-36636-6338-26816
2535.96-59568-74664-77595-56211-45062-99845
2538.85-102431-70644-61090-61049-22996-11009
2541.74-65063-89233-69202-28138-14840-52125
2544.63-20122 56310 44868-22258-38396 6604
2547.53 36344 13557-7474 12852 56626 69503
2550.42 81863 114538 109676 136698 178152 192152
2553.31 190619 209349 237122 271322 269329 309523
2556.21 400198 489940 550564 553594 557060 589237
2559.10 577329 570294 613009 677671 717403 732343
2561.99 769227 806096 795163 848501 953036 1056133
2564.88 1094692 1111441 1134231 1160550 1144577 1155417
2567.78 1190831 1258087 1312128 1348449 1386095 1444062
2570.67 1508041 1564189 1600135 1607868 1622306 1636567
2573.56 1653229 1686408 1645531 1619211 1629818 1605040
2576.45 1581948 1562761 1565497 1559103 1505136 1494704
2579.35 1503446 1475169 1470765 1487332 1538145 1557242
2582.24 1541281 1510383 1511436 1524950 1470072 1389662
2585.13 1317629 1218213 1105424 1039507 1011287 984920
2588.03 947326 947722 941224 920095 879336 812449
2590.92 788227 806538 801516 722330 631639 552391
2593.81 515785 542407 542123 506068 470333 452313
2596.70 419191 426229 419008 408415 422100 418878
2599.60 418236 411027 405220 402233 399508 400868
2602.49 402215 427374 458046 484179 514662 532312
2605.38 516189 528350 547276 557582 579962 618118
2608.27 603067 564353 557334 546902 575146 612037
2611.17 594629 613769 623208 634104 607349 611555
2614.06 633162 619017 571027 515801 491826 515811
2616.95 535069 526785 524636 586383 589456 530282
2619.85 512071 527937 539068 485513 463004 427152
2622.74 399158 410651 380828 362888 324484 257075
2625.63 209385 180380 182774 214960 206179 143355
2628.52 93378 72030 45666 67421 115404 133682
2631.42 97910 78610 106874 156529 124331 68868
2634.31 71921 37656 9503 46031 35445 28458
2637.20 8125-38963-38449-14084-25322-13859
2640.09-10220-51105-63888-28549 14962 263
2642.99-17106 1811 14770-15595-22466-12268
2645.88 10812 13215 18850-10238-29523-3511
2648.77-13504-32500-2234-19182-29083-26202
2651.67 7653 33045 31617 16105-3073 13848
2654.56 55380 32778 4608 8739 43388 69162
2657.45 56344 71445 100058 60079 49440 65216
2660.34 70927 86191 65701 63814 87530 68477
2663.24 72842 103755 102515 58173 80108 151928
2666.13 156602 141137 142872 168316 185941 200402
2669.02 195135 209958 213452 223346 257946 296774
2671.91 307496 279075 264454 263169 271597 285080
2674.81 292893 299150 288619 280992 301151 321152
2677.70 323771 357218 362767 324503 298012 257174
2680.59 273209 316624 349526 349841 354832 336136
2683.49 326646 337225 332626 352776 356808 339120
2686.38 331932 320917 316834 292798 283767 272278
2689.27 294037 365206 332901 296428 314104 339954
2692.16 317868 311990 337129 311528 276854 291142
2695.06 336420 357226 315213 300350 271047 246855
2697.95 268292 241808 259957 311433 315717 316744
2700.84 313017 358539 367934 351132 363074 349527
2703.73 361529 429009 465897 487804 514697 514900
2706.63 542833 547018 546134 546147 558899 596427
2709.52 652029 670195 670809 688815 714938 718331
2712.41 724265 790013 858695 880495 888013 936310
2715.31 951198 978009 1021621 1123088 1201055 1251700
2718.20 1334697 1416954 1493874 1574552 1604307 1628923
2721.09 1680153 1751055 1841888 1915550 1929008 1997662
2723.98 2073935 2134249 2240198 2292008 2373370 2517302
2726.88 2620499 2697342 2854260 2980405 3112248 3259234
2729.77 3403313 3592282 3774372 3988618 4281613 4572962
2732.66 4775115 4977624 5245595 5505439 5761313 5964279
2735.55 6041458 6124703 6256538 6346977 6341146 6312262
2738.45 6292014 6286839 6273690 6243547 6293755 6546125
2741.34 7016657 7482622 7458698 7072249 6753776 6468316
2744.23 6225890 6082823 6021126 6059456 6116311 6179552
2747.13 6281172 6402825 6508733 6544393 6519115 6382807
2750.02 6190089 5957037 5661033 5324367 4987609 4634991
2752.91 4301381 4017814 3743293 3410141 3121363 2908653
2755.80 2703933 2499711 2344156 2231228 2149048 2077736
2758.70 2010599 1920083 1829478 1810912 1835361 1907626
2761.59 1961379 2010761 2040257 2039202 2041700 2080068
2764.48 2166677 2218797 2237418 2295411 2309278 2312474
2767.37 2329500 2299279 2295494 2353884 2396607 2482640
2770.27 2536135 2641441 2799980 2757661 2597814 2485672
2773.16 2433779 2414346 2433244 2531598 2622484 2691630
2776.05 2726813 2742180 2800288 2823431 2823179 2845033
2778.95 2802728 2761643 2685407 2599604 2559103 2492269
2781.84 2387912 2283064 2225562 2115962 2041638 1985704
2784.73 1951381 1959079 1943772 1941402 1911508 1855183
2787.62 1812204 1851500 1871746 1822345 1769347 1781167
2790.52 1785365 1803484 1814648 1777022 1777998 1803764
2793.41 1813883 1763560 1721342 1762764 1827394 1780835
2796.30 1762797 1814857 1853629 1871046 1884653 1912376
2799.19 1932891 1920765 1954121 1962912 1940027 2013872
2802.09 2055946 2072427 2089870 2145648 2208597 2272663
2804.98 2372276 2441286 2445618 2456765 2551474 2623042
2807.87 2650630 2691143 2790604 2802228 2808433 2876574
2810.77 2952888 3045110 3116219 3189615 3241518 3325177
2813.66 3460128 3542185 3544616 3522799 3511734 3574123
2816.55 3697371 3759437 3722859 3753283 3851169 3920251
2819.44 3982827 4042767 4105365 4152922 4257020 4418703
2822.34 4510003 4635641 4803648 4968683 5071376 5109216
2825.23 5168807 5270593 5298023 5274775 5276838 5360806
2828.12 5425407 5447569 5492375 5581201 5711446 5772425
2831.01 5825402 5947125 5995783 5975962 6139776 6220552
2833.91 6216163 6276489 6344949 6382253 6389837 6457274
2836.80 6527513 6624906 6733452 6828989 6985961 7168899
2839.69 7339627 7497091 7703700 7888318 8080335 8273527
2842.59 8396917 8528768 8679947 8855802 9059606 9303971
2845.48 9542041 9773448 9981266 10190718 10435338 10655427
2848.37 10896692 11223613 11591222 11929668 12270068 12656434
2851.26 13059623 13406821 13775794 14267910 14820492 15403856
2854.16 16080709 16808707 17610880 18482719 19305816 20141554
2857.05 20997738 21894457 22910066 23907823 24844207 25750485
2859.94 26763327 27780261 28761095 29752654 30701229 31748448
2862.83 32772455 33719531 34713315 35782897 36923413 38045290
2865.73 39123170 40248917 41614896 43027911 44153597 45086759
2868.62 46040359 47084766 48177319 49295081 50505308 51795857
2871.51 52979154 53998955 55059403 56135227 57085425 58038634
2874.41 58885066 59587684 60308747 61062054 61744885 62412899
2877.30 63037249 63578378 64146006 64779989 65379037 65864779
2880.19 66199559 66313201 66402028 66713999 66868533 66740901
2883.08 66337326 65842427 65425357 65194733 65118713 65081569
2885.98 65137767 65230146 65236425 65041139 64666469 64236660
2888.87 63689263 63074446 62521178 62136835 61872402 61594044
2891.76 61222986 60758701 60393706 60012591 59519318 58991843
2894.65 58475609 57836892 57098527 56484485 55856464 55091531
2897.55 54293523 53557932 52890118 52235851 51528836 50865736
2900.44 50367841 50131013 50015314 49932718 49901705 49762581
2903.33 49546730 49437160 49280850 49029250 48607673 48172137
2906.23 47757906 47448709 47328981 47344266 47435375 47601371
2909.12 47821206 48277485 48911157 49619125 50340116 51066750
2912.01 51609800 51845179 52122435 52655263 53237153 53623554
2914.90 53961210 54563211 55315649 56135022 57007199 58084923
2917.80 59269515 60501383 61815956 63263428 64837015 66627713
2920.69 68535441 70448355 72319037 74086834 75742267 77388984
2923.58 79102382 80901212 82585207 84315652 86141512 87987748
2926.47 89662806 91210712 92770278 94350526 95882909 97286949
2929.37 98848571 100804768 102606208 104374422 106529049 108502013
2932.26 109426303 109447978 109392000 109862159 110806799 112002076
2935.15 113185472 114216523 115167335 116006953 116839654 117674670
2938.05 118240910 118592603 118850493 118834660 118666842 118405975
2940.94 117692173 116618702 115521276 114542553 113539472 112438896
2943.83 111277521 110211240 109463897 109282744 109678196 111350023
2946.72 116031599 126388203 135766619 134447183 129586414 126573382
2949.62 124471634 122729497 122233495 122553744 122428554 120858704
2952.51 117670576 113697448 109672685 105521752 101492802 97917131
2955.40 94751558 92112353 89860686 87861245 86321968 85108655
2958.29 84143308 83322805 82599464 81984686 81421048 80846010
2961.19 80156251 79936491 80051197 79684240 79148020 78682390
2964.08 78436872 78356398 78409706 78577787 79004331 79643346
2966.97 80514729 81525165 82862205 84299459 85723768 87281100
2969.87 88987636 90788690 92633768 94424969 96102494 97744415
2972.76 99311941 100722402 101872194 102718691 103246957 103421541
2975.65 103164558 102508548 101435072 99735476 97435963 94586624
2978.54 91450763 88370114 85772500 84008811 83506683 84365675
2981.44 86380816 89068440 91776442 93761393 94714919 94814613
2984.33 94159047 92856603 91077897 89014487 86710507 84196533
2987.22 81513468 78588920 75412498 72147160 68877588 65597985
2990.11 62314324 59055620 55940426 53022051 50283941 47691021
2993.01 45285698 43005224 40962304 39193952 37568542 36032783
2995.90 34661013 33400575 32253812 31227220 30231317 29251841
2998.79 28421226 27685038 26949148 26183921 25472283 25087460
3001.69 24833312 24696887 24860558 25190913 25626615 26169726
3004.58 26767632 27291792 27732875 28242326 28837387 29448136
3007.47 30109819 30934344 31854593 32845439 33881823 35096070
3010.36 36480854 37980215 39662932 41578126 43615893 45816334
3013.26 48262224 50838617 53601443 56458649 59415339 62531320
3016.15 65757244 69002130 72157800 75244985 78349656 81384695
3019.04 84165648 86687654 89065827 91264617 93212998 94819355
3021.93 96098973 96934405 97145769 96754476 95818311 94490428
3024.83 93055134 91877529 91483568 92482997 95051143 99045485
3027.72 103838616 108527298 112287018 114648420 115748290 115844972
3030.61 115211320 114165373 113002218 111714069 110194978 108593036
3033.51 106982718 105214065 102914048 99802795 96296031 92990769
3036.40 89743549 86237217 83176317 80776683 78723003 76900747
3039.29 75237398 73744739 72375140 70897237 69337005 67830945
3042.18 66384857 64822143 63198155 61697106 60326351 58996405
3045.08 57762132 56697408 55701414 54713362 53911260 53298569
3047.97 52863699 52529731 52320546 52267440 52329317 52559506
3050.86 52999363 53641058 54445135 55294988 56177365 57078374
3053.75 57782332 58437062 59196634 60112047 61166399 62264866
3056.65 63335565 64485459 65592209 66558643 67503220 68506427
3059.54 69372053 70053019 70815062 71468903 72026035 72602892
3062.43 73271601 74231455 75338269 76506989 77414887 78094824
3065.33 78761281 79395019 79839849 80081561 80383102 80858695
3068.22 81471376 82097900 82592488 82967219 83218135 83361654
3071.11 83316091 82900318 82364034 81674355 80869523 79948840
3074.00 78766217 77450200 76174162 74879211 73726905 72696268
3076.90 71810989 71245739 71050645 71064017 71172526 71253626
3079.79 71186437 70962842 70521397 69753373 68762125 67576301
3082.68 66196879 64710907 63113298 61473305 59860790 58224007
3085.57 56584387 54969487 53458244 52043502 50824443 49813007
3088.47 48901982 48073213 47200494 46109506 44800341 43291999
3091.36 41677418 39735220 37928314 36690648 35841370 35112586
3094.25 34431835 33675407 32824377 31954156 30954178 29788403
3097.15 28537743 27244993 25938523 24635845 23360551 22130047
3100.04 20969283 19950364 19059354 18183128 17425226 16853774
3102.93 16378308 15963081 15649441 15440627 15275095 15218377
3105.82 15253405 15266275 15248169 15403899 15559694 15708081
3108.72 15912451 16056635 16205495 16298574 16352335 16386177
3111.61 16408362 16334536 16245656 16092305 15855258 15582771
3114.50 15314170 15045927 14720432 14371379 14068495 13883611
3117.39 13739902 13673689 13681754 13735675 13872049 13973648
3120.29 14028457 13947555 13667556 13338872 12978191 12594024
3123.18 12201893 11836868 11409887 10951678 10542950 10072707
3126.07 9540024 9047599 8552574 8053671 7589228 7055468
3128.97 6584485 6241159 5904322 5524388 5220702 4917970
3131.86 4614462 4375336 4126541 3925951 3770199 3650016
3134.75 3481070 3278558 3104269 3022368 2948628 2843378
3137.64 2786602 2741006 2715623 2620364 2544018 2516526
3140.54 2443214 2344938 2291852 2300671 2325912 2304755
3143.43 2264384 2224573 2141746 2100005 2137146 2136773
3146.32 2050076 1999936 1998127 1972607 1957653 1968842
3149.21 1974560 1960176 1872585 1841535 1892182 1903653
3152.11 1888496 1860675 1832931 1764780 1741936 1771645
3155.00 1800024 1861803 1884422 1839618 1796078 1862831
3157.89 1921078 1844108 1828036 1889178 1881263 1829730
3160.79 1843841 1840704 1864818 1887880 1877752 1841710
3163.68 1803962 1795603 1815506 1819552 1839123 1899731
3166.57 1882696 1854645 1900325 1889765 1887388 1903264
3169.46 1896455 1856886 1807280 1793943 1818777 1789164
3172.36 1795617 1847625 1809347 1782342 1734653 1679244
3175.25 1659500 1637929 1597176 1630826 1629538 1563516
3178.14 1488929 1427977 1397193 1397276 1395668 1326924
3181.03 1276082 1219961 1163083 1132866 1077498 1094281
3183.93 1106703 1039537 974570 937864 871248 864880
3186.82 890372 883765 848990 812028 782137 814021
3189.71 849508 778056 737355 782261 786847 777696
3192.61 778502 726177 693573 691274 686739 660236
3195.50 605664 623161 614782 560618 561578 645753
3198.39 619745 538673 535762 574198 584014 534342
3201.28 490545 475744 480922 466255 475055 467245
3204.18 420873 403283 412014 410787 393786 392171
3207.07 402397 400704 362510 363717 393360 384617
3209.96 363928 349559 311661 273807 290548 267536
3212.85 242676 271483 314160 270691 195381 234176
3215.75 265688 234948 269459 262644 229794 169367
3218.64 185275 251607 249760 242452 292176 274493
3221.53 201089 191720 278457 303533 272709 295990
3224.43 327652 379991 324739 236009 239352 267125
3227.32 258264 209354 229214 169388 120007 152183
3230.21 139657 159933 211238 191400 174668 162410
3233.10 130670 133006 150035 141951 108464 157350
3236.00 215126 155859 137272 171276 65753-36268
3238.89 18907 108287 104218 102362 107740 55246
3241.78 55616 102525 100736 64583 126263 109841
3244.67 93383 134567 119817 63756 29778 24311
3247.57 43539 39172 29991 37725-26350-42455
3250.46 25158 22523 28382 62385 53227 42582
3253.35 26501 26851 24820-3703-21114 7378
3256.25 38672 60364 27333-3505 6774 16144
3259.14 32674 3868 1599 22055-45204 9701
3262.03 65557 35358 68975 12454-41719-41644
3264.92-12549-81805-129363 4586 105571 25538
3267.82-454 47837 41864 37505 14760 7504
3270.71 29210 36399 72334 16017 29198 49374
3273.60 4500-5387-30752-73861-91280-43417
3276.49 38900 60340 43758 5676 32551 90566
3279.39 90590 10842 21964 13330-43832-41821
3282.28-6630 56027 72606 22889 45043 118627
3285.17 102656 60418 61514 29031 14081 37133
3288.07 68935 25819-45299-33151 41285 39184
3290.96 107803 165854 149910 91787 43688 52580
3293.85 69074 10337 15830 107609 119655 127549
3296.74 170521 174993 94369 61925 71225 36442
3299.64 22405 86159 97293 74159 104656 67204
3302.53 55531 100524 97449 68016 143539 131870
3305.42 102142 97983 48049 60996 118926 51438
3308.31-3092-6439-6035 31517 99033 172580
3311.21 156991 88837 68084 146506 124154 71132
3314.10 39109 14650 65960 97330 111243 67069
3316.99 88016 119520 98239 71627 74720 33501
3319.89-17126-11210-15917 20399-28153-95618
3322.78-110446-10787 73964 94202 8657-70972
3325.67-33084-17221-76621-59090-40422-6366
3328.56-17678-39836 3441-48683-67379-4988
3331.46-10544-36140-36767-66165-24308-13362
3334.35-28096-66046-94223-94030-76236-40292
3337.24-45206-36319-59405-36732 57016 58643
3340.13 1587-15392-5626-11882-55127-51133
3343.03-10597-36490-83182-47519 6729 23303
3345.92-2445-82016-137004-74576 24234 21522
3348.81-13979-7722-45915-22730 50533 3009
3351.71-88052-40457-44460-54109 17123 10596
3354.60-35821-58913-107664-76895 7800 24508
3357.49 43909 23628 31003 19240-2153-779
3360.38 21960 39905 29811 25571-20125-23985
3363.28 45884 106071 100364 48990-20345 39506
3366.17 75915-26329-31167 22016 4005 19973
3369.06 90965 114085 54877 15356 92536 122262
3371.95 107728 61736 60437 132048 182371 198044
3374.85 181718 153640 179680 221597 214704 207877
3377.74 259378 203218 133879 172473 129811 63866
3380.63 60954 114278 119565 140651 203212 276438
3383.53 253292 153739 194574 281886 230996 123573
3386.42 121246 219876 212749 137577 127517 145382
3389.31 218163 218527 191703 170832 174677 205941
3392.20 257536 186656 60978 99249 149614 121421
3395.10 121342 160894 96153 27306 23206 94194
3397.99 127821 43473-31292-42928-28362-42720
3400.88-84763-21444 51113 29258-53118-113106
3403.77-69515-40500-8964 8804-12419-49769
3406.67-138226-118584-87737-17240 22708-103043
3409.56-148485-83091-69767-64444-49704-72649
3412.45-63705-22054-59538-173916-170942-110317
3415.35-46065-25009-57885-26701-15644-36851
3418.24-75720-76488-107059-141668-54074 39343
3421.13-19854-57492-51971 13597-22756-130248
3424.02-97597-46392-39397-2583-65736-93570
3426.92 47719 44194-74910-117312-68405-16116
3429.81 43449 52455 26291 46527 61986 28986
3432.70 9079-12059-75217-61777-26874-42761
3435.59-6247 126764 162622 86778-13469-44976
3438.49 5257 47011 32108 44286 42617-12547
3441.38-1682 56755 92937 62982 13973-3404
3444.27 11488 18124 95293 169145 91429-15803
3447.17-15829 111144 211101 149197 44645 34560
3450.06 127764 243775 243933 170155 166229 246378
3452.95 225037 189202 220445 204140 107183 66126
3455.84 191087 275498 255537 191598 229536 237249
3458.74 262623 296057 296980 264645 223432 209595
3461.63 290095 347325 284397 180901 182705 253267
3464.52 270619 204800 148612 236888 321787 328093
3467.41 305480 296487 284825 186677 130848 117240
3470.31 58364 143222 231718 246583 297749 244510
3473.20 150772 94604 90655 99395 125788 101161
3476.09 68798 83460 107981 139261 130241 97856
3478.99 40-42508 19744 63031 71522 90727
3481.88 124568 144044 86493-34526-3923 168025
3484.77 122172 38079 46930 77823 13029-5400
3487.66 54503 62042-21031-64873-31456 1066
3490.56-23921-79151-91727-32002 13931-32198
3493.45-92034-77994-31855 29380-29154-88883
3496.34-77129-142477-119137-109930-104123-53201
3499.23-59812-84651-161626-124212-83313-110062
3502.13-107631-97270-109353-154291-159385-90645
3505.02-80333-134665-183234-167288-109130-71615
3507.91-60420-96408-94834-89209-72182-92536
3510.81-114590-118620-124508-171898-157028-141097
3513.70-154100-162250-118676-91569-97472-109139
3516.59-98516-95005-110760-135977-143433-143225
3519.48-62834-47192-146603-188160-119276-83537
3522.38-98451-92662-143682-194118-141384-117720
3525.27-93814-100611-126947-121456-102214-70766
3528.16-154904-168473-95718-98796-64702-32498
3531.05-129456-161332-55844-15497-27638-89864
3533.95-142324-128629-143989-139164-140726-98414
3536.84-11693-47337-148355-167126-71212 1167
3539.73-108572-152307-128081-130829-92763-90740
3542.63-71220-72481-65108-7217-41233-144218
3545.52-118067-43185-51646-75961-85923-59664
3548.41-64063-50185-24092-65124-56935-82625
3551.30-140813-117451 3780 29745 47841 34554
3554.20-16546-64360-41996-48408-90426-135885
3557.09-109713-52783-116939-135736-53569-64948
3559.98-59148-89271-110756-65581 8490 48634
3562.87 7217-42774-61805-110988-69654-63198
3565.77-85737-65612-42520-108498-119704-48658
3568.66 21539 38407 35573-42238-67672-20597
3571.55 16244-26313-20318-7350-43882-18522
3574.45 47507 27137-448-25715-14514 36581
3577.34 37814 53215 45923 89854 21849-20067
3580.23 39965 36857 37122 81503 90806 51098
3583.12 94480 128045 88585 89386 91430 7415
3586.02-144735-154342-44339 21642-69686-116963
3588.91-15529-3371 24775 67978 90666 65870
3591.80-11509-25628 23301 88920 166222 140582
3594.69 84568 81343 46087 84109 134924 146047
3597.59 74584 9343 106047 197393 140978 132792
3600.48 174606 198938 259487 247165 189836 248330
3603.37 283444 235663 157015 111900 194942 248056
3606.27 168576 128285 192378 252126 201097 105063
3609.16 172129 231911 186897 191281 171994 131629
3612.05 105760 168726 239373 206087 97222 92847
3614.94 108461 114275 82914 37874 35706 44275
3617.84 59144 66652-95461-177420-21778 41686
3620.73 5638-85823-105664-65305-32131-93376
3623.62-67212-59335-124826-107888-68651-92354
3626.51-86627-117011-268611-368725-272533-402541
3629.41-383166-174686-141061-150020-157962-165881
3632.30-129267-91853-99725-49338-42536-69997
3635.19-58437-86238-128483-145752-112917-59415
3638.09-77051-94300-60479-84497-111197-156744
3640.98-115701-74178-105553-100578-78848-51863
3643.87-29070-21222-47371-70586-76801-76971
3646.76-175182-177216-67178-188026-409660-301260
3649.66-164313-198702-179425-133122-63101-91880
3652.55-123019-93195-53336-26936-48269-103954
3655.44-178609-233461-134516-76563-82395-49022
3658.33 8076 7082-24051-55502-41513-29994
3661.23-25894-71494-124064-69305-8322-56450
3664.12-76911-54033-32298-72572-110698-182444
3667.01-219318-129557-143262-208115-120102-130991
3669.91-390388-435757-127517-95421-118155-94537
3672.80-92837-190626-264423-341209-281173-359597
3675.69-409786-156465-40951-114773-113635-136102
3678.58-209757-217140-184290-157656-160821-126919
3681.48-75032-98623-91276-67124-97399-128277
3684.37-88010-84015-80502-135812-112904-118388
3687.26-221753-507366-450095-200925-154195-204028
3690.15-196130-204031-179702-72363-44158-55322
3693.05-102666-110503-48389-41246-73459-61824
3695.94-55865-67425-97646-141200-122486-71969
3698.83-123259-190703-117890-59668-134708-224496
3701.73-144891-70497-100495-119768-144470-181493
3704.62-172459-155554-149509-119479-128715-147658
3707.51-188910-179849-212704-301375-295838-208755
3710.40-169322-179358-362549-462998-325323-227407
3713.30-131302-119976-189809-167342-142817-201797
3716.19-202678-189496-156706-122168-154709-177396
3719.08-133426-95727-117870-154297-162349-191389
3721.97-180803-128475-146568-200210-192142-175198
3724.87-195064-193981-202395-163551-83882-137176
3727.76-158780-138846-150369-160980-118285-72684
3730.65-124085-272906-408623-284488-109942-116380
3733.55-178451-229197-274777-251822-203079-325318
3736.44-347718-225981-198275-175370-99588-65647
3739.33-50473-80224-140799-143591-86010-60109
3742.22-40807-48123-172785-515775-697702-359567
3745.12-30045 33802 43388 49293 34785 24107
3748.01 15699-179204-375521-130825 61302 59721
3750.90 23614-179881-244319 26547 146355 166819
3753.79 191895 215974 194056 198509 152356 105983
3756.69 200077 247887 230741 169796 134600 68167
3759.58 32674 157667 244419 255416 210399 181747
3762.47 212307 216942 222509 252522 268824 183558
3765.37 104846 173551 223725 165667 109166 105405
3768.26 91325 8790-140936-114993 31307 27792
3771.15 7937 16240-6209-34572-53184-25883
3774.04 12870 2913-2481-3923-46879-21624
3776.94-6744-104600-73637 10124-71233-134219
3779.83-83743-21936 4054-27641-37334-44332
3782.72-35814-33441-33048-34557-71396-38264
3785.61 33349 44302 67362 93743 64764 54427
3788.51 35057 15137 117326 152182 45706 55214
3791.40 75725 56122 84193 86162 54911 66746
3794.29 120456 126640 98153-41349-48513 16642
3797.19 78039 153825 203891 174127 59940 12746
3800.08 29882-179666-329246-48233 119788 104286
3802.97 110622 191135 226964 148802 116140 102981
3805.86 56955-170503-156919 75391 150196 166292
3808.76 189779 219083 157276 126093 193777 205144
3811.65 125925 80405 125728 214853 235686 204706
3814.54 173252 36360-255805-100231 190054 244306
3817.43 238519 243830 250345 231765 144680 61505
3820.33 30516 29085 59611 187040 281213 325244
3823.22 335967 353880 376440 393982 410492 431041
3826.11 380180 374809 428360 425294 458010 487030
3829.01 463299 489573 499353 414250 340994 347222
3831.90 450233 482235 461772 456857 475180 395643
3834.79 456817 545660 489942 457535 399435 43001
3837.68 123550 468047 495912 464775 473513 453507
3840.58 415549 487901 529290 531611 516244 455216
3843.47 529651 567527 540521 565530 537924 493260
3846.36 588599 680625 638710 613262 608313 612616
3849.25 646858 625973 578278 563430 371041 310705
3852.15 588670 681497 446118 137265 321684 673052
3855.04 762410 807576 843484 825014 836714 873824
3857.93 861076 847758 842538 820235 771142 809460
3860.83 804868 745024 818025 911437 909104 921892
3863.72 893412 798846 752327 871416 950993 934696
3866.61 964819 1014368 997915 883185 785395 766599
3869.50 656521 756063 901138 873514 836281 881673
3872.40 910849 865470 844790 849990 882880 911295
3875.29 897170 902282 941146 948793 968947 1002503
3878.18 1002439 1035697 1031458 952360 960585 978581
3881.07 994373 984736 1019801 1031257 1003182 997083
3883.97 1021043 1051273 927752 856316 1028311 1129844
3886.86 1163029 1181268 1232580 1290514 1294929 1238865
3889.75 1220689 1223855 1135706 1184013 1346688 1397640
3892.65 1371435 1366553 1413705 1435349 1451963 1459833
3895.54 1465691 1489116 1523541 1537423 1469726 1397015
3898.43 1360216 1350563 1456964 1512604 1533612 1538966
3901.32 1509694 1580472 1684499 1635006 1494708 1392544
3904.22 1437087 1436440 1455873 1488482 1445814 1449172
3907.11 1505143 1452787 1417480 1400227 1376400 1319343
3910.00 1263325 1202589 1169472 1113234 1080954 1096023
3912.89 1068982 1007277 992636 985765 936893 908425
3915.79 885739 802939 748404 793552 768215 707350
3918.68 707641 668035 634174 649772 706702 712250
3921.57 695101 678375 645031 640115 631455 604433
3924.47 558188 535117 535858 556432 592165 523574
3927.36 477777 478412 517061 449346 357951 374773
3930.25 398312 423696 391627 341708 372217 391252
3933.14 406643 418897 418553 379739 375918 376320
3936.04 395733 408997 379229 341834 367914 369838
3938.93 345437 383189 400028 370984 353557 346411
3941.82 339444 340616 339074 363103 398192 373674
3944.71 404476 461223 462409 425896 377058 387012
3947.61 472397 514684 501879 419664 384078 422616
3950.50 444250 491517 565529 588028 545603 518048
3953.39 551599 594234 573122 521215 496133 536210
3956.29 600857 628191 586986 556627 562081 519163
3959.18 599122 707858 699175 649664 618607 639181
3962.07 657371 636875 651406 707350 747077 683540
3964.96 615867 641379 681957 667195 601116 566284
3967.86 607403 685697 714926 708137 693759 686689
3970.75 667669 629931 568561 550834 577024 533411
3973.64 530729 566272
##END=
