##TITLE=BENZENE, 1-CHLORO-2-METHYL-
##JCAMP-DX=4.24
##DATA TYPE=INFRARED SPECTRUM
##CLASS=COBLENTZ III
##ORIGIN=DOW CHEMICAL COMPANY
##OWNER=COBLENTZ SOCIETY
Collection (C) 2018 copyright by the U.S. Secretary of Commerce
on behalf of the United States of America. All rights reserved.
##DATE=1962/05/09
##NAMES=1-chloro-2-methylbenzene
##CAS REGISTRY NO=95-49-8
##MOLFORM=C7 H7 Cl
##SOURCE REFERENCE=COBLENTZ NO. 10050
##$NIST SOURCE=COBLENTZ
##$NIST IMAGE=cob10050
##SPECTROMETER/DATA SYSTEM=DOW KBr FOREPRISM-GRATING
##INSTRUMENT PARAMETERS=BLAZED AT 3.5, 12.0, 20.0 MICRON, CHANGED AT 5.0, 7.5, 14.9 MICRON
##STATE=SOLUTION (2% IN CCl4 FOR 3800-1333 AND 2% IN CS2 FOR 1333-450 CM^-^1)
##PATH LENGTH=0.012, 0.011 CM
$$SPECTRAL CONTAMINATION DUE TO CCl4 AROUND 1550, AND CS2 AROUND 855 CM^-^1
##SAMPLING PROCEDURE=TRANSMISSION
##RESOLUTION=4
##DATA PROCESSING=DIGITIZED BY NIST FROM HARD COPY (FROM TWO SEGMENTS)
##XUNITS=1/CM
##YUNITS=TRANSMITTANCE
##XFACTOR=1.000000
##YFACTOR=1
##DELTAX=0.869094
##FIRSTX=449.538
##LASTX=3796.42
##FIRSTY=0.989
##MAXX=3796.42
##MINX=449.538
##MAXY=1.004
##MINY=0.0741694
##NPOINTS=3852
##XYDATA=(X++(Y..Y))
449.538000 0.9890 0.9890 0.9870 0.9860 0.9850
453.883472 0.9850 0.9850 0.9850 0.9870 0.9870
458.228944 0.9860 0.9850 0.9830 0.9830 0.9820
462.574415 0.9830 0.9820 0.9820 0.9820 0.9800
466.919887 0.9780 0.9760 0.9750 0.9740 0.9720
471.265359 0.9720 0.9720 0.9740 0.9760 0.9790
475.610831 0.9790 0.9780 0.9780 0.9750 0.9720
479.956302 0.9710 0.9700 0.9680 0.9670 0.9670
484.301774 0.9680 0.9710 0.9710 0.9720 0.9740
488.647246 0.9750 0.9750 0.9740 0.9740 0.9720
492.992718 0.9710 0.9710 0.9700 0.9700 0.9680
497.338189 0.9670 0.9670 0.9700 0.9710 0.9700
501.683661 0.9700 0.9700 0.9680 0.9670 0.9650
506.029133 0.9650 0.9650 0.9710 0.9720 0.9740
510.374605 0.9760 0.9760 0.9720 0.9710 0.9700
514.720076 0.9700 0.9710 0.9720 0.9750 0.9780
519.065548 0.9780 0.9780 0.9710 0.9710 0.9740
523.411020 0.9750 0.9760 0.9760 0.9760 0.9740
527.756492 0.9710 0.9710 0.9740 0.9760 0.9780
532.101963 0.9780 0.9780 0.9760 0.9780 0.9800
536.447435 0.9820 0.9820 0.9820 0.9820 0.9780
540.792907 0.9780 0.9800 0.9800 0.9820 0.9820
545.138379 0.9790 0.9760 0.9720 0.9710 0.9700
549.483850 0.9630 0.9520 0.9380 0.9380 0.9440
553.829322 0.9510 0.9610 0.9760 0.9820 0.9820
558.174794 0.9820 0.9800 0.9820 0.9870 0.9890
562.520266 0.9890 0.9890 0.9890 0.9890 0.9870
566.865737 0.9870 0.9860 0.9870 0.9870 0.9870
571.211209 0.9870 0.9870 0.9870 0.9870 0.9850
575.556681 0.9850 0.9850 0.9850 0.9860 0.9860
579.902153 0.9850 0.9830 0.9820 0.9820 0.9800
584.247624 0.9820 0.9820 0.9850 0.9890 0.9890
588.593096 0.9870 0.9860 0.9830 0.9820 0.9820
592.938568 0.9800 0.9800 0.9800 0.9800 0.9800
597.284040 0.9800 0.9800 0.9800 0.9800 0.9800
601.629511 0.9800 0.9790 0.9790 0.9780 0.9760
605.974983 0.9750 0.9750 0.9750 0.9750 0.9750
610.320455 0.9750 0.9760 0.9780 0.9780 0.9790
614.665927 0.9790 0.9790 0.9790 0.9790 0.9790
619.011398 0.9790 0.9780 0.9760 0.9740 0.9720
623.356870 0.9710 0.9710 0.9700 0.9680 0.9670
627.702342 0.9670 0.9650 0.9640 0.9610 0.9590
632.047814 0.9570 0.9560 0.9530 0.9490 0.9450
636.393285 0.9440 0.9420 0.9420 0.9410 0.9370
640.738757 0.9360 0.9340 0.9330 0.9310 0.9310
645.084229 0.9300 0.9290 0.9260 0.9250 0.9230
649.429701 0.9210 0.9190 0.9190 0.9180 0.9180
653.775172 0.9190 0.9220 0.9230 0.9270 0.9340
658.120644 0.9360 0.9360 0.9370 0.9400 0.9420
662.466116 0.9440 0.9450 0.9450 0.9460 0.9490
666.811588 0.9490 0.9420 0.9370 0.9340 0.9300
671.157059 0.9230 0.9180 0.9100 0.9020 0.8921
675.502531 0.8760 0.8510 0.8210 0.8090 0.8000
679.848003 0.8000 0.8100 0.8200 0.8280 0.8310
684.193475 0.8680 0.8690 0.8720 0.8920 0.9120
688.538946 0.9230 0.9340 0.9420 0.9530 0.9560
692.884418 0.9590 0.9590 0.9590 0.9590 0.9570
697.229890 0.9570 0.9560 0.9550 0.9221 0.9220
701.575362 0.9420 0.9490 0.9520 0.9600 0.9610
705.920833 0.9630 0.9640 0.9650 0.9680 0.9700
710.266305 0.9720 0.9740 0.9740 0.9700 0.9680
714.611777 0.9680 0.9680 0.9740 0.9740 0.9720
718.957249 0.9720 0.9720 0.9680 0.9640 0.9650
723.302720 0.9700 0.9710 0.9710 0.9680 0.9650
727.648192 0.9640 0.9640 0.9630 0.9600 0.9590
731.993664 0.9570 0.9560 0.9550 0.9480 0.9410
736.339136 0.9360 0.9310 0.9180 0.9140 0.8920
740.684607 0.8631 0.8191 0.7971 0.7532 0.6843
745.030079 0.4870 0.2621 0.2310 0.1531 0.0742
749.375551 0.2386 0.3417 0.4097 0.5364 0.6833
753.721023 0.7610 0.8290 0.8690 0.8880 0.9080
758.066494 0.9210 0.9310 0.9380 0.9450 0.9490
762.411966 0.9520 0.9550 0.9550 0.9550 0.9550
766.757438 0.9550 0.9510 0.9510 0.9570 0.9630
771.102910 0.9650 0.9670 0.9680 0.9680 0.9680
775.448381 0.9670 0.9670 0.9650 0.9640 0.9640
779.793853 0.9630 0.9600 0.9600 0.9570 0.9550
784.139325 0.9510 0.9480 0.9460 0.9460 0.9530
788.484797 0.9550 0.9570 0.9600 0.9630 0.9640
792.830268 0.9640 0.9650 0.9650 0.9650 0.9650
797.175740 0.9650 0.9640 0.9600 0.9590 0.9530
801.521212 0.9440 0.9400 0.9330 0.9141 0.8781
805.866684 0.8660 0.8660 0.8890 0.9270 0.9480
810.212155 0.9560 0.9600 0.9630 0.9640 0.9640
814.557627 0.9650 0.9680 0.9700 0.9700 0.9710
818.903099 0.9720 0.9720 0.9710 0.9700 0.9700
823.248571 0.9700 0.9700 0.9700 0.9700 0.9700
827.594042 0.9700 0.9680 0.9670 0.9630 0.9600
831.939514 0.9570 0.9560 0.9550 0.9520 0.9480
836.284986 0.9440 0.9420 0.9380 0.9340 0.9300
840.630458 0.9220 0.9080 0.9030 0.8930 0.8820
844.975929 0.8740 0.8690 0.8541 0.8500 0.8460
849.321401 0.8340 0.8170 0.8060 0.8010 0.7970
853.666873 0.7930 0.7860 0.7820 0.7800 0.7820
858.012345 0.7830 0.7870 0.7890 0.7930 0.7950
862.357816 0.8000 0.8020 0.8050 0.8080 0.8120
866.703288 0.8170 0.8200 0.8240 0.8270 0.8350
871.048760 0.8400 0.8440 0.8500 0.8510 0.8530
875.394232 0.8550 0.8620 0.8630 0.8630 0.8680
879.739703 0.8730 0.8760 0.8810 0.8840 0.8850
884.085175 0.8890 0.8930 0.8990 0.9030 0.9060
888.430647 0.9110 0.9170 0.9210 0.9260 0.9310
892.776119 0.9330 0.9330 0.9340 0.9330 0.9310
897.121590 0.9360 0.9370 0.9400 0.9400 0.9410
901.467062 0.9420 0.9410 0.9400 0.9420 0.9440
905.812534 0.9450 0.9440 0.9440 0.9440 0.9450
910.158006 0.9450 0.9420 0.9440 0.9440 0.9450
914.503478 0.9450 0.9450 0.9460 0.9460 0.9450
918.848949 0.9450 0.9450 0.9440 0.9440 0.9440
923.194421 0.9440 0.9440 0.9440 0.9420 0.9400
927.539893 0.9380 0.9370 0.9370 0.9340 0.9290
931.885365 0.9220 0.9150 0.9060 0.8960 0.8960
936.230836 0.9060 0.9330 0.9340 0.9340 0.9360
940.576308 0.9360 0.9360 0.9360 0.9360 0.9370
944.921780 0.9400 0.9410 0.9420 0.9440 0.9440
949.267252 0.9400 0.9400 0.9460 0.9480 0.9480
953.612723 0.9450 0.9450 0.9450 0.9450 0.9450
957.958195 0.9450 0.9450 0.9460 0.9480 0.9490
962.303667 0.9490 0.9490 0.9490 0.9490 0.9510
966.649139 0.9510 0.9480 0.9480 0.9480 0.9480
970.994610 0.9480 0.9480 0.9480 0.9480 0.9490
975.340082 0.9490 0.9510 0.9510 0.9490 0.9480
979.685554 0.9460 0.9450 0.9440 0.9440 0.9420
984.031026 0.9420 0.9410 0.9370 0.9310 0.9300
988.376497 0.9290 0.9300 0.9330 0.9360 0.9380
992.721969 0.9380 0.9400 0.9400 0.9400 0.9400
997.067441 0.9400 0.9370 0.9370 0.9400 0.9410
1001.412913 0.9420 0.9420 0.9410 0.9370 0.9360
1005.758384 0.9340 0.9310 0.9290 0.9260 0.9250
1010.103856 0.9170 0.9070 0.8960 0.8910 0.8890
1014.449328 0.8910 0.8930 0.8970 0.9040 0.9070
1018.794800 0.9100 0.9140 0.9150 0.9170 0.9170
1023.140271 0.9150 0.9140 0.9140 0.9110 0.9100
1027.485743 0.9060 0.9020 0.8950 0.8910 0.8820
1031.831215 0.8720 0.8680 0.8530 0.8430 0.8320
1036.176687 0.8210 0.8120 0.7971 0.7910 0.7681
1040.522158 0.7480 0.7340 0.7330 0.7360 0.7530
1044.867630 0.7710 0.7870 0.8119 0.8130 0.8130
1049.213102 0.8120 0.8000 0.7780 0.7190 0.6990
1053.558574 0.6341 0.5711 0.4364 0.4131 0.4130
1057.904045 0.4461 0.5141 0.6430 0.7270 0.8039
1062.249517 0.8230 0.8509 0.8719 0.8969 0.9060
1066.594989 0.9120 0.9170 0.9190 0.9220 0.9250
1070.940461 0.9330 0.9340 0.9360 0.9370 0.9370
1075.285932 0.9370 0.9360 0.9360 0.9400 0.9420
1079.631404 0.9440 0.9450 0.9460 0.9480 0.9480
1083.976876 0.9490 0.9490 0.9490 0.9490 0.9460
1088.322348 0.9460 0.9450 0.9420 0.9360 0.9370
1092.667819 0.9440 0.9490 0.9520 0.9520 0.9530
1097.013291 0.9550 0.9550 0.9560 0.9570 0.9590
1101.358763 0.9600 0.9610 0.9610 0.9560 0.9530
1105.704235 0.9560 0.9600 0.9610 0.9610 0.9630
1110.049706 0.9630 0.9650 0.9650 0.9650 0.9650
1114.395178 0.9650 0.9670 0.9670 0.9670 0.9670
1118.740650 0.9670 0.9650 0.9640 0.9610 0.9610
1123.086122 0.9600 0.9600 0.9560 0.9460 0.9380
1127.431593 0.9290 0.9070 0.9030 0.9030 0.9210
1131.777065 0.9310 0.9340 0.9370 0.9400 0.9400
1136.122537 0.9410 0.9400 0.9360 0.9340 0.9360
1140.468009 0.9410 0.9440 0.9480 0.9490 0.9600
1144.813480 0.9610 0.9610 0.9630 0.9630 0.9630
1149.158952 0.9640 0.9640 0.9650 0.9650 0.9650
1153.504424 0.9670 0.9670 0.9670 0.9670 0.9670
1157.849896 0.9670 0.9670 0.9680 0.9680 0.9700
1162.195367 0.9710 0.9710 0.9710 0.9710 0.9710
1166.540839 0.9720 0.9720 0.9710 0.9710 0.9720
1170.886311 0.9720 0.9710 0.9700 0.9700 0.9680
1175.231783 0.9680 0.9670 0.9670 0.9650 0.9640
1179.577254 0.9590 0.9550 0.9550 0.9570 0.9680
1183.922726 0.9710 0.9720 0.9720 0.9720 0.9720
1188.268198 0.9720 0.9720 0.9750 0.9750 0.9740
1192.613670 0.9720 0.9710 0.9680 0.9670 0.9700
1196.959141 0.9700 0.9710 0.9710 0.9710 0.9700
1201.304613 0.9680 0.9670 0.9650 0.9640 0.9630
1205.650085 0.9610 0.9600 0.9590 0.9600 0.9600
1209.995557 0.9610 0.9640 0.9640 0.9650 0.9680
1214.341028 0.9680 0.9700 0.9700 0.9700 0.9700
1218.686500 0.9700 0.9700 0.9700 0.9700 0.9700
1223.031972 0.9700 0.9700 0.9680 0.9700 0.9700
1227.377444 0.9710 0.9710 0.9680 0.9670 0.9670
1231.722915 0.9650 0.9650 0.9650 0.9650 0.9650
1236.068387 0.9650 0.9640 0.9610 0.9630 0.9600
1240.413859 0.9600 0.9570 0.9570 0.9560 0.9560
1244.759331 0.9550 0.9510 0.9490 0.9480 0.9460
1249.104802 0.9450 0.9440 0.9420 0.9420 0.9410
1253.450274 0.9380 0.9380 0.9370 0.9340 0.9330
1257.795746 0.9310 0.9300 0.9290 0.9270 0.9270
1262.141218 0.9260 0.9260 0.9290 0.9310 0.9310
1266.486689 0.9330 0.9330 0.9340 0.9340 0.9340
1270.832161 0.9330 0.9290 0.9270 0.9270 0.9260
1275.177633 0.9260 0.9260 0.9260 0.9230 0.9230
1279.523105 0.9220 0.9220 0.9210 0.9190 0.9150
1283.868576 0.9150 0.9170 0.9180 0.9250 0.9310
1288.214048 0.9310 0.9340 0.9360 0.9370 0.9400
1292.559520 0.9410 0.9410 0.9420 0.9440 0.9440
1296.904992 0.9450 0.9450 0.9480 0.9490 0.9490
1301.250463 0.9510 0.9520 0.9520 0.9530 0.9530
1305.595935 0.9530 0.9550 0.9560 0.9570 0.9570
1309.941407 0.9570 0.9590 0.9590 0.9590 0.9590
1314.286879 0.9590 0.9590 0.9590 0.9590 0.9600
1318.632350 0.9600 0.9600 0.9610 0.9610 0.9610
1322.977822 0.9640 0.9640 0.9610 0.9610 0.9630
1327.323294 0.9650 0.9670 0.9680 0.9670 0.9650
1331.668766 0.9640 0.9630 0.9630 0.9610 0.9610
1336.014237 0.9610 0.9630 0.9630 0.9640 0.9640
1340.359709 0.9640 0.9640 0.9630 0.9640 0.9640
1344.705181 0.9640 0.9640 0.9650 0.9650 0.9650
1349.050653 0.9650 0.9640 0.9630 0.9610 0.9610
1353.396124 0.9630 0.9640 0.9640 0.9650 0.9650
1357.741596 0.9650 0.9650 0.9650 0.9650 0.9670
1362.087068 0.9670 0.9680 0.9680 0.9670 0.9650
1366.432540 0.9640 0.9630 0.9610 0.9610 0.9610
1370.778012 0.9630 0.9640 0.9640 0.9640 0.9640
1375.123483 0.9630 0.9610 0.9610 0.9560 0.9560
1379.468955 0.9490 0.9360 0.9230 0.9110 0.9110
1383.814427 0.9509 0.9670 0.9670 0.9680 0.9700
1388.159899 0.9700 0.9700 0.9700 0.9700 0.9700
1392.505370 0.9700 0.9700 0.9700 0.9680 0.9670
1396.850842 0.9670 0.9670 0.9650 0.9640 0.9630
1401.196314 0.9610 0.9600 0.9570 0.9560 0.9550
1405.541786 0.9550 0.9550 0.9530 0.9530 0.9530
1409.887257 0.9520 0.9520 0.9520 0.9530 0.9530
1414.232729 0.9530 0.9530 0.9520 0.9520 0.9510
1418.578201 0.9510 0.9490 0.9450 0.9420 0.9380
1422.923673 0.9360 0.9340 0.9310 0.9270 0.9250
1427.269144 0.9220 0.9210 0.9210 0.9150 0.9140
1431.614616 0.8990 0.8970 0.8920 0.8850 0.8760
1435.960088 0.8650 0.8480 0.8350 0.8170 0.8140
1440.305560 0.8170 0.8340 0.8420 0.8480 0.8540
1444.651031 0.8610 0.8630 0.8650 0.8650 0.8650
1448.996503 0.8660 0.8660 0.8650 0.8590 0.8540
1453.341975 0.8470 0.8360 0.8290 0.8160 0.8010
1457.687447 0.7740 0.7530 0.7420 0.7420 0.7460
1462.032918 0.7670 0.7890 0.8080 0.8200 0.8250
1466.378390 0.8240 0.8230 0.8130 0.8050 0.7900
1470.723862 0.7680 0.7301 0.7081 0.6173 0.5592
1475.069334 0.5490 0.5480 0.5600 0.6760 0.7190
1479.414805 0.7570 0.7780 0.7820 0.7800 0.7780
1483.760277 0.7740 0.7630 0.7490 0.7300 0.7170
1488.105749 0.7150 0.7270 0.7420 0.7719 0.7999
1492.451221 0.8040 0.8060 0.8100 0.8140 0.8170
1496.796692 0.8170 0.8160 0.8160 0.8130 0.8080
1501.142164 0.8020 0.8000 0.7970 0.7940 0.7930
1505.487636 0.7890 0.7860 0.7790 0.7760 0.7740
1509.833108 0.7710 0.7640 0.7570 0.7560 0.7520
1514.178579 0.7440 0.7410 0.7370 0.7310 0.7270
1518.524051 0.7250 0.7230 0.7220 0.7150 0.7070
1522.869523 0.7040 0.7000 0.6960 0.6920 0.6870
1527.214995 0.6820 0.6770 0.6720 0.6650 0.6580
1531.560466 0.6480 0.6440 0.6320 0.6190 0.6021
1535.905938 0.5980 0.5910 0.5820 0.5680 0.5560
1540.251410 0.5420 0.5310 0.5220 0.5140 0.5030
1544.596882 0.5000 0.4970 0.4920 0.4890 0.4850
1548.942353 0.4840 0.4840 0.4840 0.4850 0.4870
1553.287825 0.4910 0.4970 0.5020 0.5040 0.5110
1557.633297 0.5220 0.5330 0.5450 0.5550 0.5600
1561.978769 0.5630 0.5650 0.5750 0.5900 0.6020
1566.324240 0.6130 0.6140 0.6190 0.6320 0.6320
1570.669712 0.6290 0.6210 0.6140 0.6130 0.6140
1575.015184 0.6190 0.6250 0.6310 0.6380 0.6420
1579.360656 0.6460 0.6650 0.6730 0.6780 0.6810
1583.706127 0.6840 0.6850 0.6910 0.6950 0.7000
1588.051599 0.7000 0.7070 0.7110 0.7190 0.7230
1592.397071 0.7230 0.7270 0.7370 0.7480 0.7590
1596.742543 0.7640 0.7870 0.8040 0.8160 0.8240
1601.088014 0.8310 0.8360 0.8430 0.8510 0.8610
1605.433486 0.8690 0.8730 0.8800 0.8850 0.8920
1609.778958 0.9060 0.9120 0.9170 0.9210 0.9230
1614.124430 0.9270 0.9300 0.9330 0.9360 0.9400
1618.469901 0.9440 0.9480 0.9520 0.9550 0.9570
1622.815373 0.9590 0.9600 0.9630 0.9640 0.9650
1627.160845 0.9650 0.9670 0.9680 0.9680 0.9700
1631.506317 0.9700 0.9720 0.9740 0.9750 0.9750
1635.851788 0.9790 0.9790 0.9800 0.9800 0.9800
1640.197260 0.9820 0.9860 0.9890 0.9910 0.9930
1644.542732 0.9940 1.0010 1.0040 1.0040 1.0020
1648.888204 1.0020 1.0010 1.0000 0.9980 0.9980
1653.233675 0.9970 0.9950 0.9910 0.9900 0.9900
1657.579147 0.9900 0.9900 0.9890 0.9870 0.9860
1661.924619 0.9850 0.9850 0.9850 0.9850 0.9850
1666.270091 0.9860 0.9870 0.9870 0.9870 0.9860
1670.615562 0.9850 0.9820 0.9820 0.9800 0.9800
1674.961034 0.9800 0.9790 0.9790 0.9750 0.9710
1679.306506 0.9700 0.9700 0.9710 0.9720 0.9740
1683.651978 0.9750 0.9760 0.9760 0.9780 0.9780
1687.997449 0.9760 0.9760 0.9760 0.9760 0.9760
1692.342921 0.9780 0.9780 0.9790 0.9800 0.9800
1696.688393 0.9820 0.9820 0.9800 0.9790 0.9780
1701.033865 0.9780 0.9760 0.9760 0.9750 0.9750
1705.379336 0.9750 0.9740 0.9750 0.9760 0.9760
1709.724808 0.9720 0.9710 0.9710 0.9710 0.9710
1714.070280 0.9720 0.9740 0.9780 0.9790 0.9790
1718.415752 0.9780 0.9780 0.9760 0.9740 0.9720
1722.761223 0.9720 0.9720 0.9720 0.9720 0.9720
1727.106695 0.9750 0.9750 0.9760 0.9760 0.9780
1731.452167 0.9760 0.9760 0.9760 0.9760 0.9760
1735.797639 0.9780 0.9720 0.9670 0.9670 0.9680
1740.143110 0.9700 0.9720 0.9740 0.9740 0.9710
1744.488582 0.9710 0.9710 0.9720 0.9720 0.9740
1748.834054 0.9760 0.9780 0.9780 0.9780 0.9780
1753.179526 0.9780 0.9760 0.9750 0.9750 0.9750
1757.524997 0.9750 0.9780 0.9800 0.9800 0.9760
1761.870469 0.9760 0.9760 0.9760 0.9760 0.9760
1766.215941 0.9750 0.9750 0.9780 0.9780 0.9780
1770.561413 0.9780 0.9750 0.9740 0.9760 0.9760
1774.906884 0.9780 0.9780 0.9740 0.9720 0.9720
1779.252356 0.9720 0.9720 0.9760 0.9750 0.9720
1783.597828 0.9710 0.9700 0.9670 0.9650 0.9650
1787.943300 0.9630 0.9600 0.9570 0.9550 0.9530
1792.288771 0.9530 0.9560 0.9590 0.9630 0.9630
1796.634243 0.9640 0.9650 0.9650 0.9650 0.9670
1800.979715 0.9680 0.9700 0.9700 0.9710 0.9710
1805.325187 0.9700 0.9700 0.9680 0.9670 0.9650
1809.670659 0.9670 0.9670 0.9680 0.9700 0.9700
1814.016130 0.9700 0.9680 0.9670 0.9650 0.9640
1818.361602 0.9640 0.9640 0.9640 0.9650 0.9650
1822.707074 0.9650 0.9640 0.9640 0.9630 0.9630
1827.052546 0.9610 0.9590 0.9590 0.9570 0.9570
1831.398017 0.9570 0.9570 0.9590 0.9600 0.9610
1835.743489 0.9630 0.9640 0.9650 0.9650 0.9650
1840.088961 0.9670 0.9670 0.9650 0.9650 0.9650
1844.434433 0.9650 0.9650 0.9650 0.9650 0.9650
1848.779904 0.9650 0.9650 0.9680 0.9680 0.9670
1853.125376 0.9650 0.9630 0.9630 0.9610 0.9610
1857.470848 0.9610 0.9610 0.9610 0.9610 0.9610
1861.816320 0.9610 0.9610 0.9640 0.9640 0.9640
1866.161791 0.9650 0.9650 0.9650 0.9650 0.9650
1870.507263 0.9650 0.9650 0.9640 0.9630 0.9600
1874.852735 0.9570 0.9570 0.9570 0.9610 0.9650
1879.198207 0.9670 0.9670 0.9670 0.9680 0.9670
1883.543678 0.9650 0.9680 0.9700 0.9700 0.9700
1887.889150 0.9700 0.9700 0.9700 0.9700 0.9680
1892.234622 0.9670 0.9650 0.9650 0.9640 0.9630
1896.580094 0.9610 0.9610 0.9610 0.9610 0.9640
1900.925565 0.9640 0.9630 0.9590 0.9590 0.9570
1905.271037 0.9590 0.9600 0.9570 0.9550 0.9530
1909.616509 0.9520 0.9510 0.9490 0.9490 0.9510
1913.961981 0.9550 0.9590 0.9640 0.9680 0.9680
1918.307452 0.9700 0.9700 0.9710 0.9710 0.9680
1922.652924 0.9700 0.9700 0.9700 0.9700 0.9700
1926.998396 0.9680 0.9680 0.9680 0.9700 0.9700
1931.343868 0.9710 0.9720 0.9720 0.9710 0.9670
1935.689339 0.9650 0.9650 0.9680 0.9700 0.9710
1940.034811 0.9700 0.9670 0.9650 0.9640 0.9610
1944.380283 0.9610 0.9600 0.9600 0.9590 0.9590
1948.725755 0.9610 0.9630 0.9650 0.9680 0.9680
1953.071226 0.9700 0.9710 0.9710 0.9670 0.9670
1957.416698 0.9670 0.9680 0.9740 0.9790 0.9900
1961.762170 1.0010 0.9930 0.9850 0.9710 0.9700
1966.107642 0.9700 0.9700 0.9670 0.9670 0.9670
1970.453113 0.9670 0.9680 0.9680 0.9700 0.9700
1974.798585 0.9700 0.9700 0.9700 0.9680 0.9700
1979.144057 0.9700 0.9710 0.9700 0.9720 0.9720
1983.489529 0.9740 0.9740 0.9710 0.9680 0.9680
1987.835000 0.9670 0.9670 0.9680 0.9710 0.9760
1992.180472 0.9780 0.9790 0.9800 0.9820 0.9830
1996.525944 0.9830 0.9830 0.9850 0.9860 0.9850
2000.871416 0.9855 0.9860 0.9860 0.9860 0.9860
2005.216887 0.9860 0.9860 0.9860 0.9860 0.9860
2009.562359 0.9860 0.9860 0.9865 0.9870 0.9870
2013.907831 0.9870 0.9870 0.9870 0.9865 0.9860
2018.253303 0.9860 0.9860 0.9860 0.9860 0.9865
2022.598774 0.9870 0.9885 0.9900 0.9900 0.9900
2026.944246 0.9905 0.9910 0.9910 0.9910 0.9905
2031.289718 0.9900 0.9900 0.9900 0.9895 0.9890
2035.635190 0.9890 0.9890 0.9890 0.9890 0.9890
2039.980661 0.9890 0.9890 0.9890 0.9890 0.9890
2044.326133 0.9890 0.9890 0.9890 0.9890 0.9890
2048.671605 0.9890 0.9890 0.9890 0.9890 0.9890
2053.017077 0.9895 0.9900 0.9900 0.9900 0.9900
2057.362548 0.9900 0.9905 0.9910 0.9910 0.9910
2061.708020 0.9910 0.9909 0.9884 0.9859 0.9829
2066.053492 0.9800 0.9800 0.9800 0.9826 0.9851
2070.398964 0.9871 0.9890 0.9890 0.9890 0.9890
2074.744435 0.9890 0.9895 0.9900 0.9905 0.9910
2079.089907 0.9920 0.9930 0.9930 0.9929 0.9899
2083.435379 0.9870 0.9870 0.9871 0.9891 0.9910
2087.780851 0.9920 0.9930 0.9930 0.9929 0.9914
2092.126322 0.9900 0.9900 0.9900 0.9900 0.9900
2096.471794 0.9900 0.9900 0.9900 0.9900 0.9900
2100.817266 0.9900 0.9900 0.9900 0.9900 0.9900
2105.162738 0.9900 0.9900 0.9900 0.9901 0.9916
2109.508209 0.9930 0.9930 0.9930 0.9935 0.9940
2113.853681 0.9935 0.9930 0.9930 0.9929 0.9914
2118.199153 0.9901 0.9916 0.9930 0.9919 0.9910
2122.544625 0.9905 0.9900 0.9895 0.9890 0.9890
2126.890096 0.9890 0.9890 0.9890 0.9890 0.9891
2131.235568 0.9901 0.9910 0.9905 0.9899 0.9884
2135.581040 0.9870 0.9865 0.9860 0.9855 0.9850
2139.926512 0.9850 0.9851 0.9861 0.9870 0.9870
2144.271983 0.9870 0.9870 0.9870 0.9870 0.9870
2148.617455 0.9870 0.9870 0.9865 0.9859 0.9844
2152.962927 0.9830 0.9825 0.9820 0.9820 0.9819
2157.308399 0.9809 0.9800 0.9800 0.9800 0.9800
2161.653870 0.9800 0.9800 0.9801 0.9811 0.9820
2165.999342 0.9820 0.9820 0.9825 0.9830 0.9825
2170.344814 0.9820 0.9825 0.9830 0.9830 0.9830
2174.690286 0.9830 0.9830 0.9830 0.9830 0.9830
2179.035757 0.9830 0.9830 0.9830 0.9825 0.9819
2183.381229 0.9809 0.9800 0.9800 0.9800 0.9795
2187.726701 0.9790 0.9790 0.9790 0.9790 0.9790
2192.072173 0.9790 0.9790 0.9795 0.9800 0.9800
2196.417644 0.9801 0.9811 0.9820 0.9825 0.9831
2200.763116 0.9841 0.9850 0.9855 0.9860 0.9860
2205.108588 0.9860 0.9855 0.9849 0.9839 0.9830
2209.454060 0.9830 0.9829 0.9824 0.9820 0.9820
2213.799531 0.9820 0.9820 0.9820 0.9825 0.9830
2218.145003 0.9830 0.9830 0.9825 0.9820 0.9820
2222.490475 0.9819 0.9809 0.9800 0.9800 0.9799
2226.835947 0.9794 0.9790 0.9790 0.9790 0.9790
2231.181418 0.9789 0.9784 0.9780 0.9780 0.9780
2235.526890 0.9780 0.9779 0.9769 0.9759 0.9754
2239.872362 0.9750 0.9750 0.9750 0.9750 0.9750
2244.217834 0.9750 0.9750 0.9750 0.9750 0.9750
2248.563305 0.9750 0.9750 0.9749 0.9744 0.9740
2252.908777 0.9740 0.9739 0.9729 0.9719 0.9714
2257.254249 0.9709 0.9704 0.9698 0.9683 0.9669
2261.599721 0.9659 0.9649 0.9644 0.9639 0.9634
2265.945193 0.9630 0.9630 0.9629 0.9619 0.9609
2270.290664 0.9604 0.9599 0.9594 0.9589 0.9579
2274.636136 0.9569 0.9564 0.9560 0.9560 0.9559
2278.981608 0.9554 0.9550 0.9550 0.9550 0.9550
2283.327080 0.9549 0.9539 0.9530 0.9530 0.9530
2287.672551 0.9530 0.9529 0.9524 0.9520 0.9520
2292.018023 0.9520 0.9520 0.9520 0.9520 0.9521
2296.363495 0.9526 0.9530 0.9530 0.9531 0.9541
2300.708967 0.9550 0.9550 0.9550 0.9550 0.9551
2305.054438 0.9556 0.9560 0.9560 0.9560 0.9560
2309.399910 0.9562 0.9577 0.9590 0.9590 0.9591
2313.745382 0.9596 0.9600 0.9600 0.9601 0.9606
2318.090854 0.9610 0.9610 0.9610 0.9610 0.9611
2322.436325 0.9621 0.9630 0.9630 0.9630 0.9630
2326.781797 0.9630 0.9630 0.9631 0.9636 0.9640
2331.127269 0.9640 0.9640 0.9640 0.9641 0.9646
2335.472741 0.9650 0.9650 0.9650 0.9650 0.9652
2339.818212 0.9662 0.9670 0.9670 0.9670 0.9670
2344.163684 0.9671 0.9676 0.9680 0.9680 0.9680
2348.509156 0.9680 0.9680 0.9680 0.9682 0.9692
2352.854628 0.9700 0.9700 0.9700 0.9700 0.9701
2357.200099 0.9706 0.9710 0.9710 0.9710 0.9710
2361.545571 0.9711 0.9716 0.9720 0.9720 0.9720
2365.891043 0.9720 0.9720 0.9720 0.9720 0.9720
2370.236515 0.9722 0.9732 0.9740 0.9740 0.9740
2374.581986 0.9740 0.9741 0.9746 0.9750 0.9750
2378.927458 0.9750 0.9750 0.9750 0.9750 0.9750
2383.272930 0.9750 0.9750 0.9750 0.9750 0.9750
2387.618402 0.9750 0.9750 0.9749 0.9744 0.9738
2391.963873 0.9728 0.9720 0.9720 0.9719 0.9714
2396.309345 0.9710 0.9710 0.9709 0.9704 0.9700
2400.654817 0.9700 0.9700 0.9700 0.9700 0.9700
2405.000289 0.9700 0.9700 0.9700 0.9700 0.9701
2409.345760 0.9706 0.9711 0.9716 0.9720 0.9720
2413.691232 0.9720 0.9720 0.9720 0.9720 0.9722
2418.036704 0.9732 0.9741 0.9746 0.9750 0.9750
2422.382176 0.9747 0.9732 0.9720 0.9720 0.9719
2426.727647 0.9714 0.9710 0.9710 0.9710 0.9710
2431.073119 0.9711 0.9716 0.9720 0.9720 0.9720
2435.418591 0.9720 0.9720 0.9720 0.9720 0.9720
2439.764063 0.9722 0.9732 0.9740 0.9740 0.9740
2444.109534 0.9740 0.9740 0.9740 0.9741 0.9746
2448.455006 0.9750 0.9750 0.9750 0.9750 0.9750
2452.800478 0.9750 0.9750 0.9750 0.9750 0.9750
2457.145950 0.9750 0.9750 0.9749 0.9744 0.9740
2461.491421 0.9740 0.9740 0.9740 0.9738 0.9728
2465.836893 0.9720 0.9720 0.9720 0.9720 0.9720
2470.182365 0.9720 0.9720 0.9720 0.9720 0.9720
2474.527837 0.9719 0.9714 0.9710 0.9710 0.9710
2478.873308 0.9710 0.9710 0.9710 0.9710 0.9710
2483.218780 0.9711 0.9716 0.9722 0.9732 0.9738
2487.564252 0.9728 0.9722 0.9732 0.9740 0.9740
2491.909724 0.9740 0.9740 0.9741 0.9746 0.9750
2496.255195 0.9750 0.9750 0.9750 0.9750 0.9750
2500.600667 0.9750 0.9750 0.9750 0.9750 0.9750
2504.946139 0.9750 0.9750 0.9750 0.9750 0.9750
2509.291611 0.9750 0.9750 0.9749 0.9744 0.9736
2513.637082 0.9721 0.9709 0.9704 0.9700 0.9700
2517.982554 0.9700 0.9700 0.9700 0.9700 0.9700
2522.328026 0.9700 0.9703 0.9713 0.9720 0.9720
2526.673498 0.9720 0.9720 0.9723 0.9733 0.9740
2531.018969 0.9740 0.9736 0.9721 0.9709 0.9704
2535.364441 0.9700 0.9700 0.9700 0.9700 0.9703
2539.709913 0.9713 0.9720 0.9720 0.9717 0.9707
2544.055385 0.9700 0.9700 0.9697 0.9687 0.9680
2548.400856 0.9680 0.9684 0.9699 0.9710 0.9710
2552.746328 0.9706 0.9691 0.9680 0.9680 0.9676
2557.091800 0.9661 0.9649 0.9644 0.9640 0.9640
2561.437272 0.9641 0.9646 0.9650 0.9650 0.9650
2565.782743 0.9650 0.9650 0.9650 0.9657 0.9682
2570.128215 0.9703 0.9713 0.9720 0.9720 0.9719
2574.473687 0.9714 0.9710 0.9710 0.9709 0.9704
2578.819159 0.9701 0.9706 0.9710 0.9710 0.9706
2583.164630 0.9691 0.9674 0.9654 0.9640 0.9640
2587.510102 0.9640 0.9640 0.9639 0.9634 0.9630
2591.855574 0.9630 0.9633 0.9643 0.9650 0.9650
2596.201046 0.9650 0.9650 0.9654 0.9669 0.9683
2600.546517 0.9693 0.9703 0.9713 0.9720 0.9720
2604.891989 0.9719 0.9714 0.9709 0.9704 0.9700
2609.237461 0.9700 0.9700 0.9700 0.9697 0.9687
2613.582933 0.9680 0.9680 0.9680 0.9680 0.9680
2617.928404 0.9680 0.9679 0.9674 0.9670 0.9670
2622.273876 0.9667 0.9657 0.9647 0.9637 0.9630
2626.619348 0.9630 0.9632 0.9637 0.9640 0.9640
2630.964820 0.9640 0.9640 0.9640 0.9640 0.9640
2635.310291 0.9640 0.9640 0.9640 0.9640 0.9640
2639.655763 0.9639 0.9634 0.9633 0.9643 0.9650
2644.001235 0.9650 0.9650 0.9650 0.9650 0.9650
2648.346707 0.9653 0.9663 0.9670 0.9670 0.9665
2652.692178 0.9650 0.9640 0.9640 0.9642 0.9647
2657.037650 0.9650 0.9650 0.9650 0.9650 0.9653
2661.383122 0.9663 0.9672 0.9677 0.9680 0.9680
2665.728594 0.9680 0.9680 0.9680 0.9680 0.9675
2670.074065 0.9660 0.9650 0.9650 0.9650 0.9650
2674.419537 0.9650 0.9650 0.9650 0.9650 0.9650
2678.765009 0.9650 0.9655 0.9670 0.9685 0.9700
2683.110481 0.9710 0.9710 0.9710 0.9710 0.9710
2687.455952 0.9710 0.9708 0.9703 0.9695 0.9680
2691.801424 0.9665 0.9650 0.9638 0.9633 0.9630
2696.146896 0.9630 0.9630 0.9630 0.9642 0.9677
2700.492368 0.9700 0.9700 0.9697 0.9687 0.9678
2704.837839 0.9673 0.9663 0.9643 0.9627 0.9617
2709.183311 0.9610 0.9610 0.9610 0.9610 0.9610
2713.528783 0.9610 0.9610 0.9610 0.9610 0.9610
2717.874255 0.9610 0.9610 0.9613 0.9623 0.9633
2722.219727 0.9643 0.9650 0.9650 0.9648 0.9643
2726.565198 0.9638 0.9633 0.9625 0.9610 0.9595
2730.910670 0.9580 0.9570 0.9570 0.9570 0.9570
2735.256142 0.9570 0.9570 0.9570 0.9570 0.9577
2739.601614 0.9597 0.9610 0.9610 0.9601 0.9576
2743.947085 0.9560 0.9560 0.9560 0.9560 0.9562
2748.292557 0.9567 0.9574 0.9584 0.9597 0.9617
2752.638029 0.9630 0.9630 0.9626 0.9616 0.9610
2756.983501 0.9610 0.9610 0.9610 0.9608 0.9603
2761.328972 0.9600 0.9600 0.9600 0.9600 0.9600
2765.674444 0.9600 0.9600 0.9600 0.9598 0.9593
2770.019916 0.9590 0.9590 0.9590 0.9590 0.9584
2774.365388 0.9569 0.9558 0.9553 0.9550 0.9550
2778.710859 0.9552 0.9557 0.9562 0.9567 0.9578
2783.056331 0.9598 0.9610 0.9610 0.9608 0.9603
2787.401803 0.9600 0.9600 0.9602 0.9607 0.9610
2791.747275 0.9610 0.9602 0.9582 0.9570 0.9570
2796.092746 0.9570 0.9570 0.9574 0.9584 0.9590
2800.438218 0.9590 0.9592 0.9597 0.9600 0.9600
2804.783690 0.9600 0.9600 0.9598 0.9593 0.9590
2809.129162 0.9590 0.9590 0.9590 0.9590 0.9590
2813.474633 0.9590 0.9590 0.9590 0.9590 0.9590
2817.820105 0.9590 0.9592 0.9597 0.9600 0.9600
2822.165577 0.9600 0.9600 0.9600 0.9600 0.9600
2826.511049 0.9600 0.9600 0.9600 0.9600 0.9600
2830.856520 0.9598 0.9593 0.9590 0.9590 0.9586
2835.201992 0.9576 0.9570 0.9570 0.9570 0.9570
2839.547464 0.9568 0.9563 0.9558 0.9553 0.9550
2843.892936 0.9550 0.9546 0.9536 0.9528 0.9523
2848.238407 0.9520 0.9520 0.9518 0.9513 0.9510
2852.583879 0.9510 0.9506 0.9496 0.9488 0.9483
2856.929351 0.9480 0.9480 0.9480 0.9480 0.9480
2861.274823 0.9480 0.9482 0.9487 0.9490 0.9490
2865.620294 0.9490 0.9490 0.9494 0.9504 0.9510
2869.965766 0.9510 0.9514 0.9524 0.9530 0.9530
2874.311238 0.9534 0.9544 0.9552 0.9557 0.9560
2878.656710 0.9560 0.9560 0.9560 0.9560 0.9560
2883.002181 0.9560 0.9560 0.9560 0.9560 0.9560
2887.347653 0.9560 0.9558 0.9553 0.9550 0.9550
2891.693125 0.9544 0.9529 0.9518 0.9513 0.9506
2896.038597 0.9496 0.9488 0.9483 0.9476 0.9466
2900.384068 0.9456 0.9446 0.9427 0.9397 0.9371
2904.729540 0.9351 0.9340 0.9340 0.9338 0.9333
2909.075012 0.9326 0.9316 0.9310 0.9310 0.9308
2913.420484 0.9303 0.9298 0.9293 0.9283 0.9268
2917.765955 0.9253 0.9238 0.9228 0.9223 0.9213
2922.111427 0.9198 0.9174 0.9139 0.9120 0.9120
2926.456899 0.9124 0.9134 0.9149 0.9169 0.9189
2930.802371 0.9209 0.9229 0.9249 0.9262 0.9267
2935.147842 0.9270 0.9270 0.9274 0.9285 0.9290
2939.493314 0.9290 0.9292 0.9297 0.9300 0.9300
2943.838786 0.9298 0.9293 0.9276 0.9246 0.9221
2948.184258 0.9201 0.9181 0.9161 0.9130 0.9085
2952.529729 0.9053 0.9038 0.9032 0.9037 0.9045
2956.875201 0.9055 0.9069 0.9089 0.9112 0.9137
2961.220673 0.9157 0.9172 0.9180 0.9180 0.9182
2965.566145 0.9187 0.9197 0.9212 0.9220 0.9220
2969.911616 0.9213 0.9198 0.9185 0.9175 0.9165
2974.257088 0.9155 0.9148 0.9143 0.9126 0.9096
2978.602560 0.9068 0.9043 0.9021 0.9001 0.8985
2982.948032 0.8975 0.8975 0.8985 0.8999 0.9019
2987.293503 0.9037 0.9052 0.9088 0.9149 0.9192
2991.638975 0.9217 0.9240 0.9260 0.9280 0.9300
2995.984447 0.9310 0.9310 0.9317 0.9332 0.9345
3000.329919 0.9355 0.9360 0.9360 0.9360 0.9360
3004.675390 0.9360 0.9360 0.9360 0.9360 0.9355
3009.020862 0.9345 0.9338 0.9333 0.9323 0.9308
3013.366334 0.9283 0.9248 0.9225 0.9215 0.9178
3017.711806 0.9113 0.9070 0.9050 0.9040 0.9040
3022.057277 0.9045 0.9055 0.9062 0.9067 0.9083
3026.402749 0.9108 0.9138 0.9173 0.9210 0.9250
3030.748221 0.9285 0.9315 0.9332 0.9337 0.9345
3035.093693 0.9355 0.9355 0.9345 0.9340 0.9340
3039.439164 0.9338 0.9333 0.9325 0.9315 0.9307
3043.784636 0.9302 0.9297 0.9292 0.9285 0.9275
3048.130108 0.9265 0.9255 0.9242 0.9227 0.9220
3052.475580 0.9220 0.9210 0.9190 0.9170 0.9150
3056.821051 0.9125 0.9095 0.9075 0.9065 0.9050
3061.166523 0.9030 0.9012 0.8997 0.8982 0.8967
3065.511995 0.8952 0.8937 0.8925 0.8915 0.8905
3069.857467 0.8895 0.8887 0.8882 0.8883 0.8888
3074.202938 0.8898 0.8913 0.8941 0.8981 0.9016
3078.548410 0.9046 0.9094 0.9159 0.9229 0.9304
3082.893882 0.9361 0.9401 0.9428 0.9443 0.9453
3087.239354 0.9458 0.9460 0.9460 0.9468 0.9483
3091.584825 0.9500 0.9520 0.9535 0.9545 0.9553
3095.930297 0.9558 0.9563 0.9568 0.9581 0.9601
3100.275769 0.9610 0.9610 0.9618 0.9633 0.9643
3104.621241 0.9648 0.9655 0.9665 0.9673 0.9678
3108.966712 0.9680 0.9680 0.9685 0.9695 0.9703
3113.312184 0.9708 0.9713 0.9718 0.9720 0.9720
3117.657656 0.9725 0.9735 0.9743 0.9748 0.9753
3122.003128 0.9758 0.9760 0.9760 0.9760 0.9760
3126.348599 0.9760 0.9760 0.9757 0.9752 0.9750
3130.694071 0.9750 0.9750 0.9750 0.9750 0.9750
3135.039543 0.9750 0.9750 0.9750 0.9750 0.9750
3139.385015 0.9750 0.9753 0.9758 0.9760 0.9760
3143.730486 0.9765 0.9775 0.9780 0.9780 0.9783
3148.075958 0.9788 0.9790 0.9790 0.9798 0.9813
3152.421430 0.9820 0.9820 0.9820 0.9820 0.9820
3156.766902 0.9820 0.9823 0.9828 0.9830 0.9830
3161.112373 0.9830 0.9830 0.9830 0.9830 0.9830
3165.457845 0.9830 0.9830 0.9830 0.9830 0.9830
3169.803317 0.9827 0.9822 0.9820 0.9820 0.9812
3174.148789 0.9797 0.9790 0.9790 0.9787 0.9782
3178.494261 0.9783 0.9788 0.9793 0.9798 0.9800
3182.839732 0.9800 0.9800 0.9800 0.9800 0.9800
3187.185204 0.9806 0.9816 0.9823 0.9828 0.9839
3191.530676 0.9854 0.9863 0.9868 0.9870 0.9870
3195.876148 0.9850 0.9815 0.9806 0.9816 0.9823
3200.221619 0.9828 0.9836 0.9846 0.9850 0.9850
3204.567091 0.9850 0.9850 0.9844 0.9834 0.9836
3208.912563 0.9846 0.9853 0.9858 0.9860 0.9860
3213.258035 0.9860 0.9860 0.9860 0.9860 0.9860
3217.603506 0.9860 0.9863 0.9868 0.9870 0.9870
3221.948978 0.9867 0.9862 0.9857 0.9852 0.9850
3226.294450 0.9850 0.9850 0.9850 0.9850 0.9850
3230.639922 0.9850 0.9850 0.9850 0.9850 0.9853
3234.985393 0.9858 0.9860 0.9860 0.9860 0.9860
3239.330865 0.9863 0.9868 0.9870 0.9870 0.9870
3243.676337 0.9870 0.9870 0.9870 0.9870 0.9870
3248.021809 0.9876 0.9886 0.9890 0.9890 0.9893
3252.367280 0.9898 0.9900 0.9900 0.9900 0.9900
3256.712752 0.9903 0.9908 0.9916 0.9926 0.9924
3261.058224 0.9914 0.9910 0.9910 0.9910 0.9910
3265.403696 0.9910 0.9910 0.9916 0.9926 0.9924
3269.749167 0.9914 0.9907 0.9902 0.9900 0.9900
3274.094639 0.9900 0.9900 0.9900 0.9900 0.9900
3278.440111 0.9900 0.9903 0.9908 0.9919 0.9934
3282.785583 0.9943 0.9948 0.9947 0.9942 0.9943
3287.131054 0.9948 0.9956 0.9966 0.9973 0.9978
3291.476526 0.9986 0.9996 1.0000 1.0000 1.0003
3295.821998 1.0008 1.0010 1.0010 1.0010 1.0010
3300.167470 1.0010 1.0010 1.0010 1.0010 1.0010
3304.512941 1.0010 1.0010 1.0010 1.0007 1.0002
3308.858413 1.0006 1.0016 1.0026 1.0036 1.0040
3313.203885 1.0040 1.0040 1.0040 1.0034 1.0024
3317.549357 1.0014 1.0004 0.9994 0.9984 0.9990
3321.894828 1.0005 1.0010 1.0010 1.0010 1.0010
3326.240300 1.0010 1.0010 1.0010 1.0010 1.0010
3330.585772 1.0010 1.0007 1.0002 1.0000 1.0000
3334.931244 0.9994 0.9984 0.9980 0.9980 0.9977
3339.276715 0.9972 0.9963 0.9953 0.9947 0.9942
3343.622187 0.9940 0.9940 0.9943 0.9948 0.9957
3347.967659 0.9966 0.9973 0.9978 0.9977 0.9972
3352.313131 0.9964 0.9954 0.9950 0.9950 0.9947
3356.658602 0.9942 0.9940 0.9940 0.9937 0.9932
3361.004074 0.9930 0.9930 0.9930 0.9930 0.9930
3365.349546 0.9930 0.9930 0.9930 0.9930 0.9930
3369.695018 0.9930 0.9930 0.9923 0.9913 0.9907
3374.040489 0.9902 0.9900 0.9900 0.9900 0.9900
3378.385961 0.9900 0.9900 0.9910 0.9925 0.9930
3382.731433 0.9930 0.9923 0.9913 0.9910 0.9910
3387.076905 0.9910 0.9910 0.9907 0.9902 0.9897
3391.422376 0.9892 0.9880 0.9865 0.9850 0.9835
3395.767848 0.9830 0.9830 0.9840 0.9855 0.9870
3400.113320 0.9885 0.9893 0.9898 0.9900 0.9900
3404.458792 0.9900 0.9900 0.9900 0.9900 0.9900
3408.804263 0.9900 0.9900 0.9900 0.9900 0.9900
3413.149735 0.9900 0.9900 0.9900 0.9900 0.9897
3417.495207 0.9892 0.9893 0.9898 0.9900 0.9900
3421.840679 0.9903 0.9908 0.9917 0.9927 0.9930
3426.186150 0.9930 0.9930 0.9930 0.9923 0.9913
3430.531622 0.9920 0.9935 0.9940 0.9940 0.9940
3434.877094 0.9940 0.9940 0.9940 0.9940 0.9940
3439.222566 0.9937 0.9932 0.9933 0.9939 0.9944
3443.568037 0.9949 0.9957 0.9967 0.9974 0.9979
3447.913509 0.9987 0.9997 1.0000 1.0000 1.0000
3452.258981 1.0000 1.0000 1.0000 1.0000 1.0000
3456.604453 1.0000 1.0000 1.0000 1.0000 0.9993
3460.949924 0.9983 0.9980 0.9980 0.9980 0.9980
3465.295396 0.9980 0.9980 0.9980 0.9980 0.9976
3469.640868 0.9971 0.9974 0.9979 0.9991 1.0006
3473.986340 1.0010 1.0010 1.0014 1.0019 1.0016
3478.331811 1.0011 1.0006 1.0001 1.0000 1.0000
3482.677283 1.0000 1.0000 1.0000 1.0000 1.0000
3487.022755 1.0000 1.0000 1.0000 1.0000 1.0000
3491.368227 1.0007 1.0017 1.0020 1.0020 1.0020
3495.713698 1.0020 1.0027 1.0037 1.0033 1.0023
3500.059170 1.0016 1.0011 1.0006 1.0001 1.0000
3504.404642 1.0000 1.0000 1.0000 0.9993 0.9983
3508.750114 0.9980 0.9980 0.9995 1.0015 1.0020
3513.095585 1.0020 1.0020 1.0020 1.0027 1.0037
3517.441057 1.0040 1.0040 1.0033 1.0023 1.0020
3521.786529 1.0020 1.0020 1.0020 1.0016 1.0011
3526.132001 1.0010 1.0010 1.0010 1.0010 1.0010
3530.477472 1.0010 1.0006 1.0001 1.0000 1.0000
3534.822944 0.9993 0.9983 0.9980 0.9980 0.9980
3539.168416 0.9980 0.9980 0.9980 0.9980 0.9980
3543.513888 0.9987 0.9997 1.0000 1.0000 1.0004
3547.859359 1.0009 1.0014 1.0019 1.0020 1.0020
3552.204831 1.0020 1.0020 1.0016 1.0011 1.0006
3556.550303 1.0001 1.0000 1.0000 1.0000 1.0000
3560.895775 1.0000 1.0000 1.0000 1.0000 1.0000
3565.241246 1.0000 0.9989 0.9974 0.9970 0.9970
3569.586718 0.9981 0.9996 1.0000 1.0000 1.0000
3573.932190 1.0000 1.0000 1.0000 0.9992 0.9982
3578.277662 0.9980 0.9980 0.9980 0.9980 0.9976
3582.623133 0.9971 0.9970 0.9970 0.9970 0.9970
3586.968605 0.9970 0.9970 0.9962 0.9952 0.9950
3591.314077 0.9950 0.9942 0.9932 0.9930 0.9930
3595.659549 0.9938 0.9948 0.9958 0.9968 0.9970
3600.005020 0.9970 0.9958 0.9943 0.9936 0.9931
3604.350492 0.9914 0.9894 0.9894 0.9899 0.9912
3608.695964 0.9927 0.9934 0.9939 0.9944 0.9949
3613.041436 0.9950 0.9950 0.9950 0.9950 0.9950
3617.386907 0.9950 0.9950 0.9950 0.9946 0.9941
3621.732379 0.9940 0.9940 0.9936 0.9931 0.9934
3626.077851 0.9939 0.9940 0.9940 0.9936 0.9931
3630.423323 0.9922 0.9912 0.9906 0.9901 0.9904
3634.768795 0.9909 0.9910 0.9910 0.9922 0.9937
3639.114266 0.9944 0.9949 0.9958 0.9968 0.9962
3643.459738 0.9952 0.9942 0.9932 0.9918 0.9903
3647.805210 0.9900 0.9900 0.9900 0.9900 0.9912
3652.150682 0.9927 0.9938 0.9948 0.9974 1.0004
3656.496153 1.0010 1.0010 1.0006 1.0001 0.9980
3660.841625 0.9955 0.9934 0.9914 0.9906 0.9901
3665.187097 0.9900 0.9900 0.9904 0.9909 0.9910
3669.532569 0.9910 0.9922 0.9937 0.9952 0.9967
3673.878040 0.9970 0.9970 0.9974 0.9979 0.9980
3678.223512 0.9980 0.9980 0.9980 0.9988 0.9998
3682.568984 1.0000 1.0000 1.0000 1.0000 0.9992
3686.914456 0.9982 0.9980 0.9980 0.9976 0.9971
3691.259927 0.9958 0.9943 0.9940 0.9940 0.9936
3695.605399 0.9931 0.9922 0.9912 0.9910 0.9910
3699.950871 0.9910 0.9910 0.9918 0.9928 0.9930
3704.296343 0.9930 0.9934 0.9939 0.9944 0.9949
3708.641814 0.9950 0.9950 0.9950 0.9950 0.9950
3712.987286 0.9950 0.9946 0.9941 0.9940 0.9940
3717.332758 0.9940 0.9940 0.9940 0.9940 0.9936
3721.678230 0.9931 0.9930 0.9930 0.9934 0.9939
3726.023701 0.9944 0.9949 0.9950 0.9950 0.9958
3730.369173 0.9968 0.9970 0.9970 0.9970 0.9970
3734.714645 0.9962 0.9952 0.9946 0.9941 0.9936
3739.060117 0.9931 0.9930 0.9930 0.9922 0.9912
3743.405588 0.9910 0.9910 0.9906 0.9901 0.9900
3747.751060 0.9900 0.9900 0.9900 0.9900 0.9900
3752.096532 0.9900 0.9900 0.9900 0.9900 0.9900
3756.442004 0.9900 0.9904 0.9909 0.9910 0.9910
3760.787475 0.9923 0.9938 0.9953 0.9968 0.9970
3765.132947 0.9970 0.9974 0.9979 0.9989 0.9999
3769.478419 1.0000 1.0000 1.0000 1.0000 1.0000
3773.823891 1.0000 1.0000 1.0000 0.9991 0.9981
3778.169362 0.9976 0.9971 0.9970 0.9970 0.9961
3782.514834 0.9951 0.9950 0.9950 0.9950 0.9950
3786.860306 0.9959 0.9969 0.9970 0.9970 0.9970
3791.205778 0.9970 0.9970 0.9970 0.9970 0.9970
3795.551249 0.9961 0.9951
##END=
