##TITLE=1,2-Dimethylbenzene
##JCAMP-DX=4.24
##DATA TYPE=INFRARED SPECTRUM
##CLASS=IUPAC A
##ORIGIN=NIST, Analytical Chemistry Division, 301-975-3108
##OWNER=COPYRIGHT (C) 2001 by the U.S. Secretary of Commerce
##DATE=01/06/01
##$SPECTRA VERSION=1.10
##$UNCERTAINTY IN Y=2.2 % relative (B=1.21E-04,C=1.57E-9,D=3.06E-14)
##CAS NAME=1,2-Dimethylbenzene
##CAS REGISTRY NO=95-47-6
##MOLFORM=1,2-( C H3)2 C6 H4
##MP=-25.18 C
##BP=144.4 C
##$NIST SOURCE=QUANT-IR
##SPECTROMETER/DATA SYSTEM=IFS66V (Bruker)
##INSTRUMENT PARAMETERS=KBr Beam Splitter; MCT Detector; Multipass cell
##STATE=gas
##SAMPLE DESCRIPTION=o-Xylene Primary Gas Standard
##PRESSURE=101.3 Pa
##TEMPERATURE=23 C
##SAMPLING PROCEDURE=1 L/min Flow
##RESOLUTION=1.9290
##DATA PROCESSING=3-Term B-H Apodization
##XUNITS=cm-1
##YUNITS=(micromol/mol)-1m-1 (base 10)
##XFACTOR=1.0
##YFACTOR=18.189E-13
##DELTAX=0.9645
##FIRSTX=575.652
##LASTX=3974.606
##FIRSTY=2.87E-06
##MAXX=3973.64
##MINX=575.65
##MAXY=.0010278
##MINY=-1.71E-06
##NPOINTS=3526
##XYDATA=(X++(Y..Y))
575.65 1582398 1347888 1103246 995133 1391670 2154964
580.47 2168168 1568506 1369346 1514703 1588762 1790855
586.26 1981841 1873142 1663347 1514516 1197705 816814
592.04 565423 398687 388420 421695 341699 315077
597.83 230831 9839-76883-3017-46405-64485
603.62-1669 65832 89960 22101-91872-145550
609.40-154491-41824 129957 226507 145137 51051
615.19 32056-20617-82951-79996-119575-121531
620.97-20244 108736 84045-14817-35875-6089
626.76-945-18596-41852-67116-99646-34990
632.54 11375 22163 2489-7997-13310-38976
638.33-54126-17044-30553-10932-12868-79829
644.11-90700 23310 43221-45458-88235-21783
649.90 1084-14218-22673-16070-51600-37363
655.68-5348 33898 90530 162414 133837 59878
661.47 30556 105668 160660 157555-48826-369044
667.26-388900-113960 65507 134011 110111 134718
673.04 139280 95770 81773 92990 46139 76948
678.83 90812 87141 71102 93213 130406 168521
684.61 118987 112807 152584 224954 308503 380195
690.40 342716 362300 388756 410658 367613 364486
696.18 481660 640019 623347 580303 530273 584324
701.97 686322 761747 730792 734907 730244 816106
707.75 935589 1109834 1277360 1596055 2003952 2528014
713.54 3197350 4197506 5442066 7165525 9452564 12546146
719.32 16575464 21794809 28282103 36446179 46286552 57742678
725.11 69943164 81816502 93066527 103889361 113089451 119816292
730.90 123383738 123701372 121069573 117150556 114926274 119026989
736.68 136543734 194154548 353155412 565052162 562059347 323790782
742.47 150585614 110808729 109686532 114789455 121616506 127867248
748.25 131768445 131913043 127914148 119912381 108994654 96100443
754.04 82383625 68608883 55704830 44141639 34284556 26042115
759.82 19505715 14413693 10596421 7728240 5695433 4238589
765.61 3353907 2769058 2292310 1725962 1304022 1093712
771.39 1044846 935400 875083 825963 801000 737349
777.18 701193 669333 680373 629406 609437 572889
782.96 516105 461701 500734 514255 535566 500147
788.75 474636 418156 399741 427676 462672 404953
794.53 357206 327189 301302 231181 217609 235082
800.32 286660 310385 348587 385072 416372 406478
806.11 413997 398827 411289 433700 476185 501914
811.89 575970 648424 703769 740387 777046 793086
817.68 829129 847473 927456 1011397 1011997 955360
823.46 950366 919683 847748 759066 761993 831434
829.25 875982 783746 662788 572462 533340 539061
835.03 575222 531208 454984 398209 360088 318570
840.82 329125 351815 386327 369860 308936 271923
846.60 314115 361196 382908 429705 517884 550949
852.39 591607 678988 837769 964962 983248 963347
858.17 1023423 1095591 1177733 1295789 1419756 1478551
863.96 1516168 1563911 1648492 1706961 1727196 1702681
869.75 1654082 1603030 1589329 1553254 1537569 1509410
875.53 1434501 1359939 1285067 1202920 1139452 1035416
881.32 942564 874515 819008 740593 682261 664998
887.10 687580 697748 699114 689207 690947 703413
892.89 741838 797814 874739 937622 982391 997084
898.67 1020034 1044793 1055361 1025365 994975 986807
904.46 1011761 1000921 985509 1016067 1077674 1117221
910.24 1133944 1108410 1080145 1061383 1082650 1132899
916.03 1161970 1156559 1177484 1183873 1194240 1237646
921.81 1286330 1280096 1276950 1316286 1394226 1536593
927.60 1830180 2390077 3121591 3377718 2923467 2306207
933.39 1926271 1743541 1669248 1658793 1713221 1803831
939.17 1876785 1909925 1926322 1906349 1861815 1786044
944.96 1707392 1617748 1527149 1429137 1318691 1241643
950.74 1208813 1179065 1160727 1125117 1111043 1118336
956.53 1125830 1112117 1116873 1156026 1183058 1199964
962.31 1274022 1381688 1527510 1704801 1910676 2186178
968.10 2580575 3074327 3664447 4366346 5203029 6139939
973.88 7129378 8110328 9038236 9836581 10475378 10906040
979.67 11153361 11379333 11866675 12627368 13134380 12934425
985.45 12546405 12620605 12704083 12401204 12080966 11775982
991.24 11274856 10586889 9836800 9045640 8200584 7341776
997.03 6593105 5993523 5551691 5273659 5120806 5064940
1002.81 5121057 5226529 5384055 5620537 5926049 6279325
1008.60 6679326 7077884 7495941 7949918 8294650 8440022
1014.38 8490983 8538805 8627356 8811055 9177226 9676325
1020.17 10234611 11422431 14319729 16186118 13527373 9792731
1025.95 8216328 7781825 7622749 7556637 7500079 7314647
1031.74 7030592 6771766 6558858 6373822 6254917 6207904
1037.52 6305224 6637689 7303770 8382509 9875572 11742017
1043.31 13943369 16265020 18429785 20108854 20925598 20751743
1049.09 19788761 18608691 18890213 22105669 25252078 23871008
1054.88 20052780 18101341 18324994 19241471 19821930 19587104
1060.67 18481331 16648923 14333474 11826210 9456214 7390910
1066.45 5701556 4413578 3435393 2685952 2127108 1692569
1072.24 1396074 1221731 1099537 979006 902874 854211
1078.02 785625 712743 663119 630990 609225 588467
1083.81 602128 632605 653230 665394 681070 666664
1089.59 660274 683342 694147 688673 706712 717131
1095.38 704620 742075 854281 968301 1061257 1154331
1101.16 1292727 1488983 1731448 2015940 2402009 2889134
1106.95 3441579 4057406 4757911 5534132 6368738 7227001
1112.73 8073213 8855165 9521092 10014965 10257013 10099023
1118.52 9597015 9159849 9226090 9755313 10390730 10883989
1124.31 11154037 11197952 11046046 10691856 10214858 9704271
1130.09 9184373 8634686 8082855 7588416 7185230 6871869
1135.88 6619948 6376102 6122273 5789713 5356141 4941111
1141.66 4688709 4618895 4642613 4667360 4657013 4612526
1147.45 4555271 4457345 4307260 4122014 3922742 3699835
1153.23 3468347 3229729 2988625 2785420 2658773 2534420
1159.02 2396198 2297732 2265656 2309658 2358136 2336922
1164.80 2301073 2256652 2164368 2059140 2020883 2031841
1170.59 2028747 1996465 1950798 1895681 1866256 1849455
1176.37 1827100 1818596 1810427 1749292 1667569 1622352
1182.16 1619312 1596061 1536083 1470992 1410827 1353896
1187.95 1320868 1305995 1285611 1252959 1219069 1187294
1193.73 1181681 1188405 1173162 1129574 1098641 1097020
1199.52 1096924 1082753 1099953 1138073 1192560 1244439
1205.30 1272855 1326290 1417751 1508034 1643210 1854157
1211.09 2108258 2393689 2736464 3121780 3503429 3844018
1216.87 4124041 4311929 4431236 4510822 4566584 4632405
1222.66 4755434 4915673 5033603 4931142 4563854 4289087
1228.44 4322495 4414886 4386948 4232040 3949294 3547442
1234.23 3079254 2585880 2097629 1652773 1278021 988732
1240.01 798275 678082 590954 508396 443510 418861
1245.80 422273 406673 400590 430799 461949 470084
1251.59 483712 509119 533866 554659 575085 593951
1257.37 627017 662376 678659 691665 712778 728018
1263.16 756259 789417 792597 769477 762150 781212
1268.94 798883 798827 806150 815226 830562 841542
1274.73 854293 886090 919278 931570 942295 969442
1280.51 1012064 1034892 1051847 1085878 1102644 1099541
1286.30 1114193 1106304 1066887 1045637 1056960 1076425
1292.08 1094991 1125855 1152701 1140011 1102795 1058358
1297.87 1016648 985043 958371 934004 915881 898805
1303.65 885007 869437 849988 846534 878612 914851
1309.44 943521 943534 926837 944653 993354 1034673
1315.23 1061002 1079570 1106829 1137231 1168811 1204109
1321.01 1246640 1272416 1299846 1341777 1390486 1419262
1326.80 1430946 1468896 1531006 1587247 1669267 1780656
1332.58 1857636 1840724 1761159 1698505 1682333 1718264
1338.37 1782903 1819419 1856280 1893870 1926623 1982257
1344.15 2055993 2091955 2120906 2161977 2155581 2108922
1349.94 2060702 2046964 2115380 2283940 2522089 2653947
1355.72 2696137 2718472 2663549 2645172 2758008 2922200
1361.51 3058205 3195503 3414079 3685786 3979684 4321914
1367.29 4738696 5211125 5712254 6237099 6747733 7221763
1373.08 7686956 8106924 8358600 8288546 7999956 8004743
1378.87 8893284 10622497 12387456 13511373 13978266 13999395
1384.65 13658106 13147027 13301454 14500189 14894770 13347313
1390.44 11628370 11081184 11356297 11834051 12153188 12069863
1396.22 11490112 10478480 9237622 7976182 6808961 5817283
1402.01 5075394 4587144 4314596 4153173 4026996 3936763
1407.79 3900805 3884190 3879824 3891672 3933614 4015954
1413.58 4132255 4233133 4319787 4411572 4524263 4656573
1419.36 4778150 4877478 5034261 5282544 5625359 6061092
1425.15 6583496 7148095 7762822 8433684 9163314 9972401
1430.93 10818602 11623792 12363935 12968492 13388218 13843273
1436.72 14686881 15967135 17569012 19399481 21457796 23747617
1442.51 26175094 28595392 30846054 32549914 33840574 34771244
1448.29 35462700 36962388 39268623 41648604 43911224 46245318
1454.08 48847326 51904510 55852872 60656758 65342413 68932211
1459.86 72090182 75774410 78921875 80441495 79823094 77723303
1465.65 75955737 74944878 74005998 72556869 70063716 67058915
1471.43 65797426 67529321 70399414 71490465 69691503 65768867
1477.22 61124821 57068602 54040263 51576289 49026090 46432057
1483.00 44581438 43774917 43713271 44221432 45338673 47070683
1488.79 49339547 51958409 54793559 57980839 61709677 65276544
1494.57 65815049 62484854 59453914 59585505 63332368 69825572
1500.36 71361463 62738437 54040857 52417232 53716548 54252658
1506.15 52937572 49558825 44326501 37906506 31148468 24757450
1511.93 19266814 14903639 11610060 9230859 7573501 6517555
1517.72 5873346 5387540 4977473 4765999 4726251 4693034
1523.50 4611853 4526608 4480327 4422304 4350157 4305608
1529.29 4273706 4248991 4235059 4235430 4265397 4306490
1535.07 4319163 4290232 4136937 3910168 3839140 3904391
1540.86 3935748 3954210 3961487 3910759 3894875 3931221
1546.64 3927145 3892000 3855065 3827822 3810224 3748680
1552.43 3629054 3557466 3582198 3546128 3376673 3213456
1558.21 3163395 3202700 3312105 3379849 3348623 3275571
1564.00 3199426 3153296 3146901 3137233 3081527 3066350
1569.79 3167192 3297246 3426315 3589291 3738898 3859208
1575.57 4161100 4673125 5162951 5613873 6071534 6516057
1581.36 6953231 7416975 7962092 8621479 9392649 10256021
1587.14 11147829 11977563 12680376 13271036 13786809 14157484
1592.93 14258504 13997029 13381864 12714267 12522071 13162374
1598.71 14418217 15630148 16360714 16682627 16853988 16978407
1604.50 16998472 16869638 16573740 16048039 15212752 14062109
1610.28 12739477 11593329 11052717 11249033 11780733 12093162
1616.07 12107491 11969902 11600237 10955072 10142982 9222893
1621.85 8178589 7130595 6181051 5281862 4450600 3742560
1627.64 3166518 2699699 2310231 1991269 1736411 1512469
1633.43 1259092 1029873 955508 943261 896990 840621
1639.21 777751 731256 697214 663008 615364 515165
1645.00 436668 472937 532307 581070 618976 578775
1650.78 388707 217604 348498 652212 892929 1078453
1656.57 1262094 1468559 1714677 1991882 2257331 2498324
1662.35 2756645 2988462 3091138 3099985 3086105 3103846
1668.14 3261142 3530408 3584765 3360619 3164462 3094868
1673.92 3095564 3204204 3333219 3313329 3142178 2878367
1679.71 2553155 2191434 1829502 1487769 1231229 1195491
1685.49 1266821 1259741 1191137 1103663 1028574 984568
1691.28 955312 934719 877619 715437 656323 829218
1697.07 967980 915109 821579 938546 1189113 1343473
1702.85 1423251 1531907 1652828 1753274 1841129 1878377
1708.64 1851873 1794714 1780707 1847156 1944069 2025915
1714.42 2028356 1820745 1548058 1528223 1669921 1756975
1720.21 1751287 1675217 1545661 1380978 1224471 1088655
1725.99 963824 849101 737459 661007 630593 584238
1731.78 477114 384462 422133 539080 603598 611467
1737.56 596947 572922 582370 607499 609672 621762
1743.35 663917 697319 703300 706767 711111 708379
1749.13 677408 638202 684237 771645 821579 846860
1754.92 851462 875602 942099 995938 1011223 989906
1760.71 958547 979345 1033036 1087848 1125329 1130423
1766.49 1149792 1262291 1461325 1655626 1820631 2001056
1772.28 2290757 2681002 3073942 3467060 3850859 4204628
1778.06 4530740 4799157 5000061 5126829 5097132 4856891
1783.85 4469262 4126992 4065379 4351862 4786564 5082159
1789.63 5093676 4873275 4573762 4304904 3999667 3590712
1795.42 3128350 2687951 2296432 1944699 1626479 1326238
1801.20 1065511 879761 751751 640654 557004 503216
1806.99 470254 465392 458514 470038 546867 677700
1812.77 833989 1034416 1303713 1617189 1945509 2286397
1818.56 2634920 2944474 3158657 3263108 3269467 3194158
1824.35 3119178 3191993 3507140 3885365 3736639 3050143
1830.13 2689173 2871019 3146521 3258649 3149221 2864628
1835.92 2472653 2019505 1560921 1164997 867115 656466
1841.70 498866 373833 348384 452800 600445 752810
1847.49 926094 1131346 1376549 1634421 1860276 2042959
1853.27 2191182 2294089 2355226 2401245 2476170 2647343
1859.06 2842856 2888483 2794566 2720111 2726460 2777853
1864.84 2849897 2923138 2952525 2908062 2830706 2764308
1870.63 2664828 2527264 2412337 2346409 2306553 2284360
1876.41 2270733 2251713 2253233 2280808 2345075 2518215
1882.20 2792287 3085498 3349786 3592268 3844256 4136887
1887.99 4491188 4925764 5411724 5891972 6340557 6747284
1893.77 7081751 7305024 7386417 7307740 7026123 6519520
1899.56 5928104 5596468 5803619 6384988 6869051 6975703
1905.34 6733091 6304376 5804200 5238480 4613845 3976303
1911.13 3335745 2713419 2154393 1682170 1297025 980659
1916.91 737987 579097 466875 379826 327599 321333
1922.70 350426 404314 485910 613591 811702 1072121
1928.48 1372227 1717790 2122519 2585141 3076275 3557080
1934.27 4004271 4400877 4682572 4786969 4772553 4714127
1940.05 4640296 4800690 5405573 5738648 4986379 4054348
1945.84 3980366 4381218 4684139 4719071 4485536 4032042
1951.63 3427222 2757199 2122730 1597105 1196916 924501
1957.41 758524 665648 609807 571892 565913 586783
1963.20 611225 614916 581311 536990 524510 523686
1968.98 518669 514827 498072 491801 508728 481742
1974.77 420602 395961 392835 387169 385204 381194
1980.55 372922 361582 334836 298924 276890 273646
1986.34 272350 262063 244624 230027 213872 185143
1992.12 161548 147460 134332 123803 108636 103607
1997.91 119570 132869 122870 100095 77791 51959
2003.69 27295 33981 54149 11110-49448-50133
2009.48-47458-53210-34323-7252 3085 4427
2015.27 5876 15492 39153 63025 58446 24390
2021.05-2299-11143-26709-47067-56110-55421
2026.84-47504-36781-35774-44375-54450-58810
2032.62-56971-57942-66296-65746-55757-50346
2038.41-54255-48727-32716-22462-19359-15492
2044.19-8530-5821-9265-10147-12502-24001
2049.98-41322-49975-42283-29256-36602-53778
2055.76-73961-99281-117837-136284-150375-158382
2061.55-173697-193047-201992-199812-199965-202436
2067.33-207662-211837-209485-201301-196974-188380
2073.12-172526-173288-181844-171557-157798-162376
2078.91-167992-157072-145080-138527-123373-91460
2084.69-61317-64555-87507-96955-92233-89389
2090.48-108172-135492-152886-156030-144875-114020
2096.26-70286-21795 5504-3404-4141 27645
2102.05 69171 83244 75400 85159 122763 154703
2107.83 155336 156791 185285 217894 225904 251128
2113.62 319640 384529 390333 350790 324378 325973
2119.40 308592 284170 273554 251507 195260 129789
2125.19 102056 106082 109199 107997 99904 63328
2130.97 7450-44228-91967-127076-152208-181992
2136.76-202566-197489-189597-198145-197425-177069
2142.55-169435-168929-156331-144205-142491-139632
2148.33-119731-88571-73548-83511-96927-94960
2154.12-86698-65313-12093 37158 30708 3950
2159.90-2225-13802-46346-67419-55521-35873
2165.69-41080-50482-45478-66272-111919-113552
2171.47-88138-104574-136099-122931-96364-104268
2177.26-106803-81612-80395-116064-125753-98424
2183.04-97500-114987-96643-60631-47620-42712
2188.83-30554-29666-35012-2297 58870 111595
2194.61 161414 214203 247069 268172 293505 312656
2200.40 326462 351299 408097 479988 504701 501395
2206.19 498821 492829 504918 536114 579456 604941
2211.97 571684 502457 439669 388278 342239 322238
2217.76 320004 313030 312890 314391 294137 252892
2223.54 215006 206466 210768 202710 180138 153180
2229.33 133702 119429 108368 109191 116998 111230
2235.11 85483 65938 53410 29693 7961 4825
2240.90-1797-11348-14749-19093-39446-71665
2246.68-96748-110641-116143-111003-93330-73867
2252.47-60247-40958-17365-692 13287 38189
2258.25 66242 90139 114585 148604 195768 239530
2264.04 273908 313593 362240 415086 466936 510161
2269.83 543633 575857 598184 600169 588709 575957
2275.61 563560 547771 527637 497492 476929 489218
2281.40 494986 468338 437664 415056 390473 363944
2287.18 314801 241199 184402 162223 153916 149084
2292.97 149186 139042 128614 118639 83640 55341
2298.75 47633 50761 58630 68934 94150 118329
2304.54 132797 155427 199733 251593 305720 362950
2310.32 422607 460507 458196 433084 383249 342101
2316.11 331853 406660 499716 455043 307325 252806
2321.89 262830 271990 261983 227168 155965 94276
2327.68 40139-29504-116128-188528-206425-159848
2333.47-105420-67377-26421 44894 115662 168585
2339.25 209587 228006 214020 194076 182753 197077
2345.04 267419 412128 591524 705759 684842 559193
2350.82 391438 212416 29449-147067-320180-479896
2356.61-634143-774687-865687-905698-924346-942162
2362.39-957925-958104-935780-892548-841887-773105
2368.18-684385-590054-504231-438645-383066-318933
2373.96-259334-206524-157250-105031-65640-51700
2379.75-50689-25958 10663 33294 53740 69066
2385.53 76729 79008 69247 65205 72193 89727
2391.32 116017 132037 123795 125803 139283 139439
2397.11 149221 187640 222175 250452 285405 311499
2402.89 338492 392440 450448 493925 552105 613534
2408.68 619106 591054 566628 555721 571746 609220
2414.46 647576 697354 755582 791269 787250 774561
2420.25 809464 870677 899164 904955 905878 922581
2426.03 966411 1024217 1070331 1091722 1118245 1151773
2431.82 1167806 1197994 1239313 1272167 1311881 1348185
2437.60 1349052 1326343 1307063 1309200 1316136 1304105
2443.39 1286275 1282756 1273521 1228263 1149829 1081529
2449.17 1053858 1058474 1057717 1047731 1010077 949317
2454.96 882361 798339 704431 622871 569734 533547
2460.75 481844 428695 415913 423601 414688 404875
2466.53 396862 382759 354002 320616 300950 293219
2472.32 282161 269967 276796 300892 305642 291596
2478.10 291694 296993 293101 300890 314814 321431
2483.89 324315 321784 308461 293316 284161 298388
2489.67 315580 318746 318528 295750 258219 238279
2495.46 236651 266720 300710 293715 261912 233925
2501.24 223547 227895 225036 224689 222254 208980
2507.03 197074 189472 182663 188289 196229 188009
2512.81 168792 156480 132625 119067 140349 159963
2518.60 142520 102644 65412 43758 35046 18123
2524.39-1830-4025-6878-22401-39070-41685
2530.17-28400-12591-15400-30696-35847-41566
2535.96-58748-68226-76587-72299-52125-46574
2541.74-54958-44139-18089 5273 4254 3136
2547.53 12585 31015 65968 104505 143516 182495
2553.31 218470 265972 347990 459940 539926 573040
2559.10 604787 666462 735167 797834 889910 1012860
2564.88 1101918 1143668 1182839 1256121 1349635 1449416
2570.67 1542145 1603340 1636797 1648858 1632138 1602550
2576.45 1572038 1540139 1507249 1491216 1505239 1527338
2582.24 1521439 1479045 1374716 1218286 1075731 991518
2588.03 946549 900165 840223 784967 700449 596499
2593.81 535877 499511 456316 427794 418259 416394
2599.60 410817 404819 408773 436683 480541 515117
2605.38 536296 563967 584035 577199 572036 591030
2611.17 610647 618884 615658 590099 543407 522261
2616.95 535264 552170 544292 521422 485780 438108
2622.74 395628 343901 268576 211652 185366 142374
2628.52 91571 85749 101177 108726 110134 86119
2634.31 49674 32264 14425-11809-22755-24465
2640.09-32157-23813-7381-2768-6610-3503
2645.88 2774-3800-13812-16745-17786-6875
2651.67 11942 18666 21792 25405 31079 52113
2657.45 68589 68858 67051 71481 73454 78790
2663.24 85232 95975 122076 148173 168382 191022
2669.02 209971 239263 271890 279932 274544 282116
2674.81 290123 297894 317309 334760 319363 297544
2680.59 312574 338270 340084 338449 342639 338551
2686.38 320553 300656 299366 316609 321678 321304
2692.16 318995 310155 311953 318737 297066 268741
2697.95 267017 291937 319315 342713 356368 374078
2703.73 421476 480088 519039 540866 561650 604933
2709.52 655112 691969 730478 794938 867715 929174
2715.31 1003572 1120244 1263709 1412453 1542361 1647919
2721.09 1762701 1888639 2011100 2150028 2313510 2508227
2726.88 2732675 2986591 3273508 3615348 4041630 4525926
2732.66 5010227 5481454 5871147 6128159 6270515 6306609
2738.45 6290663 6364750 6705537 7085240 6991704 6541617
2744.23 6196610 6112431 6212598 6375550 6448227 6292637
2750.02 5886800 5305553 4656132 4027580 3446177 2942389
2755.80 2547880 2270301 2080990 1938143 1870063 1909886
2761.59 1987857 2044895 2109860 2198828 2271243 2305822
2767.37 2321006 2372111 2488188 2624963 2648372 2539410
2773.16 2474838 2543140 2661164 2750860 2802332 2803766
2778.95 2734436 2613906 2466740 2299765 2136156 2017058
2784.73 1958241 1920542 1874579 1843781 1817700 1795285
2790.52 1792997 1793588 1787856 1774801 1773586 1790197
2796.30 1820016 1865482 1905217 1933594 1961943 2010136
2802.09 2075790 2163474 2283899 2401580 2498304 2601796
2807.87 2706010 2797523 2899833 3036470 3186562 3344823
2813.66 3474878 3540358 3611004 3707061 3798735 3913879
2819.44 4044045 4196948 4405054 4661420 4915070 5105618
2825.23 5223076 5292542 5362497 5465054 5603103 5764221
2831.01 5911032 6044895 6173397 6281497 6372508 6480932
2836.80 6642428 6873365 7172708 7520022 7885629 8232383
2842.59 8547645 8893322 9309673 9759181 10208441 10692075
2848.37 11268009 11940764 12667903 13447044 14359183 15501776
2854.16 16894878 18482135 20175910 21975758 23872990 25805862
2859.94 27766437 29748478 31740416 33755153 35845125 38051386
2865.73 40403558 42821506 45053845 47156056 49379126 51713780
2871.51 53967317 56047712 57921403 59554827 61014949 62355173
2877.30 63582989 64729795 65672627 66266807 66564896 66455661
2883.08 65906554 65371793 65169165 65120800 64835241 64115464
2888.87 63142068 62253800 61523445 60777049 59930703 58940687
2894.65 57768944 56460181 55055544 53615172 52240193 51064550
2900.44 50308299 49954946 49710912 49387376 48887964 48213151
2906.23 47648350 47476226 47745811 48486074 49648253 50871652
2912.01 51845121 52702727 53631117 54753473 56269896 58238215
2917.80 60630365 63459204 66773365 70396595 73985577 77434332
2923.58 80875160 84372713 87855413 91169484 94307255 97446971
2929.37 100841897 104465220 107544925 109247310 110366833 112058557
2935.15 114094036 115938362 117426206 118360921 118581927 117966000
2940.94 116495590 114521877 112430097 110662097 110519554 115067892
2946.72 124366790 129764214 127455261 123918971 122052267 119148039
2952.51 113277692 105718144 98498655 92664108 88383408 85452611
2958.29 83483912 82053184 80920889 80132901 79512919 78885221
2964.08 78563373 78873076 79942806 81829841 84395965 87445800
2969.87 90832423 94322749 97606453 100387561 102264082 102858374
2975.65 101855072 98955698 94254554 89023855 85586211 85792679
2981.44 89084645 92589331 93767515 92191783 88654952 83916596
2987.22 78314436 72093887 65611689 59227782 53263219 47929853
2993.01 43301090 39424468 36221954 33556804 31308571 29384706
2998.79 27723760 26314743 25325696 24998618 25364584 26220564
3004.58 27248128 28320848 29546886 31072369 32968576 35311925
3010.36 38224461 41805889 46087961 51056186 56619569 62654240
3016.15 68940865 75187757 81112867 86426300 90908204 94306686
3021.93 96154105 96060275 94412753 92980950 94421946 99987295
3027.72 107470004 113015557 114841272 113848250 111486408 108446922
3033.51 104566023 99330611 93014876 86680869 81297198 77161997
3039.29 73852855 70843982 67841505 64800631 61831049 59135638
3045.08 56817032 54914470 53522544 52711740 52463107 52825163
3050.86 53837870 55333821 56953250 58532096 60264724 62288788
3056.65 64437116 66506157 68381925 70008872 71395923 72752572
3062.43 74408079 76304141 77975440 79209168 80108211 80990883
3068.22 81983324 82792672 83081896 82650048 81486065 79699555
3074.00 77424837 75019684 72957173 71656305 71196336 71094180
3079.79 70652924 69426569 67333191 64580314 61462330 58234096
3085.57 55088982 52274540 49969018 47997862 45835002 43076146
3091.36 39912242 37145812 35187784 33580038 31801073 29663905
3097.15 27218709 24673524 22239745 20096583 18337010 17004605
3102.93 16090395 15544280 15307148 15296559 15450006 15728945
3108.72 16028626 16249533 16340328 16272532 16007076 15563397
3114.50 15006599 14427851 13974081 13768133 13794238 13886890
3120.29 13757963 13279980 12580637 11797390 10949430 10029329
3126.07 9051391 8064006 7115242 6279323 5565985 4941189
3131.86 4403462 3974519 3625856 3310408 3049993 2872837
3137.64 2743660 2625190 2497568 2382895 2317180 2279133
3143.43 2210889 2143418 2089740 2029399 1983597 1962599
3149.21 1927458 1892035 1878385 1848296 1797834 1793679
3155.00 1828506 1847252 1855223 1863440 1860616 1854447
3160.79 1855044 1861181 1840546 1819678 1832563 1863319
3166.57 1879724 1888715 1883513 1852370 1816097 1807345
3172.36 1803535 1766172 1697739 1644531 1607918 1545324
3178.14 1457047 1390636 1319163 1225167 1141316 1088622
3183.93 1025601 943898 888898 861003 828699 808644
3189.71 789850 776763 765531 733465 691265 653279
3195.50 615922 596782 591095 575929 556453 529843
3201.28 492426 471435 448386 421742 404815 397471
3207.07 386680 379151 368496 338563 297373 274908
3212.85 269654 258139 244129 248581 237597 218114
3218.64 228060 252083 247900 246980 273818 307752
3224.43 314283 282753 249774 221766 178287 155633
3230.21 167372 177435 159819 143103 141238 155718
3236.00 155252 109811 59290 69543 89355 83623
3241.78 83735 96288 106230 103577 72403 43402
3247.57 31011 13559 1828 20939 40289 39767
3253.35 23222 9441 14892 26784 18970 14437
3259.14 9961 4560 16981 32368 8833-30923
3264.92-47130-10847 27070 33755 28446 26889
3270.71 34135 36287 20425-12725-43044-20648
3276.49 21783 41826 50714 36591 1082-4726
3282.28 24708 55600 74015 68395 44323 33005
3288.07 14555 12484 61352 109212 95514 59635
3293.85 50292 84277 127122 127346 85574 59027
3299.64 67483 81633 80458 85901 101728 108752
3305.42 90878 72325 44725 22365 55826 109466
3311.21 116735 103955 77435 60697 75875 91354
3316.99 92070 73856 32337 214-24157-42849
3322.78-11819 18232-12683-41633-43670-29607
3328.56-25661-30812-30434-31677-36423-38189
3334.35-59362-71979-59040-39346-9492 14382
3340.13 78-22632-36369-40917-30177-23041
3345.92-51165-46660-15036-10186-10970-19821
3351.71-38252-28352-25492-48224-40555 4684
3357.49 24243 17631 14624 21325 14347 24596
3363.28 53916 51025 27679 10891 9607 41498
3369.06 65414 73822 85480 96546 128478 168545
3374.85 183042 201636 213215 192803 144872 106135
3380.63 110144 163685 210005 218986 207719 185452
3386.42 172054 166309 171296 190084 192606 193704
3392.20 163307 127698 123599 109669 76423 65078
3397.99 34085-17484-38058-19192-20399-48352
3403.77-41689-27360-60694-79524-61836-70911
3409.56-85244-69971-60180-73604-108337-98579
3415.35-56328-36803-50579-78321-74910-39343
3421.13-28691-40916-63115-59180-42759-27485
3426.92-29442-46194-18315 28056 39892 22296
3432.70-18120-38009-2670 61307 58485 18095
3438.49 20051 29602 25588 40865 41991 27866
3444.27 51528 76516 64492 90264 110528 119028
3450.06 169489 201824 207480 203987 171061 163992
3455.84 205315 231425 247105 268745 261652 261869
3461.63 267717 242934 224607 223559 249798 291854
3467.41 274994 201151 139418 163582 220985 206209
3473.20 138464 105785 97075 100115 104596 68823
3478.99 27935 48456 88764 87871 61797 72077
3484.77 71713 46371 29987 12260-16930-33765
3490.56-46926-43209-43897-44231-37912-65207
3496.34-103109-102091-87367-97109-111547-107165
3502.13-113604-123756-122944-131090-131005-99709
3507.91-85796-87867-99076-121413-144426-149678
3513.70-136769-113045-102950-108558-121169-112715
3519.48-110306-122145-115618-120528-138913-126255
3525.27-112716-110367-117335-118753-97514-87856
3531.05-86515-67523-86660-123623-125755-94615
3536.84-88668-95862-92240-108686-113911-89996
3542.63-66514-60994-78620-77659-69606-63636
3548.41-54299-60135-81645-60360-4366 5615
3554.20-31791-68351-93957-98863-91104-78191
3559.98-73510-43704-11837-32762-68718-73862
3565.77-73925-73779-41066-2982-12949-21583
3571.55-17402-15847-3234 7443 3861 20672
3577.34 43459 43202 29229 39379 62672 82617
3583.12 92761 68365-12714-66954-60018-42639
3588.91-3116 42610 39016 32833 76944 106718
3594.69 90919 93572 97148 98246 128276 164423
3600.48 200448 229192 234827 211830 183278 182699
3606.27 185581 188026 181181 185019 176798 158034
3612.05 165454 160011 120778 90351 62252 40332
3617.84-7096-46163-37654-48067-67852-70632
3623.62-83881-91737-106581-178081-282816-311720
3629.41-241346-168599-140025-105650-72977-67574
3635.19-93034-107271-93228-81872-96424-110617
3640.98-104411-84188-58598-45337-66980-106001
3646.76-152026-216628-246042-194860-134838-100458
3652.55-79861-70736-112993-143889-105683-46256
3658.33-23133-30331-45002-61502-64509-54680
3664.12-59902-91742-144237-163329-172587-226407
3669.91-245068-165335-130401-194210-282889-298011
3675.69-210575-133313-152098-180024-164767-124802
3681.48-97217-91331-96886-98042-119518-203971
3687.26-304895-278122-207196-167480-113219-79026
3693.05-75140-64262-64520-82061-105766-118342
3698.83-125848-130308-137954-124474-128982-152669
3704.62-154245-142950-158817-201739-239901-237017
3710.40-269021-309564-247956-172706-166911-178868
3716.19-174432-155690-143361-132823-146840-163153
3721.97-165719-174102-187440-182453-157888-139267
3727.76-143442-135425-154123-225556-234786-189937
3733.55-211782-251584-271879-239937-161547-98734
3739.33-95179-100107-87820-172784-341665-289428
3745.12-71417 25809-20633-116674-106247-43632
3750.90-61771 1132 130911 187849 178778 176910
3756.69 192931 165581 120824 153817 205277 213485
3762.47 219217 225121 196210 172440 149806 90313
3768.26 930-35335-7082 480-19485-17500
3774.04-7620-13882-33193-48581-61549-67154
3779.83-47349-29339-34628-37135-37622-11772
3785.61 36055 62999 57534 67258 81995 74726
3791.40 69492 75373 85350 76615 31454 44434
3797.19 113214 115500 13897-89340-51204 80839
3802.97 153416 145687 61299-16600 32432 140446
3808.76 175356 170615 155118 147669 173328 150485
3814.54 33839 28373 159462 227598 185062 103722
3820.33 85156 178779 289903 354570 387839 401766
3826.11 407319 434714 463869 464593 423660 409572
3831.90 441451 456831 459556 468554 392704 294373
3837.68 348805 445538 462831 483465 505811 516137
3843.47 534287 546432 565400 609239 624013 620497
3849.25 591623 513823 477406 466331 436949 571741
3855.04 757802 832035 849276 844128 817636 799133
3860.83 812815 864210 878830 850656 870929 937258
3866.61 953576 879940 786112 790761 846246 872863
3872.40 869958 872482 891617 919523 952382 990111
3878.18 1003753 989638 981733 998409 1010009 1009846
3883.97 986781 994409 1084165 1189610 1245771 1243890
3889.75 1216218 1253718 1336514 1391923 1426763 1461293
3895.54 1488041 1481528 1428086 1421118 1479449 1536777
3901.32 1577395 1559394 1479315 1448473 1458279 1463091
3907.11 1442769 1392180 1310775 1216008 1133419 1077813
3912.89 1024543 969253 901206 827498 769906 724455
3918.68 681053 675163 685880 672695 637271 595897
3924.47 560068 548635 525397 487645 438001 401547
3930.25 389269 382360 389059 402194 393372 387582
3936.04 382741 370711 365061 372942 367693 352516
3941.82 347789 366363 396699 425321 424417 434660
3947.61 458788 446165 442540 497192 542229 553837
3953.39 553949 545274 555864 581365 573800 588438
3959.18 638029 655470 644968 659076 682447 678297
3964.96 655632 636467 625194 660233 690004 673785
3970.75 622315 574963 553324 559379
##END=
