##TITLE=PHENOL, 2-METHYL-
##JCAMP-DX=4.24
##DATA TYPE=INFRARED SPECTRUM
##CLASS=COBLENTZ III
##ORIGIN=DOW CHEMICAL COMPANY
##OWNER=COBLENTZ SOCIETY
Collection (C) 2018 copyright by the U.S. Secretary of Commerce
on behalf of the United States of America. All rights reserved.
##DATE=1961/12/19
##NAMES=o-cresol
o-CRESOL
##CAS REGISTRY NO=95-48-7
##MOLFORM=C7 H8 O
##SOURCE REFERENCE=COBLENTZ NO. 10149
##$NIST SOURCE=COBLENTZ
##$NIST IMAGE=cob10149
##SPECTROMETER/DATA SYSTEM=DOW KBr FOREPRISM-GRATING
##INSTRUMENT PARAMETERS=BLAZED AT 3.5, 12.0, 20.0 MICRON, CHANGED AT 5.0, 7.5, 14.9 MICRON
##STATE=SOLUTION (10% IN CCl4 FOR 3800-1333, 10% IN CS2 FOR 1333-450 CM^-^1)
##PATH LENGTH=0.011, 0.011 CM
$$SPECTRAL CONTAMINATION DUE TO CCl4 AROUND 1550 CM^-^1
$$ SEE SPECTRUM NO. 8289 FOR "LIQUID (NEAT)" STATE
##SAMPLING PROCEDURE=TRANSMISSION
##RESOLUTION=4
##DATA PROCESSING=DIGITIZED BY NIST FROM HARD COPY (FROM TWO SEGMENTS)
##XUNITS=1/CM
##YUNITS=TRANSMITTANCE
##XFACTOR=1.000000
##YFACTOR=1
##DELTAX=0.870071
##FIRSTX=438.225
##LASTX=3799.31
##FIRSTY=0.821
##MAXX=3799.31
##MINX=438.225
##MAXY=1.0079
##MINY=0.006
##NPOINTS=3864
##XYDATA=(X++(Y..Y))
438.225000 0.8210 0.8210 0.8210 0.8210 0.8210
442.575356 0.8210 0.8210 0.8210 0.8210 0.8210
446.925712 0.8210 0.8230 0.8230 0.8240 0.8240
451.276068 0.8240 0.8240 0.8240 0.8250 0.8250
455.626424 0.8270 0.8280 0.8280 0.8290 0.8310
459.976780 0.8310 0.8310 0.8320 0.8340 0.8350
464.327135 0.8350 0.8350 0.8360 0.8360 0.8380
468.677491 0.8390 0.8390 0.8400 0.8420 0.8420
473.027847 0.8430 0.8430 0.8430 0.8430 0.8430
477.378203 0.8430 0.8430 0.8430 0.8430 0.8430
481.728559 0.8440 0.8440 0.8440 0.8440 0.8440
486.078915 0.8440 0.8440 0.8440 0.8440 0.8440
490.429271 0.8430 0.8430 0.8430 0.8430 0.8430
494.779627 0.8420 0.8420 0.8400 0.8400 0.8400
499.129983 0.8420 0.8400 0.8400 0.8390 0.8390
503.480339 0.8390 0.8390 0.8390 0.8380 0.8380
507.830695 0.8360 0.8360 0.8350 0.8350 0.8340
512.181051 0.8320 0.8320 0.8310 0.8270 0.8240
516.531406 0.8190 0.8130 0.8100 0.8050 0.7970
520.881762 0.7850 0.7760 0.7601 0.7411 0.7171
525.232118 0.6930 0.6690 0.6161 0.6140 0.6439
529.582474 0.6719 0.7119 0.7528 0.7739 0.7969
533.932830 0.8040 0.8040 0.8020 0.7950 0.7950
538.283186 0.7940 0.7940 0.7940 0.7950 0.8040
542.633542 0.8100 0.8170 0.8250 0.8310 0.8340
546.983898 0.8350 0.8400 0.8430 0.8460 0.8470
551.334254 0.8470 0.8500 0.8500 0.8500 0.8500
555.684610 0.8500 0.8510 0.8510 0.8510 0.8510
560.034966 0.8510 0.8510 0.8510 0.8510 0.8510
564.385321 0.8510 0.8510 0.8510 0.8510 0.8510
568.735677 0.8510 0.8500 0.8500 0.8480 0.8440
573.086033 0.8440 0.8430 0.8420 0.8380 0.8360
577.436389 0.8340 0.8320 0.8270 0.8140 0.7950
581.786745 0.7860 0.7850 0.7860 0.7940 0.8089
586.137101 0.8200 0.8340 0.8350 0.8380 0.8400
590.487457 0.8460 0.8470 0.8480 0.8480 0.8500
594.837813 0.8500 0.8500 0.8510 0.8510 0.8510
599.188169 0.8530 0.8530 0.8540 0.8540 0.8540
603.538525 0.8540 0.8540 0.8540 0.8540 0.8540
607.888881 0.8550 0.8550 0.8550 0.8550 0.8550
612.239237 0.8550 0.8550 0.8550 0.8550 0.8550
616.589592 0.8550 0.8550 0.8540 0.8540 0.8540
620.939948 0.8540 0.8540 0.8540 0.8530 0.8530
625.290304 0.8530 0.8510 0.8510 0.8510 0.8510
629.640660 0.8510 0.8500 0.8500 0.8480 0.8480
633.991016 0.8470 0.8440 0.8440 0.8420 0.8390
638.341372 0.8390 0.8380 0.8350 0.8320 0.8310
642.691728 0.8290 0.8250 0.8240 0.8210 0.8200
647.042084 0.8190 0.8170 0.8160 0.8140 0.8120
651.392440 0.8100 0.8090 0.8090 0.8100 0.8140
655.742796 0.8230 0.8290 0.8340 0.8360 0.8480
660.093152 0.8510 0.8540 0.8540 0.8570 0.8590
664.443508 0.8630 0.8680 0.8690 0.8690 0.8690
668.793863 0.8700 0.8700 0.8720 0.8730 0.8760
673.144219 0.8780 0.8780 0.8780 0.8800 0.8800
677.494575 0.8800 0.8800 0.8800 0.8780 0.8770
681.844931 0.8760 0.8740 0.8740 0.8730 0.8730
686.195287 0.8720 0.8720 0.8720 0.8730 0.8740
690.545643 0.8740 0.8730 0.8730 0.8720 0.8700
694.895999 0.8690 0.8650 0.8620 0.8550 0.8480
699.246355 0.8380 0.8200 0.7970 0.7750 0.7490
703.596711 0.7151 0.6731 0.6311 0.4667 0.4023
707.947067 0.3380 0.3170 0.3170 0.4388 0.4839
712.297423 0.5079 0.5409 0.6097 0.6508 0.7117
716.647778 0.7330 0.7480 0.7520 0.7650 0.7670
720.998134 0.7670 0.7670 0.7670 0.7670 0.7670
725.348490 0.7650 0.7630 0.7600 0.7560 0.7510
729.698846 0.7420 0.7340 0.7230 0.7110 0.7040
734.049202 0.6960 0.6820 0.6550 0.6360 0.6011
738.399558 0.5741 0.5291 0.4593 0.4241 0.3872
742.749914 0.3099 0.2190 0.1290 0.0820 0.0351
747.100270 0.0140 0.0090 0.0080 0.0060 0.0060
751.450626 0.0080 0.0080 0.0100 0.0120 0.0210
755.800982 0.0360 0.0500 0.1118 0.1778 0.2228
760.151338 0.2700 0.3190 0.4239 0.4739 0.5249
764.501694 0.5739 0.6169 0.6529 0.6729 0.7168
768.852049 0.7460 0.7720 0.7940 0.8020 0.8120
773.202405 0.8170 0.8240 0.8310 0.8350 0.8400
777.552761 0.8460 0.8500 0.8540 0.8580 0.8610
781.903117 0.8620 0.8650 0.8700 0.8700 0.8740
786.253473 0.8770 0.8810 0.8840 0.8890 0.8930
790.603829 0.8970 0.8990 0.9000 0.9020 0.9030
794.954185 0.9030 0.9020 0.9020 0.9000 0.9000
799.304541 0.8990 0.8970 0.8960 0.8930 0.8920
803.654897 0.8890 0.8850 0.8810 0.8740 0.8720
808.005253 0.8680 0.8650 0.8650 0.8660 0.8680
812.355609 0.8690 0.8690 0.8700 0.8700 0.8700
816.705964 0.8720 0.8720 0.8720 0.8720 0.8720
821.056320 0.8700 0.8700 0.8690 0.8630 0.8610
825.406676 0.8540 0.8500 0.8430 0.8390 0.8290
829.757032 0.8170 0.8020 0.7820 0.7670 0.7400
834.107388 0.7140 0.6950 0.6741 0.5913 0.5153
838.457744 0.4359 0.3750 0.3120 0.2191 0.1261
842.808100 0.1260 0.1440 0.1639 0.1969 0.2269
847.158456 0.3071 0.4470 0.5020 0.5170 0.5300
851.508812 0.5889 0.6458 0.6610 0.6769 0.7029
855.859168 0.7110 0.7230 0.7290 0.7330 0.7450
860.209524 0.7590 0.7710 0.7750 0.7790 0.7860
864.559880 0.7940 0.7970 0.8050 0.8100 0.8140
868.910235 0.8160 0.8240 0.8290 0.8320 0.8340
873.260591 0.8390 0.8420 0.8460 0.8500 0.8530
877.610947 0.8540 0.8590 0.8620 0.8660 0.8700
881.961303 0.8730 0.8770 0.8810 0.8870 0.8930
886.311659 0.8990 0.9040 0.9120 0.9140 0.9180
890.662015 0.9210 0.9260 0.9270 0.9300 0.9310
895.012371 0.9340 0.9360 0.9370 0.9380 0.9400
899.362727 0.9420 0.9450 0.9460 0.9480 0.9480
903.713083 0.9480 0.9480 0.9480 0.9480 0.9460
908.063439 0.9460 0.9460 0.9460 0.9450 0.9440
912.413795 0.9420 0.9400 0.9380 0.9340 0.9310
916.764150 0.9250 0.9170 0.9100 0.8950 0.8760
921.114506 0.8460 0.8041 0.7930 0.7870 0.7860
925.464862 0.7850 0.7850 0.7860 0.7910 0.8040
929.815218 0.8190 0.8439 0.8719 0.8850 0.8960
934.165574 0.9100 0.9150 0.9220 0.9260 0.9310
938.515930 0.9310 0.9340 0.9360 0.9370 0.9380
942.866286 0.9380 0.9380 0.9380 0.9370 0.9370
947.216642 0.9370 0.9370 0.9360 0.9360 0.9340
951.566998 0.9340 0.9330 0.9310 0.9310 0.9300
955.917354 0.9290 0.9270 0.9260 0.9250 0.9230
960.267710 0.9220 0.9180 0.9150 0.9140 0.9120
964.618066 0.9110 0.9070 0.9060 0.9030 0.9020
968.968421 0.8930 0.8920 0.8890 0.8760 0.8730
973.318777 0.8660 0.8510 0.8400 0.8310 0.8191
977.669133 0.8050 0.7940 0.7820 0.7700 0.7460
982.019489 0.7360 0.7260 0.7250 0.7260 0.7370
986.369845 0.7530 0.7750 0.7940 0.8250 0.8470
990.720201 0.8660 0.8850 0.8920 0.8970 0.9040
995.070557 0.9100 0.9110 0.9140 0.9180 0.9210
999.420913 0.9220 0.9220 0.9230 0.9230 0.9230
1003.771269 0.9230 0.9230 0.9230 0.9220 0.9210
1008.121625 0.9190 0.9180 0.9170 0.9140 0.9100
1012.471981 0.9070 0.9060 0.9000 0.8970 0.8930
1016.822336 0.8910 0.8850 0.8820 0.8770 0.8700
1021.172692 0.8620 0.8540 0.8470 0.8390 0.8340
1025.523048 0.8280 0.8140 0.7980 0.7821 0.7671
1029.873404 0.7400 0.7170 0.6920 0.6820 0.6530
1034.223760 0.6280 0.5941 0.5411 0.4852 0.4720
1038.574116 0.4720 0.4730 0.4730 0.4680 0.4650
1042.924472 0.4650 0.4440 0.4440 0.4759 0.5567
1047.274828 0.7101 0.7760 0.8090 0.8310 0.8430
1051.625184 0.8460 0.8530 0.8620 0.8690 0.8700
1055.975540 0.8720 0.8720 0.8720 0.8720 0.8720
1060.325896 0.8700 0.8700 0.8690 0.8690 0.8660
1064.676252 0.8630 0.8610 0.8590 0.8570 0.8510
1069.026607 0.8480 0.8400 0.8360 0.8290 0.8290
1073.376963 0.8210 0.8130 0.8060 0.7970 0.7930
1077.727319 0.7790 0.7710 0.7640 0.7421 0.7231
1082.077675 0.7150 0.7060 0.7020 0.6970 0.6880
1086.428031 0.6760 0.6630 0.6480 0.6311 0.6091
1090.778387 0.5820 0.5520 0.5170 0.4740 0.4270
1095.128743 0.4000 0.3711 0.2882 0.2212 0.1831
1099.479099 0.1140 0.0880 0.0610 0.0550 0.0550
1103.829455 0.0580 0.0630 0.0760 0.1019 0.1189
1108.179811 0.1370 0.1900 0.2210 0.2720 0.4058
1112.530167 0.4419 0.4889 0.5608 0.6248 0.6589
1116.880523 0.7310 0.7590 0.7740 0.7830 0.8010
1121.230878 0.8170 0.8240 0.8320 0.8340 0.8340
1125.581234 0.8340 0.8340 0.8340 0.8310 0.8310
1129.931590 0.8290 0.8230 0.8160 0.8140 0.8100
1134.281946 0.8040 0.7950 0.7860 0.7750 0.7610
1138.632302 0.7510 0.7420 0.7121 0.6970 0.6811
1142.982658 0.6689 0.6389 0.5980 0.5700 0.5120
1147.333014 0.4361 0.4240 0.4210 0.4170 0.4060
1151.683370 0.3980 0.3900 0.3830 0.3740 0.3630
1156.033726 0.3560 0.3530 0.3490 0.3380 0.3031
1160.384082 0.2509 0.1640 0.1150 0.0930 0.0700
1164.734438 0.0580 0.0580 0.0610 0.0730 0.1059
1169.084793 0.1141 0.1410 0.1640 0.1790 0.2010
1173.435149 0.2020 0.2160 0.2280 0.2360 0.2549
1177.785505 0.2720 0.2930 0.3080 0.3310 0.3610
1182.135861 0.4050 0.4060 0.4050 0.4010 0.3950
1186.486217 0.3870 0.3760 0.3650 0.3550 0.3440
1190.836573 0.3330 0.3220 0.3190 0.3190 0.3170
1195.186929 0.3150 0.3110 0.2950 0.2810 0.2680
1199.537285 0.2550 0.2201 0.1761 0.1441 0.1111
1203.887641 0.0970 0.0820 0.0610 0.0500 0.0500
1208.237997 0.0550 0.0630 0.1299 0.1938 0.2438
1212.588353 0.2680 0.2690 0.2680 0.2470 0.2350
1216.938709 0.2320 0.2310 0.1821 0.1820 0.2249
1221.289064 0.2480 0.2680 0.2840 0.2950 0.3170
1225.639420 0.3180 0.3180 0.3150 0.3080 0.2970
1229.989776 0.2890 0.2740 0.2540 0.2500 0.2420
1234.340132 0.2320 0.2240 0.2140 0.2090 0.2060
1238.690488 0.2050 0.2040 0.2020 0.2010 0.2000
1243.040844 0.1980 0.1940 0.1910 0.1890 0.1870
1247.391200 0.1800 0.1750 0.1600 0.1370 0.1100
1251.741556 0.1020 0.0930 0.0701 0.0590 0.0540
1256.091912 0.0540 0.0580 0.0630 0.0760 0.1110
1260.442268 0.1270 0.1749 0.2319 0.2649 0.3039
1264.792624 0.3442 0.4291 0.4700 0.4950 0.5360
1269.142979 0.5680 0.6000 0.6419 0.6590 0.6730
1273.493335 0.6770 0.6840 0.7030 0.7080 0.7220
1277.843691 0.7360 0.7420 0.7460 0.7570 0.7610
1282.194047 0.7630 0.7630 0.7640 0.7630 0.7630
1286.544403 0.7600 0.7590 0.7570 0.7560 0.7480
1290.894759 0.7380 0.7270 0.7110 0.7000 0.6890
1295.245115 0.6580 0.6101 0.5591 0.5271 0.4931
1299.595471 0.4589 0.4270 0.4270 0.4720 0.4910
1303.945827 0.5250 0.5629 0.6997 0.7209 0.7310
1308.296183 0.7360 0.7360 0.7330 0.7270 0.7150
1312.646539 0.7110 0.7060 0.6990 0.6771 0.6471
1316.996895 0.6229 0.5939 0.5570 0.5180 0.4380
1321.347250 0.3940 0.3511 0.3141 0.2741 0.2341
1325.697606 0.1789 0.1510 0.1510 0.1890 0.2570
1330.047962 0.2770 0.2970 0.4008 0.4200 0.4439
1334.398318 0.4610 0.4690 0.4700 0.4810 0.4890
1338.748674 0.4990 0.5020 0.5110 0.5140 0.5210
1343.099030 0.5220 0.5230 0.5260 0.5330 0.5340
1347.449386 0.5370 0.5450 0.5480 0.5550 0.5610
1351.799742 0.5680 0.5750 0.5790 0.5870 0.5950
1356.150098 0.6020 0.6130 0.6170 0.6270 0.6320
1360.500454 0.6430 0.6500 0.6630 0.6720 0.6740
1364.850810 0.6760 0.6780 0.6820 0.6890 0.6910
1369.201165 0.6930 0.7000 0.7060 0.7100 0.7120
1373.551521 0.7170 0.7170 0.7150 0.7140 0.7110
1377.901877 0.7040 0.6950 0.6849 0.6270 0.6020
1382.252233 0.6020 0.6140 0.6469 0.6719 0.7099
1386.602589 0.7290 0.7440 0.7570 0.7600 0.7700
1390.952945 0.7760 0.7900 0.7930 0.8010 0.8100
1395.303301 0.8200 0.8240 0.8250 0.8270 0.8270
1399.653657 0.8280 0.8280 0.8250 0.8240 0.8240
1404.004013 0.8250 0.8250 0.8250 0.8270 0.8290
1408.354369 0.8310 0.8310 0.8340 0.8380 0.8400
1412.704725 0.8430 0.8430 0.8440 0.8460 0.8460
1417.055081 0.8430 0.8400 0.8390 0.8350 0.8250
1421.405436 0.8230 0.8190 0.8120 0.8060 0.8000
1425.755792 0.7950 0.7910 0.7820 0.7760 0.7710
1430.106148 0.7590 0.7480 0.7330 0.7230 0.7060
1434.456504 0.6950 0.6840 0.6610 0.6360 0.5522
1438.806860 0.5220 0.5059 0.4340 0.4050 0.4050
1443.157216 0.4060 0.4060 0.4060 0.4060 0.4060
1447.507572 0.4050 0.4050 0.4040 0.4010 0.4000
1451.857928 0.3980 0.3940 0.3870 0.3800 0.3780
1456.208284 0.3649 0.3080 0.2760 0.2500 0.2440
1460.558640 0.2250 0.2060 0.1860 0.1601 0.1331
1464.908996 0.1040 0.0990 0.1030 0.1080 0.1170
1469.259351 0.1300 0.1520 0.2059 0.2549 0.3188
1473.609707 0.3490 0.3630 0.3640 0.3640 0.3640
1477.960063 0.3640 0.3640 0.3680 0.3700 0.3720
1482.310419 0.3720 0.3700 0.3630 0.3530 0.3300
1486.660775 0.2841 0.2580 0.1862 0.1441 0.1191
1491.011131 0.1060 0.0990 0.0970 0.0950 0.0920
1495.361487 0.0910 0.0800 0.1249 0.1300 0.1380
1499.711843 0.1460 0.1550 0.1630 0.1700 0.1710
1504.062199 0.1720 0.1760 0.1760 0.1710 0.1710
1508.412555 0.1570 0.1510 0.1450 0.1410 0.1380
1512.762911 0.1380 0.1400 0.1510 0.1699 0.1949
1517.113267 0.2321 0.2811 0.3152 0.4310 0.4720
1521.463622 0.4850 0.5440 0.5720 0.5860 0.5900
1525.813978 0.5980 0.6020 0.6050 0.6080 0.6080
1530.164334 0.6050 0.6020 0.5980 0.5930 0.5890
1534.514690 0.5830 0.5750 0.5720 0.5680 0.5630
1538.865046 0.5600 0.5490 0.5290 0.5120 0.5060
1543.215402 0.5030 0.5000 0.4930 0.4910 0.4850
1547.565758 0.4780 0.4770 0.4760 0.4770 0.4770
1551.916114 0.4780 0.4800 0.4810 0.4820 0.4840
1556.266470 0.4910 0.4990 0.5000 0.5070 0.5180
1560.616826 0.5370 0.5380 0.5410 0.5410 0.5420
1564.967182 0.5490 0.5590 0.5640 0.5650 0.5670
1569.317538 0.5680 0.5680 0.5680 0.5670 0.5640
1573.667893 0.5640 0.5610 0.5570 0.5490 0.5311
1578.018249 0.5070 0.4920 0.4890 0.4680 0.4310
1582.368605 0.4080 0.3940 0.3800 0.3461 0.2851
1586.718961 0.2269 0.2010 0.1760 0.1550 0.1330
1591.069317 0.1310 0.1310 0.1330 0.1360 0.1370
1595.419673 0.1420 0.1480 0.1550 0.1610 0.1740
1599.770029 0.2010 0.2360 0.2779 0.3209 0.3629
1604.120385 0.4321 0.4620 0.4800 0.4990 0.5110
1608.470741 0.5170 0.5180 0.5180 0.5140 0.5120
1612.821097 0.5110 0.5120 0.5220 0.5380 0.5670
1617.171453 0.6210 0.7149 0.7340 0.7440 0.7759
1621.521808 0.8040 0.8280 0.8480 0.8620 0.8700
1625.872164 0.8730 0.8810 0.8890 0.8920 0.8970
1630.222520 0.9000 0.9070 0.9150 0.9210 0.9230
1634.572876 0.9310 0.9380 0.9490 0.9550 0.9550
1638.923232 0.9570 0.9600 0.9640 0.9680 0.9760
1643.273588 0.9780 0.9800 0.9820 0.9830 0.9830
1647.623944 0.9830 0.9830 0.9820 0.9820 0.9800
1651.974300 0.9790 0.9780 0.9780 0.9760 0.9760
1656.324656 0.9750 0.9710 0.9710 0.9680 0.9680
1660.675012 0.9650 0.9640 0.9630 0.9610 0.9600
1665.025368 0.9590 0.9570 0.9570 0.9560 0.9550
1669.375724 0.9550 0.9520 0.9420 0.9410 0.9400
1673.726079 0.9370 0.9360 0.9340 0.9330 0.9310
1678.076435 0.9310 0.9300 0.9290 0.9290 0.9290
1682.426791 0.9290 0.9290 0.9300 0.9310 0.9340
1686.777147 0.9360 0.9360 0.9370 0.9400 0.9400
1691.127503 0.9420 0.9460 0.9480 0.9490 0.9530
1695.477859 0.9550 0.9560 0.9560 0.9570 0.9590
1699.828215 0.9600 0.9610 0.9610 0.9630 0.9610
1704.178571 0.9600 0.9610 0.9610 0.9630 0.9630
1708.528927 0.9610 0.9610 0.9600 0.9600 0.9600
1712.879283 0.9610 0.9610 0.9610 0.9630 0.9630
1717.229639 0.9630 0.9610 0.9600 0.9600 0.9610
1721.579994 0.9610 0.9610 0.9610 0.9610 0.9600
1725.930350 0.9600 0.9590 0.9590 0.9590 0.9570
1730.280706 0.9570 0.9590 0.9590 0.9600 0.9570
1734.631062 0.9570 0.9570 0.9570 0.9570 0.9570
1738.981418 0.9570 0.9590 0.9590 0.9590 0.9600
1743.331774 0.9600 0.9590 0.9590 0.9590 0.9590
1747.682130 0.9590 0.9570 0.9570 0.9570 0.9570
1752.032486 0.9550 0.9550 0.9530 0.9530 0.9520
1756.382842 0.9510 0.9490 0.9480 0.9460 0.9450
1760.733198 0.9410 0.9360 0.9300 0.9270 0.9230
1765.083554 0.9230 0.9220 0.9220 0.9220 0.9220
1769.433910 0.9220 0.9230 0.9230 0.9230 0.9230
1773.784265 0.9230 0.9230 0.9230 0.9230 0.9230
1778.134621 0.9220 0.9220 0.9220 0.9220 0.9230
1782.484977 0.9260 0.9270 0.9290 0.9330 0.9340
1786.835333 0.9370 0.9410 0.9450 0.9460 0.9480
1791.185689 0.9530 0.9560 0.9560 0.9570 0.9570
1795.536045 0.9590 0.9590 0.9590 0.9590 0.9570
1799.886401 0.9570 0.9570 0.9550 0.9530 0.9490
1804.236757 0.9480 0.9460 0.9460 0.9460 0.9460
1808.587113 0.9460 0.9460 0.9460 0.9460 0.9460
1812.937469 0.9460 0.9460 0.9460 0.9460 0.9460
1817.287825 0.9480 0.9480 0.9490 0.9510 0.9530
1821.638180 0.9550 0.9550 0.9550 0.9560 0.9570
1825.988536 0.9570 0.9590 0.9600 0.9630 0.9640
1830.338892 0.9650 0.9650 0.9650 0.9670 0.9670
1834.689248 0.9650 0.9650 0.9640 0.9640 0.9640
1839.039604 0.9640 0.9630 0.9630 0.9610 0.9600
1843.389960 0.9590 0.9570 0.9560 0.9550 0.9520
1847.740316 0.9480 0.9460 0.9450 0.9450 0.9450
1852.090672 0.9450 0.9450 0.9450 0.9450 0.9450
1856.441028 0.9450 0.9460 0.9460 0.9480 0.9480
1860.791384 0.9480 0.9490 0.9520 0.9530 0.9550
1865.141740 0.9550 0.9560 0.9570 0.9590 0.9590
1869.492096 0.9600 0.9600 0.9600 0.9600 0.9600
1873.842451 0.9600 0.9570 0.9570 0.9550 0.9510
1878.192807 0.9460 0.9450 0.9420 0.9360 0.9310
1882.543163 0.9230 0.9170 0.9100 0.9030 0.8990
1886.893519 0.8930 0.8910 0.8890 0.8890 0.8910
1891.243875 0.8910 0.8920 0.8930 0.8930 0.8950
1895.594231 0.8960 0.8990 0.9020 0.9030 0.9060
1899.944587 0.9110 0.9140 0.9190 0.9260 0.9300
1904.294943 0.9310 0.9340 0.9380 0.9410 0.9440
1908.645299 0.9460 0.9490 0.9520 0.9530 0.9550
1912.995655 0.9560 0.9560 0.9560 0.9560 0.9550
1917.346011 0.9530 0.9530 0.9510 0.9490 0.9480
1921.696367 0.9450 0.9410 0.9370 0.9340 0.9310
1926.046722 0.9260 0.9230 0.9220 0.9220 0.9220
1930.397078 0.9230 0.9230 0.9230 0.9250 0.9250
1934.747434 0.9260 0.9270 0.9310 0.9340 0.9360
1939.097790 0.9410 0.9450 0.9480 0.9490 0.9530
1943.448146 0.9570 0.9590 0.9590 0.9600 0.9610
1947.798502 0.9630 0.9650 0.9670 0.9670 0.9680
1952.148858 0.9680 0.9670 0.9670 0.9670 0.9680
1956.499214 0.9700 0.9710 0.9720 0.9750 0.9760
1960.849570 0.9780 0.9780 0.9760 0.9740 0.9710
1965.199926 0.9680 0.9680 0.9680 0.9680 0.9680
1969.550282 0.9700 0.9700 0.9700 0.9710 0.9710
1973.900637 0.9720 0.9720 0.9740 0.9740 0.9740
1978.250993 0.9740 0.9720 0.9710 0.9710 0.9710
1982.601349 0.9710 0.9710 0.9710 0.9710 0.9710
1986.951705 0.9710 0.9700 0.9680 0.9670 0.9650
1991.302061 0.9650 0.9680 0.9700 0.9710 0.9720
1995.652417 0.9740 0.9750 0.9760 0.9780 0.9790
2000.002773 0.9800 0.9800 0.9800 0.9815 0.9830
2004.353129 0.9845 0.9860 0.9865 0.9870 0.9890
2008.703485 0.9910 0.9920 0.9930 0.9935 0.9940
2013.053841 0.9960 0.9980 0.9995 1.0010 1.0010
2017.404197 1.0010 1.0005 1.0000 0.9985 0.9970
2021.754553 0.9960 0.9950 0.9950 0.9950 0.9960
2026.104908 0.9970 0.9975 0.9980 0.9980 0.9980
2030.455264 0.9980 0.9980 0.9995 1.0010 1.0010
2034.805620 1.0010 1.0015 1.0020 1.0030 1.0040
2039.155976 1.0045 1.0050 1.0050 1.0050 1.0035
2043.506332 1.0020 1.0015 1.0010 1.0005 1.0000
2047.856688 1.0000 0.9999 0.9954 0.9909 0.9853
2052.207044 0.9799 0.9779 0.9762 0.9807 0.9851
2056.557400 0.9876 0.9901 0.9916 0.9930 0.9930
2060.907756 0.9930 0.9940 0.9950 0.9965 0.9980
2065.258112 0.9980 0.9980 0.9990 1.0000 1.0000
2069.608468 1.0000 1.0000 1.0000 0.9990 0.9979
2073.958823 0.9964 0.9950 0.9950 0.9950 0.9960
2078.309179 0.9970 0.9975 0.9980 0.9980 0.9980
2082.659535 0.9980 0.9980 0.9975 0.9970 0.9959
2087.009891 0.9950 0.9945 0.9940 0.9935 0.9929
2091.360247 0.9909 0.9889 0.9874 0.9858 0.9828
2095.710603 0.9799 0.9789 0.9779 0.9769 0.9761
2100.060959 0.9771 0.9780 0.9785 0.9790 0.9790
2104.411315 0.9790 0.9795 0.9801 0.9811 0.9823
2108.761671 0.9863 0.9901 0.9916 0.9931 0.9941
2113.112027 0.9952 0.9987 1.0021 1.0036 1.0051
2117.462383 1.0066 1.0079 1.0064 1.0050 1.0045
2121.812739 1.0039 1.0024 1.0010 1.0010 1.0010
2126.163094 1.0005 1.0000 1.0000 0.9999 0.9989
2130.513450 0.9980 0.9980 0.9981 0.9996 1.0010
2134.863806 1.0010 1.0010 1.0010 1.0010 1.0010
2139.214162 1.0010 1.0010 1.0010 1.0010 1.0010
2143.564518 1.0010 1.0010 1.0010 1.0010 1.0010
2147.914874 1.0011 1.0015 1.0020 1.0020 1.0020
2152.265230 1.0020 1.0021 1.0031 1.0040 1.0040
2156.615586 1.0040 1.0040 1.0039 1.0029 1.0020
2160.965942 1.0020 1.0020 1.0020 1.0020 1.0020
2165.316298 1.0020 1.0015 1.0010 1.0010 1.0010
2169.666654 1.0010 1.0010 1.0010 1.0010 1.0010
2174.017009 1.0010 1.0010 1.0010 1.0010 1.0010
2178.367365 1.0010 1.0009 1.0004 1.0000 1.0000
2182.717721 1.0000 1.0000 1.0000 1.0000 0.9999
2187.068077 0.9989 0.9980 0.9980 0.9979 0.9974
2191.418433 0.9968 0.9953 0.9940 0.9940 0.9939
2195.768789 0.9934 0.9930 0.9930 0.9930 0.9930
2200.119145 0.9930 0.9930 0.9930 0.9930 0.9930
2204.469501 0.9930 0.9930 0.9930 0.9930 0.9930
2208.819857 0.9930 0.9930 0.9931 0.9936 0.9940
2213.170213 0.9940 0.9939 0.9934 0.9929 0.9919
2217.520569 0.9909 0.9904 0.9900 0.9900 0.9899
2221.870925 0.9894 0.9890 0.9890 0.9890 0.9890
2226.221280 0.9890 0.9890 0.9890 0.9890 0.9891
2230.571636 0.9896 0.9900 0.9900 0.9899 0.9894
2234.921992 0.9890 0.9890 0.9889 0.9879 0.9870
2239.272348 0.9870 0.9869 0.9864 0.9859 0.9854
2243.622704 0.9848 0.9838 0.9830 0.9830 0.9830
2247.973060 0.9830 0.9829 0.9824 0.9820 0.9820
2252.323416 0.9818 0.9808 0.9800 0.9800 0.9799
2256.673772 0.9794 0.9789 0.9784 0.9780 0.9780
2261.024128 0.9778 0.9768 0.9759 0.9754 0.9747
2265.374484 0.9732 0.9720 0.9720 0.9720 0.9720
2269.724840 0.9720 0.9720 0.9719 0.9714 0.9710
2274.075195 0.9710 0.9710 0.9710 0.9709 0.9704
2278.425551 0.9700 0.9700 0.9697 0.9682 0.9667
2282.775907 0.9652 0.9639 0.9634 0.9630 0.9630
2287.126263 0.9631 0.9636 0.9640 0.9640 0.9643
2291.476619 0.9658 0.9671 0.9676 0.9682 0.9692
2295.826975 0.9700 0.9700 0.9700 0.9700 0.9701
2300.177331 0.9706 0.9710 0.9710 0.9709 0.9704
2304.527687 0.9697 0.9682 0.9670 0.9670 0.9670
2308.878043 0.9670 0.9668 0.9658 0.9649 0.9644
2313.228399 0.9637 0.9622 0.9609 0.9604 0.9597
2317.578755 0.9582 0.9570 0.9570 0.9573 0.9588
2321.929111 0.9601 0.9606 0.9613 0.9628 0.9643
2326.279466 0.9658 0.9670 0.9670 0.9670 0.9670
2330.629822 0.9670 0.9670 0.9670 0.9670 0.9668
2334.980178 0.9658 0.9650 0.9650 0.9650 0.9650
2339.330534 0.9652 0.9662 0.9671 0.9676 0.9682
2343.680890 0.9692 0.9700 0.9700 0.9701 0.9706
2348.031246 0.9710 0.9710 0.9710 0.9710 0.9710
2352.381602 0.9710 0.9714 0.9728 0.9742 0.9752
2356.731958 0.9760 0.9760 0.9760 0.9760 0.9760
2361.082314 0.9760 0.9762 0.9772 0.9780 0.9780
2365.432670 0.9780 0.9780 0.9780 0.9780 0.9780
2369.783026 0.9780 0.9780 0.9780 0.9781 0.9786
2374.133382 0.9791 0.9796 0.9800 0.9800 0.9800
2378.483737 0.9800 0.9802 0.9812 0.9820 0.9820
2382.834093 0.9817 0.9807 0.9799 0.9794 0.9789
2387.184449 0.9784 0.9777 0.9767 0.9760 0.9760
2391.534805 0.9759 0.9754 0.9749 0.9744 0.9737
2395.885161 0.9727 0.9720 0.9720 0.9719 0.9714
2400.235517 0.9709 0.9704 0.9693 0.9668 0.9649
2404.585873 0.9644 0.9639 0.9634 0.9626 0.9611
2408.936229 0.9596 0.9581 0.9567 0.9557 0.9547
2413.286585 0.9537 0.9530 0.9530 0.9530 0.9530
2417.636941 0.9530 0.9530 0.9529 0.9524 0.9516
2421.987297 0.9501 0.9489 0.9484 0.9480 0.9480
2426.337652 0.9480 0.9480 0.9480 0.9480 0.9480
2430.688008 0.9480 0.9480 0.9480 0.9480 0.9480
2435.038364 0.9480 0.9480 0.9480 0.9480 0.9481
2439.388720 0.9486 0.9490 0.9490 0.9496 0.9516
2443.739076 0.9534 0.9549 0.9560 0.9560 0.9560
2448.089432 0.9560 0.9561 0.9566 0.9570 0.9570
2452.439788 0.9567 0.9557 0.9539 0.9504 0.9477
2456.790144 0.9467 0.9458 0.9453 0.9450 0.9450
2461.140500 0.9452 0.9457 0.9465 0.9480 0.9496
2465.490856 0.9516 0.9533 0.9543 0.9553 0.9563
2469.841212 0.9570 0.9570 0.9573 0.9583 0.9590
2474.191568 0.9590 0.9592 0.9597 0.9600 0.9600
2478.541923 0.9600 0.9600 0.9600 0.9600 0.9600
2482.892279 0.9600 0.9600 0.9600 0.9598 0.9593
2487.242635 0.9590 0.9590 0.9587 0.9577 0.9570
2491.592991 0.9570 0.9568 0.9563 0.9555 0.9540
2495.943347 0.9530 0.9530 0.9530 0.9530 0.9528
2500.293703 0.9523 0.9518 0.9513 0.9507 0.9497
2504.644059 0.9490 0.9490 0.9493 0.9503 0.9510
2508.994415 0.9510 0.9513 0.9523 0.9530 0.9530
2513.344771 0.9533 0.9543 0.9550 0.9550 0.9552
2517.695127 0.9557 0.9562 0.9567 0.9573 0.9583
2522.045483 0.9592 0.9597 0.9602 0.9607 0.9614
2526.395838 0.9624 0.9630 0.9630 0.9630 0.9630
2530.746194 0.9627 0.9617 0.9610 0.9610 0.9610
2535.096550 0.9610 0.9607 0.9597 0.9587 0.9576
2539.446906 0.9570 0.9570 0.9568 0.9563 0.9560
2543.797262 0.9560 0.9562 0.9567 0.9570 0.9570
2548.147618 0.9574 0.9584 0.9592 0.9597 0.9600
2552.497974 0.9600 0.9602 0.9607 0.9614 0.9624
2556.848330 0.9630 0.9630 0.9630 0.9630 0.9630
2561.198686 0.9630 0.9630 0.9630 0.9630 0.9630
2565.549042 0.9630 0.9630 0.9626 0.9616 0.9610
2569.899398 0.9610 0.9610 0.9610 0.9608 0.9603
2574.249754 0.9598 0.9593 0.9590 0.9590 0.9590
2578.600109 0.9590 0.9586 0.9576 0.9570 0.9570
2582.950465 0.9570 0.9570 0.9570 0.9570 0.9570
2587.300821 0.9570 0.9570 0.9570 0.9570 0.9570
2591.651177 0.9570 0.9570 0.9568 0.9563 0.9560
2596.001533 0.9560 0.9560 0.9560 0.9560 0.9560
2600.351889 0.9562 0.9567 0.9570 0.9570 0.9574
2604.702245 0.9584 0.9592 0.9597 0.9600 0.9600
2609.052601 0.9602 0.9607 0.9610 0.9610 0.9610
2613.402957 0.9610 0.9608 0.9603 0.9600 0.9600
2617.753313 0.9600 0.9600 0.9598 0.9593 0.9586
2622.103669 0.9576 0.9568 0.9563 0.9562 0.9567
2626.454024 0.9576 0.9591 0.9606 0.9621 0.9634
2630.804380 0.9644 0.9650 0.9650 0.9648 0.9643
2635.154736 0.9640 0.9640 0.9638 0.9633 0.9630
2639.505092 0.9630 0.9626 0.9616 0.9606 0.9596
2643.855448 0.9590 0.9590 0.9586 0.9576 0.9570
2648.205804 0.9570 0.9570 0.9570 0.9574 0.9584
2652.556160 0.9594 0.9604 0.9614 0.9624 0.9632
2656.906516 0.9637 0.9642 0.9647 0.9656 0.9672
2661.256872 0.9684 0.9694 0.9696 0.9686 0.9680
2665.607228 0.9680 0.9678 0.9673 0.9670 0.9670
2669.957584 0.9670 0.9670 0.9666 0.9656 0.9650
2674.307940 0.9650 0.9650 0.9650 0.9650 0.9650
2678.658295 0.9650 0.9650 0.9648 0.9643 0.9640
2683.008651 0.9640 0.9638 0.9633 0.9630 0.9630
2687.359007 0.9630 0.9630 0.9630 0.9630 0.9625
2691.709363 0.9615 0.9610 0.9610 0.9608 0.9603
2696.059719 0.9600 0.9600 0.9600 0.9600 0.9600
2700.410075 0.9600 0.9600 0.9600 0.9600 0.9600
2704.760431 0.9600 0.9600 0.9600 0.9600 0.9600
2709.110787 0.9600 0.9600 0.9600 0.9600 0.9600
2713.461143 0.9600 0.9600 0.9598 0.9593 0.9590
2717.811499 0.9590 0.9585 0.9575 0.9568 0.9563
2722.161855 0.9558 0.9553 0.9543 0.9528 0.9513
2726.512210 0.9498 0.9483 0.9468 0.9458 0.9453
2730.862566 0.9428 0.9383 0.9323 0.9248 0.9200
2735.212922 0.9180 0.9170 0.9170 0.9175 0.9185
2739.563278 0.9205 0.9235 0.9269 0.9309 0.9349
2743.913634 0.9389 0.9434 0.9484 0.9515 0.9525
2748.263990 0.9538 0.9553 0.9570 0.9590 0.9608
2752.614346 0.9623 0.9635 0.9645 0.9655 0.9665
2756.964702 0.9670 0.9670 0.9670 0.9670 0.9672
2761.315058 0.9677 0.9687 0.9702 0.9713 0.9718
2765.665414 0.9720 0.9720 0.9717 0.9712 0.9710
2770.015770 0.9710 0.9710 0.9710 0.9713 0.9718
2774.366126 0.9720 0.9720 0.9720 0.9720 0.9720
2778.716481 0.9720 0.9725 0.9735 0.9740 0.9740
2783.066837 0.9740 0.9740 0.9743 0.9748 0.9750
2787.417193 0.9750 0.9750 0.9750 0.9747 0.9742
2791.767549 0.9735 0.9725 0.9715 0.9705 0.9695
2796.117905 0.9685 0.9680 0.9680 0.9677 0.9672
2800.468261 0.9670 0.9670 0.9659 0.9639 0.9625
2804.818617 0.9615 0.9607 0.9602 0.9597 0.9592
2809.168973 0.9585 0.9575 0.9565 0.9555 0.9545
2813.519329 0.9535 0.9525 0.9515 0.9502 0.9487
2817.869685 0.9475 0.9465 0.9460 0.9460 0.9457
2822.220041 0.9452 0.9447 0.9442 0.9435 0.9425
2826.570397 0.9417 0.9412 0.9410 0.9410 0.9402
2830.920752 0.9387 0.9369 0.9349 0.9332 0.9317
2835.271108 0.9304 0.9294 0.9268 0.9228 0.9190
2839.621464 0.9155 0.9112 0.9062 0.9009 0.8954
2843.971820 0.8897 0.8837 0.8788 0.8748 0.8697
2848.322176 0.8637 0.8563 0.8478 0.8373 0.8252
2852.672532 0.8134 0.8019 0.7899 0.7774 0.7666
2857.022888 0.7571 0.7473 0.7373 0.7307 0.7267
2861.373244 0.7250 0.7250 0.7281 0.7336 0.7394
2865.723600 0.7454 0.7545 0.7660 0.7736 0.7781
2870.073956 0.7844 0.7919 0.7991 0.8061 0.8102
2874.424312 0.8122 0.8139 0.8154 0.8163 0.8168
2878.774667 0.8170 0.8170 0.8158 0.8138 0.8118
2883.125023 0.8098 0.8081 0.8066 0.8045 0.8020
2887.475379 0.7998 0.7978 0.7952 0.7922 0.7860
2891.825735 0.7775 0.7710 0.7660 0.7640 0.7640
2896.176091 0.7649 0.7664 0.7670 0.7670 0.7664
2900.526447 0.7654 0.7638 0.7618 0.7598 0.7578
2904.876803 0.7552 0.7522 0.7489 0.7454 0.7416
2909.227159 0.7376 0.7287 0.7167 0.7072 0.6992
2913.577515 0.6912 0.6832 0.6770 0.6720 0.6616
2917.927871 0.6476 0.6309 0.6124 0.5914 0.5686
2922.278227 0.5591 0.5576 0.5579 0.5594 0.5646
2926.628583 0.5721 0.5772 0.5807 0.5835 0.5860
2930.978938 0.5910 0.5975 0.6018 0.6048 0.6094
2935.329294 0.6149 0.6204 0.6259 0.6314 0.6370
2939.679650 0.6415 0.6455 0.6489 0.6519 0.6530
2944.030006 0.6530 0.6521 0.6506 0.6487 0.6467
2948.380362 0.6441 0.6411 0.6397 0.6392 0.6390
2952.730718 0.6390 0.6399 0.6414 0.6439 0.6469
2957.081074 0.6509 0.6554 0.6589 0.6619 0.6675
2961.431430 0.6745 0.6808 0.6868 0.6912 0.6947
2965.781786 0.6973 0.6993 0.7000 0.7000 0.6997
2970.132142 0.6992 0.6980 0.6965 0.6950 0.6935
2974.482498 0.6927 0.6922 0.6920 0.6920 0.6917
2978.832853 0.6912 0.6890 0.6860 0.6840 0.6825
2983.183209 0.6820 0.6820 0.6888 0.6993 0.7056
2987.533565 0.7096 0.7149 0.7209 0.7338 0.7504
2991.883921 0.7623 0.7718 0.7797 0.7867 0.7920
2996.234277 0.7965 0.7993 0.8013 0.8047 0.8087
3000.584633 0.8107 0.8117 0.8120 0.8120 0.8113
3004.934989 0.8103 0.8074 0.8034 0.8003 0.7978
3009.285345 0.7956 0.7936 0.7859 0.7754 0.7629
3013.635701 0.7494 0.7349 0.7199 0.7120 0.7075
3017.986057 0.7023 0.6968 0.6926 0.6891 0.6826
3022.336413 0.6746 0.6613 0.6453 0.6386 0.6366
3026.686769 0.6267 0.6132 0.5976 0.5811 0.5622
3031.037124 0.5423 0.5278 0.5158 0.5041 0.4926
3035.387480 0.4890 0.4890 0.4962 0.5067 0.5124
3039.737836 0.5159 0.5204 0.5254 0.5304 0.5355
3044.088192 0.5489 0.5659 0.5752 0.5812 0.5896
3048.438548 0.5991 0.6086 0.6181 0.6273 0.6363
3052.788904 0.6456 0.6551 0.6695 0.6860 0.6910
3057.139260 0.6910 0.6903 0.6893 0.6848 0.6787
3061.489616 0.6742 0.6702 0.6662 0.6622 0.6589
3065.839972 0.6559 0.6543 0.6533 0.6534 0.6539
3070.190328 0.6551 0.6566 0.6584 0.6604 0.6649
3074.540684 0.6704 0.6734 0.6754 0.6774 0.6794
3078.891039 0.6887 0.7007 0.7116 0.7221 0.7344
3083.241395 0.7474 0.7546 0.7596 0.7650 0.7705
3087.591751 0.7767 0.7832 0.7864 0.7884 0.7958
3091.942107 0.8053 0.8112 0.8157 0.8192 0.8222
3096.292463 0.8237 0.8247 0.8272 0.8302 0.8339
3100.642819 0.8379 0.8434 0.8494 0.8539 0.8579
3104.993175 0.8616 0.8651 0.8671 0.8686 0.8694
3109.343531 0.8699 0.8711 0.8726 0.8759 0.8800
3113.693887 0.8847 0.8897 0.8917 0.8927 0.8952
3118.044243 0.8982 0.9009 0.9034 0.9051 0.9066
3122.394599 0.9085 0.9105 0.9114 0.9119 0.9127
3126.744955 0.9137 0.9151 0.9166 0.9174 0.9179
3131.095310 0.9191 0.9206 0.9218 0.9228 0.9238
3135.445666 0.9248 0.9250 0.9250 0.9250 0.9250
3139.796022 0.9242 0.9232 0.9230 0.9230 0.9230
3144.146378 0.9230 0.9230 0.9230 0.9226 0.9221
3148.496734 0.9220 0.9220 0.9216 0.9211 0.9198
3152.847090 0.9183 0.9168 0.9153 0.9150 0.9150
3157.197446 0.9146 0.9141 0.9132 0.9122 0.9116
3161.547802 0.9111 0.9106 0.9101 0.9088 0.9073
3165.898158 0.9066 0.9061 0.9052 0.9042 0.9036
3170.248514 0.9031 0.9014 0.8994 0.8978 0.8963
3174.598870 0.8948 0.8933 0.8926 0.8921 0.8920
3178.949226 0.8920 0.8916 0.8911 0.8910 0.8910
3183.299581 0.8902 0.8892 0.8870 0.8845 0.8828
3187.649937 0.8813 0.8798 0.8783 0.8776 0.8771
3192.000293 0.8754 0.8734 0.8718 0.8703 0.8696
3196.350649 0.8691 0.8690 0.8690 0.8674 0.8654
3200.701005 0.8622 0.8587 0.8568 0.8553 0.8534
3205.051361 0.8514 0.8506 0.8501 0.8492 0.8482
3209.401717 0.8464 0.8444 0.8432 0.8422 0.8408
3213.752073 0.8393 0.8386 0.8381 0.8372 0.8362
3218.102429 0.8356 0.8351 0.8338 0.8323 0.8316
3222.452785 0.8311 0.8294 0.8274 0.8258 0.8243
3226.803141 0.8224 0.8204 0.8188 0.8173 0.8158
3231.153496 0.8143 0.8136 0.8131 0.8118 0.8103
3235.503852 0.8083 0.8063 0.8052 0.8042 0.8023
3239.854208 0.8003 0.7979 0.7954 0.7946 0.7941
3244.204564 0.7936 0.7931 0.7918 0.7903 0.7879
3248.554920 0.7854 0.7825 0.7795 0.7773 0.7753
3252.905276 0.7733 0.7713 0.7693 0.7673 0.7662
3257.255632 0.7652 0.7642 0.7632 0.7605 0.7575
3261.605988 0.7537 0.7497 0.7461 0.7426 0.7416
3265.956344 0.7411 0.7389 0.7364 0.7360 0.7360
3270.306700 0.7322 0.7277 0.7253 0.7233 0.7213
3274.657056 0.7193 0.7173 0.7153 0.7133 0.7113
3279.007412 0.7097 0.7082 0.7072 0.7062 0.7043
3283.357767 0.7023 0.6995 0.6965 0.6943 0.6923
3287.708123 0.6916 0.6911 0.6897 0.6882 0.6846
3292.058479 0.6806 0.6774 0.6744 0.6723 0.6703
3296.408835 0.6683 0.6663 0.6639 0.6614 0.6593
3300.759191 0.6573 0.6540 0.6505 0.6474 0.6444
3305.109547 0.6414 0.6384 0.6367 0.6352 0.6350
3309.459903 0.6350 0.6333 0.6313 0.6262 0.6207
3313.810259 0.6174 0.6144 0.6136 0.6131 0.6100
3318.160615 0.6065 0.6043 0.6023 0.5998 0.5973
3322.510971 0.5943 0.5913 0.5888 0.5863 0.5847
3326.861327 0.5832 0.5812 0.5792 0.5772 0.5752
3331.211682 0.5715 0.5675 0.5657 0.5642 0.5627
3335.562038 0.5612 0.5592 0.5572 0.5561 0.5551
3339.912394 0.5532 0.5512 0.5488 0.5463 0.5451
3344.262750 0.5441 0.5422 0.5402 0.5387 0.5372
3348.613106 0.5357 0.5342 0.5318 0.5293 0.5272
3352.963462 0.5252 0.5241 0.5231 0.5221 0.5211
3357.313818 0.5201 0.5191 0.5181 0.5171 0.5147
3361.664174 0.5122 0.5102 0.5082 0.5057 0.5032
3366.014530 0.5025 0.5020 0.5020 0.5020 0.5006
3370.364886 0.4991 0.4963 0.4933 0.4921 0.4911
3374.715242 0.4901 0.4891 0.4885 0.4880 0.4862
3379.065598 0.4842 0.4826 0.4811 0.4796 0.4781
3383.415953 0.4771 0.4761 0.4746 0.4731 0.4716
3387.766309 0.4701 0.4700 0.4700 0.4691 0.4681
3392.116665 0.4666 0.4651 0.4636 0.4621 0.4606
3396.467021 0.4591 0.4581 0.4571 0.4556 0.4541
3400.817377 0.4526 0.4511 0.4496 0.4481 0.4475
3405.167733 0.4470 0.4456 0.4441 0.4431 0.4421
3409.518089 0.4401 0.4381 0.4366 0.4351 0.4336
3413.868445 0.4321 0.4315 0.4310 0.4301 0.4291
3418.218801 0.4285 0.4280 0.4266 0.4251 0.4231
3422.569157 0.4211 0.4191 0.4171 0.4156 0.4141
3426.919513 0.4135 0.4130 0.4125 0.4120 0.4106
3431.269868 0.4091 0.4076 0.4061 0.4055 0.4050
3435.620224 0.4045 0.4040 0.4030 0.4020 0.4015
3439.970580 0.4010 0.4005 0.4000 0.3990 0.3980
3444.320936 0.3965 0.3950 0.3945 0.3940 0.3935
3448.671292 0.3930 0.3920 0.3910 0.3905 0.3900
3453.021648 0.3886 0.3871 0.3865 0.3860 0.3855
3457.372004 0.3850 0.3840 0.3830 0.3825 0.3820
3461.722360 0.3810 0.3800 0.3795 0.3790 0.3785
3466.072716 0.3780 0.3770 0.3760 0.3760 0.3760
3470.423072 0.3755 0.3750 0.3750 0.3750 0.3745
3474.773428 0.3740 0.3740 0.3740 0.3740 0.3740
3479.123784 0.3745 0.3750 0.3755 0.3760 0.3770
3483.474139 0.3780 0.3785 0.3790 0.3790 0.3790
3487.824495 0.3795 0.3800 0.3810 0.3820 0.3820
3492.174851 0.3820 0.3835 0.3850 0.3860 0.3870
3496.525207 0.3880 0.3890 0.3895 0.3900 0.3905
3500.875563 0.3910 0.3965 0.4020 0.4035 0.4050
3505.225919 0.4065 0.4080 0.4085 0.4090 0.4095
3509.576275 0.4100 0.4130 0.4160 0.4175 0.4190
3513.926631 0.4210 0.4230 0.4240 0.4250 0.4260
3518.276987 0.4271 0.4311 0.4351 0.4390 0.4430
3522.627343 0.4450 0.4470 0.4475 0.4480 0.4490
3526.977699 0.4500 0.4505 0.4510 0.4525 0.4540
3531.328054 0.4540 0.4540 0.4540 0.4540 0.4545
3535.678410 0.4550 0.4550 0.4550 0.4550 0.4550
3540.028766 0.4550 0.4550 0.4550 0.4550 0.4560
3544.379122 0.4570 0.4570 0.4570 0.4575 0.4582
3548.729478 0.4622 0.4661 0.4681 0.4701 0.4731
3553.079834 0.4761 0.4781 0.4801 0.4826 0.4851
3557.430190 0.4891 0.4932 0.4976 0.5022 0.5072
3561.780546 0.5122 0.5187 0.5251 0.5271 0.5291
3566.130902 0.5311 0.5330 0.5335 0.5340 0.5350
3570.481258 0.5360 0.5365 0.5370 0.5370 0.5370
3574.831614 0.5365 0.5359 0.5334 0.5309 0.5284
3579.181970 0.5258 0.5223 0.5187 0.5127 0.5066
3583.532325 0.5006 0.4944 0.4849 0.4758 0.4723
3587.882681 0.4685 0.4605 0.4524 0.4430 0.4333
3592.233037 0.4208 0.4089 0.4064 0.4038 0.4003
3596.583393 0.3944 0.3480 0.3037 0.2981 0.2925
3600.933749 0.2850 0.2775 0.2700 0.2620 0.2480
3605.284105 0.2331 0.2056 0.1779 0.1484 0.1209
3609.634461 0.1199 0.1191 0.1201 0.1215 0.1290
3613.984817 0.1363 0.1413 0.1483 0.1837 0.2173
3618.335173 0.2328 0.2497 0.2811 0.3138 0.3587
3622.685529 0.4035 0.4460 0.4864 0.5034 0.5224
3627.035885 0.5639 0.6068 0.6668 0.7237 0.7452
3631.386241 0.7663 0.7828 0.7990 0.8116 0.8240
3635.736596 0.8340 0.8438 0.8518 0.8597 0.8672
3640.086952 0.8748 0.8833 0.8920 0.9025 0.9124
3644.437308 0.9169 0.9212 0.9232 0.9250 0.9255
3648.787664 0.9261 0.9276 0.9290 0.9290 0.9291
3653.138020 0.9296 0.9300 0.9300 0.9300 0.9300
3657.488376 0.9301 0.9306 0.9310 0.9310 0.9310
3661.838732 0.9310 0.9310 0.9310 0.9311 0.9321
3666.189088 0.9330 0.9330 0.9331 0.9336 0.9342
3670.539444 0.9357 0.9371 0.9376 0.9380 0.9380
3674.889800 0.9382 0.9402 0.9421 0.9431 0.9441
3679.240156 0.9451 0.9464 0.9499 0.9534 0.9569
3683.590511 0.9604 0.9639 0.9672 0.9687 0.9704
3687.940867 0.9734 0.9760 0.9760 0.9762 0.9777
3692.291223 0.9791 0.9796 0.9800 0.9800 0.9801
3696.641579 0.9811 0.9820 0.9820 0.9821 0.9826
3700.991935 0.9831 0.9841 0.9851 0.9856 0.9861
3705.342291 0.9866 0.9871 0.9881 0.9891 0.9896
3709.692647 0.9900 0.9900 0.9901 0.9906 0.9910
3714.043003 0.9910 0.9910 0.9910 0.9910 0.9910
3718.393359 0.9910 0.9910 0.9910 0.9910 0.9912
3722.743715 0.9922 0.9930 0.9930 0.9932 0.9942
3727.094071 0.9952 0.9962 0.9970 0.9970 0.9971
3731.444427 0.9976 0.9980 0.9980 0.9980 0.9980
3735.794782 0.9981 0.9991 1.0000 1.0000 1.0001
3740.145138 1.0006 1.0010 1.0010 1.0010 1.0010
3744.495494 1.0010 1.0010 1.0009 1.0004 1.0000
3748.845850 1.0000 0.9998 0.9988 0.9979 0.9974
3753.196206 0.9970 0.9970 0.9968 0.9958 0.9950
3757.546562 0.9950 0.9949 0.9944 0.9939 0.9934
3761.896918 0.9930 0.9930 0.9930 0.9930 0.9928
3766.247274 0.9918 0.9910 0.9910 0.9910 0.9910
3770.597630 0.9912 0.9922 0.9930 0.9930 0.9930
3774.947986 0.9930 0.9931 0.9936 0.9940 0.9940
3779.298342 0.9940 0.9940 0.9939 0.9934 0.9930
3783.648697 0.9930 0.9930 0.9930 0.9930 0.9930
3787.999053 0.9931 0.9936 0.9941 0.9946 0.9950
3792.349409 0.9950 0.9952 0.9962 0.9970 0.9970
3796.699765 0.9970 0.9970 0.9970 0.9970
##END=
