##TITLE=1,2-Dimethylbenzene
##JCAMP-DX=4.24
##DATA TYPE=INFRARED SPECTRUM
##CLASS=IUPAC A
##ORIGIN=NIST, Analytical Chemistry Division, 301-975-3108
##OWNER=COPYRIGHT (C) 2001 by the U.S. Secretary of Commerce
##DATE=01/06/01
##$SPECTRA VERSION=1.10
##$UNCERTAINTY IN Y=2.2 % relative (B=1.21E-04,C=1.57E-9,D=3.06E-14)
##CAS NAME=1,2-Dimethylbenzene
##CAS REGISTRY NO=95-47-6
##MOLFORM=1,2-( C H3)2 C6 H4
##MP=-25.18 C
##BP=144.4 C
##$NIST SOURCE=QUANT-IR
##SPECTROMETER/DATA SYSTEM=IFS66V (Bruker)
##INSTRUMENT PARAMETERS=KBr Beam Splitter; MCT Detector; Multipass cell
##STATE=gas
##SAMPLE DESCRIPTION=o-Xylene Primary Gas Standard
##PRESSURE=101.3 Pa
##TEMPERATURE=23 C
##SAMPLING PROCEDURE=1 L/min Flow
##RESOLUTION=1.9290
##DATA PROCESSING=NB Strong Apodization
##XUNITS=cm-1
##YUNITS=(micromol/mol)-1m-1 (base 10)
##XFACTOR=1.0
##YFACTOR=18.189E-13
##DELTAX=0.9645
##FIRSTX=575.652
##LASTX=3974.606
##FIRSTY=2.89E-06
##MAXX=3973.64
##MINX=575.65
##MAXY=.0011282
##MINY=-1.71E-06
##NPOINTS=3526
##XYDATA=(X++(Y..Y))
575.65 1588951 1369652 1064086 950659 1216139 2389719
580.47 2269526 1472388 1272485 1604348 1505970 1814680
586.26 2031006 1911760 1601783 1588502 1192129 791896
592.04 555481 377879 352570 493235 280237 355791
597.83 243739 9133-161069 87819-102828-45596
603.62-30482 100312 77130 68422-149272-102848
609.40-222544-13000 102233 304325 110798 57088
615.19 17054 17248-143513-21500-165742-106269
620.97-66448 178653 69655-10385-70659 30001
626.76-29086 17962-85394-10016-178934 24869
632.54-29948 71621-41336 29582-49073 7503
638.33-123374 57154-96498 40302-39857-42361
644.11-176066 99709 18148-7445-167506 46792
649.90-44291 35392-83374 55572-122811 15596
655.68-57890 84536 26359 242907 85281 109373
661.47-52721 173107 108512 244506-56083-387824
667.26-513236-6340 3446 231518 19239 207790
673.04 88346 152895 58 195151-62504 166945
678.83 15311 166695-13651 169492 44852 276049
684.61 23378 185120 68041 307343 213984 508826
690.40 222404 462408 291079 521255 268275 435550
696.18 362937 798799 501864 703299 392144 691174
701.97 571021 913900 584359 878443 572448 953249
707.75 779943 1268684 1092348 1739317 1827019 2680308
713.54 2953081 4360116 5169356 7275388 9123845 12610114
719.32 16160790 21842861 27759036 36434641 45749114 57872491
725.11 69746082 82268118 92693932 104568886 113060488 120784936
730.90 123403935 124768170 120674021 117680838 113070443 118258432
736.68 130888019 178586749 329466362 609132147 620274382 292901876
742.47 129167969 106919720 109927118 113727479 122416486 127637083
748.25 132936359 132088956 129026413 119950494 109692448 95865572
754.04 82726476 68153129 55775596 43586944 34296956 25517131
759.82 19510962 13990476 10663534 7388235 5811206 3950069
765.61 3488134 2578342 2490756 1537082 1417423 913291
771.39 1214388 781396 1006120 695103 932152 612238
777.18 819023 540899 812557 509267 717009 476666
782.96 621188 332493 617871 404566 650240 398249
788.75 573806 326337 470677 343664 566549 320359
794.53 429678 249318 391341 140683 288117 155287
800.32 365118 238243 414983 318726 494044 331333
806.11 488696 326513 474185 366033 545111 429846
811.89 633383 599360 758961 685661 838373 728899
817.68 894822 777789 975191 980716 1076042 884617
823.46 1011515 874707 906317 687680 800229 782302
829.25 958809 736027 702080 520079 570985 483567
835.03 640143 493803 489400 354161 406588 262813
840.82 371686 307220 433418 345654 337965 220540
846.60 347905 336686 412144 378712 575448 507491
852.39 622836 626443 876613 956113 1025639 905600
858.17 1060736 1062837 1200879 1260231 1469345 1446251
863.96 1549326 1519732 1688844 1680470 1766925 1674008
869.75 1689862 1556643 1632981 1515641 1564209 1500010
875.53 1452069 1336486 1316290 1163369 1184800 999227
881.32 968490 841383 855706 707594 703044 628768
887.10 719604 671822 727832 660978 715065 673335
892.89 765113 766998 904562 913266 1016172 967279
898.67 1045711 1019937 1091605 997134 1019305 949539
904.46 1048925 977999 998262 986319 1108572 1093566
910.24 1169151 1082179 1103581 1031179 1098111 1114519
916.03 1196768 1119971 1208786 1160470 1208640 1212598
921.81 1322945 1257542 1286916 1293276 1405481 1492710
927.60 1810943 2307707 3233279 3513637 2946599 2238487
933.39 1911864 1713310 1675267 1633278 1720131 1793169
939.17 1901838 1891540 1953378 1889288 1887921 1766256
944.96 1726902 1602498 1540852 1421259 1326014 1214903
950.74 1231579 1152722 1188955 1099192 1125616 1100792
956.53 1148042 1093817 1121823 1145647 1204882 1167524
962.31 1288916 1358781 1536728 1688546 1914569 2149016
968.10 2581417 3044528 3663042 4326521 5203652 6114117
973.88 7149556 8098236 9079770 9842281 10526619 10924388
979.67 11176670 11319148 11810664 12653967 13298871 12971760
985.45 12415556 12618827 12825963 12354820 12090805 11802304
991.24 11323560 10574993 9858560 9039759 8223611 7303782
997.03 6583437 5956645 5535987 5240703 5124055 5025707
1002.81 5132886 5205249 5382115 5597252 5932475 6256786
1008.60 6693307 7068281 7488440 7961266 8345906 8440310
1014.38 8501986 8519791 8629283 8762019 9166895 9665023
1020.17 10210647 11016253 14283689 17408319 13544367 9271917
1025.95 8115808 7729071 7632367 7528239 7548095 7317372
1031.74 7035783 6748173 6574561 6343159 6263646 6170279
1037.52 6281821 6572692 7248171 8301780 9834726 11665535
1043.31 13937405 16277804 18511272 20243260 21107372 20862170
1049.09 19877964 18402324 18267491 21936850 26371495 24279816
1054.88 19561164 17728828 18247688 19299917 19974904 19717436
1060.67 18610542 16713078 14380052 11785049 9415372 7324599
1066.45 5639063 4358455 3412039 2640284 2125932 1655761
1072.24 1387078 1201350 1116909 956806 906903 852035
1078.02 795237 697600 671753 616597 624576 567382
1083.81 611608 623389 667839 648791 702118 654304
1089.59 660740 679419 707479 672735 715649 718809
1095.38 701890 716529 867226 962480 1072544 1135394
1101.16 1293350 1470408 1739941 1985884 2394286 2871901
1106.95 3441244 4033565 4755131 5515099 6374467 7218711
1112.73 8093300 8862835 9559719 10037700 10337933 10156775
1118.52 9601009 9049357 9150947 9737894 10426838 10911096
1124.31 11202537 11213393 11094469 10700652 10226872 9695086
1130.09 9199560 8628902 8079572 7565617 7178572 6851669
1135.88 6630806 6365692 6142954 5806039 5359548 4904866
1141.66 4661776 4598461 4651652 4665807 4672581 4602255
1147.45 4572254 4457286 4322657 4112363 3938363 3690387
1153.23 3478857 3221981 2994084 2756588 2670797 2533144
1159.02 2392344 2283800 2255254 2300578 2385313 2326746
1164.80 2307976 2260439 2176454 2036046 2018884 2029400
1170.59 2042160 1988522 1963811 1880208 1871791 1845554
1176.37 1830823 1807587 1831986 1744755 1667889 1604901
1182.16 1631725 1598131 1540626 1464301 1417573 1342975
1187.95 1322923 1301856 1294769 1245090 1227924 1173778
1193.73 1186161 1185624 1187365 1118662 1100218 1088000
1199.52 1112783 1064003 1106822 1127882 1197107 1247767
1205.30 1272180 1310385 1430380 1493158 1633817 1843272
1211.09 2111159 2376373 2734931 3116296 3518155 3844202
1216.87 4149275 4315333 4443109 4509128 4572615 4613944
1222.66 4754482 4913459 5071787 4992048 4547652 4209277
1228.44 4330661 4432883 4410901 4247225 3975479 3551988
1234.23 3087145 2581670 2094479 1636362 1270745 964975
1240.01 793663 666350 598620 499277 443024 404575
1245.80 436812 398546 397093 426239 473570 462452
1251.59 485948 505354 539260 549452 581292 585987
1257.37 629759 663837 682954 683749 721415 719420
1263.16 758669 791362 803425 760073 762307 775148
1268.94 811729 787103 815246 805705 838405 836692
1274.73 854525 880222 930580 925135 945775 958555
1280.51 1023501 1031904 1049723 1085847 1114069 1085887
1286.30 1124717 1110571 1064654 1036496 1058958 1075357
1292.08 1094465 1121680 1165741 1139537 1106893 1055297
1297.87 1017028 981585 961768 928530 920496 893436
1303.65 889896 865811 854020 831154 886791 908699
1309.44 954112 944691 922134 934198 1001414 1031342
1315.23 1069190 1070226 1113777 1129741 1176554 1192718
1321.01 1259945 1264209 1303190 1334477 1398972 1420554
1326.80 1428319 1458738 1540902 1576789 1666108 1782010
1332.58 1880008 1849035 1759416 1686010 1680542 1701953
1338.37 1802792 1807021 1864410 1889200 1929161 1968430
1344.15 2073952 2087457 2117412 2170874 2166653 2102158
1349.94 2065103 2021454 2112950 2250276 2559688 2666241
1355.72 2688174 2744953 2654861 2614851 2754268 2926476
1361.51 3066327 3170613 3411766 3680818 3975187 4305371
1367.29 4731873 5206478 5708591 6236361 6761405 7214492
1373.08 7697366 8124765 8422144 8335046 7962346 7842221
1378.87 8727684 10624747 12517957 13618452 14040248 14057556
1384.65 13707809 13060724 13009115 14643595 15375313 13300705
1390.44 11391995 10946082 11345343 11849352 12231837 12143504
1396.22 11571378 10507461 9243131 7953787 6790245 5765419
1402.01 5045019 4540019 4307900 4141465 4031805 3914624
1407.79 3910397 3871959 3887646 3876811 3937469 3997216
1413.58 4148228 4225575 4328204 4398631 4529708 4647162
1419.36 4798863 4852896 5030894 5256389 5622376 6033550
1425.15 6590703 7130246 7761127 8419528 9154869 9956424
1430.93 10838270 11621547 12393536 12997312 13404746 13749938
1436.72 14630894 15901915 17552518 19348021 21434418 23703794
1442.51 26203541 28581103 30975077 32614704 33851551 34922460
1448.29 35228862 36838787 39273202 41683334 43896936 46195500
1454.08 48797233 51748357 55674802 60675790 65565739 69070676
1459.86 71834846 75941563 79155757 80816399 80140618 77572485
1465.65 75815028 74946949 74079639 72738384 70244800 66740396
1471.43 65199708 67310731 70763627 72008149 70031802 65890268
1477.22 60996033 56874645 53949348 51604905 49083456 46274358
1483.00 44401699 43663109 43636876 44116647 45244821 46978318
1488.79 49285870 51936527 54740773 57882774 61639040 65748587
1494.57 66773845 62241070 58907892 59046190 62644530 70397759
1500.36 74010239 62359562 52433700 52159316 53861277 54597912
1506.15 53242291 49891476 44501860 37964649 31077802 24614955
1511.93 19068265 14746380 11450851 9134305 7464927 6457206
1517.72 5847056 5393336 4932278 4735145 4731984 4701398
1523.50 4615925 4511970 4487255 4426908 4340350 4307345
1529.29 4270572 4248870 4231830 4232018 4258422 4318573
1535.07 4316501 4315738 4160743 3871487 3809290 3925047
1540.86 3932441 3951420 3981591 3900036 3879207 3947078
1546.64 3929211 3891993 3855074 3821350 3820544 3760600
1552.43 3624894 3525374 3602252 3571177 3379610 3180831
1558.21 3162382 3177175 3327112 3398126 3353338 3276652
1564.00 3194040 3144986 3146345 3149784 3078645 3033868
1569.79 3172272 3296332 3420227 3585987 3760677 3822368
1575.57 4108535 4698732 5162615 5612829 6073749 6518864
1581.36 6949180 7404341 7941214 8605694 9374705 10251911
1587.14 11157189 12001263 12699676 13277671 13807298 14203420
1592.93 14314127 14065913 13397709 12635811 12369976 13046547
1598.71 14435874 15726565 16429092 16700008 16853975 16998258
1604.50 17022449 16894103 16608607 16099650 15266483 14095988
1610.28 12717287 11487501 10917524 11186011 11839683 12150213
1616.07 12111848 12015653 11646549 10982185 10150674 9254074
1621.85 8177608 7104695 6181261 5270074 4429863 3720815
1627.64 3148647 2689044 2299113 1979894 1730826 1517920
1633.43 1267071 986699 950795 955157 892284 847848
1639.21 769620 732161 695726 664628 624915 521379
1645.00 398289 483774 528337 583931 627314 610526
1650.78 399617 142707 321603 675652 898209 1079650
1656.57 1256951 1463297 1706278 1996409 2262725 2494769
1662.35 2751917 3022564 3100191 3106640 3079715 3086119
1668.14 3219000 3581105 3646384 3341518 3137909 3094671
1673.92 3069664 3196049 3367642 3336267 3155692 2888492
1679.71 2558219 2193314 1821933 1487416 1178602 1176939
1685.49 1292505 1263917 1197278 1099169 1023940 980824
1691.28 957003 930723 911956 699730 591416 852116
1697.07 999871 935888 766716 913178 1218294 1356008
1702.85 1413224 1528403 1662249 1747588 1854893 1886313
1708.64 1860928 1785619 1764192 1843387 1947754 2031539
1714.42 2070216 1849742 1476839 1507499 1684224 1773332
1720.21 1761418 1683398 1553102 1378168 1219390 1089690
1725.99 958835 852950 730069 650748 633428 598317
1731.78 478539 355432 405701 555297 612761 611735
1737.56 603435 562606 579277 615399 606953 614028
1743.35 666497 704122 701843 706223 713157 710149
1749.13 688602 613245 678096 784091 820453 854722
1754.92 847093 864749 946251 1003999 1014250 998526
1760.71 941310 977886 1031982 1089997 1133648 1128856
1766.49 1133701 1241383 1469679 1658275 1823513 1979367
1772.28 2267697 2690955 3068304 3470262 3856474 4207181
1778.06 4539974 4813061 5004523 5155604 5131949 4886239
1783.85 4462946 4079088 3997842 4328249 4811454 5136950
1789.63 5129299 4889597 4556144 4314534 4019998 3599607
1795.42 3123286 2677751 2292839 1936140 1627365 1319468
1801.20 1052451 868151 753190 635280 550041 504612
1806.99 459338 471519 455079 457806 536942 676620
1812.77 827307 1020698 1297307 1615824 1943840 2283159
1818.56 2640459 2961732 3176446 3278292 3283678 3199006
1824.35 3091559 3151369 3472085 3982988 3882129 2947802
1830.13 2584474 2872088 3174033 3299134 3175748 2880939
1835.92 2482538 2021328 1549934 1147238 853982 646259
1841.70 499320 357299 319915 451524 600448 748761
1847.49 921902 1123189 1373764 1641123 1867984 2046990
1853.27 2198617 2302862 2355390 2401694 2453997 2637642
1859.06 2875445 2917370 2784669 2704891 2720232 2775698
1864.84 2847112 2931721 2965309 2916830 2820339 2775168
1870.63 2671490 2523695 2400542 2345397 2302459 2282654
1876.41 2273663 2248209 2245949 2282980 2320167 2502190
1882.20 2789028 3094009 3351698 3592955 3834877 4130185
1887.99 4474444 4917964 5413057 5898897 6344511 6760126
1893.77 7097792 7329946 7408820 7340489 7065914 6542121
1899.56 5886380 5495002 5730025 6412928 6936985 7036118
1905.34 6759070 6311825 5813905 5252320 4610797 3979627
1911.13 3332982 2702802 2139844 1667959 1286308 971653
1916.91 719536 575422 461907 376279 317564 317352
1922.70 345920 401165 478620 601741 800046 1068902
1928.48 1363527 1709689 2110632 2582005 3076779 3565042
1934.27 4008162 4419693 4714126 4810104 4768698 4731999
1940.05 4605807 4698842 5412079 6016032 5009271 3841497
1945.84 3923268 4405992 4733354 4759708 4522639 4054987
1951.63 3438973 2750886 2102277 1578785 1174803 907920
1957.41 747074 659264 610215 564058 562495 585196
1963.20 615520 620960 586400 526091 525247 524879
1968.98 516805 518544 498189 481081 521028 490768
1974.77 408156 394542 394150 385761 385503 382936
1980.55 371444 365843 336373 296500 272388 274376
1986.34 273669 263896 243616 229176 218229 183201
1992.12 158871 149506 131284 127345 105952 99234
1997.91 119674 138517 124437 99372 78375 53435
2003.69 21250 26880 70367 18310-71274-42381
2009.48-47430-57815-37597-955 2266 5887
2015.27 3615 13403 37610 68998 64680 22379
2021.05-7687-7545-26099-49482-57874-55788
2026.84-49582-33348-35292-42933-56903-58606
2032.62-58445-53357-70849-65659-56807-45651
2038.41-58313-50053-31754-20334-20479-15550
2044.19-8761-2816-11968-8430-12275-20822
2049.98-44936-50903-46555-21798-36951-53676
2055.76-71291-102791-116153-137236-152753-155445
2061.55-173675-193958-206142-196647-201798-200047
2067.33-209270-211646-212259-198834-197919-191514
2073.12-167972-170800-187576-171918-153260-161757
2078.91-173106-155859-143812-139868-127088-92055
2084.69-54276-59522-93219-97017-95089-81713
2090.48-109149-135731-157063-156105-150190-114754
2096.26-72023-19512 16034-7652-9764 24683
2102.05 75448 88766 70102 80763 121331 165501
2107.83 151428 154009 179945 229742 218503 244476
2113.62 316612 400124 395729 351015 312040 336950
2119.40 306585 281675 274361 259440 197804 121211
2125.19 95870 108286 109638 107690 105867 67802
2130.97 3884-42424-95595-128854-150454-182479
2136.76-209444-197099-185428-199114-204750-170958
2142.55-168997-171971-156370-141110-143176-142261
2148.33-123582-84075-69559-81665-102431-93645
2154.12-88895-71497-14712 52555 32370-1923
2159.90-1257-7280-49818-73483-58446-28192
2165.69-40989-55699-40515-56800-124669-120096
2171.47-76381-100760-147721-126446-85164-106825
2177.26-115035-75759-70917-121973-136979-88830
2183.04-93293-123894-101304-52439-48300-44085
2188.83-29731-23895-46228-6205 61258 113455
2194.61 157163 221108 247860 266819 294438 315195
2200.40 323178 348068 398970 495569 506878 499350
2206.19 502561 487176 502878 533603 579917 619013
2211.97 576347 501062 435745 391046 335139 319200
2217.76 322858 310993 311021 320206 296636 254486
2223.54 206677 205552 212991 205761 180561 151862
2229.33 132010 120871 104338 109157 117402 118626
2235.11 80674 66004 54650 32431-523 10150
2240.90-3733-11055-16550-14626-37547-73239
2246.68-99057-111241-118252-112929-94579-70570
2252.47-63228-40915-16721 1579 9078 38903
2258.25 66780 90410 113028 145474 196543 242674
2264.04 271526 312723 360978 415792 467574 513422
2269.83 541830 578148 601649 602864 588083 575916
2275.61 564292 548135 529531 498328 466488 492522
2281.40 501925 468533 434134 418113 387869 368996
2287.18 320647 237362 177057 160960 154221 146726
2292.97 152002 140439 123482 129660 78235 52744
2298.75 46209 48919 60997 63101 96153 120174
2304.54 131900 150367 198801 252941 302340 366387
2310.32 418646 479074 447256 453782 364553 356337
2316.11 298087 413562 512921 499921 257924 264197
2321.89 246818 291996 248512 252071 137373 104866
2327.68 32679-15765-127555-188164-229745-149585
2333.47-110453-58405-42599 53367 113513 174768
2339.25 207693 240358 208979 197070 175880 191141
2345.04 251004 406710 599833 734552 698797 567579
2350.82 388781 217734 23045-142183-327255-477384
2356.61-636527-782738-876495-906635-925829-939605
2362.39-963576-958539-943481-888658-848576-774137
2368.18-687561-586274-503256-432541-390878-312377
2373.96-263163-200795-163443-98543-64890-44347
2379.75-60002-26524 14217 33057 53432 72971
2385.53 73489 86155 63744 66748 67577 90815
2391.32 113674 142554 116934 124943 142112 140124
2397.11 138974 192881 222019 248751 286782 314514
2402.89 329192 394208 453298 492674 544507 631492
2408.68 620466 591732 563144 552851 564857 613605
2414.46 642825 696307 758500 800101 789512 764846
2420.25 800808 883442 898237 909197 900808 919033
2426.03 962581 1027163 1075375 1091623 1111729 1162714
2431.82 1159057 1198528 1240676 1271893 1308261 1359446
2437.60 1349582 1328791 1299458 1310422 1318591 1308003
2443.39 1279102 1286595 1276819 1239267 1143062 1078786
2449.17 1041771 1067280 1052561 1057079 1012253 949500
2454.96 885668 800996 701420 618726 564219 539589
2460.75 482456 420632 409519 432627 409840 407768
2466.53 394800 388207 353285 319147 296938 295994
2472.32 281730 267858 270318 307374 309134 288116
2478.10 288865 303213 286692 302246 314740 323863
2483.89 322195 327486 304791 296864 275571 299881
2489.67 318946 317372 322493 301760 249849 240622
2495.46 226813 266670 309296 298817 258623 233852
2501.24 216147 235212 219731 227885 222544 210818
2507.03 192795 194146 175632 191471 195601 195370
2512.81 160246 165028 128292 112592 139064 169922
2518.60 144430 102960 61736 41491 36310 21620
2524.39-9404-846-6070-20215-43745-42619
2530.17-31420-6472-14418-31863-38952-33600
2535.96-66784-62431-82691-73289-52073-38030
2541.74-65555-40770-24151 16954-1039 3642
2547.53 10665 27795 65436 105685 141302 186215
2553.31 214035 263619 335997 471282 546360 575650
2559.10 594581 668537 736092 794951 877682 1024986
2564.88 1107836 1147121 1171810 1256287 1346846 1450860
2570.67 1547454 1609408 1636728 1657662 1630920 1604917
2576.45 1569512 1543905 1501708 1488186 1499453 1537958
2582.24 1521244 1493824 1382437 1218066 1060708 988331
2588.03 943800 908755 831770 794519 705550 585517
2593.81 530684 505904 449585 427369 414195 420365
2599.60 408304 406175 401738 435559 480582 521118
2605.38 530971 566794 588812 579054 562713 595506
2611.17 609313 623887 614714 601154 532224 520224
2616.95 530320 561989 542621 525462 487475 436954
2622.74 394869 352840 262656 204680 189527 148333
2628.52 77487 84707 103530 107985 115164 90898
2634.31 41500 35289 15761-14076-27381-17928
2640.09-39714-22992-6259 472-9586-4097
2645.88 5714-2558-17081-14700-21139-8889
2651.67 15469 19281 19882 28668 23815 56132
2657.45 69859 71302 62416 75673 69863 80586
2663.24 84129 92978 121232 152234 163735 196282
2669.02 204540 239754 275480 285619 266953 286232
2674.81 287949 297728 313573 345184 319561 289770
2680.59 308639 347638 336816 339049 342058 343908
2686.38 318280 300750 290284 325390 317916 324338
2692.16 318365 311083 304976 330925 293840 267248
2697.95 257822 296582 316070 347737 354573 369214
2703.73 416730 488087 518026 545784 552340 607035
2709.52 655813 695205 721441 796042 869248 929898
2715.31 991950 1118932 1260617 1417070 1547455 1645996
2721.09 1757648 1894776 2003449 2150325 2304532 2507010
2726.88 2724961 2984863 3262897 3603018 4026361 4534518
2732.66 5004167 5497616 5895100 6143626 6289821 6317043
2738.45 6280173 6313319 6669845 7203659 7052019 6512345
2744.23 6146748 6086112 6199171 6390988 6487553 6336778
2750.02 5912761 5319063 4646338 4024347 3431541 2926112
2755.80 2527165 2255927 2076097 1929095 1845133 1907029
2761.59 1993494 2044863 2100234 2206396 2274471 2314432
2767.37 2310492 2363512 2477315 2647980 2679342 2526879
2773.16 2446418 2537459 2668243 2756638 2808429 2818227
2778.95 2741492 2617631 2470159 2300761 2127597 2006180
2784.73 1953435 1927438 1867175 1845114 1818525 1788682
2790.52 1795163 1792938 1791141 1772091 1769163 1791191
2796.30 1813085 1870457 1904458 1936948 1955147 2009513
2802.09 2072226 2156526 2283656 2409850 2492198 2604070
2807.87 2707267 2798833 2888776 3038778 3182460 3347528
2813.66 3492484 3536103 3602272 3715891 3787745 3915822
2819.44 4040186 4186969 4396208 4660488 4928276 5117079
2825.23 5231960 5292252 5354732 5461849 5594896 5771417
2831.01 5911141 6045649 6176570 6286283 6368960 6472372
2836.80 6630576 6862487 7164115 7518141 7886844 8243305
2842.59 8539990 8879906 9303689 9763370 10202694 10676678
2848.37 11249013 11935697 12660786 13429706 14316150 15464130
2854.16 16858051 18473758 20156656 21956814 23872441 25799427
2859.94 27763225 29748093 31737236 33745363 35821522 38035211
2865.73 40370424 42875836 45077057 47127439 49351621 51735784
2871.51 53994842 56077641 57966083 59580479 61029584 62378980
2877.30 63587492 64756920 65744933 66300218 66624667 66558677
2883.08 65888544 65305016 65134901 65167820 64915806 64163630
2888.87 63116779 62216390 61536598 60790555 59952863 58974266
2894.65 57788894 56474543 55066413 53599196 52220692 50986344
2900.44 50231775 49947194 49725643 49412687 48932181 48193989
2906.23 47573918 47410225 47672062 48404150 49637419 50935703
2912.01 51860249 52682864 53616126 54673406 56206279 58163531
2917.80 60574971 63365133 66722988 70405979 74026454 77419440
2923.58 80874875 84357016 87902370 91189098 94325239 97385031
2929.37 100796853 104508072 107863469 109343662 110205490 112004193
2935.15 114152221 115973440 117530656 118461014 118726411 118102286
2940.94 116596750 114501245 112447848 110415202 109870469 113725774
2946.72 125239345 131558064 127271785 123538539 122204255 119817433
2952.51 113491655 105670077 98214536 92445815 88135254 85326186
2958.29 83379210 82044959 80834892 80112818 79535472 78836728
2964.08 78448299 78764643 79794913 81730568 84315933 87396881
2969.87 90802523 94370766 97666560 100543761 102458474 103118193
2975.65 102148642 99292518 94369162 88742157 84919231 85220743
2981.44 89061630 93053900 94223242 92503873 88816633 84059898
2987.22 78411832 72138920 65589953 59165741 53148898 47830780
2993.01 43167626 39324297 36132748 33496186 31255195 29346540
2998.79 27687098 26258976 25204498 24891062 25273087 26209575
3004.58 27243287 28302729 29490270 31019888 32895675 35226275
3010.36 38110971 41700931 45970714 50967987 56538079 62613486
3016.15 68948587 75236538 81212118 86560136 91065050 94553794
3021.93 96479220 96355452 94415737 92496700 93630827 99620127
3027.72 107866870 113703862 115286906 114032224 111571966 108553239
3033.51 104819023 99530772 93005601 86518171 81061190 77045017
3039.29 73802593 70862405 67839757 64805432 61772212 59082542
3045.08 56747269 54841631 53416789 52636454 52359925 52722236
3050.86 53745966 55327189 56971241 58509866 60197686 62278206
3056.65 64446042 66544914 68414737 70060353 71401927 72699958
3062.43 74337058 76370321 78038277 79282387 80097725 80957731
3068.22 82012572 82881628 83196693 82777779 81570891 79797336
3074.00 77439144 74972053 72823042 71505696 71128429 71164387
3079.79 70780989 69580308 67430889 64644464 61467665 58233178
3085.57 55028535 52190041 49893018 48041597 45938457 43176720
3091.36 39829530 36979706 35138335 33621655 31858928 29724328
3097.15 27226274 24662685 22183799 20041116 18263260 16941067
3102.93 16029474 15497767 15267845 15278266 15420188 15732501
3108.72 16037146 16276654 16358034 16311752 16031891 15585300
3114.50 15008597 14412876 13923656 13734699 13770264 13934134
3120.29 13818871 13318387 12582876 11813983 10954673 10047283
3126.07 9044277 8067690 7087733 6263675 5549299 4932796
3131.86 4380388 3963558 3621419 3305445 3029203 2870926
3137.64 2737130 2633342 2491205 2378706 2303496 2296415
3143.43 2202658 2144337 2089209 2031135 1971720 1972683
3149.21 1924243 1888275 1879036 1859571 1782706 1788259
3155.00 1832270 1851468 1849870 1871496 1855089 1860101
3160.79 1844605 1875913 1834147 1818152 1822970 1874066
3166.57 1873850 1895996 1883789 1859528 1803431 1811670
3172.36 1804690 1779179 1687204 1645901 1607242 1559915
3178.14 1440990 1399954 1318234 1229697 1126784 1097714
3183.93 1026137 942670 876409 872519 816775 816417
3189.71 783470 778961 767528 738431 685484 658838
3195.50 608173 596844 591201 579834 551789 540528
3201.28 479547 480053 443334 425252 397059 404661
3207.07 380422 383642 368058 346182 288036 276247
3212.85 266300 266382 230652 260063 234672 216453
3218.64 218339 266562 241366 244769 269246 315277
3224.43 320132 284791 242424 233521 167610 154066
3230.21 161628 191557 151045 147942 130521 164187
3236.00 158332 120512 35224 76550 91281 85437
3241.78 76212 102893 101118 116658 65877 43412
3247.57 28981 19053-12189 28011 38480 48238
3253.35 17233 11516 5601 40889 8487 21997
3259.14 4519 7494 6616 50792 2280-25412
3264.92-67454-3425 29674 38343 24769 27651
3270.71 31620 43830 18279-5104-60974-20159
3276.49 26073 43516 52099 46255-9600-8703
3282.28 22876 60920 73172 79662 31674 43413
3288.07 7421 5379 55157 130372 91964 60441
3293.85 36292 86897 130957 141770 75930 56865
3299.64 61396 92329 71843 90033 96036 122244
3305.42 81947 80218 42016 14042 44691 129724
3311.21 109898 113248 72478 55055 75281 96535
3316.99 91038 83556 25691 477-22654-53552
3322.78-17463 42067-24574-38793-53943-20611
3328.56-28941-27934-35243-23983-46129-25341
3334.35-67091-73519-62369-37131-16099 31036
3340.13-7081-17832-44086-36364-40599-1890
3345.92-68470-48266-9162-8575-14255-9390
3351.71-53456-20827-22291-50229-56444 19396
3357.49 22272 22798 4582 32795 5846 21224
3363.28 60488 57453 20714 15976-5441 50188
3369.06 65302 73978 85142 95284 119994 183725
3374.85 172246 209114 213410 204094 137495 104555
3380.63 93994 170465 215149 223082 208272 186084
3386.42 166006 172814 156572 207816 177333 212372
3392.20 156566 125496 119404 124882 58131 79276
3397.99 32837-18500-52527-9882-14941-55909
3403.77-48612-8515-69246-87491-55099-65188
3409.56-100816-58356-66971-55982-128718-97968
3415.35-56163-25836-52689-77655-92181-21443
3421.13-36447-27400-78975-53446-47478-22449
3426.92-24207-56672-25308 42165 36355 35487
3432.70-29511-40294-19824 85324 61868 8473
3438.49 16320 40613 11789 50597 42850 22553
3444.27 42748 99789 40990 99841 114914 103721
3450.06 177637 207754 202995 216472 163577 152105
3455.84 211509 235678 238350 282624 255043 259532
3461.63 277871 238984 221077 223128 237123 312516
3467.41 278271 207883 113407 161821 232156 224743
3473.20 119354 110451 90052 102005 109441 78510
3478.99 4367 54096 88492 105725 38185 86615
3484.77 69497 49799 22312 25377-31312-22391
3490.56-60705-34227-47688-46041-31296-59289
3496.34-116593-100979-84486-91577-123109-97493
3502.13-117639-123095-124899-124268-149223-84172
3507.91-92255-79431-103667-113924-155344-144941
3513.70-147326-101686-108593-98071-134499-105658
3519.48-108784-126063-116544-109088-156120-117020
3525.27-117136-103518-121542-121245-99294-76555
3531.05-104685-46840-91793-123391-141069-81128
3536.84-89346-100125-85724-109413-124963-82611
3542.63-71677-45867-93213-70893-74221-60491
3548.41-56766-48979-95861-66171 3706 19630
3554.20-40630-62044-105958-92399-101114-66121
3559.98-86532-41761-2029-26453-82072-68268
3565.77-76811-75860-51568 19435-24482-17927
3571.55-20407-13805-9689 20204-10074 26781
3577.34 41414 54336 15312 44497 57419 89825
3583.12 90260 89473-23888-79287-57668-46551
3588.91-9709 59067 37346 20982 77548 124588
3594.69 76753 98987 98034 90291 129039 165107
3600.48 198727 237143 234550 221594 165850 194768
3606.27 173703 202038 167625 195194 175728 154202
3612.05 162475 177063 106272 101487 50186 53319
3617.84-9408-60688-28869-44965-77524-61005
3623.62-90804-88789-99002-163745-303364-327990
3629.41-244740-149610-152896-97671-75311-53916
3635.19-101682-108906-97002-71066-101011-111590
3640.98-109549-81830-61365-33435-68768-102650
3646.76-150796-214412-274567-182940-139617-87871
3652.55-92155-47084-122859-154010-113703-33153
3658.33-22122-26609-47693-59438-73976-43895
3664.12-64273-76380-161807-159520-166864-220984
3669.91-284623-139913-120835-181417-303564-312997
3675.69-217423-98584-165013-179008-178722-112153
3681.48-102889-79010-109875-84413-120446-178686
3687.26-353040-271819-202152-171519-112983-64704
3693.05-88363-51986-70843-70727-119422-107124
3698.83-139332-114650-157524-108820-132646-150808
3704.62-165721-127906-163251-191110-262150-220534
3710.40-264147-336432-250746-150163-173412-174423
3716.19-186462-143238-155078-117394-154280-161224
3721.97-169023-166774-197204-180217-164136-124689
3727.76-156406-126488-142205-234298-261541-153805
3733.55-227954-239684-293557-238902-168997-74946
3739.33-103814-100048-82238-126485-407857-320070
3745.12-36926 46608-7563-138094-132357 4285
3750.90-102255-2885 142597 205945 169764 175598
3756.69 197348 181082 90916 159492 211063 217731
3762.47 208963 244399 183842 178498 150399 104889
3768.26-14968-47563-1915 10629-30759-14509
3774.04-7630-7770-38161-45784-64211-70380
3779.83-51595-16441-45084-27704-50122-10692
3785.61 34210 77807 45963 70223 85033 76415
3791.40 63063 80272 79500 96985 11277 33851
3797.19 125639 138401 15039-116545-77175 106892
3802.97 155290 168459 57725-39411 11731 171603
3808.76 168661 180908 147856 145539 169691 191297
3814.54-2049 689 176770 250205 187975 98901
3820.33 53301 185381 294473 364453 383886 412623
3826.11 392528 443458 459293 483699 410570 402938
3831.90 443413 465881 445418 492452 403817 254114
3837.68 339780 476945 445734 492335 503049 518439
3843.47 529933 555188 546354 628883 616352 629791
3849.25 598630 513486 451067 508514 371225 579012
3855.04 776927 844429 844511 857226 807134 803344
3860.83 793775 880141 885057 843790 853031 955992
3866.61 961852 897378 751089 791992 846711 885181
3872.40 861671 875113 884630 925436 943462 1001391
3878.18 1003466 994898 967781 1009074 1003051 1022532
3883.97 978631 978374 1079376 1204550 1248663 1259448
3889.75 1193442 1249668 1341120 1399281 1420183 1469025
3895.54 1484131 1503882 1409179 1412436 1478934 1543008
3901.32 1578222 1588011 1451656 1453232 1450642 1475961
3907.11 1439430 1405589 1305280 1222222 1118404 1087750
3912.89 1015780 979601 895844 830957 759203 736043
3918.68 663250 679798 684271 684371 628620 606497
3924.47 541966 563552 517554 498821 428951 401228
3930.25 385401 385193 379266 417144 382733 394824
3936.04 377931 376810 353343 384502 362056 358398
3941.82 334823 373695 386409 442165 414395 433520
3947.61 465850 450520 420301 508382 544184 557910
3953.39 552851 547039 542390 601300 560565 584315
3959.18 641903 667983 630716 664097 681245 690898
3964.96 642135 651260 599704 674172 688737 689762
3970.75 611880 579016 539264 568845
##END=
