##TITLE=1,2-Dimethylbenzene
##JCAMP-DX=4.24
##DATA TYPE=INFRARED SPECTRUM
##CLASS=IUPAC A
##ORIGIN=NIST, Analytical Chemistry Division, 301-975-3108
##OWNER=COPYRIGHT (C) 2001 by the U.S. Secretary of Commerce
##DATE=01/06/01
##$SPECTRA VERSION=1.10
##$UNCERTAINTY IN Y=2.2 % relative (B=1.21E-04,C=1.57E-9,D=3.06E-14)
##CAS NAME=1,2-Dimethylbenzene
##CAS REGISTRY NO=95-47-6
##MOLFORM=1,2-( C H3)2 C6 H4
##MP=-25.18 C
##BP=144.4 C
##$NIST SOURCE=QUANT-IR
##SPECTROMETER/DATA SYSTEM=IFS66V (Bruker)
##INSTRUMENT PARAMETERS=KBr Beam Splitter; MCT Detector; Multipass cell
##STATE=gas
##SAMPLE DESCRIPTION=o-Xylene Primary Gas Standard
##PRESSURE=101.3 Pa
##TEMPERATURE=23 C
##SAMPLING PROCEDURE=1 L/min Flow
##RESOLUTION=1.9290
##DATA PROCESSING=Boxcar Apodization
##XUNITS=cm-1
##YUNITS=(micromol/mol)-1m-1 (base 10)
##XFACTOR=1.0
##YFACTOR=18.189E-13
##DELTAX=0.9645
##FIRSTX=575.652
##LASTX=3974.606
##FIRSTY=2.44E-06
##MAXX=3973.64
##MINX=575.65
##MAXY=.0014551
##MINY=-2.45E-06
##NPOINTS=3526
##XYDATA=(X++(Y..Y))
575.65 1344598 1658073 701925 1333496 219209 3431542
580.47 2162772 1445260 780502 2239036 928654 2136739
586.26 1924454 2222981 1160915 2022522 1000002 830399
592.04 473510 471547 38314 981859-205055 730839
597.83 22492 310302-746631 750015-645261 341648
603.62-386664 452595-253728 506480-654669 398995
609.40-757544 425259-328169 820171-277103 331256
615.19-278492 418710-648137 494162-623798 270179
620.97-505964 646375-237624 238773-392451 385508
626.76-395639 438056-576496 570024-832496 626211
632.54-557120 583252-523668 489354-521271 548989
638.33-764024 733189-734510 598379-522191 490047
644.11-846737 747820-494896 534372-827061 697511
649.90-632597 630405-726407 743080-804522 639327
655.68-662378 695532-636751 944105-546323 747593
661.47-771815 858351-521757 873148-472031 31453
667.26-1348683 908980-842137 1138880-861073 1002708
673.04-627912 900147-864481 1170294-1074286 1119715
678.83-874612 1048599-906154 1060409-893938 1280000
684.61-949067 1092676-863173 1274807-845004 1693789
690.40-964023 1587567-811051 1638506-816971 1497715
696.18-876147 2194252-849102 2050678-974769 1999978
701.97-788685 2407306-951486 2438838-1031657 2542983
707.75-878210 2988391-704939 3488661-20802 4588059
713.54 792763 6462731 2865498 9353206 6647392 14754484
719.32 13337946 24218646 24530366 38871564 42328582 60655832
725.11 66661489 86287957 88304324 109641974 108831711 126873440
730.90 118453463 132138658 113714610 126064481 101385415 127518107
736.68 111788412 177536823 235489360 696687920 799960628 143812783
742.47 132438813 89684398 121055429 103326669 131037494 120980040
748.25 140390818 127435503 135345326 115889020 114571743 91998977
754.04 86503530 64408359 58689141 40022442 36857339 22276334
759.82 21775240 11173924 12833496 4858418 7926345 1638557
765.61 5457190 585283 4470342-334916 3077347-836710
771.39 2928628-833885 2501370-741576 2331897-745755
777.18 2146124-799421 2144106-759548 1912466-672410
782.96 1800922-914781 1843105-783679 1814714-701921
788.75 1618376-651360 1375296-583540 1534576-592078
794.53 1292238-620688 1292993-752426 1123009-677180
800.32 1180378-543670 1169533-436538 1280071-455328
806.11 1266291-428986 1195624-354428 1262379-272448
811.89 1274993 703 1362186 72079 1480516 67195
817.68 1561324 127731 1544942 454203 1690891 230055
823.46 1639500 289966 1518222 57735 1357011 198422
829.25 1610779 173130 1213578-404 1070258-60218
835.03 1196330 17523 937388-117071 899577-250609
840.82 850816-156036 872662-24639 712923-201545
846.60 729844-18312 799803-91070 1078271 44342
852.39 1047046 178349 1271270 631384 1434366 443922
858.17 1472287 690570 1546549 876722 1892608 1055391
863.96 1939612 1105542 2088201 1317598 2147412 1308006
869.75 2081528 1132288 2044270 1151380 1857213 1275285
875.53 1688308 1061067 1645237 783828 1588399 623691
881.32 1309545 491500 1211240 370745 1009825 294596
887.10 1044556 367394 1030239 364296 1001885 376976
892.89 1052805 461518 1211277 613666 1335765 655880
898.67 1344254 718704 1419680 682650 1329032 610168
904.46 1379321 700709 1243000 702441 1406976 802087
910.24 1481331 792525 1377708 756425 1339118 857632
916.03 1509403 790732 1515580 893373 1446463 948441
921.81 1611292 1013827 1487652 1073133 1623941 1208279
927.60 2030811 1855452 3639860 3691297 3048856 1968618
933.39 2041920 1523788 1829837 1450511 1868071 1630622
939.17 2110789 1676534 2188936 1669088 2120273 1552895
944.96 1923746 1430160 1694315 1284213 1479330 995905
950.74 1470475 894742 1452214 854423 1330798 901654
956.53 1348617 916784 1261316 987283 1412344 927159
962.31 1491690 1161455 1695432 1528002 2065059 1933432
968.10 2736845 2847092 3816910 4098912 5367758 5904426
973.88 7358381 7894630 9331361 9674849 10770347 10815162
979.67 11361498 11099977 11771831 12575233 13750359 13032130
985.45 12069395 12558070 13315229 11976538 12295306 11706339
991.24 11565245 10381493 10052556 8873392 8432844 7074972
997.03 6710865 5770892 5632687 5051795 5289992 4789513
1002.81 5315317 5034983 5499355 5439024 6067944 6096640
1008.60 6823991 6978374 7526394 7900068 8554954 8314134
1014.38 8637468 8363181 8775239 8535375 9274003 9521865
1020.17 10411832 10375075 12895875 21606828 12449902 8210048
1025.95 8325151 7418073 7872859 7256069 7836417 7163483
1031.74 7180146 6556147 6771969 6117755 6447922 5961538
1037.52 6379660 6344242 7280633 8031755 9929270 11374412
1043.31 14063461 16185289 18728504 20362742 21561227 20867541
1049.09 20230964 18090372 17183055 20652874 29742912 24595567
1054.88 18348025 17157331 18231682 19325523 20348629 19816114
1060.67 18938877 16690351 14590626 11584417 9443854 7146290
1066.45 5595345 4194742 3484025 2435059 2269335 1462151
1072.24 1492700 1044913 1280837 797530 1009056 767748
1078.02 900652 570548 796226 472556 781587 400675
1083.81 748727 491478 816459 488447 864471 530869
1089.59 739216 597831 817505 555948 803912 664757
1095.38 767745 575017 995193 853418 1194540 999289
1101.16 1397747 1330501 1874495 1823813 2474782 2760779
1106.95 3530057 3902901 4841452 5392693 6476320 7109571
1112.73 8223821 8770179 9735790 9943244 10589202 10172980
1118.52 9727351 8720379 9100589 9650243 10577937 10858412
1124.31 11394017 11109991 11299355 10609103 10334183 9588894
1130.09 9310742 8547612 8142944 7453268 7248172 6727432
1135.88 6746790 6255918 6247703 5787202 5422642 4779336
1141.66 4669384 4505844 4740536 4585312 4788420 4485639
1147.45 4696071 4366070 4443306 3993166 4068164 3575002
1153.23 3590068 3116396 3108569 2593231 2786426 2472071
1159.02 2429254 2219574 2285544 2209012 2534727 2213016
1164.80 2391911 2201055 2278050 1910451 2086488 1959289
1170.59 2143154 1886117 2080607 1762936 1957579 1773395
1176.37 1908263 1700239 1963470 1655375 1743228 1494757
1182.16 1725203 1547513 1597181 1397981 1489721 1264424
1187.95 1381679 1238262 1375579 1158933 1321247 1073296
1193.73 1264035 1110418 1290462 1020811 1179885 984401
1199.52 1245040 926457 1208706 1040790 1254090 1216874
1205.30 1319481 1210708 1535353 1400403 1668766 1774317
1211.09 2179523 2281852 2793365 3042903 3616045 3762859
1216.87 4273208 4248561 4524607 4445528 4649156 4515362
1222.66 4808307 4859894 5148492 5124050 4554284 3943046
1228.44 4462125 4399088 4500889 4218714 4074703 3507038
1234.23 3143257 2534934 2131886 1559785 1317403 861375
1240.01 850494 582426 680527 418647 510094 301568
1245.80 542692 321618 438069 369110 551706 394090
1251.59 536075 455937 593544 492847 641064 526946
1257.37 670485 634421 730533 617510 794465 651486
1263.16 805495 752330 874696 687035 818388 699493
1268.94 913988 681161 913081 714526 916227 776327
1274.73 902123 815833 1012535 851698 1014127 873717
1280.51 1104246 982688 1078455 1044669 1194600 993164
1286.30 1196016 1088081 1083644 993037 1089422 1051518
1292.08 1119081 1076427 1232797 1099220 1145440 1022587
1297.87 1043335 947121 1002056 879725 971234 839631
1303.65 944239 809915 922511 732094 972955 834747
1309.44 1022390 913169 945171 871244 1070369 967676
1315.23 1146840 985295 1196101 1044406 1268304 1088043
1321.01 1367062 1177335 1369645 1267646 1458502 1390163
1326.80 1458111 1391346 1617973 1507686 1698285 1742878
1332.58 1962995 1829433 1789133 1615326 1747530 1579212
1338.37 1947417 1683926 1961415 1811634 2004677 1862352
1344.15 2183673 2028235 2133594 2164835 2228703 2024374
1349.94 2162198 1869491 2237306 2046617 2741986 2650239
1355.72 2638723 2843599 2625859 2532309 2784520 2898761
1361.51 3140383 3056941 3463166 3637856 4000858 4246102
1367.29 4743582 5184100 5720709 6200873 6838893 7140796
1373.08 7766680 8090019 8581925 8407348 7945066 7532394
1378.87 8382360 10652136 12801179 13782056 14112125 14165909
1384.65 13778970 13114016 12140626 14832598 16787802 12786811
1390.44 11052400 10656292 11452503 11764045 12467778 12176035
1396.22 11793142 10480158 9309806 7846196 6846020 5583272
1402.01 5095773 4359176 4395487 4036012 4138763 3767644
1407.79 4036531 3749226 4000949 3752703 4047533 3853767
1413.58 4286769 4112943 4436386 4283300 4635225 4520253
1419.36 4965088 4682823 5142125 5102179 5731576 5871158
1425.15 6715769 7007217 7834785 8332757 9207085 9842592
1430.93 10974281 11513293 12533593 12950939 13596655 13397487
1436.72 14703887 15642461 17691921 19107193 21560163 23433827
1442.51 26482595 28302306 31361312 32786813 33491471 35818018
1448.29 34248805 36890128 39207486 41821291 43848034 46080145
1454.08 48794260 51481910 55246660 60788166 65845165 69820963
1459.86 70542779 76853740 79203530 81516984 80982410 76916142
1465.65 75674759 74951129 74208840 72945524 70894465 66075788
1471.43 63989807 66863295 71571636 72941625 70527026 66154030
1477.22 60689508 56499071 53840713 51600523 49403625 45818548
1483.00 44154215 43461967 43585140 43884722 45142818 46787985
1488.79 49214004 51924125 54670533 57698210 61466758 65954880
1494.57 69877034 60642057 58374430 58094488 61640393 69160399
1500.36 82663374 59447112 48984403 52735083 53693655 55534585
1506.15 53439410 50691963 44613053 38166844 30861044 24469986
1511.93 18622130 14620259 11065940 9114331 7180865 6436398
1517.72 5740659 5501274 4784105 4695576 4761069 4700406
1523.50 4651346 4446262 4524509 4441031 4297976 4337183
1529.29 4244091 4267095 4208720 4251054 4205774 4390835
1535.07 4261387 4376531 4239436 3767748 3731247 4021252
1540.86 3896253 3930954 4055339 3864517 3824745 4016835
1546.64 3908422 3895083 3867660 3783943 3862474 3761565
1552.43 3665168 3385565 3706767 3575967 3442353 3030766
1558.21 3265625 3037690 3414592 3411722 3361374 3279300
1564.00 3185520 3126254 3143962 3172470 3108771 2908216
1569.79 3245311 3259455 3437989 3532310 3864851 3747561
1575.57 3937113 4854272 5094334 5640315 6062515 6536211
1581.36 6934970 7393953 7890196 8598870 9326314 10256688
1587.14 11162618 12051225 12734399 13276383 13829094 14299203
1592.93 14375086 14220213 13427184 12514787 12084866 12815146
1598.71 14493373 15927902 16535145 16719533 16829075 17049526
1604.50 17055382 16931836 16657670 16189902 15357024 14159656
1610.28 12703373 11292971 10673089 11044157 12003040 12275782
1616.07 12030055 12153326 11694509 11056044 10107323 9358254
1621.85 8166494 7023562 6224385 5232054 4401419 3682490
1627.64 3118513 2676255 2283067 1953691 1732625 1499557
1633.43 1353121 827308 982486 991968 845818 904437
1639.21 714975 763893 671809 684950 609125 610816
1645.00 217108 605201 457921 622899 615542 666944
1650.78 490821-85918 304233 751258 877950 1099809
1656.57 1232139 1471497 1670381 2023206 2260067 2512435
1662.35 2683305 3157269 3054484 3162761 3025455 3125828
1668.14 3034821 3735895 3783135 3264725 3076056 3143511
1673.92 2992248 3167929 3463331 3356224 3177631 2910586
1679.71 2552437 2223757 1760293 1567441 1015806 1153088
1685.49 1383051 1227131 1239551 1067172 1034441 951397
1691.28 997191 863882 1027536 699634 360346 1005843
1697.07 980322 1067384 581654 882052 1302738 1367455
1702.85 1390960 1506262 1717857 1687712 1921295 1867972
1708.64 1902818 1757183 1731727 1839094 1962955 2020945
1714.42 2131105 2000617 1216708 1543138 1693952 1812060
1720.21 1769925 1696738 1570407 1371879 1199597 1111877
1725.99 925653 884278 705638 630693 637706 627663
1731.78 497310 283946 368395 607402 625420 593959
1737.56 642281 521445 577062 640293 598030 593790
1743.35 674096 722465 693761 700370 732454 679783
1749.13 764635 517404 680362 828462 787229 894260
1754.92 830109 838519 956350 1031738 989388 1060612
1760.71 860367 1009435 1016090 1093035 1158163 1119916
1766.49 1120579 1167667 1528898 1631281 1856997 1934907
1772.28 2195297 2762430 3017038 3497065 3859633 4211922
1778.06 4545293 4861470 4971557 5232230 5171691 4959462
1783.85 4442252 4012683 3844262 4311539 4835974 5269380
1789.63 5152037 4959722 4465638 4362927 4050890 3615970
1795.42 3114776 2647597 2307724 1898435 1651572 1297128
1801.20 1037589 834663 772950 623830 522082 540208
1806.99 399961 517366 434254 441739 511997 686275
1812.77 816759 989376 1291884 1613760 1943993 2272239
1818.56 2646850 2996946 3202503 3304756 3300050 3232905
1824.35 3017662 3112996 3347524 4113195 4371136 2550530
1830.13 2430849 2918252 3199267 3389760 3204629 2910399
1835.92 2496388 2027830 1531541 1109279 843496 614607
1841.70 520018 333217 241686 478846 592670 741545
1847.49 919798 1104134 1367669 1656282 1882225 2050148
1853.27 2207066 2331634 2334094 2432163 2394128 2606939
1859.06 2949918 2984213 2741550 2684175 2707908 2781946
1864.84 2826673 2960471 2972341 2962283 2755478 2830911
1870.63 2665211 2532550 2357784 2365179 2283506 2283325
1876.41 2279259 2251994 2205465 2334554 2234629 2498591
1882.20 2766685 3132078 3333990 3616366 3794728 4145539
1887.99 4422770 4918399 5406424 5924945 6332363 6796862
1893.77 7106683 7388609 7426785 7401086 7128934 6604849
1899.56 5817827 5305820 5563484 6510438 7042409 7154307
1905.34 6783121 6323247 5817818 5301891 4574663 4006773
1911.13 3319983 2689174 2111642 1649049 1260703 978780
1916.91 658358 597739 434613 389873 281820 325992
1922.70 328688 404978 462128 587396 768130 1082766
1928.48 1333172 1712805 2072568 2593482 3060907 3599530
1934.27 3990076 4463909 4754540 4887623 4691627 4837063
1940.05 4527398 4541176 5181960 6858928 4974090 3264570
1945.84 3975497 4407006 4854669 4796964 4602679 4078277
1951.63 3466660 2740124 2056778 1561798 1128874 885070
1957.41 730962 640457 629390 532903 569911 571221
1963.20 633689 618300 619323 476881 546359 521975
1968.98 511310 524104 514710 431366 562500 517320
1974.77 360132 408563 392987 383649 382833 394067
1980.55 356854 383779 333706 296702 256996 282694
1986.34 271745 270426 241300 221670 235120 176136
1992.12 147428 167840 107718 150830 91536 94671
1997.91 114972 156298 122439 98645 77575 60499
2003.69 13094-2771 109054 59848-169711 24749
2009.48-75442-50255-62151 33037-18875 23062
2015.27-10608 17500 25805 85603 75799 20840
2021.05-28683 11565-30910-51443-64902-48399
2026.84-65115-13992-46779-27913-75011-43128
2032.62-80200-21161-102586-45574-78273-15813
2038.41-83174-42512-36447-8837-30844-7514
2044.19-20041 17599-33708 10076-27528 3149
2049.98-70861-31723-79087 15888-52127-52533
2055.76-57856-121514-103798-140287-163733-139906
2061.55-183331-183573-230912-170629-224307-178700
2067.33-226725-197943-230273-184143-201787-202985
2073.12-155080-161516-207531-168661-144613-155838
2078.91-193028-144999-144622-139670-136512-94213
2084.69-42518-38262-125169-73559-126967-39929
2090.48-133944-117850-181833-138242-174561-105837
2096.26-77582-25848 56126-33472-10577 11475
2102.05 90485 106929 46431 87676 94735 219583
2107.83 110859 180489 129678 299550 166348 260626
2113.62 277869 465744 372270 387556 239639 406171
2119.40 271409 292406 263662 283112 202970 101425
2125.19 82061 119668 108129 103579 117307 84235
2130.97-18923-22723-113337-127363-149276-175231
2136.76-233860-188587-180958-190251-239877-137905
2142.55-179182-174597-160447-128271-151009-139330
2148.33-142682-63615-72568-65112-130246-75211
2154.12-101482-73254-41775 108756 19562-11165
2159.90-4901 18200-67559-76659-76130 1266
2165.69-47191-67994-37652-16360-168852-133332
2171.47-43547-91760-177255-139524-45875-119575
2177.26-138082-59826-48351-130656-178609-48839
2183.04-90667-141107-121139-16155-67137-34470
2188.83-45760 15204-94292 2656 57154 131647
2194.61 126344 255582 235907 270135 288741 333236
2200.40 299247 369702 340852 565259 489540 493045
2206.19 523412 462932 507043 530698 565512 665114
2211.97 569095 509026 412266 417543 306404 318407
2217.76 331832 307060 298562 344217 286919 275002
2223.54 172497 216554 210761 216517 176664 154358
2229.33 120057 137805 81043 125299 97432 159109
2235.11 45404 85661 38234 64980-51655 53959
2240.90-32329 7773-36019 5738-40045-73388
2246.68-107087-106774-126736-110452-106600-49968
2252.47-82946-30025-25728 19294-13165 50668
2258.25 62440 93980 109886 138522 196010 256397
2264.04 257834 318702 352197 423949 459814 530838
2269.83 526425 589516 603506 611739 582386 577929
2275.61 564545 550415 526519 517489 423339 514324
2281.40 510325 473894 413777 441954 365745 386541
2287.18 332740 229160 159493 162722 157259 138268
2292.97 155597 158767 81016 189510 38380 61641
2298.75 43095 37279 82414 33268 113413 117656
2304.54 134792 138060 192908 272942 265144 420495
2310.32 337089 614788 300072 634827 176001 545805
2316.11 79847 563127 384070 790147-67040 491197
2321.89 43389 492360 61542 455653-40978 245018
2327.68-86805 109021-241717-91447-372628-33071
2333.47-206185 44556-157881 142522 51118 236554
2339.25 150888 317326 149223 244230 130948 213113
2345.04 193009 419457 585128 822476 688569 610577
2350.82 346763 268525-32710-89499-378155-444627
2356.61-655403-783850-912992-887378-948271-910103
2362.39-1001690-927263-992881-843463-893061-748938
2368.18-717985-553750-531715-381999-453484-251067
2373.96-317754-143346-221354-45287-102315 8452
2379.75-111230-9057 14886 38079 39117 103546
2385.53 34386 137560 16297 102971 29015 123777
2391.32 72155 204340 68234 144572 132750 164646
2397.11 87620 232420 204460 254703 277362 342910
2402.89 283948 420114 442029 516228 484294 715856
2408.68 583620 617150 537730 569010 526131 651132
2414.46 611730 707698 752081 827097 788437 755934
2420.25 756168 949406 857228 947872 868774 928939
2426.03 942390 1042890 1075717 1110445 1061133 1233145
2431.82 1098351 1228448 1225347 1291468 1270183 1416188
2437.60 1317069 1363649 1256326 1335876 1302829 1341825
2443.39 1232813 1325071 1248387 1301083 1085925 1120959
2449.17 965447 1142108 990763 1111909 995014 956524
2454.96 887130 813279 686846 623103 536771 568931
2460.75 474666 415471 373510 487621 362642 445133
2466.53 362689 422179 334040 331222 273496 317369
2472.32 267963 279669 237056 338195 306568 288821
2478.10 265537 344263 244184 329322 294520 349868
2483.89 290995 369857 263617 338755 229206 320452
2489.67 321070 314318 320627 337940 198092 283491
2495.46 178846 281215 318777 320019 230716 263424
2501.24 163945 292310 170884 263793 198779 239905
2507.03 152697 241295 122797 235045 155058 255731
2512.81 92084 226795 91820 116468 119175 209556
2518.60 130439 115165 45737 44788 27669 49977
2524.39-51787 30225-24267 3124-72009-24474
2530.17-58615 26376-30626-14744-75990 25820
2535.96-131988-4302-132042-44018-87212 26386
2541.74-141334 21678-92016 93203-53694 30752
2547.53-5364 28325 57715 120803 117523 218660
2553.31 177743 295665 268555 533928 527825 609321
2559.10 542431 700720 717012 819059 811348 1090888
2564.88 1084958 1185741 1116543 1286012 1322853 1464622
2570.67 1546294 1636773 1609684 1703282 1599586 1634940
2576.45 1537980 1579893 1464009 1512264 1450792 1602395
2582.24 1473896 1556829 1369344 1245908 998140 1018507
2588.03 901751 970942 768485 842647 708997 563352
2593.81 509046 547210 405692 455369 379568 455441
2599.60 377634 434947 364809 454295 459364 559185
2605.38 493464 591228 582127 606217 510517 640958
2611.17 571714 669359 567653 675517 459296 560667
2616.95 479741 621139 505596 554153 477728 445789
2622.74 373733 395468 233450 197379 188924 186172
2628.52 18755 103431 103615 104960 119639 117828
2634.31-716 63319 4374-2804-61905 29817
2640.09-87057 2127-20376 20997-26804-57
2645.88 8365 6978-36004 3147-35953-11436
2651.67 23176 25704 214 61130-20670 90994
2657.45 49840 99056 26128 111884 38926 101520
2663.24 72072 95402 105973 183887 123454 239637
2669.02 165941 260600 262651 324525 216885 327299
2674.81 257272 322658 276557 393023 303646 285312
2680.59 281331 396250 301027 363257 317858 379943
2686.38 285257 336273 228661 389680 269927 361746
2692.16 288917 346896 245716 404075 244661 302604
2697.95 201503 345108 275412 384900 332321 377504
2703.73 382327 537095 478949 594712 495451 643423
2709.52 630451 731241 673545 822992 852993 956673
2715.31 941368 1143404 1235108 1438379 1550198 1653188
2721.09 1722899 1943981 1949750 2189900 2253397 2538688
2726.88 2681674 3012209 3219608 3612325 3954395 4606840
2732.66 4942184 5550188 5935338 6157963 6328714 6339134
2738.45 6259791 6262957 6452054 7588852 7091658 6463073
2744.23 6033109 6072729 6153013 6429291 6546232 6429850
2750.02 5930664 5370600 4590100 4053663 3383746 2916579
2755.80 2480121 2238214 2065220 1937099 1766604 1928462
2761.59 1992531 2065008 2047659 2257935 2243490 2370034
2767.37 2254490 2381490 2421419 2703017 2756166 2488798
2773.16 2382603 2540069 2681643 2768668 2806294 2857957
2778.95 2742762 2627113 2471900 2311328 2104435 1994538
2784.73 1928592 1970235 1825538 1861711 1824589 1760854
2790.52 1816873 1777101 1807993 1765772 1749927 1816745
2796.30 1769983 1910847 1874779 1970912 1917718 2026701
2802.09 2058593 2148457 2269507 2453449 2448759 2633680
2807.87 2687962 2829466 2834999 3072780 3160173 3343937
2813.66 3546295 3520688 3561201 3778747 3721566 3952463
2819.44 4020830 4172874 4380639 4651091 4963112 5129015
2825.23 5250424 5295715 5325383 5480426 5549874 5814644
2831.01 5891459 6056345 6174064 6305210 6355508 6463199
2836.80 6605655 6850525 7140940 7528424 7868590 8291389
2842.59 8507428 8863275 9283506 9789346 10182514 10661529
2848.37 11196914 11950841 12633616 13432632 14205903 15439972
2854.16 16753828 18506529 20106558 21916211 23893702 25775238
2859.94 27760765 29754443 31719995 33759880 35728085 38096349
2865.73 40178555 43094482 45073439 47086046 49262514 51816099
2871.51 54027269 56113814 58061414 59615563 61032105 62448351
2877.30 63571633 64768849 65933571 66307566 66674025 66864662
2883.08 65763736 65207968 65035138 65282069 65053823 64269216
2888.87 63048560 62113465 61610530 60786393 59991298 59041062
2894.65 57816722 56483284 55121221 53522128 52256421 50816171
2900.44 50078201 49970049 49753368 49424255 49062855 48150234
2906.23 47419082 47324902 47562790 48234260 49603842 51116343
2912.01 51868548 52596166 53696296 54426669 56200850 57951954
2917.80 60593549 63111524 66692341 70373691 74205751 77268147
2923.58 80995157 84184460 88132720 91087257 94511078 97119062
2929.37 100868065 104263395 108786188 109422539 109777072 111927997
2935.15 114374620 115872545 117847125 118485228 119087110 118187290
2940.94 117004949 114077270 113025477 109410365 110114348 109218222
2946.72 127482551 136371236 125081010 123462386 121878061 121865102
2952.51 113204427 105987156 97317657 92441055 87426514 85393371
2958.29 82968599 82301012 80484176 80169970 79587612 78787218
2964.08 78174770 78698203 79438520 81661790 84119643 87394787
2969.87 90643998 94578918 97619196 100915229 102666887 103629995
2975.65 102498215 100021814 94538270 88386101 83616356 84169502
2981.44 88994347 94102771 94871718 93083001 88936570 84372039
2987.22 78518580 72259474 65496119 59135285 52865080 47778677
2993.01 42851788 39237786 35936570 33445828 31136200 29318247
2998.79 27599638 26244646 24912994 24794134 25028300 26288715
3004.58 27187953 28331169 29334503 30991627 32736716 35138101
3010.36 37870677 41593084 45719917 50881074 56365475 62560894
3016.15 68961678 75309150 81368997 86800841 91255767 94973667
3021.93 96997796 96946344 94476268 91740068 92022845 98899886
3027.72 108721528 115020777 115949645 114248474 111714506 108602931
3033.51 105348927 99913935 92917145 86309067 80513214 76990887
3039.29 73623468 71020071 67726699 64937547 61561947 59082067
3045.08 56565633 54808826 53145361 52616462 52121699 52615025
3050.86 53511369 55387465 56990486 58520780 59986444 62345757
3056.65 64395322 66678060 68395074 70223765 71361642 72683144
3062.43 74040482 76670279 78008008 79529021 80002370 80892789
3068.22 82049388 83061273 83337510 83069057 81593489 80080066
3074.00 77375402 74966647 72547158 71259792 70959790 71362002
3079.79 70933891 69917733 67508140 64825390 61381608 58326028
3085.57 54855325 52113408 49651110 48212750 46042014 43486981
3091.36 39620675 36625323 35090515 33730972 31915298 29891040
3097.15 27166605 24714655 22022248 20010350 18095019 16876687
3102.93 15899581 15457392 15161824 15310762 15301145 15801350
3108.72 15996620 16379185 16323833 16434210 16026633 15660582
3114.50 14974915 14440831 13771069 13745503 13646506 14082637
3120.29 13890663 13422838 12517249 11905901 10896166 10151626
3126.07 8954252 8153949 6970918 6289363 5481657 4963621
3131.86 4302052 3973031 3594059 3333715 2943773 2919932
3137.64 2675786 2700822 2430730 2425879 2207203 2408699
3143.43 2121226 2191509 2051955 2078097 1895945 2043446
3149.21 1882374 1905751 1848545 1927883 1710499 1804357
3155.00 1822538 1886544 1797460 1938256 1786899 1936062
3160.79 1749965 1979041 1758318 1871527 1745322 1958677
3166.57 1802177 1961341 1834225 1928491 1720211 1874052
3172.36 1752596 1864550 1605028 1704481 1543482 1666691
3178.14 1323711 1492806 1254008 1301337 1032174 1174625
3183.93 980576 990097 787168 973541 716994 897634
3189.71 721124 818205 741995 780896 634107 712386
3195.50 555675 627527 562719 624794 489257 629530
3201.28 379980 565877 374660 486436 327649 473010
3207.07 318537 435657 324007 408561 220382 327224
3212.85 207559 347700 130665 350400 175100 263634
3218.64 140295 358331 177158 277960 229017 355953
3224.43 307312 319790 177752 319036 87040 207011
3230.21 89390 290098 61180 227198 42798 242055
3236.00 100032 220665-98265 161379 47290 130878
3241.78 13309 170740 30133 202843 311 85621
3247.57-17288 84679-102237 102619-20499 118347
3253.35-49368 75636-84050 149794-92413 108328
3259.14-70766 82074-95817 176077-98064 71427
3264.92-187835 75642-8483 79492-12432 58552
3270.71-7528 99089-35416 68508-151007 18490
3276.49 15799 61804 27836 103019-68086 14028
3282.28-8143 106521 21761 165971-67194 132157
3288.07-57235 36698-14301 240202 19853 119090
3293.85-43044 138547 91637 223015 2420 102817
3299.64-3506 175408-8689 160479 18038 219827
3305.42-4355 150340-2040 39895-39499 248902
3311.21 19648 188906 26967 64357 56495 131599
3316.99 54216 140529-20510 19763-25409-57889
3322.78-78412 169050-133326 41763-141247 58125
3328.56-87323 25263-97279 53453-135986 68896
3334.35-137709-34765-105642 13761-92147 136618
3340.13-93892 58041-125221 47988-152252 138894
3345.92-183564-4609-21513 20352-65057 73699
3351.71-151020 48871-56851-6106-153688 121219
3357.49-47862 95032-81026 117991-55074 37427
3363.28 55574 99925-40217 86606-98585 121421
3369.06 29609 96890 62544 128253 46111 287716
3374.85 75803 286940 155854 281946 68820 156927
3380.63 9877 226533 197985 249492 186764 219748
3386.42 103456 261700 27733 358711 28216 353007
3392.20 63318 184830 40175 245967-77861 192462
3397.99-32437 33297-132935 48957-24606-51468
3403.77-103371 84048-127999-84168-60525-8346
3409.56-205354 52992-177777 81910-261684-26330
3415.35-110348 47251-112719-6692-216921 117269
3421.13-155190 97496-198095 26872-102713 10569
3426.92-19092-68688-71554 126439-41462 135826
3432.70-125465 33578-139402 209310 22045 14821
3438.49-27294 122110-84203 128078 1668 59447
3444.27-51278 251810-107765 180616 115015 51616
3450.06 210700 227172 161664 277668 129300 128424
3455.84 224890 265756 175501 359886 208938 259165
3461.63 309697 224799 201210 263209 145861 427001
3467.41 211758 296455-9673 214482 202359 331442
3473.20-2221 193086 22687 147580 70988 169222
3478.99-130229 153882-3545 250086-128101 219212
3484.77-15049 126401-71258 142971-158302 97275
3490.56-173625 49903-95623-30320-35886-16649
3496.34-183075-62815-112004-36313-203255-20793
3502.13-173709-79435-179231-38128-276711 40902
3507.91-188945 8417-180206-30653-247191-61789
3513.70-244181-1824-197119-1031-230773-40395
3519.48-135957-109684-158750-20395-269754-23988
3525.27-187217-40679-169341-88289-155630 26996
3531.05-244669 95926-186308-49840-241928 5188
3536.84-123120-101537-75957-90106-190350-7024
3542.63-155948 68084-206067 13362-138639-6507
3548.41-112919 29528-170272-48579-9312 93576
3554.20-123053 21857-203466-1993-199748 35941
3559.98-175482 616-10704 23457-160172-5175
3565.77-127577-25651-149398 156193-132773 53653
3571.55-76817 41977-86407 122877-116970 110342
3577.34-31045 149655-87074 123165-14136 164175
3583.12 15673 198743-90811-89835-50379-42454
3588.91-55253 130413 9652 11155 47984 217286
3594.69-14561 151485 86832 72546 132337 177173
3600.48 169250 291262 177720 317748 35367 323213
3606.27 45812 331338 49361 285664 125745 187605
3612.05 98125 293476-18614 216912-55600 135970
3617.84-31974-101479 1477-25593-136344 8479
3623.62-150162-48757-123891-82312-393629-317258
3629.41-300686-36846-262628-7547-149413 38109
3635.19-175242-66595-147991-4630-149781-80692
3640.98-150069-42601-108361 33566-114733-59459
3646.76-194080-134835-429324-53523-247249 36544
3652.55-226357 101400-216725-122989-175000 40328
3658.33-62347 14978-90195-8062-153497 48999
3664.12-155409 44157-283349-81278-225334-104308
3669.91-500515 38652-201391-74362-415449-273008
3675.69-319747 85258-305100-79166-298438 6296
3681.48-208192 43058-241380 51463-252342 32755
3687.26-608673-143242-247553-146108-159830 34782
3693.05-203821 63298-175361 47995-250338 25793
3698.83-283438 41166-318871 27443-223172-72531
3704.62-269665-11459-262074-74326-400830-124066
3710.40-265652-397863-274385-48366-259908-89798
3716.19-294628-25054-274427 920-240899-101492
3721.97-227085-96249-274541-114973-245000-18480
3727.76-255553-59737-154564-186399-438062 79015
3733.55-417799-77713-452646-133255-284616 74497
3739.33-215669-13294-198279 140067-679052-335242
3745.12 53939 61076 21650-140493-307373 289001
3750.90-352440 95055 101565 299575 93737 219865
3756.69 147909 299798-67160 249955 167232 284232
3762.47 107748 375668 71306 260667 87335 196202
3768.26-91853-48629-9241 66243-98833 31750
3774.04-42131 38043-81727-10806-93691-47333
3779.83-105919 74831-142653 68252-142719 50679
3785.61-29201 172786-38503 118849 61470 111081
3791.40 7674 146532-7037 222107-93000 42823
3797.19 130901 204069 1929-141582-193118 253963
3802.97 62976 286273 388-32675-112294 346573
3808.76 46777 286802 61581 215804 54696 405129
3814.54-169960-21442 205823 315025 152703 149647
3820.33-83750 271505 246926 437984 308298 513059
3826.11 277243 545505 364178 604604 319066 432353
3831.90 409684 538853 348670 580331 437654 150957
3837.68 296366 628363 307067 593253 434849 578726
3843.47 455660 660639 401187 776179 507752 718203
3849.25 541820 623093 215013 842768 6928 751168
3855.04 731328 928617 760428 963170 702924 900212
3860.83 667871 983713 849162 878973 747175 1074325
3866.61 887013 1040408 567481 888989 777970 974215
3872.40 782361 938196 814551 998449 860818 1085531
3878.18 942992 1070185 865061 1108478 915529 1108598
3883.97 926814 969927 1039531 1282920 1187616 1367398
3889.75 1076185 1291911 1316151 1454831 1351465 1549765
3895.54 1393115 1640430 1294156 1447547 1438210 1609456
3901.32 1489234 1767094 1265793 1574741 1344086 1583632
3907.11 1352159 1507603 1217710 1314577 1003702 1193932
3912.89 917295 1073944 817179 907418 659024 850033
3918.68 540505 765962 610239 783595 522814 728068
3924.47 398015 697783 408770 599983 347790 450962
3930.25 332390 447099 287818 529647 279970 481468
3936.04 301438 459271 253521 484784 276839 445218
3941.82 230317 472525 278598 558859 330279 469719
3947.61 447196 512689 303967 598419 498915 602854
3953.39 509629 608109 435242 731238 461338 624836
3959.18 604640 753226 530835 743627 605224 805147
3964.96 504313 809249 419023 817317 586363 811695
3970.75 504511 668903 434973 656185
##END=
