##TITLE=1,2-Dimethylbenzene
##JCAMP-DX=4.24
##DATA TYPE=INFRARED SPECTRUM
##CLASS=IUPAC A
##ORIGIN=NIST, Analytical Chemistry Division, 301-975-3108
##OWNER=COPYRIGHT (C) 2001 by the U.S. Secretary of Commerce
##DATE=01/06/01
##$SPECTRA VERSION=1.10
##$UNCERTAINTY IN Y=2.2 % relative (B=1.21E-04,C=1.57E-9,D=3.06E-14)
##CAS NAME=1,2-Dimethylbenzene
##CAS REGISTRY NO=95-47-6
##MOLFORM=1,2-( C H3)2 C6 H4
##MP=-25.18 C
##BP=144.4 C
##$NIST SOURCE=QUANT-IR
##SPECTROMETER/DATA SYSTEM=IFS66V (Bruker)
##INSTRUMENT PARAMETERS=KBr Beam Splitter; MCT Detector; Multipass cell
##STATE=gas
##SAMPLE DESCRIPTION=o-Xylene Primary Gas Standard
##PRESSURE=101.3 Pa
##TEMPERATURE=23 C
##SAMPLING PROCEDURE=1 L/min Flow
##RESOLUTION=0.9640
##DATA PROCESSING=NB Strong Apodization
##XUNITS=cm-1
##YUNITS=(micromol/mol)-1m-1 (base 10)
##XFACTOR=1.0
##YFACTOR=18.189E-13
##DELTAX=0.4820
##FIRSTX=575.17
##LASTX=3974.606
##FIRSTY=3.10E-06
##MAXX=3974.12
##MINX=575.17
##MAXY=.001542
##MINY=-2.32E-06
##NPOINTS=7052
##XYDATA=(X++(Y..Y))
575.17 1708605 1799683 1455753 1309265 1151430 1023972
577.58 1172658 905471 554537 904314 1791411 2744755
580.47 3119077 2504863 1657340 1143821 1143683 1115912
583.37 1539690 1816753 1617896 1320009 1512616 1733618
586.26 2076378 2247906 2177106 1742380 1662609 1689261
589.15 1516007 1527095 1694617 1308704 865624 525680
592.04 609000 829561 557352 54586 171787 487052
594.94 611251 439576 385809 311412 239159 207762
597.83 477920 434382 145320-111652-235737-296618
600.72 48460 211179 93429-117972-261049-106202
603.62 65150 11520 16010 27024 83633 226530
606.51 109917 27443-48046-177492-152670-101542
609.40-107411-295358-243974 14187 71016 89629
612.29 283806 298811 346674 147293 9315-85032
615.19-17648 183608 139645-114636-138392-100315
618.08-99229-16311-72337-78421-188791-294410
620.97-67061 36560 30278 51725 358451 242783
623.86-120897-190872 5579-15227 14189-33104
626.76-61803 55812 118467-83925-146279-20336
629.65 47001-666-150079-284499-55953 28508
632.54 36002 15125 31364-29042 65268 52097
635.44-52375-64633 15608-11171 50362 6540
638.33-168262-193041 76180 78607-28099-78151
641.22-77876-37610 59528 79339 5355-136245
644.11-214822-178817-34333 43341 192121 127025
647.01 8271-99419-158983-160218-67566 23838
649.90 49491 20149 28882-94381-13580-32882
652.79-16582 30167 35121-132622-136358-10003
655.68 18024-41290 86299-49697 46513 75412
658.58 141952 227308 225920 133571 137799 1270
661.47-19501-9655 21408 91321 253792 144897
664.36 164612 198549 210611 102356-36517-653088
667.26-940591-469034-19316-60790-41073 79861
670.15 240599 146068 146362 77656 68797 50203
673.04 244233 235757 174452-22772-19955 84999
675.93 190510 184772 43696-98939 44795 98158
678.83 145522 127835 74176 25567 116703 64018
681.72 109672 20730 69089 160395 222016 160109
684.61 213885 113332 64408 11403 109415 223812
687.50 257692 123684 170309 348054 463458 435652
690.40 400120 260997 301156 305862 472164 402229
693.29 395261 374441 451716 419093 370799 188197
696.18 296769 430550 750961 752721 662569 591537
699.08 623750 535640 594618 485675 527972 448414
701.97 642226 744359 827083 785638 765636 634391
704.86 811945 686281 742634 706992 727899 759185
707.75 886009 877863 1121815 1051064 1179483 1212997
710.65 1417423 1449974 1763294 2023832 2334380 2377197
713.54 2720678 3036698 3623358 4077502 4771685 5240621
716.43 6051127 6871683 8071774 9198951 10660878 12088568
719.32 14055085 16173084 18726082 21276274 24405371 27672039
722.22 31559031 35716271 40612949 45727004 51451549 57120397
725.11 63612436 70353060 76894036 81795738 87264747 93027894
728.00 98960371 104377677 109733057 113950332 117863654 120712454
730.90 123322184 124520848 125280211 124644886 123699934 121526513
733.79 119513094 116598873 114633183 112445390 112773113 114953793
736.68 121108345 128609052 140361988 159938911 202270753 284979114
739.57 431597034 644539966 847732709 764021848 420713678 200913434
742.47 132468033 114236301 107415198 106496506 106490694 108660883
745.36 110630822 114325416 117772845 122090824 125331818 128853370
748.25 131282045 133261056 133641146 133589737 131857754 129507020
751.14 125470396 121018489 115481105 109782947 103087388 96448690
754.04 89379997 82438732 75214636 68407802 61503693 55242566
756.93 49072196 43598579 38395820 33759847 29322633 25542084
759.82 21888291 19030295 16291588 14061296 11922788 10324052
762.72 8696012 7451140 6375738 5590232 4639478 4051487
765.61 3524087 3271148 2931604 2793285 2520210 2417398
768.50 2017263 1703514 1349555 1195598 1041811 1076051
771.39 1051368 1125752 993013 986005 793545 827380
774.29 841796 948894 772156 745125 764020 852724
777.18 657619 673606 638961 688401 669823 723070
780.07 666597 662197 542845 613794 555166 662132
782.96 604316 512993 354669 426101 473320 577614
785.86 487722 508141 485484 604762 562545 497777
788.75 420328 489890 475222 496106 318558 319277
791.64 368708 497119 485854 479409 450477 462832
794.54 350714 273145 314639 410092 323601 301777
797.43 278883 226235 144702 228247 177983 279119
800.32 240689 275098 308570 356909 313801 307359
803.21 315719 480260 404323 428187 401495 390663
806.11 425250 421028 387929 457769 330685 394394
809.00 434053 453755 413700 506412 495939 504897
811.89 463230 554266 634152 740505 652560 681562
814.78 703982 740268 833429 784425 707688 805825
817.68 816167 884744 807367 816800 853611 901631
820.57 928245 1122141 1165911 975758 896053 968448
823.46 935309 954911 949754 971387 907020 864701
826.36 759377 734690 704154 717447 743918 878201
829.25 897745 951495 901935 840303 644226 585458
832.14 653427 610038 479226 501374 520838 532089
835.03 530301 622020 652578 561868 449710 408714
837.93 404441 434780 396817 325775 345177 329923
840.82 220780 346184 384890 350944 322930 375124
843.71 454630 469508 299754 261423 255437 274265
846.60 245301 283446 353991 414907 420489 375621
849.50 258473 418325 543235 552970 553298 560171
852.39 518313 571611 628058 654471 683446 843090
855.28 964068 1044781 1053458 1012662 885737 927104
858.18 947547 1026385 1090410 1125096 1099907 1152719
861.07 1183442 1294727 1413014 1466598 1448121 1488309
863.96 1512096 1516177 1497230 1553895 1578003 1686549
866.85 1692915 1732229 1725831 1762579 1704050 1708283
869.75 1716660 1683570 1570421 1555397 1607580 1611695
872.64 1600774 1591476 1445278 1486591 1592638 1636108
875.53 1463581 1354229 1354895 1400812 1400746 1283906
878.42 1151249 1191700 1204027 1199621 1089604 1013919
881.32 970509 932950 884552 891574 828283 842270
884.21 815864 716046 675480 684539 633232 648043
887.10 664902 717274 685252 713868 703623 700526
890.00 679266 699812 693758 688361 642809 726112
892.89 736170 722683 715180 812317 868518 854019
895.78 891981 973013 973254 1006000 975196 997007
898.67 1015014 1008538 1006119 1072587 1074400 1076148
901.57 1047371 1026722 996744 1004145 962444 950901
904.46 982788 1050531 1055593 1025544 934112 972834
907.35 948882 1009249 1073364 1090836 1089395 1129196
910.24 1138986 1165144 1137391 1116667 1061486 1080379
913.14 1079071 1051056 1029445 1077664 1068573 1149937
916.03 1218372 1188288 1138391 1115002 1140920 1217476
918.92 1192586 1220555 1151431 1139029 1205773 1272269
921.82 1244094 1305976 1352743 1312343 1190557 1233068
924.71 1306480 1328387 1339415 1370103 1388180 1517722
927.60 1607305 1735200 1931550 2230943 2647585 3297245
930.49 3885056 3817653 3329215 2877121 2491395 2219702
933.39 1961310 1830753 1806155 1741732 1637743 1656974
936.28 1618666 1666773 1663865 1661985 1726769 1854014
939.17 1887385 1885457 1879188 1900597 1949269 1964840
942.06 1904862 1908110 1904410 1890140 1817916 1801413
944.96 1730489 1696034 1679961 1654681 1550147 1499864
947.85 1466892 1495720 1398191 1293602 1163931 1240326
950.74 1286575 1204895 1152800 1167317 1180066 1182794
953.64 1165585 1117555 1056135 1100837 1133970 1143456
956.53 1084861 1130397 1174287 1109464 1065934 1078721
959.42 1121742 1188119 1191635 1227368 1157912 1125418
962.31 1219684 1287917 1319286 1373084 1414109 1512889
965.21 1604655 1713442 1810151 1885469 1957034 2155080
968.10 2337262 2545749 2765544 3061890 3332298 3632122
970.99 3924097 4316288 4742721 5163770 5615870 6127764
973.88 6624573 7156759 7624906 8097103 8616658 9116092
976.78 9527918 9860200 10211167 10585145 10810721 10977468
979.67 11099336 11177095 11234288 11283723 11397651 11671603
982.56 12107059 12730025 13280226 13437295 13476844 13205674
985.46 12462770 12045961 12202815 12675905 13114822 13042243
988.35 12582323 12258003 12106462 12095081 12005691 11889938
991.24 11657206 11361849 10965336 10580425 10220409 9857706
994.13 9463227 9061730 8653621 8248690 7750483 7264546
997.03 6879911 6547158 6228804 5953359 5692074 5488560
999.92 5298969 5242784 5192846 5096638 5018584 5008706
1002.81 5027547 5129374 5194905 5219795 5228082 5350787
1005.70 5479626 5600036 5731147 5927822 6084773 6247991
1008.60 6448210 6684400 6907453 7117502 7233469 7427251
1011.49 7689035 8000768 8299901 8394068 8393759 8481382
1014.38 8493850 8489009 8467212 8532549 8573831 8635385
1017.28 8618876 8721147 8884227 9128529 9407710 9675023
1020.17 9925033 10293193 10415097 10603438 11280870 13167103
1023.06 17255278 21088209 17883602 12128400 9748763 8858539
1025.95 8314409 7969253 7815283 7732115 7676302 7594922
1028.85 7541486 7520689 7549187 7590068 7528401 7340026
1031.74 7205175 6978368 6827299 6781560 6681599 6553171
1034.63 6439766 6322845 6288623 6249097 6194076 6171851
1037.52 6151003 6214957 6337085 6541504 6811102 7117370
1040.42 7604278 8267385 8953131 9761712 10625586 11597196
1043.31 12679632 13895444 15146973 16330456 17470714 18550279
1046.20 19581454 20440110 21079892 21316788 21239364 21005208
1049.10 20612878 19999832 19200683 18255150 17514879 17393307
1051.99 18386099 21043415 25625965 28675852 27925766 24711273
1054.88 20951838 18678349 17571847 17341532 17622222 18165655
1057.77 18777130 19419730 19870923 20185826 20132406 19878368
1060.67 19447780 18759819 17832480 16811464 15668154 14428566
1063.56 13083978 11757485 10471368 9330850 8284406 7304691
1066.45 6325095 5517010 4854356 4331264 3858830 3357457
1069.34 2912904 2607685 2354559 2125041 1841150 1638969
1072.24 1461193 1350542 1261183 1206620 1153082 1125953
1075.13 1054146 953394 865629 886916 906824 886178
1078.02 821930 794492 725868 686670 694743 690052
1080.92 589240 617228 658304 621626 579123 563503
1083.81 562698 610396 620250 632615 650948 681799
1086.70 646531 634324 670686 725952 698436 683206
1089.59 606946 615385 686428 708172 709807 699434
1092.49 679521 683180 675685 693650 720561 780776
1095.38 738762 648160 628591 732230 800008 835607
1098.27 931202 1002333 1000076 1078906 1095096 1121538
1101.16 1205749 1271973 1350431 1470497 1601551 1745388
1104.06 1837253 1978873 2121935 2357197 2623252 2886518
1106.95 3131513 3420000 3715111 4021696 4363937 4742280
1109.84 5100087 5509760 5944102 6363958 6778461 7219966
1112.74 7690265 8113192 8451402 8912797 9285319 9576687
1115.63 9834094 10087971 10279410 10414029 10436916 10256259
1118.52 9978277 9599919 9182109 8924599 8829762 9019667
1121.41 9374199 9750053 10143937 10439301 10710676 10993306
1124.31 11136230 11244091 11266428 11237843 11210224 11143029
1127.20 10983001 10745981 10436913 10213647 9991290 9702832
1130.09 9419126 9212113 8947104 8639496 8347185 8041191
1132.98 7783539 7582239 7337855 7139493 6986472 6846358
1135.88 6733596 6624024 6513347 6378334 6224852 6145454
1138.77 6037911 5874066 5609142 5324236 5086330 4905065
1141.66 4701630 4586081 4569384 4618448 4626098 4636652
1144.56 4651421 4695761 4698792 4673757 4623531 4611686
1147.45 4591225 4574802 4532814 4487711 4395252 4334917
1150.34 4211312 4120631 4019146 3951247 3833021 3687290
1153.23 3573883 3478208 3360929 3225041 3116524 2982536
1156.13 2854736 2737860 2646910 2669902 2674339 2573599
1159.02 2402359 2354202 2349793 2295604 2229361 2231861
1161.91 2229754 2287349 2398722 2429511 2362487 2327568
1164.80 2290408 2298326 2297491 2294409 2247874 2172505
1167.70 2093752 2017775 1989699 1987775 2028218 2058588
1170.59 2040358 2060640 1999687 1994780 1982214 1971561
1173.48 1936185 1858921 1847131 1872609 1863784 1868648
1176.38 1836100 1822804 1794161 1798547 1838714 1857073
1179.27 1815625 1752518 1695008 1652438 1607996 1607031
1182.16 1602362 1616918 1655622 1641519 1556355 1511713
1185.05 1505447 1482317 1440464 1408473 1367861 1361430
1187.95 1318043 1298254 1301552 1329834 1317284 1274599
1190.84 1265246 1260234 1232451 1233121 1194003 1169510
1193.73 1163634 1177791 1183772 1197729 1210858 1195532
1196.62 1146573 1118799 1110858 1073324 1077007 1100377
1199.52 1097113 1150433 1094852 1020305 1059414 1117214
1202.41 1126839 1143502 1128329 1169757 1244706 1294983
1205.30 1275441 1232457 1247437 1321500 1372202 1422181
1208.20 1486740 1502241 1505089 1594928 1722458 1863334
1211.09 1975191 2084400 2237125 2381154 2514294 2720378
1213.98 2914910 3131752 3332504 3516123 3698612 3856166
1216.87 4014720 4165186 4285697 4343619 4358223 4439122
1219.77 4512738 4523536 4521932 4579374 4596843 4594982
1222.66 4632213 4748300 4853348 4911304 5003154 5079055
1225.55 5168348 5128133 4888949 4517896 4141117 4094743
1228.44 4213946 4334292 4445589 4504657 4433946 4401060
1231.34 4384908 4300190 4133386 3988371 3815630 3571746
1234.23 3318822 3077303 2832223 2612924 2338268 2053514
1237.12 1830269 1663727 1423063 1237269 1091474 953374
1240.02 834171 784438 715627 660162 630458 601198
1242.91 550817 500276 458452 438039 394101 397148
1245.80 413983 453066 445784 410201 351120 375769
1248.69 412380 431396 466983 475186 467561 481295
1251.59 458747 453404 501365 545699 502658 522359
1254.48 555003 565780 554052 572388 592765 598464
1257.37 583573 611409 656066 694033 688512 663662
1260.26 662833 700581 700131 718047 734957 719386
1263.16 713168 756072 774092 806350 829260 810875
1266.05 762702 760570 763122 751248 738285 776355
1268.94 827651 827604 783503 770174 808179 817076
1271.84 813648 809983 803337 835698 847100 867067
1274.73 826082 824363 860938 902649 905196 929956
1277.62 936465 945292 914190 926461 967707 961083
1280.51 946262 1044546 1073928 1033931 1007900 1040919
1283.41 1057119 1095361 1136136 1122884 1084497 1079059
1286.30 1081419 1123045 1156180 1155299 1072261 1024349
1289.19 1040074 1063560 1028357 1029848 1076870 1109441
1292.08 1085032 1059470 1091173 1146629 1154817 1160433
1294.98 1172344 1170293 1108538 1082634 1100091 1072454
1297.87 1025467 1003755 977073 1009682 984866 936308
1300.76 931426 957581 909776 920202 908332 883841
1303.66 902874 897925 853857 866195 894209 857715
1306.55 790171 827971 856321 891261 904024 912054
1309.44 922336 955773 970733 971828 936571 886825
1312.33 888566 941389 988732 995851 999608 1053887
1315.23 1062923 1068776 1055097 1072240 1090484 1116625
1318.12 1116244 1130790 1150041 1190049 1180211 1172637
1321.01 1214253 1292089 1282545 1253906 1256479 1301244
1323.90 1335438 1326996 1353848 1401353 1427953 1443539
1326.80 1434023 1397051 1405371 1471961 1510026 1538743
1329.69 1560836 1589578 1597272 1620602 1728456 1817332
1332.58 1843037 1892930 1910067 1882181 1817074 1728385
1335.48 1682644 1693570 1693500 1669706 1641128 1681652
1338.37 1765515 1839922 1836033 1777752 1797965 1877211
1341.26 1905286 1901019 1885661 1909475 1969282 1954913
1344.15 1972217 2100429 2174782 2085293 2004129 2130621
1347.05 2166491 2179235 2224440 2154722 2126290 2117580
1349.94 2050445 2100930 2050936 1932268 2003623 2194680
1352.83 2186066 2079798 2359890 2699753 2746186 2680221
1355.72 2580972 2650267 2773285 2815778 2743174 2647844
1358.62 2529235 2556604 2688942 2766860 2789138 2947911
1361.51 3057293 3088556 3055607 3134978 3276951 3385331
1364.40 3553306 3703163 3808081 3954855 4121483 4297012
1367.29 4488917 4709955 4951581 5223630 5469773 5681602
1370.19 5927737 6259485 6547808 6769850 6967838 7227220
1373.08 7443572 7698646 7950549 8123673 8354733 8503654
1375.97 8526824 8436508 8178267 7907355 7714490 7641380
1378.87 7842661 8459808 9456859 10667383 11795749 12702621
1381.76 13340005 13776795 13962459 14083030 14171761 14114069
1384.65 14013661 13798943 13429551 13044923 12635039 12434201
1387.54 13068747 14798762 16419024 16234009 14774091 13133596
1390.44 11742550 11029910 10772546 10830513 11041337 11337985
1393.33 11605389 11861849 12143702 12346449 12324290 12253693
1396.22 12039886 11651098 11142187 10576058 9917517 9202888
1399.11 8550669 7970496 7349030 6748283 6181155 5720206
1402.01 5327493 5001936 4701652 4487374 4375204 4280702
1404.90 4219315 4143531 4087528 4036436 3937454 3894195
1407.79 3892834 3926374 3893741 3868020 3862250 3893675
1410.69 3880539 3869081 3887544 3935709 3962244 3971311
1413.58 4042808 4189238 4211806 4219245 4260648 4323464
1416.47 4388020 4386758 4419935 4560952 4597801 4578021
1419.36 4763612 4883642 4782415 4811740 4919933 5020404
1422.26 5109926 5247992 5394320 5611150 5810274 6004221
1425.15 6272063 6585150 6889752 7136868 7377771 7729726
1428.04 8107199 8445077 8744155 9107735 9523530 9965852
1430.93 10409270 10826554 11272897 11644548 11996564 12404367
1433.83 12772944 13059964 13281654 13450550 13500272 13565962
1436.72 14006347 14586525 15144748 15843918 16638655 17504637
1439.61 18424577 19315871 20282831 21373367 22499656 23695853
1442.51 24927502 26153875 27490679 28689934 29602758 30983528
1445.40 32452799 33034372 32783459 33152370 35352451 35711228
1448.29 34491186 34677840 35593249 36770928 37992172 39281023
1451.18 40556185 41776677 42829328 43836693 44950920 46180150
1454.08 47382963 48701978 50167817 51692720 53165099 55165135
1456.97 58123942 60964699 63194086 65410616 68493606 69803997
1459.86 69483064 71080298 73866785 76422073 78077898 79460876
1462.75 80378226 81026031 81785663 80849247 78725259 77176143
1465.65 76186915 75663756 75318508 74990567 74560245 74180235
1468.54 73606546 72911444 72039599 70709414 68548907 66291612
1471.43 64644480 64314054 65230576 66968299 69227136 71389454
1474.33 72551877 72689345 71894714 70411128 68434168 66106080
1477.22 63410419 60768686 58455124 56622999 55127331 53844753
1480.11 52676335 51636778 50571481 49302411 47570866 46001449
1483.00 44842814 44185118 43764468 43562094 43487123 43542872
1485.90 43702592 44026069 44422688 45128313 45943606 46892392
1488.79 47949655 49179659 50552727 52003629 53292520 54626619
1491.68 56116366 57827851 59557634 61494506 63515703 65995164
1494.57 68435940 69135184 65459889 61104299 59112737 58314700
1497.47 58173873 58619886 59468689 61608238 65155457 69906520
1500.36 75875647 80950628 73308358 59189352 52282612 50594724
1503.25 51011447 51965623 53233627 54090069 54718985 55088493
1506.15 54615079 53521787 52279713 50306352 47742557 44743716
1509.04 41447442 37966556 34512848 31017076 27655330 24390788
1511.93 21435592 18848213 16571546 14536870 12779021 11255301
1514.82 10040943 9025097 8122008 7343497 6744327 6354543
1517.72 6113196 5822501 5614755 5393697 5163522 4932002
1520.61 4613878 4646838 4847263 4723830 4700895 4717232
1523.50 4679466 4644867 4569743 4423683 4474436 4545958
1526.39 4503322 4399885 4367927 4334185 4306319 4319661
1529.29 4294793 4250954 4268149 4254582 4216899 4230663
1532.18 4251708 4222015 4210415 4232250 4330282 4334153
1535.07 4325625 4303037 4322780 4322662 4334407 4248197
1537.97 4037509 3690719 3763110 3818734 3792853 4001346
1540.86 4035919 3879432 3847074 3994119 4003516 3991980
1543.75 4004272 3888311 3773243 3874593 3932606 3974544
1546.64 3977297 3932264 3884356 3875676 3907575 3876512
1549.54 3793380 3794359 3845298 3843429 3802939 3779125
1552.43 3715375 3651485 3529146 3385939 3558663 3691436
1555.32 3634926 3587285 3544157 3368050 3265477 3096834
1558.21 3053464 3289790 3197004 3006168 3208864 3436143
1561.11 3415706 3409953 3374656 3366487 3328432 3275227
1564.00 3228548 3186839 3153015 3140477 3119348 3147904
1566.89 3159628 3170130 3154104 3094664 2993273 2942417
1569.79 3077512 3200521 3272619 3298520 3318050 3412991
1572.68 3496924 3585971 3669955 3783075 3887175 3836997
1575.57 3646567 4004973 4509135 4746166 4949330 5166199
1578.46 5364746 5601557 5853559 6083095 6306871 6517206
1581.36 6727632 6951540 7169194 7389820 7620906 7909612
1584.25 8251840 8593390 8938548 9352991 9793397 10245406
1587.14 10701681 11175148 11614831 12033835 12399777 12730863
1590.03 13016028 13271111 13546732 13824815 14088617 14275948
1592.93 14347607 14359024 14330861 14185676 13846698 13414481
1595.82 12967557 12552428 12229614 12163279 12374979 12881249
1598.71 13619740 14469198 15273394 15878804 16257329 16507403
1601.61 16654917 16721884 16750048 16829814 16966656 17037184
1604.50 17037180 17059825 17019112 16908217 16794709 16656153
1607.39 16450352 16153690 15797568 15344270 14768344 14149495
1610.28 13445099 12698106 11964370 11371802 10904228 10718332
1613.18 10812679 11109788 11505017 11920266 12234675 12303837
1616.07 12040912 12057665 12185607 12073946 11908269 11720572
1618.96 11417150 11010922 10554418 10150263 9761494 9291707
1621.85 8770620 8222181 7556902 7006328 6655682 6212759
1624.75 5724604 5244566 4800375 4402966 4058557 3676904
1627.64 3378601 3141130 2897797 2670210 2469283 2300768
1630.53 2108246 1958085 1847031 1712798 1632738 1511365
1633.43 1411139 1327844 1125347 864182 808474 1018440
1636.32 1051326 938741 881751 902030 886104 863713
1639.21 804799 749061 733111 752457 708203 684283
1642.10 694765 669823 625675 630654 628942 588405
1645.00 398384 232008 441633 571634 504447 515333
1647.89 532520 587804 619192 661177 623119 625466
1650.78 624055 499665 138031 14937 9290 328344
1653.67 606174 655131 834966 913563 979058 1073044
1656.57 1178241 1239217 1362742 1451571 1560822 1694491
1659.46 1852429 2003367 2135999 2265832 2419191 2490733
1662.35 2545067 2749723 2945121 3074265 3123375 3107249
1665.25 3100414 3109153 3096063 3097977 3056298 3045375
1668.14 3125085 3113557 3303870 3684967 3866977 3772982
1671.03 3454521 3295724 3187324 3078586 3096873 3111338
1673.92 3108250 3029998 2991734 3192765 3372097 3416869
1676.82 3402342 3373017 3271438 3172340 3042869 2902806
1679.71 2736203 2568269 2382943 2193131 2003061 1819337
1682.60 1611565 1506362 1400911 1036609 924477 1252441
1685.49 1331682 1297669 1273421 1303681 1242348 1178631
1688.39 1148618 1128650 1037040 991467 1003881 990232
1691.28 958757 975607 917700 919618 940832 949300
1694.17 907218 789740 401280 364723 793851 930051
1697.07 964793 1028588 1045729 1007517 835041 634247
1699.96 684738 872150 1130965 1281646 1341835 1356532
1702.85 1380190 1421511 1409650 1505398 1651361 1695545
1705.74 1680262 1716155 1814424 1887136 1907483 1883543
1708.64 1876882 1888580 1839530 1774602 1718147 1741134
1711.53 1790942 1829492 1913590 1957012 1971727 2057251
1714.42 2072255 2077202 2132738 1976934 1600452 1220392
1717.31 1371077 1579508 1574765 1702580 1781085 1790685
1720.21 1784169 1779707 1741655 1684759 1635194 1566896
1723.10 1482754 1372102 1266787 1209745 1169152 1103047
1725.99 1000047 946643 913741 863098 789231 733572
1728.89 658831 614675 637708 658097 629872 589666
1731.78 591550 540342 296447 338446 360389 294133
1734.67 523484 620279 607016 608400 620984 608913
1737.56 609338 613099 619048 530496 500168 605024
1740.46 627869 611712 622084 610246 589632 598007
1743.35 624029 676801 712471 707261 707035 705293
1746.24 690369 697907 723803 726579 700239 698688
1749.13 714762 735818 682346 520445 545858 720251
1752.03 763685 809511 797565 804950 848148 877446
1754.92 857737 845949 834751 828823 892820 965376
1757.81 1003124 1018368 1002016 1005732 1035505 1027775
1760.71 976791 875819 912602 1017326 1008493 1029384
1763.60 1045579 1082815 1142709 1155385 1128991 1125506
1766.49 1121873 1130512 1113704 1191484 1364389 1488472
1769.38 1585230 1676357 1726361 1784778 1981536 1970731
1772.28 1920302 2284421 2530081 2677180 2885620 3078631
1775.17 3242847 3457684 3695878 3880430 4028690 4194671
1778.06 4378376 4565622 4704238 4839044 4918185 4992884
1780.95 5102151 5199660 5226921 5169381 5077940 4926879
1783.85 4719388 4453338 4212977 4022642 3896320 3896465
1786.74 4048106 4304091 4580420 4846599 5064196 5216223
1789.63 5259288 5150834 5039528 4944885 4745842 4461628
1792.53 4387751 4376783 4219318 4040319 3830074 3615281
1795.42 3377770 3107238 2874485 2655866 2479015 2301812
1798.31 2103857 1905028 1766380 1653881 1481581 1287852
1801.20 1167871 1049711 915192 855175 796771 759407
1804.10 716898 628501 545830 535467 550121 519018
1806.99 459541 429019 449127 501569 486467 446701
1809.88 418161 453169 468697 520899 597745 678966
1812.77 755066 822722 895962 994764 1129650 1305222
1815.67 1450944 1603809 1785175 1948419 2101627 2275569
1818.56 2455335 2649435 2829970 2980085 3112470 3199301
1821.45 3254655 3300609 3308043 3293139 3273956 3233250
1824.35 3111854 3034658 3057412 3118235 3205089 3396585
1827.24 3694232 4080941 4348430 4256030 3510319 2602818
1830.13 2381740 2498351 2679302 2894028 3060654 3200802
1833.02 3320309 3350279 3317151 3206256 3059119 2896718
1835.92 2714099 2497678 2258362 2024148 1785929 1537211
1838.81 1296967 1134054 974422 826803 727489 648542
1841.70 545398 489422 468502 354573 214921 277172
1844.59 390588 448158 521490 612632 681790 723791
1847.49 812490 946912 1016342 1087162 1228970 1384117
1850.38 1517335 1640792 1769647 1885106 1978550 2041620
1853.27 2114536 2218603 2283859 2316459 2323470 2342211
1856.17 2403354 2412790 2393274 2435132 2479526 2609244
1859.06 2770601 2952078 2992090 2954301 2866533 2752803
1861.95 2710987 2686347 2677345 2722356 2755698 2770054
1864.84 2790684 2845520 2896457 2949258 2969999 2958383
1867.74 2994780 2962910 2818220 2777664 2826662 2793396
1870.63 2735134 2694147 2608841 2511085 2425686 2389869
1873.52 2374908 2328498 2321359 2316349 2277484 2267140
1876.41 2272325 2301745 2277693 2221603 2223954 2231895
1879.31 2276406 2306637 2276843 2273476 2353544 2483044
1882.20 2626402 2793024 2954987 3098758 3235115 3365432
1885.09 3471690 3581357 3719367 3821258 3955823 4124136
1887.99 4295894 4447001 4646791 4915134 5168811 5411356
1890.88 5671515 5905859 6131277 6346873 6568895 6769282
1893.77 6965731 7114446 7252301 7363674 7420042 7435647
1896.66 7414816 7381216 7278303 7125057 6887629 6572207
1899.56 6219274 5844136 5523572 5354956 5363393 5620626
1902.45 6041247 6462145 6809452 7033900 7125063 7108216
1905.34 6988720 6796185 6548829 6309221 6070278 5830504
1908.23 5571718 5272357 4939176 4601981 4284659 3982911
1911.13 3672089 3338665 2996656 2678315 2394697 2134991
1914.02 1877495 1634267 1444319 1291343 1119544 949959
1916.91 821276 687838 620542 572090 521318 466104
1919.81 396129 370013 343727 308773 286344 309004
1922.70 339255 348561 347983 396934 445254 465418
1925.59 521511 587923 662642 783940 941302 1052884
1928.48 1202895 1365635 1516201 1693577 1887725 2102215
1931.38 2328528 2573599 2820089 3091487 3332092 3569706
1934.27 3791520 4022029 4234239 4418195 4622551 4772703
1937.16 4844229 4835481 4778608 4756610 4762962 4758849
1940.05 4712858 4588676 4495509 4527505 4788440 5349104
1942.95 6014299 6538714 6299979 4950332 3795665 3527632
1945.84 3627674 3870088 4196139 4458738 4646996 4791063
1948.73 4847925 4809979 4715441 4561306 4357817 4087409
1951.63 3774896 3446845 3111639 2755072 2377100 2069583
1954.52 1805161 1562974 1339032 1142791 998015 878452
1957.41 814697 744460 665293 639231 651403 630203
1960.30 559789 545617 557092 568436 557740 576385
1963.20 619146 614949 625370 629048 617278 614731
1966.09 543600 490223 503741 543254 537595 526526
1968.98 509682 515618 511959 529275 526737 498273
1971.87 471823 461336 474969 534163 593292 509998
1974.77 388454 399191 402932 372151 398779 420377
1977.66 384172 364460 387461 398196 383208 384413
1980.55 376243 367751 368878 374581 358176 343916
1983.45 316636 284686 274990 275145 260778 272783
1986.34 287343 274079 265061 273561 251149 246218
1989.23 233088 218138 225392 238413 209715 174867
1992.12 153495 148347 173418 159672 118821 129632
1995.02 135609 130075 122442 106992 88423 89501
1997.91 97555 128907 141095 134810 147499 134982
2000.80 98198 99611 91199 73210 76439 57330
2003.69 31291 18979 112 11215 42723 84220
2006.59 128937 63964-123246-114739-55632-19096
2009.48-22852-50859-60611-69143-68004-32134
2012.37-13470 9360 4057 7612-605 804
2015.27 10267 6917 1697 3274 16286 46932
2018.16 57032 65361 79647 96964 46905 2964
2021.05-5729-7513-10351-7565-7343-12697
2023.94-45486-62873-64653-40866-62890-61854
2026.84-55842-52631-36524-28038-37215-25385
2029.73-36394-48834-47176-61571-58877-54859
2032.62-67914-63505-44693-41387-63218-87306
2035.51-66480-67485-65116-59701-36750-46909
2038.41-47128-58103-65888-65338-36964-14754
2041.30-23694-30658-21828-2799-22094-37523
2044.19-3056 4293-14142-452 2526-19046
2047.09-18143-6162-2227-11551-21230-3750
2049.98-37534-56968-42208-58163-59542-40448
2052.87-49413-10098 7332-46387-60184-65986
2055.76-45984-43745-104267-121912-114161-96515
2058.66-115605-154980-157482-144901-147618-164754
2061.55-156025-166276-185200-201072-208181-208075
2064.44-206335-186699-199959-200449-199025-215464
2067.33-187039-198766-231657-223288-183959-224047
2070.23-224066-194988-171562-197051-227162-188553
2073.12-175846-165996-144620-170520-190393-193640
2076.01-191902-174408-156637-142010-140857-166470
2078.91-185221-170435-173810-157417-141332-136332
2081.80-142074-147860-139255-129280-114017-96824
2084.69-74012-48797-10228-55257-107647-95994
2087.58-82537-106893-112430-82560-94072-69397
2090.48-73199-116893-130248-138256-145613-158062
2093.37-170886-157935-140366-166523-149013-110706
2096.26-90972-69061-48726-42064 20213 65878
2099.15 7567-36152-29663 1888-2098 14259
2102.05 38263 89367 126756 90344 53932 68198
2104.94 86908 61333 78420 112777 183580 184771
2107.83 147314 151731 152260 144959 147553 168836
2110.73 216326 262823 228829 216408 192964 233843
2113.62 278067 306776 360814 444170 419543 402406
2116.51 378289 351324 319479 284253 297128 377008
2119.40 365149 289265 266406 268196 297927 284985
2122.30 251358 267454 263694 212984 136065 99188
2125.19 87326 105594 96844 85399 141728 121221
2128.08 83739 99182 122745 121147 97912 70878
2130.97 41026-8174-28507-32232-62427-103150
2133.87-124677-139114-132087-143059-158692-190130
2136.76-206298-213488-217332-204121-179199-167551
2139.65-189194-201941-218527-217509-194291-160294
2142.55-143116-169315-187209-177453-171223-147477
2145.44-140403-149958-132820-136021-152779-145995
2148.33-144502-130318-95012-87589-66941-49807
2151.22-73961-84017-95535-106436-110666-99001
2154.12-71039-91227-96907-78774-63195-20862
2157.01 36204 71132 90012 36783-20808-17604
2159.90 10636-1344-9989 18906-9441-77429
2162.79-75216-67833-85639-69444-39331 35
2165.69-18817-56862-50666-55443-75282-44356
2168.58 14680-40252-120480-129895-152430-149192
2171.47-97718-29536-44671-123958-148812-134816
2174.37-164807-169467-83982-24009-89116-134666
2177.26-133077-113740-98589-91882-33489-42023
2180.15-93132-136679-165203-152755-123022-61264
2183.04-61024-90869-107688-148989-142270-110744
2185.94-50889-38672-51438-44497-45207-51347
2188.83-53584-23096 1699-19348-48147-55574
2191.72-45268-40125 45731 86875 77345 110604
2194.61 144133 140548 181720 241164 254222 249130
2197.51 242003 269403 274178 294631 327410 310544
2200.40 310182 317841 345580 346508 336960 387108
2203.29 447780 521650 550270 520312 457897 487853
2206.19 525212 524004 487339 466344 471275 517675
2209.08 539654 499673 539987 601717 611459 628609
2211.97 638851 582696 531387 493976 461649 436131
2214.86 407828 392292 377158 326766 289607 314136
2217.76 338165 330007 320454 302905 295103 312728
2220.65 325381 326023 319921 294408 289440 255683
2223.54 220502 196113 187755 200977 217791 226802
2226.43 205730 208313 198565 184108 167429 147711
2229.33 128539 132235 139020 119311 105386 95230
2232.22 111353 107547 104040 115834 137058 136900
2235.11 95082 71987 64764 66192 56828 63124
2238.01 53831 37539 11185-28444-6402 37567
2240.90 14580-18118-10896-8150-20482-12596
2243.79-10692-25907-6533-22584-59659-90763
2246.68-92371-84729-105542-132811-114011-102065
2249.58-121095-136539-107496-68925-99434-73001
2252.47-42706-74402-69636-37396-21715-15205
2255.36-5713 980 13508 2613 1084 47636
2258.25 67829 59020 77198 98139 90453 114879
2261.15 140871 121807 152507 224854 226798 229400
2264.04 269330 267960 285029 310686 331866 362748
2266.93 395404 411197 426325 488955 500171 495861
2269.83 540610 550292 543321 572869 612540 609098
2272.72 602536 602144 601905 592121 575107 568650
2275.61 579539 564205 560180 545382 536829 527296
2278.50 532527 510835 456794 438771 476964 495673
2281.40 512940 520241 497861 459873 442494 420482
2284.29 438876 426351 397616 381330 380718 370454
2287.18 358901 342788 287362 218100 181499 183523
2290.07 159213 147026 165539 160327 152144 138897
2292.97 127860 165061 182170 133119 105315 111261
2295.86 137024 166356 114235 59160 47123 43918
2298.75 56946 56248 37427 24493 68028 79850
2301.65 68017 22992 73322 107673 135792 109149
2304.54 110737 142411 150258 142894 125768 213675
2307.43 261792 250581 242928 285653 375341 391819
2310.32 347311 367602 520213 550873 450593 336317
2313.22 505149 547002 427829 222356 361377 471009
2316.11 352739 120199 304078 498172 521261 418786
2319.00 583326 674650 461023 10168 72215 454698
2321.89 436637 15674 118496 542970 427459-24219
2324.79 119916 560972 357470-196920-40423 465831
2327.68 182448-367886-21366 423654-114236-568053
2330.57-38066 241861-472844-654990 118472 193214
2333.47-530119-330543 385345 46900-547779-14250
2336.36 451476-135766-291384 457529 399207-247289
2339.25 107688 643128 143286-105909 471436 436605
2342.14-126692 140562 486324 89532-41840 354043
2345.04 272673 62777 336048 494869 420015 587376
2347.93 768419 784752 734209 689638 698301 623347
2350.82 355842 407885 455177 79031 67496 227908
2353.71-209024-233671 33615-496688-541585-169311
2356.61-748682-740372-373967-1069166-929910-540008
2359.50-1200002-897139-665040-1248143-755568-830375
2362.39-1277095-670376-1041158-1122766-692195-1179839
2365.29-841215-783306-1081396-645042-927731-806110
2368.18-628003-823130-495191-686543-527225-436658
2371.07-546087-332755-492525-357737-381406-293670
2373.96-261124-300821-215012-202033-154247-208769
2376.86-116184-95752-66166-63988-46931-41289
2379.75-38087-64890-85220-39956 24390 36077
2382.64 14936 15371 51139 51976 70789 90027
2385.53 59527 53359 104443 102456 66280 58241
2388.43 56296 71373 66718 57868 78906 95329
2391.32 91147 104432 145677 169413 125386 117153
2394.21 100907 102085 149403 167523 138906 136786
2397.11 125260 128785 146155 199035 238395 225149
2400.00 211943 249300 264518 287176 321387 325891
2402.89 298044 308805 365845 392065 417054 473586
2405.78 493666 479373 488101 527145 603183 672845
2408.68 660290 607635 604010 589575 567556 574227
2411.57 559374 530153 543358 571573 578455 618138
2414.46 638022 643585 651374 680918 735804 775789
2417.35 787277 803480 809904 808558 771935 744929
2420.25 739026 776459 878766 908316 893856 895136
2423.14 908403 909574 909578 897639 905251 895243
2426.03 931220 978371 987314 1024819 1045694 1100772
2428.93 1119122 1060798 1081204 1102023 1151241 1190829
2431.82 1169437 1133181 1159856 1200982 1220533 1258721
2434.71 1265306 1255476 1273009 1310921 1348569 1368569
2437.60 1376088 1350763 1339554 1322339 1320945 1291542
2440.50 1276601 1321892 1322703 1310926 1343529 1311475
2443.39 1270389 1273985 1283622 1288427 1284867 1276871
2446.28 1290374 1255542 1190850 1129538 1098427 1087794
2449.17 1038152 1009322 1048473 1103641 1070305 1035054
2452.07 1034572 1077543 1074266 1014238 967055 936904
2454.96 926337 904735 850843 799263 736117 711239
2457.85 670502 591718 564348 577553 557823 533014
2460.75 516355 511146 448252 385090 378153 423012
2463.64 429207 445398 429503 401561 396905 410735
2466.53 410354 394313 387692 389195 389760 353893
2469.42 330368 317277 284787 306679 306762 277826
2472.32 291248 300928 277221 249800 245759 279834
2475.21 291149 293165 330598 341112 289998 262272
2478.10 279341 286100 316954 311980 284660 281269
2480.99 290923 294980 305316 332360 326868 310075
2483.89 319785 329281 327837 336575 316955 296116
2486.78 301967 307347 280426 263722 274824 291768
2489.67 311769 358222 323850 273396 320449 347922
2492.57 341213 300529 257259 241493 246171 238542
2495.46 231497 221002 228247 239851 305663 350950
2498.35 325038 280497 268772 279656 240593 225115
2501.24 212802 210385 219426 249985 246945 200843
2504.14 210759 230775 242333 219344 224470 211010
2507.03 186893 191697 199168 205565 175703 165518
2509.92 179714 193648 192524 203650 198463 210749
2512.81 184901 133239 145998 189818 174398 120268
2515.71 99990 79473 126888 153486 156030 175448
2518.60 179615 161377 116488 82961 85623 80418
2521.49 37021 13159 42375 59444 34876 12795
2524.39 11663-21456-24923 10329 3867 5358
2527.28-15662-27736-21410-53721-53333-38178
2530.17-48548-39348-2525-2954-11594-1597
2533.06-10160-46858-61726-36783-6930-27236
2535.96-59250-74396-77016-56968-45294-99754
2538.85-101416-71181-60989-60685-23520-11744
2541.74-64994-88210-68818-28926-15147-51304
2544.63-19482 55073 43819-21446-37330 6336
2547.53 35579 13428-6635 13098 56260 69633
2550.42 81624 114696 109588 137258 177527 192106
2553.31 190599 210002 236602 271393 269639 310517
2556.21 400334 489163 549733 553651 557084 589022
2559.10 577142 571234 613373 677271 717002 732781
2561.99 768729 806167 795440 850057 952461 1055556
2564.88 1093779 1111984 1133644 1160625 1144279 1156501
2567.78 1190903 1258218 1311613 1348609 1386332 1444244
2570.67 1507911 1563696 1599817 1607831 1622215 1637080
2573.56 1652643 1686004 1645334 1619647 1629746 1604562
2576.45 1582357 1563039 1565074 1558822 1505476 1494948
2579.35 1503366 1474905 1471837 1487282 1538109 1556257
2582.24 1541235 1510903 1511352 1524146 1469389 1389705
2585.13 1317191 1218154 1106006 1040418 1011067 985220
2588.03 947433 948006 940830 919568 879236 812896
2590.92 789175 805841 800612 721721 631973 553407
2593.81 516425 542435 541159 506398 470061 452874
2596.70 419096 426497 418907 408520 422255 418530
2599.60 418378 410920 405286 402320 399417 401125
2602.49 402400 427631 457919 484332 514133 532223
2605.38 516165 528789 546988 558005 579858 617449
2608.27 602727 564469 557778 547453 574833 612113
2611.17 594034 614726 622205 634352 607278 612061
2614.06 632531 618382 570864 516512 492424 516020
2616.95 534284 527475 524959 585817 588498 530486
2619.85 513269 527051 539005 484995 463354 427399
2622.74 399170 410854 380262 362849 324012 257227
2625.63 209872 181019 183092 214353 205254 143577
2628.52 93577 72520 46058 68185 114580 133128
2631.42 97801 79843 106730 155495 124032 69245
2634.31 71788 37981 9747 46291 34743 28418
2637.20 7850-38290-38220-14178-25363-14003
2640.09-10659-50961-62740-28795 14411-93
2642.99-16340 1411 14582-15831-21581-12601
2645.88 11075 12627 18671-10094-29037-3943
2648.77-13269-32615-1928-19972-28189-26118
2651.67 7763 32502 31303 16093-2269 13757
2654.56 54926 32201 5395 9228 43121 68738
2657.45 56783 71173 99697 59946 50025 65389
2660.34 70526 86072 65889 63879 87442 68396
2663.24 73519 102951 102177 59139 80639 151423
2666.13 155688 141804 142910 168652 185342 200662
2669.02 194877 210208 213391 223793 258078 296098
2671.91 307100 278984 264888 263305 271636 285114
2674.81 292675 298998 288644 281475 301002 321266
2677.70 323852 356821 362373 323915 298698 257400
2680.59 274273 315986 349472 349327 354838 336197
2683.49 326726 337499 332540 352741 356511 338966
2686.38 332307 320519 317021 292634 283863 273364
2689.27 293745 364703 331959 297751 313924 339513
2692.16 318026 312207 336656 311237 277610 291923
2695.06 335532 356869 314869 300476 271451 246757
2697.95 268538 241990 260416 311262 314801 317599
2700.84 312967 358461 367509 351139 363120 349928
2703.73 362167 428857 465619 487414 515015 514487
2706.63 543160 546427 546447 546194 559576 596413
2709.52 651683 669737 671123 688919 714524 718660
2712.41 724916 790367 857620 880770 887785 936795
2715.31 950456 979220 1021852 1123151 1200603 1251986
2718.20 1334844 1417024 1493466 1574145 1603902 1629487
2721.09 1680497 1751580 1841039 1915383 1929167 1997989
2723.98 2074286 2133909 2240370 2291986 2374495 2516494
2726.88 2620800 2697495 2854882 2979933 3112491 3259685
2729.77 3403448 3592734 3774833 3989986 4281405 4571739
2732.66 4775068 4978363 5245972 5505172 5759913 5962759
2735.55 6040985 6125672 6255611 6345633 6340300 6312621
2738.45 6292178 6286664 6273532 6245198 6297249 6550718
2741.34 7015024 7474913 7452456 7071704 6755519 6468924
2744.23 6227443 6084935 6022365 6060252 6116421 6180069
2747.13 6281806 6402101 6508045 6542466 6517759 6381274
2750.02 6189431 5955817 5660461 5323991 4987668 4635156
2752.91 4302467 4017518 3742957 3410509 3122767 2908889
2755.80 2704140 2500341 2345172 2231645 2149415 2077690
2758.70 2010123 1920514 1830116 1812499 1835470 1907991
2761.59 1960847 2010531 2039764 2039133 2042590 2080623
2764.48 2166148 2218666 2237238 2295350 2308864 2312403
2767.37 2329052 2299838 2295865 2354847 2396109 2482998
2770.27 2537091 2641237 2797595 2755018 2598497 2486957
2773.16 2434205 2415583 2433978 2532094 2621786 2690948
2776.05 2726884 2742305 2799998 2823327 2822601 2845054
2778.95 2801726 2761504 2685340 2599872 2559205 2491053
2781.84 2388707 2282646 2226052 2115532 2042461 1986250
2784.73 1951537 1959523 1943182 1941513 1910527 1856106
2787.62 1812889 1851690 1870252 1822681 1769788 1781748
2790.52 1785315 1803104 1814443 1777016 1778944 1803020
2793.41 1813247 1763462 1723110 1762399 1826562 1780605
2796.30 1764089 1814865 1853119 1871007 1884963 1911905
2799.19 1932956 1920975 1953637 1963343 1940241 2014636
2802.09 2054662 2072986 2090168 2145922 2208867 2272880
2804.98 2371985 2439950 2446214 2457418 2551846 2621687
2807.87 2651658 2690923 2790237 2801650 2809282 2877345
2810.77 2952505 3045418 3115609 3189714 3242003 3325820
2813.66 3459377 3540819 3543886 3523292 3512934 3575189
2816.55 3696062 3758340 3723482 3754434 3851157 3919670
2819.44 3983135 4042449 4105406 4154122 4257163 4418753
2822.34 4509620 4636922 4803303 4967667 5070209 5109767
2825.23 5168915 5269976 5296591 5275747 5277672 5360865
2828.12 5424747 5447618 5493714 5581182 5710902 5772144
2831.01 5826398 5945327 5996519 5976508 6140212 6218666
2833.91 6216748 6277258 6343771 6382605 6389869 6458203
2836.80 6527602 6625008 6733796 6829445 6986956 7168209
2839.69 7340126 7497060 7704049 7888235 8079921 8273041
2842.59 8396348 8529590 8680072 8856716 9059891 9304307
2845.48 9541601 9773134 9981501 10190851 10435388 10655712
2848.37 10898195 11224263 11590984 11929574 12270986 12656440
2851.26 13058981 13407293 13777709 14269156 14821520 15404999
2854.16 16082094 16810221 17611455 18482785 19305469 20141907
2857.05 20999246 21895458 22910834 23905814 24844766 25751285
2859.94 26763895 27780081 28760044 29753593 30701434 31748731
2862.83 32771320 33719823 34715256 35783643 36923587 38044045
2865.73 39124971 40252509 41615391 43023638 44149609 45087040
2868.62 46041950 47085689 48178034 49296775 50506452 51793879
2871.51 52976842 53999139 55059012 56134479 57083882 58037308
2874.41 58882599 59587772 60308878 61061563 61744016 62412072
2877.30 63036111 63578636 64147056 64779428 65377058 65861596
2880.19 66195419 66314220 66403180 66713594 66861720 66736815
2883.08 66334936 65844154 65428804 65197123 65120445 65082539
2885.98 65138759 65228354 65232616 65038397 64664317 64235283
2888.87 63687657 63075852 62524110 62138894 61872649 61591525
2891.76 61222686 60758951 60394164 60010454 59518812 58991542
2894.65 58473353 57836098 57099352 56484827 55854130 55090778
2897.55 54294542 53559386 52889943 52235579 51529113 50869505
2900.44 50371927 50133635 50016439 49932857 49899979 49762168
2903.33 49546762 49438140 49277344 49027825 48605969 48173370
2906.23 47759670 47452184 47331385 47346331 47435749 47603984
2909.12 47824163 48281674 48912094 49619939 50339726 51062872
2912.01 51605398 51845282 52126793 52656195 53233771 53623657
2914.90 53964242 54567588 55315729 56137599 57009467 58087941
2917.80 59269991 60503459 61817689 63266887 64840095 66630411
2920.69 68535497 70447558 72316899 74085302 75741322 77391373
2923.58 79101995 80901423 82584393 84318432 86140829 87985462
2926.47 89660274 91210619 92770870 94349223 95880832 97291384
2929.37 98852386 100804792 102605892 104379893 106524857 108484222
2932.26 109409273 109446577 109400525 109871864 110811255 112001790
2935.15 113183461 114213945 115166008 116006839 116838538 117670699
2938.05 118237063 118589406 118846573 118831947 118663140 118399366
2940.94 117684812 116618458 115522582 114542907 113537099 112438555
2943.83 111278259 110219331 109471105 109298560 109696825 111419590
2946.72 116128945 126338215 135627080 134344811 129623208 126590885
2949.62 124483944 122747595 122250060 122545211 122401592 120829415
2952.51 117655806 113693796 109672339 105524090 101499810 97926697
2955.40 94760384 92119400 89867416 87867700 86329734 85112518
2958.29 84146367 83325003 82600690 81986975 81418543 80847165
2961.19 80163624 79939690 80047495 79677305 79151548 78684741
2964.08 78441422 78357604 78413667 78580666 79010436 79645376
2966.97 80520267 81528644 82865434 84299424 85725814 87284037
2969.87 88989467 90789497 92632499 94423530 96101066 97743418
2972.76 99308596 100717770 101866265 102712783 103239928 103413584
2975.65 103157295 102499341 101424763 99722734 97426797 94580267
2978.54 91452837 88378119 85789716 84031515 83533032 84386973
2981.44 86393997 89068126 91763277 93742794 94697641 94800803
2984.33 94146447 92847963 91071909 89010115 86706637 84192980
2987.22 81508905 78584629 75410437 72146988 68877603 65597621
2990.11 62315305 59057887 55944459 53024963 50287597 47693436
2993.01 45289219 43009168 40967420 39196645 37570879 36035077
2995.90 34663693 33402596 32255961 31227705 30232344 29253886
2998.79 28423177 27685394 26947819 26186786 25476098 25091220
3001.69 24836056 24701232 24864680 25192596 25628800 26170479
3004.58 26766348 27290726 27733624 28244043 28837605 29449770
3007.47 30111825 30937160 31854990 32847431 33884335 35099517
3010.36 36483173 37983878 39666729 41580876 43619489 45819623
3013.26 48266371 50840702 53604130 56460404 59418117 62533595
3016.15 65757340 69000710 72156678 75244969 78348161 81380114
3019.04 84161151 86684171 89062957 91259258 93207212 94812651
3021.93 96090260 96923254 97133827 96744406 95810899 94488473
3024.83 93059871 91893417 91508577 92513621 95077260 99060592
3027.72 103836906 108509344 112261874 114623659 115729542 115830872
3030.61 115203859 114162543 112999507 111710629 110192858 108592829
3033.51 106979546 105203398 102900095 99795394 96299062 92989932
3036.40 89743010 86242742 83188745 80784201 78726838 76904114
3039.29 75240836 73746080 72374209 70895275 69338312 67831210
3042.18 66383487 64820995 63200204 61699342 60327566 58998201
3045.08 57765120 56698368 55702806 54715554 53915811 53301155
3047.97 52866215 52532009 52323173 52270088 52332309 52563445
3050.86 53003338 53643856 54446112 55296261 56176105 57076527
3053.75 57780391 58439380 59199340 60114873 61166688 62265522
3056.65 63335842 64485097 65589779 66558291 67503813 68503495
3059.54 69370552 70051847 70814783 71466813 72025603 72606400
3062.43 73274685 74236586 75337086 76503843 77410300 78094167
3065.33 78760647 79391263 79836954 80081889 80386539 80861290
3068.22 81471297 82096043 82589795 82964935 83216566 83356387
3071.11 83311814 82895484 82362613 81671715 80866821 79944504
3074.00 78764108 77449422 76175693 74880381 73729918 72699113
3076.90 71817061 71252171 71055148 71065603 71171923 71251118
3079.79 71183410 70958157 70516148 69748501 68758409 67573114
3082.68 66194215 64709196 63112590 61473217 59861034 58223320
3085.57 56585610 54970583 53460880 52046860 50828074 49815450
3088.47 48903272 48071909 47197463 46103960 44798700 43286775
3091.36 41674497 39736689 37938341 36698097 35844353 35112877
3094.25 34430653 33674083 32823159 31952172 30951141 29786565
3097.15 28537063 27244634 25938666 24636337 23361359 22131500
3100.04 20972045 19952136 19060554 18185035 17428462 16855888
3102.93 16379429 15965169 15650871 15442267 15276527 15220436
3105.82 15252324 15267411 15249276 15405246 15559629 15707988
3108.72 15912887 16055248 16205570 16297021 16352757 16384817
3111.61 16407904 16333098 16245021 16090621 15854539 15582965
3114.50 15313777 15045373 14719547 14372881 14069776 13885262
3117.39 13740988 13674892 13683376 13736140 13872379 13972214
3120.29 14025685 13944758 13665588 13338930 12977237 12594480
3123.18 12201644 11836179 11409541 10951856 10542256 10071767
3126.07 9540272 9047669 8553062 8053134 7589258 7055964
3128.97 6586895 6241068 5904440 5524740 5221230 4918320
3131.86 4614694 4376306 4126501 3927558 3770092 3649787
3134.75 3480028 3279518 3105513 3022558 2948719 2843252
3137.64 2787928 2740169 2715436 2620212 2544710 2516049
3140.54 2442683 2345720 2293021 2300845 2325258 2304452
3143.43 2263948 2224339 2142307 2101262 2136444 2135673
3146.32 2050345 2000702 1998057 1972679 1957920 1969200
3149.21 1973451 1959690 1873244 1842633 1892200 1902560
3152.11 1888797 1859979 1832931 1765233 1742704 1772276
3155.00 1799914 1861545 1882925 1840080 1797667 1862291
3157.89 1919804 1844296 1829509 1888001 1881064 1829729
3160.79 1844755 1840350 1865201 1887139 1877320 1841666
3163.68 1804545 1795966 1815344 1820114 1839158 1898885
3166.57 1882766 1854847 1900604 1889085 1888012 1902749
3169.46 1895944 1856602 1808224 1793988 1818525 1789732
3172.36 1795532 1847459 1808207 1782743 1734240 1679991
3175.25 1659085 1638508 1597408 1630893 1628222 1563222
3178.14 1489329 1428363 1398064 1396615 1395357 1326437
3181.03 1276301 1220227 1162752 1133576 1077820 1094549
3183.93 1105393 1039594 974494 938266 871592 865766
3186.82 889745 883357 848702 812483 783145 813616
3189.71 848388 778280 738461 782142 786493 777375
3192.61 778250 726055 694189 691471 685787 660718
3195.50 605807 623470 613639 562153 561972 644782
3198.39 618535 539747 536809 573403 583367 534003
3201.28 491441 475641 481177 466174 474869 466802
3204.18 421088 403893 411759 410691 393830 392611
3207.07 401825 400551 362879 364163 392954 384231
3209.96 364024 349031 312180 273909 290647 267147
3212.85 243765 271492 312716 270606 196676 234128
3215.75 265596 234513 270186 260994 230271 170197
3218.64 186101 250720 249812 242742 291602 273262
3221.53 202519 192842 277765 302922 272662 297374
3224.43 326732 378948 324073 237081 240476 265663
3227.32 258892 208793 229218 169232 120777 152396
3230.21 139796 160131 210719 190891 174776 162416
3233.10 130872 133574 149226 142100 109514 157180
3236.00 213866 156259 137395 169911 65443-33649
3238.89 19435 107219 103878 102097 107568 55464
3241.78 56827 101130 101448 64363 126564 109172
3244.67 94151 133979 118986 63975 30533 24521
3247.57 43227 39392 29475 37311-25665-41702
3250.46 24985 22124 28673 62206 52590 42948
3253.35 26491 26906 24338-3318-20691 7942
3256.25 37959 59805 27292-3116 7358 15607
3259.14 32361 4483 804 22479-44684 9982
3262.03 65360 34266 69422 11112-39820-42084
3264.92-13541-81249-126788 3949 103365 25639
3267.82 653 47760 41042 37639 15106 7336
3270.71 30299 34984 72805 15683 29745 48772
3273.60 4248-5078-31288-73310-89981-43250
3276.49 38516 58874 44170 6120 33656 88757
3279.39 90496 10981 22350 12693-43416-40592
3282.28-6535 55175 71880 23834 45678 117521
3285.17 102200 60499 61774 28738 15213 36754
3288.07 68087 25049-43364-33218 41800 38756
3290.96 108505 164226 149199 91964 44782 52264
3293.85 68456 11316 16621 107335 118842 128457
3296.74 169365 174243 94605 62708 70676 36999
3299.64 23197 85574 97199 73804 104813 66891
3302.53 56741 99312 98236 67902 143740 130768
3305.42 102353 97777 49082 60905 118061 50738
3308.31-2063-5971-5809 32594 98416 171695
3311.21 155396 90629 68331 146211 122890 71265
3314.10 40192 14715 67002 95599 111659 67033
3316.99 88766 118460 98317 71740 74147 33757
3319.89-17218-9808-16979 20482-29697-93555
3322.78-109558-9993 71970 92797 8800-69295
3325.67-33545-17492-76781-57715-41043-6921
3328.56-17210-40186 3302-48754-66284-5610
3331.46-10893-36551-35827-66475-23596-14618
3334.35-28108-65981-93885-93224-76695-40000
3337.24-46016-36129-58632-36129 56081 57403
3340.13 2071-14681-6198-12103-54534-50660
3343.03-11541-36656-82192-46897 6094 22294
3345.92-3241-81452-135070-74078 22750 21105
3348.81-14166-7391-45381-22019 48496 3114
3351.71-87304-39988-44679-53526 16591 9710
3354.60-35979-58567-106541-76481 7849 23073
3357.49 44565 22972 31381 18792-1715-294
3360.38 21578 39989 29070 25646-19795-22573
3363.28 45575 105305 98763 49786-19023 39020
3366.17 74640-25736-30014 21391 4194 20858
3369.06 90305 112392 55940 16114 93042 120539
3371.95 107687 62452 61425 132095 181535 197389
3374.85 181807 154271 180101 220623 215297 207749
3377.74 258344 203258 134391 172553 128473 65622
3380.63 61145 114405 119180 141774 203117 274542
3383.53 252797 155320 195482 279875 229739 125693
3386.42 122350 218634 211743 137732 129390 144886
3389.31 218194 217138 192329 170860 175725 205589
3392.20 255587 186470 62554 100301 148136 122140
3395.10 121086 160266 95188 29003 24247 93385
3397.99 126268 43163-30081-42313-29266-42332
3400.88-83796-20931 49588 27754-51998-112333
3403.77-68702-40992-9302 8733-13987-48866
3406.67-138194-116918-87507-18546 21213-102612
3409.56-146638-83315-70243-64533-49862-72411
3412.45-63086-23811-59881-173059-169091-110426
3415.35-47217-25009-58024-26013-16985-36450
3418.24-75772-76645-106876-139703-54648 38184
3421.13-21157-55331-52073 12270-23402-128852
3424.02-96792-46554-40093-3544-64534-92405
3426.92 46831 41511-73474-116013-67656-16580
3429.81 42791 52005 26736 46536 61323 29112
3432.70 8622-11891-74677-61113-27647-41511
3435.59-5467 125926 160124 86538-12341-43496
3438.49 4972 46496 32126 43903 42361-12087
3441.38-399 56059 92066 62365 14794-3290
3444.27 12056 19000 94828 167211 90375-13599
3447.17-13745 110511 208654 148205 46203 36723
3450.06 127701 242201 242336 171789 166717 245705
3452.95 224388 190026 219950 202488 108934 67729
3455.84 191734 272503 256163 191535 230731 236500
3458.74 263231 295250 296583 264145 224540 210616
3461.63 289981 345113 283919 182445 183945 252549
3464.52 268804 205739 150124 237548 320287 327393
3467.41 306004 295723 284153 187103 130814 118210
3470.31 59299 143830 231268 245553 297339 242882
3473.20 151944 95040 91564 99008 125386 100977
3476.09 69252 84251 107384 139348 128859 97520
3478.99 760-40952 19864 62302 71643 91036
3481.88 124216 142531 85669-31336-3365 166710
3484.77 119778 40515 46437 77293 13123-3917
3487.66 53498 60822-20672-63473-31431 88
3490.56-24477-78312-90583-32268 12412-32243
3493.45-91380-76442-32734 28118-29039-89152
3496.34-76147-143045-118146-110008-104260-52799
3499.23-61879-83653-161225-123436-84257-110113
3502.13-107114-97921-109777-153361-158711-91073
3505.02-81773-134459-182084-166747-108975-72858
3507.91-60287-96812-93787-89870-72113-93114
3510.81-113798-119388-124145-171895-156273-142016
3513.70-153550-161912-118501-92419-97351-109050
3516.59-98360-95635-110499-136365-142237-142864
3519.48-63547-49027-145721-186522-119549-84160
3522.38-98771-93338-143146-193518-140531-118665
3525.27-93999-100780-127006-120174-103528-71186
3528.16-154468-167391-95903-98852-65099-33940
3531.05-128481-159763-55749-17321-28251-89379
3533.95-142054-127974-144603-138669-139886-98346
3536.84-13160-48693-147040-164709-72709-315
3539.73-108780-150989-127592-131450-92074-91468
3542.63-71063-72191-64809-8602-41925-142635
3545.52-117165-44009-52685-75038-85996-59597
3548.41-63802-50723-23908-65723-56575-83668
3551.30-138613-117168 3952 28055 48174 33229
3554.20-15711-64075-41691-49533-90186-134530
3557.09-109916-53940-116233-135226-53196-66504
3559.98-58621-89549-109529-64975 7724 47282
3562.87 7331-43272-60644-111153-68994-64270
3565.77-84637-66343-42952-108404-117785-49083
3568.66 21374 36837 35503-42253-65781-21474
3571.55 15877-26355-20007-7848-42950-18340
3574.45 46949 26164-46-24824-14683 37117
3577.34 36343 54788 44632 89642 21747-18944
3580.23 39953 36292 38065 80554 90766 51683
3583.12 94511 127320 88527 89860 89314 7227
3586.02-143156-151627-45637 19403-68587-115992
3588.91-14925-4638 25744 67405 89597 65419
3591.80-10769-24516 24144 88319 164947 140214
3594.69 84402 82332 46050 85217 133682 144711
3597.59 75187 11559 105839 195820 140860 133765
3600.48 174983 198740 258453 247061 190690 248690
3603.37 281853 234772 158316 113433 194555 246246
3606.27 168839 130090 192461 249805 201314 106695
3609.16 172372 230966 186321 192001 170824 132675
3612.05 106642 169307 236985 205817 97647 94343
3614.94 107651 113889 82698 38479 35856 44993
3617.84 57677 64886-93836-175004-21179 38219
3620.73 5929-85696-103532-66765-31978-93491
3623.62-66932-60170-123993-107538-69002-92711
3626.51-86864-119741-265650-369261-272035-402198
3629.41-380355-175822-143389-149416-158060-164990
3632.30-129768-91565-99941-49391-43053-69990
3635.19-58469-86862-127890-144771-112897-60321
3638.09-76840-94394-60123-85981-110160-156194
3640.98-115505-74856-105731-99695-79087-51666
3643.87-29703-21384-47852-69570-77858-77419
3646.76-173859-176084-70762-188456-406033-299852
3649.66-166184-199645-177240-134291-63531-92604
3652.55-121910-92785-53792-27721-48760-104916
3655.44-176894-232414-133969-78074-81651-48951
3658.33 7594 5973-23483-55341-40936-30610
3661.23-26618-71312-122499-69495-9265-56980
3664.12-75440-54751-32557-73344-111014-181155
3667.01-218400-130469-143713-206592-121677-134763
3669.91-385591-433266-127538-99822-115580-96518
3672.80-92610-192664-261603-341732-281757-358410
3675.69-406784-157129-44161-114699-113423-136747
3678.58-209149-215970-184714-157842-160210-127184
3681.48-75375-98894-90692-68261-96724-128384
3684.37-86855-86098-79189-136902-110988-123271
3687.26-221006-504357-445830-203843-156163-203613
3690.15-195954-203040-179416-72373-45987-55336
3693.05-102036-109679-48968-41822-73184-61520
3695.94-56325-67875-97600-140191-122248-73480
3698.83-123094-189165-117551-62329-134200-222623
3701.73-144434-71963-100973-119628-144499-180934
3704.62-172327-155246-149950-119187-129942-146961
3707.51-189014-180165-213502-299777-294964-208343
3710.40-171919-181077-361013-460401-323727-229075
3713.30-132305-121009-188846-167407-143284-201997
3716.19-201567-189410-156920-122949-154668-176389
3719.08-133414-96799-117949-154322-162136-190854
3721.97-180373-129382-147138-199412-191996-175379
3724.87-195302-193781-201177-164177-84432-137967
3727.76-157603-139374-150300-160069-118517-73961
3730.65-126613-271260-405367-283219-112465-118107
3733.55-178118-229108-273008-252922-204061-324619
3736.44-345644-226482-198846-174834-99612-66610
3739.33-51031-80763-139677-142966-85858-60826
3742.22-40892-51092-176054-511674-690900-357952
3745.12-34545 31889 43663 48737 35226 23453
3748.01 12146-176684-371472-129120 57787 57422
3750.90 21970-176677-241165 27115 142642 167758
3753.79 191016 216173 193568 197880 153231 106840
3756.69 200832 245610 230798 169477 134279 69563
3759.58 34040 158361 242285 254688 210805 182240
3762.47 212533 216536 223225 251814 267338 184043
3765.37 106604 173731 221905 165573 109838 105636
3768.26 89389 8670-138317-113629 30247 26391
3771.15 8579 15963-6632-34100-52510-25812
3774.04 12324 2877-2835-3878-46156-22349
3776.94-7310-103378-73027 8364-71587-132393
3779.83-82965-23202 3788-28090-36624-44484
3782.72-35726-33362-33584-34436-70619-37736
3785.61 32866 44127 67200 93340 64590 54198
3788.51 35884 16348 116098 151043 46006 56292
3791.40 75254 56266 84234 85393 55978 66668
3794.29 120999 123997 98567-41016-46153 16470
3797.19 78147 153450 202206 172902 61352 12622
3800.08 26804-177044-325140-47070 115340 104791
3802.97 111871 189845 226228 147880 118325 99852
3805.86 56766-167947-153522 74467 147590 167405
3808.76 188783 218455 157508 127470 193075 203712
3811.65 126217 82310 126084 214206 234239 205416
3814.54 169023 37907-251884-96160 186546 242218
3817.43 239006 243864 249582 230959 144443 62606
3820.33 30752 30534 60206 187461 279662 325056
3823.22 335727 354224 376078 394446 409720 430666
3826.11 380657 375308 428430 425125 457995 486665
3829.01 463603 489190 498297 413687 343359 347732
3831.90 450229 480327 463096 455438 475906 396153
3834.79 457990 543162 491192 453553 399556 46913
3837.68 128333 465003 492599 466383 472306 454406
3840.58 416052 488348 528540 530311 517241 455677
3843.47 530109 566524 540619 565040 538058 495078
3846.36 588476 679156 638002 614045 608591 612843
3849.25 645841 626390 576929 561992 373820 314242
3852.15 588015 673393 447694 143316 325327 669988
3855.04 759991 807802 842699 825423 836823 873569
3857.93 860484 848348 841569 820860 771536 809127
3860.83 804538 746525 818461 910595 908271 921757
3863.72 891861 800510 754136 871413 949552 934927
3866.61 965383 1013130 995963 884460 784448 768305
3869.50 657645 757721 898575 872854 837724 881227
3872.40 910141 865193 845737 850294 882722 910780
3875.29 897456 902560 941055 948844 968876 1002525
3878.18 1002563 1034704 1031343 952315 962157 977437
3881.07 994994 984602 1019817 1030673 1003120 998341
3883.97 1020011 1049421 929288 858606 1029289 1127284
3886.86 1163451 1181408 1232880 1289401 1294029 1239669
3889.75 1220047 1223873 1137146 1185856 1345491 1395701
3892.65 1372184 1366872 1413949 1434768 1452021 1459788
3895.54 1465902 1489510 1522757 1536373 1469568 1397064
3898.43 1362044 1351007 1457422 1511409 1533075 1539053
3901.32 1511059 1580609 1682686 1632363 1496675 1393338
3904.22 1438120 1435865 1456037 1487636 1446638 1449068
3907.11 1504823 1451698 1418649 1399479 1376441 1318669
3910.00 1263967 1202328 1169670 1113516 1081550 1095487
3912.89 1068515 1007837 992733 985381 936977 908409
3915.79 884861 803809 749228 793080 767721 707501
3918.68 707960 667470 635585 649900 706370 711601
3921.57 694883 678563 645005 640451 630831 604336
3924.47 558497 535364 536904 555399 591917 522540
3927.36 479782 477937 515966 449053 358959 375977
3930.25 397569 422941 391737 342192 372985 390520
3933.14 407101 418012 418721 379466 376726 376213
3936.04 395811 408062 379523 342352 367774 369747
3938.93 345850 383236 399227 371003 353798 346507
3941.82 339451 340673 339717 362620 398168 373850
3944.71 405137 460410 461486 425794 378347 387711
3947.61 472477 512848 501325 420213 385094 422945
3950.50 444388 491964 564623 586990 545762 519152
3953.39 551597 593395 572324 521907 497102 536806
3956.29 600048 627056 587472 556169 562911 520044
3959.18 599932 706212 697906 650327 619302 639095
3962.07 657090 637076 652495 706547 745745 683380
3964.96 617188 641960 680783 666505 601482 567820
3967.86 607781 685225 713973 708176 693665 686678
3970.75 667111 629672 569569 550744 577047 533176
3973.64 531846 565628
##END=
