##TITLE=1,2-Dimethylbenzene
##JCAMP-DX=4.24
##DATA TYPE=INFRARED SPECTRUM
##CLASS=IUPAC A
##ORIGIN=NIST, Analytical Chemistry Division, 301-975-3108
##OWNER=COPYRIGHT (C) 2001 by the U.S. Secretary of Commerce
##DATE=01/06/01
##$SPECTRA VERSION=1.10
##$UNCERTAINTY IN Y=2.2 % relative (B=1.21E-04,C=1.57E-9,D=3.06E-14)
##CAS NAME=1,2-Dimethylbenzene
##CAS REGISTRY NO=95-47-6
##MOLFORM=1,2-( C H3)2 C6 H4
##MP=-25.18 C
##BP=144.4 C
##$NIST SOURCE=QUANT-IR
##SPECTROMETER/DATA SYSTEM=IFS66V (Bruker)
##INSTRUMENT PARAMETERS=KBr Beam Splitter; MCT Detector; Multipass cell
##STATE=gas
##SAMPLE DESCRIPTION=o-Xylene Primary Gas Standard
##PRESSURE=101.3 Pa
##TEMPERATURE=23 C
##SAMPLING PROCEDURE=1 L/min Flow
##RESOLUTION=0.9640
##DATA PROCESSING=Boxcar Apodization
##XUNITS=cm-1
##YUNITS=(micromol/mol)-1m-1 (base 10)
##XFACTOR=1.0
##YFACTOR=18.189E-13
##DELTAX=0.4820
##FIRSTX=575.17
##LASTX=3974.606
##FIRSTY=2.94E-06
##MAXX=3974.12
##MINX=575.17
##MAXY=.0017155
##MINY=-4.23E-06
##NPOINTS=7052
##XYDATA=(X++(Y..Y))
575.17 1619178 2141775 1190360 1398888 1208819 759800
577.58 1454193 944931 270868 779105 1780549 2823676
580.47 3580896 2398589 1714091 738387 1506918 665005
583.37 1775404 1855670 1816636 906916 1775830 1472360
586.26 2315888 2114429 2533635 1410051 1721419 1760845
589.15 1503784 1281046 2132804 1100144 1001974 286002
592.04 585177 976176 771500-357225 272350 432262
594.94 857969 221766 538770 178828 407951-117646
597.83 767898 401001 209847-271114-58794-639989
600.72 258937 242901 117836-103930-397456-118065
603.62 212221-85568 42255 52125-55334 446062
606.51 75 39307 24438-306388-81523-176697
609.40 69531-449527-311596 104303 141873-130081
612.29 553926 56918 632186-34182 99340-171710
615.19-77075 267215 267715-276835-126840-35449
618.08-228423 144845-184164-20429-103037-567187
620.97 143012-66484 195637-281259 688584 240104
623.86-168414-399037 264309-196890 143850-82668
626.76-91810 16145 306193-207040-189683-484
629.65 106003-35258-11516-605492 185837-81041
632.54 147924-117099 200806-225343 202811 32572
635.44-41066-174846 170061-158867 157993 9117
638.33-136366-440762 322025 22745-15578-115839
641.22-55116-99299 123588 70961 65766-199567
644.11-191250-300288 118249-133916 393809 49262
647.01 56221-150799-135681-229693-26592-4391
649.90 149931-135448 266274-372340 201419-168857
652.79 60733-56256 214780-291582-111709-54933
655.68 211826-372203 493314-420766 288546-70060
658.58 212580 180647 364447-56084 354550-181618
661.47 81271-106134 131922-124881 568179-104608
664.36 316343 61665 417122-131923 363720-863626
667.26-1193723-484536 294945-263791 71684-106015
670.15 537469-108643 365745-126555 281521-254198
673.04 538153 47438 399742-233303 45660 22366
675.93 275985 163905 159146-358114 243430-27190
678.83 259577 47793 194689-193757 376064-190287
681.72 362521-192732 184316 45217 420571-71752
684.61 452601-66210 206943-152293 197906 153645
687.50 429946-39131 193660 308628 604753 290529
690.40 621100-18101 562434-14182 813068 152722
693.29 593362 156137 676315 212253 668263-181422
696.18 578015 84829 1106291 586127 815262 365031
699.08 907788 203400 957950 117437 896041 53402
701.97 934095 529631 1079711 523223 1128878 133586
704.86 1328441 262742 1057992 463771 941728 470869
707.75 1268372 383421 1666257 566094 1597839 782108
710.65 1860634 991095 2126972 1654412 2816323 1869032
713.54 3144166 2542176 4105785 3542412 5328494 4667657
716.43 6513085 6306520 8567081 8637392 11164201 11461003
719.32 14484213 15586152 19246141 20598725 24895604 27001969
722.22 32014801 34976012 41141714 44937148 52172556 56215385
725.11 64183783 69586047 78418787 80664609 87869503 92355189
728.00 99806501 103561239 110944934 113074782 119124062 119693999
730.90 124809785 123476803 126825062 123469274 125363751 120008450
733.79 121372902 114581295 116642504 109812100 114395449 111576156
736.68 123310188 125140819 141914005 150997345 197324616 261226738
739.57 423739409 613209639 943139790 881911027 326725148 175761075
742.47 118992044 116737195 102456832 109478150 103226755 111196734
745.36 107955651 116386205 115705905 124098395 123704233 130498285
748.25 130114090 134959487 132443418 135288304 130776946 131130402
751.14 124462125 122314191 114532519 110978524 102227396 97286347
754.04 88675013 83177869 74432358 69113224 60673930 55847934
756.93 48325522 44040868 37764776 34227207 28594659 26122137
759.82 21060779 19586465 15629864 14556200 11275526 10809031
762.72 8193847 7765445 5923648 6056687 4138272 4404890
765.61 3095926 3657399 2514247 3201837 2090121 2869335
768.50 1675042 1990592 1036456 1449398 736573 1357326
771.39 736399 1502740 618226 1384192 402603 1131716
774.29 511323 1348053 444785 977920 472061 1254902
777.18 283819 949072 396656 910390 446932 964150
780.07 423885 955243 198129 950825 220891 956934
782.96 402461 747933 58191 658581 229510 876837
785.86 217325 746293 222229 851035 404870 660995
788.75 194259 714312 247192 789212 51637 479666
791.64 189648 685867 360095 591880 326820 605763
794.54 264749 301021 200400 600687 175550 400140
797.43 188437 381291-110930 513876-115566 542603
800.32 45885 406015 185364 509218 168048 469581
803.21 48692 796763 165543 584107 316030 424598
806.11 378905 542112 171347 751127 49656 575323
809.00 299868 622614 202526 704898 337544 671499
811.89 271471 707936 462919 975957 464757 774645
814.78 672189 708123 881997 854950 518550 1002390
817.68 622306 1097713 643158 908238 764149 1016305
820.57 761573 1227638 1242799 942185 778869 1118088
823.46 804839 1065508 837437 1105159 788474 995750
826.36 628192 833921 600039 823436 574816 1065131
829.25 737911 1117025 771942 1005929 519586 570715
832.14 673555 699186 339339 583304 463451 599898
835.03 436555 678745 676055 582572 399872 430143
837.93 361166 480328 405568 294888 311637 481364
840.82-11328 501022 334823 399537 248280 418588
843.71 393090 648283 130143 350715 170614 364662
846.60 163058 318670 314741 485523 349243 535489
849.50 19260 534613 537198 579561 505372 642680
852.39 419359 624575 594410 717102 561569 932332
855.28 911278 1128916 981139 1160087 693699 1061617
858.18 834194 1103746 1031623 1223657 984873 1248210
861.07 1089963 1337631 1394234 1541216 1365326 1549990
863.96 1462858 1596358 1376654 1683876 1417283 1855308
866.85 1555059 1863607 1593479 1906443 1591202 1769903
869.75 1674497 1770878 1489027 1556948 1611079 1654434
872.64 1510040 1768583 1255700 1564062 1520269 1805405
875.53 1363140 1359653 1319808 1429919 1416859 1345054
878.42 1003568 1298456 1121934 1312407 1013831 1047615
881.32 928399 995276 786711 1006683 723034 898144
884.21 829969 706909 618343 777450 531023 731222
887.10 561493 847317 564924 810194 632007 770918
890.00 599591 776965 614937 803019 486163 850686
892.89 669969 786287 619427 865602 880359 850014
895.78 831987 1075188 873624 1111279 888168 1045630
898.67 987771 1053464 919374 1162632 1013240 1135510
901.57 997625 1079587 927902 1077622 906819 979458
904.46 920678 1133250 985781 1152467 761910 1122045
907.35 826104 1066171 1053224 1134558 1024376 1197850
910.24 1069931 1246794 1067045 1199023 969052 1141109
913.14 1045944 1100827 933967 1183501 969236 1185998
916.03 1244241 1198149 1111342 1140931 1050029 1357281
918.92 1054586 1359394 1058260 1164488 1148846 1385940
921.82 1129163 1372417 1322112 1417937 1053983 1277874
924.71 1299434 1357889 1287046 1446393 1268199 1610712
927.60 1544557 1753194 1874313 2238589 2555998 3252718
930.49 4154474 3932574 3247956 2919280 2394951 2286878
933.39 1879228 1821583 1793275 1826536 1487805 1801512
936.28 1479113 1767367 1614556 1680617 1656571 1936959
939.17 1859787 1909038 1854314 1906369 1930075 2042560
942.06 1818536 1970671 1845588 1983076 1714229 1899656
944.96 1654921 1741516 1624260 1755106 1449254 1585259
947.85 1339856 1651816 1284463 1423773 987154 1312512
950.74 1320865 1191149 1119792 1186735 1168123 1203376
953.64 1149714 1169947 958990 1167616 1080594 1233911
956.53 992870 1148512 1224114 1090277 1039974 1098018
959.42 1067104 1276548 1099750 1327955 1121098 1073427
962.31 1242767 1311995 1279022 1422253 1348419 1559984
965.21 1563213 1748404 1779959 1947976 1838855 2240453
968.10 2264635 2608729 2671847 3142521 3258011 3700429
970.99 3840393 4340748 4728979 5178706 5558964 6185189
973.88 6557902 7223035 7600960 8084719 8618210 9146560
976.78 9549913 9864237 10158220 10684749 10785225 11005716
979.67 11105487 11182594 11237833 11278229 11335935 11650409
982.56 12040707 12704180 13491466 13383384 13527572 13481312
985.46 12263546 11895035 12131676 12647986 13293385 13202911
988.35 12442659 12287069 11982003 12214569 11925107 11996726
991.24 11606796 11447719 10918592 10595451 10202909 9888053
994.13 9442332 9090018 8612646 8316927 7728775 7235563
997.03 6859923 6566961 6184914 5992997 5623450 5552641
999.92 5195510 5283012 5191325 5111551 4963929 5051196
1002.81 4946633 5192134 5163007 5280364 5130558 5400929
1005.70 5448011 5636603 5661663 5987838 6052126 6260651
1008.60 6409016 6727163 6856841 7213053 7155283 7436243
1011.49 7669694 7982684 8378151 8448563 8287767 8587444
1014.38 8424234 8572492 8351808 8633774 8468786 8768363
1017.28 8486185 8779949 8806223 9169129 9348913 9790617
1020.17 9721081 10543558 10283301 10600185 10883896 12794637
1023.06 16098119 24575916 18352969 10334996 9898111 8620137
1025.95 8374224 7840978 7855768 7683696 7723401 7557334
1028.85 7554799 7489907 7555605 7591669 7632153 7225619
1031.74 7321682 6910136 6793227 6816005 6691491 6526761
1034.63 6477644 6260376 6311628 6261136 6158999 6209336
1037.52 6092728 6225928 6303846 6520181 6824672 7064710
1040.42 7518796 8333067 8853100 9804514 10559418 11596782
1043.31 12623574 13884511 15190138 16311713 17521494 18512047
1046.20 19677658 20434412 21240612 21377698 21278626 21022303
1049.10 20706501 19999606 19314113 18142256 17449376 16980413
1051.99 18225890 19992228 26210946 29999989 28335227 25130007
1054.88 20118824 18641122 17197236 17321916 17479260 18242118
1057.77 18659114 19596444 19769919 20407157 20102064 19953354
1060.67 19491017 18864426 17800187 16888990 15646894 14509729
1063.56 13023907 11802792 10376077 9356268 8213179 7379434
1066.45 6213991 5523169 4788832 4329786 3872408 3357852
1069.34 2835758 2640397 2293980 2214389 1744022 1696136
1072.24 1391513 1388940 1213671 1245441 1104861 1175260
1075.13 1031896 990631 782605 930861 884188 942692
1078.02 755107 860046 678626 703554 648124 801466
1080.92 470648 652127 677054 627302 553522 589992
1083.81 507274 665276 583856 663813 604475 750042
1086.70 600183 653448 616271 818674 618347 772814
1089.59 535857 605085 713232 707475 707654 718317
1092.49 646324 719068 633691 732116 658428 856980
1095.38 728643 650904 552857 777131 806463 810506
1098.27 919504 1083114 895972 1162482 1064499 1101314
1101.16 1221787 1272575 1319932 1497748 1553357 1821758
1104.06 1756646 2044337 2040923 2387098 2597078 2923676
1106.95 3087506 3441744 3698879 4026749 4328298 4784132
1109.84 5056479 5516690 5943459 6374531 6759756 7224485
1112.74 7666062 8220712 8306886 9021393 9262975 9613236
1115.63 9804807 10126520 10283975 10426961 10525238 10253233
1118.52 10005811 9647053 9083290 8941224 8706793 8987198
1121.41 9393755 9710843 10200936 10448384 10658188 11099847
1124.31 11083387 11305866 11263254 11240155 11206772 11192631
1127.20 10968638 10817192 10357256 10241368 10002191 9722185
1130.09 9355651 9262294 8952586 8623251 8364654 8029689
1132.98 7740499 7636297 7296754 7134864 6988448 6831669
1135.88 6737469 6625346 6507726 6417832 6154491 6195367
1138.77 6017403 5936924 5588743 5333201 5032540 4964447
1141.66 4635381 4590855 4514012 4675763 4587867 4669485
1144.56 4604786 4743713 4674423 4716458 4571751 4652504
1147.45 4553073 4622461 4483176 4564626 4309623 4431505
1150.34 4131217 4183271 3958021 4000516 3829956 3675985
1153.23 3568713 3482116 3380926 3192706 3145353 2972434
1156.13 2844010 2762090 2569563 2707762 2679699 2640083
1159.02 2313049 2368636 2355174 2323566 2169268 2274143
1161.91 2191865 2270991 2416871 2491044 2303057 2375459
1164.80 2235052 2335694 2271188 2323795 2250797 2167873
1167.70 2106172 1988622 1995704 1972722 2012204 2123918
1170.59 1950672 2171939 1907376 2047005 1955225 1982938
1173.48 1963430 1827112 1825123 1916399 1817087 1923901
1176.38 1789194 1860889 1765129 1794512 1837872 1887225
1179.27 1809613 1760974 1674135 1678352 1567632 1631442
1182.16 1587295 1607788 1666161 1683608 1522258 1507626
1185.05 1506834 1501674 1412859 1445507 1314475 1416916
1187.95 1276947 1317046 1270962 1357831 1325234 1260451
1190.84 1254961 1294482 1184440 1284609 1160386 1183998
1193.73 1141097 1196030 1170988 1201732 1214789 1213572
1196.62 1136099 1102507 1139369 1052609 1053502 1156642
1199.52 1012450 1238338 1085923 975305 1051906 1159412
1202.41 1085147 1195476 1078331 1176998 1239595 1327592
1205.30 1278885 1217415 1216188 1347077 1367147 1409646
1208.20 1506280 1521612 1452444 1607381 1702595 1884710
1211.09 1975377 2065262 2235467 2413975 2447927 2768729
1213.98 2875746 3154498 3333980 3508678 3716791 3846648
1216.87 4018886 4173186 4295352 4381757 4303494 4460751
1219.77 4522662 4547728 4466641 4624451 4586432 4597200
1222.66 4593527 4752785 4893547 4860891 5048824 5034885
1225.55 5215892 5199666 4888022 4595897 3957439 4097977
1228.44 4205504 4350661 4424433 4597910 4371739 4417491
1231.34 4388073 4352326 4094301 4007097 3839871 3572728
1234.23 3302495 3103233 2789174 2663399 2319814 2059333
1237.12 1765969 1751959 1354418 1255772 1070432 977731
1240.02 774888 827543 690981 662396 621131 620995
1242.91 535614 517598 421724 486597 338469 432262
1245.80 368437 504410 417523 459545 284897 394962
1248.69 418547 416522 479066 490698 435342 520606
1251.59 435474 451697 469419 629578 426958 553628
1254.48 539736 596174 520332 590656 579677 628496
1257.37 546340 624677 642166 722058 682573 671540
1260.26 622751 747694 667662 729761 740031 731326
1263.16 668620 798234 743339 823459 828600 841313
1266.05 722216 777675 756578 766328 709276 775203
1268.94 844727 844238 775010 739747 834040 816481
1271.84 803290 835985 753502 888093 792062 939798
1274.73 771285 841720 830768 953157 855789 975312
1277.62 895307 997939 871349 929849 970282 1004686
1280.51 846322 1119074 1068439 1050231 958003 1080603
1283.41 1028956 1099793 1150821 1142486 1050133 1106582
1286.30 1039904 1153223 1133318 1218898 1031306 1021593
1289.19 1016820 1114533 992642 1025220 1073126 1139203
1292.08 1079817 1043568 1071492 1184087 1135757 1172389
1294.98 1154999 1216308 1080035 1066110 1120873 1088139
1297.87 988224 1050860 904605 1073690 965002 947197
1300.76 876052 1047459 827802 965933 903399 863984
1303.66 908176 931225 811109 874192 900053 907342
1306.55 697671 887100 814695 926681 883876 930994
1309.44 893807 980634 959108 990700 942732 868889
1312.33 869115 949669 994371 1018544 942265 1114998
1315.23 1021231 1113219 1009922 1103752 1057538 1156716
1318.12 1080934 1160260 1108103 1239851 1156163 1179048
1321.01 1167760 1358922 1263074 1256058 1235818 1302404
1323.90 1365341 1300107 1350487 1413297 1425436 1449954
1326.80 1448892 1384852 1369883 1506001 1494062 1554330
1329.69 1545910 1603050 1602971 1575572 1738812 1858140
1332.58 1803315 1922290 1914209 1892784 1828586 1715747
1335.48 1654293 1712283 1688428 1690022 1601882 1680348
1338.37 1759561 1866265 1865067 1740906 1771518 1912852
1341.26 1901592 1910692 1877999 1874597 2022419 1942491
1344.15 1914407 2130074 2220272 2127388 1845982 2244027
1347.05 2148122 2136551 2311430 2111925 2098470 2206370
1349.94 1925844 2186098 2079148 1855099 1952060 2264096
1352.83 2291659 1860670 2359696 2852054 2701310 2763380
1355.72 2458875 2677740 2768432 2889723 2695700 2715064
1358.62 2438579 2548032 2684000 2848230 2657403 3036353
1361.51 3027499 3160421 2981224 3119544 3319738 3333290
1364.40 3571851 3729746 3774799 3963051 4112543 4300854
1367.29 4470392 4718940 4925314 5244834 5473288 5690039
1370.19 5865449 6307719 6540625 6813192 6895586 7292318
1373.08 7404354 7686341 8023640 8044478 8411055 8535947
1375.97 8531391 8519360 8157745 7888837 7693612 7578106
1378.87 7713821 8375574 9369247 10728434 11825818 12814566
1381.76 13335512 13898798 13947622 14069162 14255799 14084787
1384.65 14048820 13869150 13394576 13077433 12619315 12209938
1387.54 12702839 14695202 17160392 16534973 14716666 13171896
1390.44 11426867 11009459 10631928 10844991 10977344 11384380
1393.33 11589320 11866392 12120363 12486729 12254908 12336522
1396.22 12065678 11699646 11131345 10616953 9931535 9189884
1399.11 8499027 8029319 7303072 6779033 6114550 5734220
1402.01 5283985 5019842 4673577 4442368 4399974 4245266
1404.90 4244888 4132186 4067821 4090466 3878504 3922335
1407.79 3836167 3997964 3849263 3897465 3812477 3944357
1410.69 3856285 3875731 3862374 3957161 3959549 3975841
1413.58 3964765 4292094 4176303 4220254 4255778 4310078
1416.47 4424130 4385199 4349102 4615405 4652116 4453489
1419.36 4784991 5028746 4653070 4837564 4897827 5057469
1422.26 5053961 5293648 5329463 5645608 5810847 5974104
1425.15 6263132 6586294 6905688 7160885 7310095 7747397
1428.04 8103137 8481777 8701738 9102974 9519345 9951386
1430.93 10447883 10775388 11327201 11646044 11960415 12429065
1433.83 12791991 13079816 13286207 13478275 13561262 13371200
1436.72 14004491 14630381 15064447 15840200 16621344 17471622
1439.61 18462956 19287070 20230834 21391882 22466650 23680386
1442.51 24959423 26096785 27474656 28941136 29322470 30896916
1445.40 32842169 33159924 33018833 31753357 36498457 36359585
1448.29 33521428 34834303 35363269 36889793 37884097 39350497
1451.18 40510223 41879694 42811055 43828345 44870635 46256754
1454.08 47305771 48685414 50121042 51759709 53107940 54650940
1456.97 58369514 61010343 63522967 64568872 69256398 70756506
1459.86 68209900 71104608 73749601 76946889 77913663 79640051
1462.75 80622884 80542996 82597715 81232981 78299005 77193047
1465.65 75945980 75719001 75227408 75138931 74403128 74359146
1468.54 73542255 73023454 72025740 71140392 68434186 66250024
1471.43 64182685 64019568 65027569 66846128 69150073 71806528
1474.33 72721743 72996255 72009954 70586532 68437842 66311084
1477.22 63314899 60737109 58263054 56588128 55031686 53876456
1480.11 52568818 51723684 50495054 49629228 47363893 46000395
1483.00 44595133 44234178 43630096 43598675 43391691 43593704
1485.90 43559089 44143937 44197319 45217585 45829398 46933796
1488.79 47843268 49205373 50437898 52171331 53179255 54684744
1491.68 55915413 58013030 59287562 61738328 63098548 66257721
1494.57 68246340 71275285 65289861 60134904 59018733 58180434
1497.47 57874781 58831818 58808166 61572228 64344940 70588429
1500.36 73635584 86740315 75557423 55117241 51951572 49647693
1503.25 51337080 51525112 53635600 54008481 54766074 55344730
1506.15 54876965 53315232 52685439 50333567 47926546 44750257
1509.04 41576665 37849823 34637988 30874954 27728795 24246042
1511.93 21371928 18740343 16553454 14421046 12772830 11126544
1514.82 10017950 8989954 8105751 7280837 6714159 6258161
1517.72 6214290 5726702 5656023 5403298 5108300 5060531
1520.61 4450480 4527072 5117066 4544715 4757754 4713001
1523.50 4692818 4613523 4677896 4269849 4522948 4557957
1526.39 4552822 4334810 4397501 4329178 4282217 4338016
1529.29 4316390 4201093 4300289 4260315 4197462 4215392
1532.18 4299954 4176314 4253653 4134958 4439915 4268501
1535.07 4390149 4226874 4396738 4240686 4446849 4164297
1537.97 4269717 3357584 3878988 3887348 3599927 4143901
1540.86 4073243 3859398 3719951 4124812 3964799 3979012
1543.75 4048346 3936167 3611403 3981315 3881532 4010980
1546.64 3982907 3935040 3875541 3850268 3933469 3908796
1549.54 3746717 3782325 3865593 3864889 3773000 3812566
1552.43 3707362 3638061 3635564 3162102 3647626 3742269
1555.32 3632638 3532204 3675787 3248860 3344135 3097436
1558.21 2833000 3517192 3228355 2811689 3214430 3588934
1561.11 3313260 3491464 3309953 3413045 3312758 3283555
1564.00 3216952 3200973 3121539 3179570 3064810 3186936
1566.89 3137350 3187010 3164460 3100841 3014935 2826672
1569.79 3132060 3196006 3286331 3320936 3256465 3457173
1572.68 3462793 3619481 3628285 3818157 3853062 4058249
1575.57 3295656 4030389 4635389 4709939 4950258 5183820
1578.46 5341401 5598395 5867703 6076646 6315047 6518500
1581.36 6716235 6963059 7159397 7399058 7596607 7895537
1584.25 8251114 8610095 8894634 9366467 9775537 10262768
1587.14 10672408 11210145 11596085 12067669 12394727 12748052
1590.03 13030207 13252562 13555127 13819790 14108360 14317675
1592.93 14354595 14366911 14348189 14265380 13850209 13429734
1595.82 12942996 12562030 12128404 12116158 12282469 12827220
1598.71 13586404 14481175 15327977 15954488 16270042 16543127
1601.61 16668572 16742329 16729658 16801403 16992943 17075230
1604.50 16996354 17096218 17041305 16895695 16805952 16668613
1607.39 16483652 16160541 15813593 15406045 14737670 14210153
1610.28 13422619 12739847 11870201 11403417 10782604 10670868
1613.18 10739157 11111288 11466614 11989742 12215138 12555858
1616.07 11813594 12049485 12308706 12047840 11909835 11766195
1618.96 11432883 11041378 10520000 10145329 9790812 9315186
1621.85 8740641 8302784 7519873 6888500 6758061 6183026
1624.75 5745773 5213479 4815110 4346051 4124165 3614998
1627.64 3371669 3152270 2884048 2675556 2439927 2331502
1630.53 2089047 1927277 1898131 1644222 1689436 1487043
1633.43 1390406 1383662 1142772 831580 641474 1163356
1636.32 1061547 931283 827687 955088 851078 903429
1639.21 783561 757594 689173 812003 677580 676841
1642.10 705296 690925 585043 654253 618711 633277
1645.00 466221-5864 536998 664564 402299 585195
1647.89 456294 662070 540587 766954 532849 694496
1650.78 549778 749275-133871 165533-218882 374561
1653.67 767940 467767 986378 842382 1016755 1020286
1656.57 1256796 1149414 1433998 1405871 1578547 1669850
1659.46 1867658 1998825 2152270 2233474 2455857 2524777
1662.35 2444233 2794865 2945527 3102102 3144095 3101085
1665.25 3084372 3137179 3067616 3123139 3071792 2947642
1668.14 3248493 3010926 3207033 3811235 3876374 3932105
1671.03 3305089 3324067 3211231 2992153 3143586 3086933
1673.92 3141504 3057008 2847793 3251101 3397489 3446541
1676.82 3370444 3437330 3226543 3214918 3017413 2934118
1679.71 2714761 2590630 2369235 2209141 1977867 1858060
1682.60 1569055 1456297 1567362 968007 645055 1513700
1685.49 1249353 1364929 1179807 1404025 1193229 1200668
1688.39 1106466 1198159 989592 986217 999967 1033757
1691.28 876419 1079433 829558 964568 897686 1023880
1694.17 823504 1004880 260947 100299 1062263 864156
1697.07 971777 1044401 1051009 1041132 896869 481316
1699.96 717078 793222 1212563 1281516 1361359 1359519
1702.85 1342870 1490580 1337114 1493953 1695713 1712054
1705.74 1662073 1686801 1834860 1894887 1926669 1878053
1708.64 1851729 1935063 1818593 1797305 1673949 1738039
1711.53 1813076 1790858 1935368 1987815 1906234 2108165
1714.42 2091366 1990900 2267627 1968407 1733641 906315
1717.31 1414746 1722747 1418605 1794261 1766831 1811162
1720.21 1766175 1800606 1746129 1673714 1649648 1563197
1723.10 1495154 1374933 1241618 1214568 1164198 1138884
1725.99 958541 956947 907198 888589 759364 760768
1728.89 643645 590402 637631 685115 618702 602818
1731.78 523231 754375 55067 396887 481149 38483
1734.67 699337 592618 622147 582670 655659 577781
1737.56 636712 573346 686646 510401 416613 678959
1740.46 621823 596336 636022 616115 571310 604658
1743.35 606364 683565 732707 696488 707611 716255
1746.24 677745 692755 728507 746062 680325 700362
1749.13 710774 737971 764805 437180 458439 851199
1752.03 676730 889096 753877 810592 838199 911447
1754.92 839322 848002 847666 789195 899069 980078
1757.81 999706 1037241 994297 983405 1068698 1010434
1760.71 1034766 806785 869972 1114983 938761 1069553
1763.60 1022031 1076674 1156241 1180792 1097070 1152507
1766.49 1087743 1173641 1070789 1147927 1407899 1480069
1769.38 1592817 1672264 1775160 1659132 2086443 2071406
1772.28 1613125 2473425 2506451 2656592 2891268 3101960
1775.17 3212866 3450872 3716626 3896137 4010219 4204152
1778.06 4353875 4612151 4668980 4883030 4907795 4979243
1780.95 5107249 5213724 5265713 5154707 5112588 4922906
1783.85 4757316 4429714 4204197 4012196 3859618 3856222
1786.74 4014618 4310356 4575996 4862660 5083147 5226579
1789.63 5336219 5121024 5038235 4958877 4829657 4337491
1792.53 4373029 4466729 4177279 4077626 3814992 3620012
1795.42 3406591 3068710 2897987 2621034 2494261 2299775
1798.31 2116828 1876441 1756082 1678545 1498408 1245835
1801.20 1171660 1080459 854534 889971 770395 765747
1804.10 733581 632470 513257 530351 567453 532702
1806.99 440646 429111 411401 557631 462501 476780
1809.88 355961 504426 427365 529921 589673 684651
1812.77 755210 825918 881997 997231 1097384 1336432
1815.67 1440239 1590800 1795984 1955104 2085785 2284517
1818.56 2442753 2655302 2843332 2975259 3130695 3210103
1821.45 3245048 3323591 3304350 3303965 3255750 3290913
1824.35 3079101 3007800 3044617 3134059 3150723 3397395
1827.24 3628277 4142225 4395746 4479830 3643953 2231978
1830.13 2390303 2471779 2665331 2918021 3068960 3186249
1833.02 3370212 3342340 3356844 3203526 3066302 2898734
1835.92 2724371 2508181 2247880 2033465 1778103 1558854
1838.81 1242418 1159711 962717 816483 710702 677214
1841.70 519335 471633 499071 401539 98247 290561
1844.59 417494 431496 517989 617621 697857 709798
1847.49 778473 993201 1009661 1055806 1233154 1390313
1850.38 1522627 1632475 1778642 1886202 1991488 2042695
1853.27 2087905 2247914 2281938 2328272 2325135 2312848
1856.17 2426529 2442865 2329063 2493701 2397721 2655936
1859.06 2702722 3049026 2980357 2972512 2889503 2706866
1861.95 2720603 2689461 2642932 2743235 2752041 2779431
1864.84 2764377 2862398 2885756 2956450 2999031 2915926
1867.74 3015951 3029740 2759397 2738548 2881227 2790785
1870.63 2714982 2726590 2598867 2517167 2406901 2374418
1873.52 2408492 2296744 2321826 2344509 2245888 2284718
1876.41 2243279 2328367 2301247 2173010 2254312 2199778
1879.31 2283963 2336225 2263876 2246315 2339895 2488684
1882.20 2610945 2799367 2960073 3100320 3234324 3372599
1885.09 3481701 3545863 3764630 3786304 3959748 4111808
1887.99 4318364 4427666 4617218 4930591 5176857 5388833
1890.88 5698800 5890402 6151737 6323203 6599104 6743076
1893.77 7004021 7100044 7261251 7385523 7418800 7462223
1896.66 7391355 7426169 7268750 7159368 6906884 6577354
1899.56 6229302 5839145 5465268 5333782 5276696 5577120
1902.45 6052682 6477459 6842679 7073775 7142478 7145640
1905.34 6993771 6827578 6527879 6320333 6063225 5837482
1908.23 5582880 5283174 4939275 4595312 4278706 3986738
1911.13 3678814 3343613 2987426 2669602 2386541 2137106
1914.02 1878147 1614823 1431774 1300441 1130859 910795
1916.91 860336 636673 633185 571247 513390 491479
1919.81 358309 388352 336843 317063 259083 317053
1922.70 338413 366076 316952 400108 469260 434973
1925.59 531968 581366 659048 747389 994246 1010936
1928.48 1209878 1376257 1496852 1700550 1871307 2112800
1931.38 2305990 2597266 2783164 3130420 3308031 3593052
1934.27 3775961 4026978 4258182 4385947 4654763 4786214
1937.16 4866495 4856926 4757264 4748538 4772268 4755736
1940.05 4757941 4568626 4465242 4482737 4673246 5342647
1942.95 6027634 6667667 6821755 4782860 3465949 3512861
1945.84 3583906 3835478 4231570 4477375 4648784 4816990
1948.73 4879539 4812179 4741249 4562028 4385091 4094329
1951.63 3777541 3450576 3107714 2784882 2331923 2071924
1954.52 1796532 1557197 1341641 1111343 1015253 839579
1957.41 830553 751840 641535 630736 653248 671554
1960.30 511685 559285 543008 589573 544777 554080
1963.20 659997 589415 630955 648222 581919 671817
1966.09 515779 481430 478514 584661 512117 553409
1968.98 475809 546195 481752 549152 530503 498012
1971.87 466539 456713 464853 512402 656811 535234
1974.77 305736 428755 421118 336787 403131 450523
1977.66 370734 348729 391708 417209 361212 401098
1980.55 367875 371886 356436 395727 343555 356080
1983.45 316087 278986 264749 294893 238999 276821
1986.34 296491 278595 240192 310294 220598 264763
1989.23 227445 215386 213042 264875 203883 169509
1992.12 157507 125597 191530 181373 77867 150516
1995.02 130791 133849 120431 116740 70149 102582
1997.91 76019 142550 150718 118076 157713 154772
2000.80 66613 114525 97230 54178 93437 59511
2003.69 16807 36884-21814 13478 36700 85061
2006.59 129390 184392-282100-64656-75945 5832
2009.48-18208-60640-61319-59268-101996 2352
2012.37-44652 46550-24422 30183-14155 512
2015.27 15714 7987-4069 8607-3646 70627
2018.16 42017 80328 51308 147906 25790-3214
2021.05-8727-1861-19728 3265-21497 17182
2023.94-73702-40967-107454 13476-101922-46447
2026.84-59953-55031-40730-6963-64871-2203
2029.73-40038-61525-28115-77727-57401-43774
2032.62-77517-70434-34416-42168-43595-131999
2035.51-26911-95176-40689-95144 5900-78834
2038.41-22817-73632-55780-83756-33134 1249
2041.30-31981-28492-36659 20037-20332-69055
2044.19 16703 17712-37932 8469 16397-34507
2047.09-19155-763-5322 5434-59458 42613
2049.98-55610-75158-17630-66001-81077-2644
2052.87-89264-4151 57007-94664-35969-86228
2055.76-49349 4626-149379-107531-132814-76186
2058.66-105648-177079-154505-146971-128348-193801
2061.55-133059-172333-183596-202368-216412-194566
2064.44-233143-154349-215841-208025-166776-266925
2067.33-143427-209144-226311-272022-104623-280786
2070.23-209153-207389-149851-182939-278547-153343
2073.12-181903-183096-109560-186642-192583-190781
2076.01-202250-169432-158790-138295-132694-160373
2078.91-215957-138692-200524-145737-142920-131774
2081.80-139611-158444-131863-138263-105356-111096
2084.69-54000-86339 46771-63978-135066-91750
2087.58-67471-105703-151460-27623-143487-43647
2090.48-55123-142437-119542-145045-140357-158329
2093.37-175167-175931-97137-205519-145497-103502
2096.26-91426-77531-25688-74836 15311 129079
2099.15-26146-33102-59591 44208-36011 32357
2102.05 19289 87389 165884 78926 42670 50590
2104.94 136293 7620 113040 62271 231987 194505
2107.83 118102 166782 148874 146977 135206 175958
2110.73 182167 340269 163287 275298 126722 265121
2113.62 264482 325798 299786 541561 362729 435602
2116.51 361625 361799 316324 285195 244318 430516
2119.40 389390 247856 284462 237565 323958 299500
2122.30 212875 291581 265127 237841 102971 110748
2125.19 64070 117548 121113 16881 209658 109100
2128.08 64531 99267 132462 125593 101291 62363
2130.97 61604-28386-31897-22185-54176-121494
2133.87-109532-165711-106060-160096-137800-206602
2136.76-203936-212751-225195-204605-183263-142279
2139.65-209899-186437-231519-220788-197987-160113
2142.55-120981-175364-203799-161625-189508-137991
2145.44-126722-174460-116266-129400-170421-135611
2148.33-146428-150127-68057-102755-71499-19588
2151.22-97418-72424-99004-110086-105679-125386
2154.12-29523-112763-101896-71492-73277-33095
2157.01 59680 50518 134856 28058-39445-31157
2159.90 34495-1081-38376 46188 16076-122974
2162.79-67542-46931-116196-53354-63921 33918
2165.69-12197-85606-36337-49505-87138-78162
2168.58 77975-34252-170224-93210-177849-152110
2171.47-119082 6890-19337-150941-168902-102122
2174.37-175317-204700-87959 49460-125418-140994
2177.26-134163-124441-66377-150830 21024-42052
2180.15-99984-128343-195621-132041-162804-20111
2183.04-53509-116839-66189-197366-118697-147869
2185.94-15125-35865-66314-32832-50541-43651
2188.83-71569-23230 26240-27993-43004-83347
2191.72-2063-112376 89353 102318 52398 108518
2194.61 173772 111603 173019 270885 241944 269832
2197.51 205637 299353 262413 275997 371087 277508
2200.40 329200 295093 359984 363930 291674 413970
2203.29 415578 558783 542079 568520 384333 516493
2206.19 520434 550105 467875 470374 451920 514683
2209.08 593824 439135 544428 627471 601957 617892
2211.97 682082 561646 534287 492344 457034 441618
2214.86 402061 386660 396258 325088 259849 319840
2217.76 354511 320268 329498 299415 283681 315919
2220.65 334423 314187 347343 260676 321700 242488
2223.54 222198 193127 175518 209883 204205 259920
2226.43 171752 231968 188352 190693 164020 152858
2229.33 118754 125526 161766 99930 123690 65506
2232.22 136548 97836 102360 112535 136213 166161
2235.11 70769 81331 48453 87177 33827 80974
2238.01 50494 35578 30722-59562-18574 73996
2240.90 12348-38192-4227 680-31975-15782
2243.79 15231-67083 29727-30716-52514-106720
2246.68-93543-76097-93718-163166-102954-91215
2249.58-123930-144498-134962-4142-153567-68787
2252.47-3239-106076-72103-30513-17552-21979
2255.36 3339-11377 28259 5052-30131 67960
2258.25 78734 44401 71904 122649 67709 110151
2261.15 173518 96944 125129 270315 221409 196465
2264.04 313632 238430 292613 311974 326167 364594
2266.93 394569 430359 380812 528299 506708 457835
2269.83 572386 549613 531893 560724 642306 596583
2272.72 606823 597277 609217 589920 581114 544454
2275.61 613329 535001 585222 525330 553862 506821
2278.50 548932 521393 450544 403448 506857 479725
2281.40 523593 521313 517480 428326 477030 372661
2284.29 476311 417085 400924 368660 390829 369241
2287.18 353095 363260 286891 214291 154738 209844
2290.07 150998 127315 187791 151929 153862 148796
2292.97 99364 171077 218373 112277 96546 115817
2295.86 112416 218224 102597 39197 59473 23882
2298.75 75482 46402 63064-34755 124107 37403
2301.65 142204-79022 142351 58524 194106 76726
2304.54 100145 167229 126532 193552 36061 265616
2307.43 268522 248664 236867 246161 425370 391032
2310.32 366975 248402 643696 504641 586057 67091
2313.22 711634 453165 630492-82680 519318 423276
2316.11 565570-224293 468300 430241 713859 156496
2319.00 732940 652675 705389-300045 13329 551691
2321.89 705596-288687 8341 757662 615477-322756
2324.79-4027 830896 541334-524355-218048 837212
2327.68 334162-812300-88167 921353-166486-1031899
2330.57 49299 771657-744547-1115324 448690 626642
2333.47-1028773-575597 906528 195130-1145159 37988
2336.36 997218-346503-803982 911572 703067-787704
2339.25 7144 1227678-29402-548203 802787 751979
2342.14-639100 151056 885206-67394-352909 682903
2345.04 312200-218951 446658 633128 232727 637056
2347.93 818198 797077 729390 681461 663477 810785
2350.82 146362 375905 749229-136581-106177 677514
2353.71-469482-506533 637425-812509-914377 594917
2356.61-1186048-1089593 520126-1726040-1145945 366946
2359.50-2035052-831841 89009-2252531-247126-439798
2362.39-2328020 340623-1379156-1626853 310398-2110713
2365.29-481501-422523-1928324 252487-1481142-795911
2368.18-163564-1556051 255270-1215890-369851-217137
2371.07-1018454 246006-1023195 36112-639385-180078
2373.96-219007-437830-60861-362086 45379-423621
2376.86 46011-197315 9771-117265-9689-65963
2379.75-12696-68406-109528-49865 51387 38939
2382.64 17465-17825 90452 27974 70078 115367
2385.53 53687 15162 139835 113216 42787 73581
2388.43 35291 88574 67699 42871 81377 109286
2391.32 77763 103580 129939 228329 72483 147775
2394.21 87881 83760 156032 201989 100233 167297
2397.11 99747 144001 119104 210208 253379 235899
2400.00 170647 283133 247763 286065 327914 344137
2402.89 283096 283930 390130 391945 394462 493746
2405.78 507513 463750 486855 511993 600167 702503
2408.68 682441 568372 623203 593868 546382 589738
2411.57 566642 512890 531070 602159 539730 645782
2414.46 631107 648864 643018 671656 738696 794513
2417.35 770407 820723 795320 835756 759172 738388
2420.25 744340 721591 935455 905602 892892 882654
2423.14 926291 891949 936076 863668 940241 863160
2426.03 923499 1017002 942903 1063451 1013644 1102581
2428.93 1187713 976525 1131264 1063109 1164787 1207399
2431.82 1183284 1099403 1158335 1222489 1193423 1282893
2434.71 1268348 1242299 1271625 1304777 1365260 1353570
2437.60 1409956 1319464 1366562 1294113 1345410 1291324
2440.50 1236300 1353791 1334436 1264395 1396134 1301305
2443.39 1252828 1277322 1286095 1284659 1300907 1246230
2446.28 1325339 1254384 1192133 1123719 1077612 1121766
2449.17 1019535 997718 1019612 1167968 1040590 1045657
2452.07 999391 1104459 1095312 998972 969190 927668
2454.96 925122 929185 828223 827665 702018 723534
2457.85 692388 568209 542833 608244 541188 548685
2460.75 485483 558103 428775 386022 332713 475479
2463.64 389472 479011 422772 397781 387000 417998
2466.53 418462 384647 392782 377163 415325 343868
2469.42 315588 351921 236292 330182 322066 249224
2472.32 298777 315068 272481 251462 220230 298206
2475.21 297190 270386 340662 369310 279654 233328
2478.10 310533 250155 346978 314351 273766 278876
2480.99 293061 298517 287457 353883 328379 297419
2483.89 319716 342277 308336 359922 310972 288743
2486.78 296214 329254 268743 258940 267234 308724
2489.67 274269 403646 340327 205593 361132 337817
2492.57 363533 293941 253754 226124 264359 223296
2495.46 249925 195022 253739 198551 320780 378053
2498.35 323087 278908 237819 331848 199511 247264
2501.24 196054 218320 203921 255965 285355 148899
2504.14 236992 207113 283617 180427 247057 215354
2507.03 165583 207311 179143 240273 151261 168611
2509.92 169457 215882 165253 234508 168282 234248
2512.81 200163 101231 137112 208914 202632 75310
2515.71 144070 16674 160895 156306 141918 188435
2518.60 178664 175846 111704 67509 87772 99444
2521.49 31018-12954 52982 73199 37142-9435
2524.39 40526-34223-55565 54956-28356 30974
2527.28-21194-49853 17869-84749-53075-24243
2530.17-54424-60665 24618-6450-21060 4226
2533.06 5659-59849-70158-47605 22490-32371
2535.96-63157-78383-77491-77048 13705-150267
2538.85-95692-70322-46351-86261-16889 26009
2541.74-91551-94300-75084-30370 24014-90017
2544.63-39804 95722 60416-42282-58185 11688
2547.53 59524 6885-16833 15 72506 76165
2550.42 50948 159729 72636 146087 178846 208595
2553.31 167078 227598 209024 312236 238112 299296
2556.21 404812 490325 574169 555694 528120 625984
2559.10 564571 558455 603656 689395 724317 729268
2561.99 747554 859777 739323 860899 928745 1101874
2564.88 1076744 1129401 1104217 1209123 1103498 1175924
2567.78 1159468 1278949 1308007 1354921 1373785 1446002
2570.67 1509812 1565943 1614473 1600856 1617633 1654663
2573.56 1613261 1745093 1622558 1599598 1661654 1585719
2576.45 1593530 1551141 1559116 1594749 1475875 1483833
2579.35 1538909 1440273 1492887 1449619 1569814 1552744
2582.24 1555166 1497405 1495898 1561738 1468121 1382958
2585.13 1326854 1230762 1080277 1038789 1000415 1009161
2588.03 912836 966003 939936 919451 901755 786883
2590.92 782827 802181 840415 710042 632927 550232
2593.81 476897 572120 538558 520446 440014 490993
2596.70 374317 452141 417652 389037 444416 403067
2599.60 430248 405364 405025 405530 391746 411603
2602.49 384931 433176 456277 487046 505391 563920
2605.38 485449 540217 543552 563023 558912 646040
2608.27 612140 538912 575960 532272 552000 672048
2611.17 531984 663445 579593 684781 570316 616367
2614.06 641563 630341 570037 514022 465721 530569
2616.95 531451 548009 472576 622796 615187 496045
2619.85 525301 497218 602280 433355 490501 428464
2622.74 360740 459538 346440 382391 333809 244806
2625.63 208984 174901 164569 233145 222898 140178
2628.52 71233 98272 11568 72660 111046 168318
2631.42 75463 79899 78752 199495 134003 26585
2634.31 102442 46005-46619 104014 3328 41847
2637.20 22331-58763-54035 18248-49613-12189
2640.09 17996-74125-66467-47626 53898-13343
2642.99-21607-10357 53634-50826-2585-40508
2645.88 43970-15267 48948-17291-52962 12966
2648.77 7467-88931 59265-59101-4446-56574
2651.67 22940 36196 35790 17296-6364-15758
2654.56 103176 14944 4009-4323 43966 89752
2657.45 46290 46411 155040 25353 46181 81134
2660.34 47091 116364 54850 40370 127505 41372
2663.24 72723 104596 132823 29680 50042 200726
2666.13 139896 151471 118261 191724 163728 232007
2669.02 163298 232579 203812 216827 258100 298704
2671.91 330941 261557 268101 258837 268348 291940
2674.81 285797 310409 286221 272425 295763 342452
2677.70 296819 368011 392420 288301 341093 207159
2680.59 290012 300039 381949 323327 379627 328458
2683.49 310566 362374 305174 366960 367263 322247
2686.38 350364 298588 343593 272611 289130 282405
2689.27 231791 450975 298400 295362 296953 372884
2692.16 306083 290363 368386 310925 256079 291282
2695.06 325883 406155 274348 319667 281256 198594
2697.95 325117 205337 243640 352669 282965 355217
2700.84 260716 392909 376128 323829 389873 339757
2703.73 331990 452261 471748 465875 555049 469322
2706.63 581146 526907 559834 533384 562251 576590
2709.52 676909 669389 665361 684949 721294 730085
2712.41 687929 803269 861155 908371 834763 991962
2715.31 907944 1011402 970127 1152050 1208442 1232810
2718.20 1339058 1426402 1472796 1610548 1592279 1626140
2721.09 1672066 1753045 1825404 1969210 1880431 2002209
2723.98 2104280 2074823 2302945 2259097 2357897 2523771
2726.88 2661599 2621286 2910633 2955640 3107985 3278812
2729.77 3364781 3617766 3760295 3963839 4274789 4615315
2732.66 4772264 4941572 5267148 5499304 5758051 6030933
2735.55 6014906 6113965 6259571 6392029 6329210 6318125
2738.45 6281629 6290147 6284329 6232393 6228809 6506734
2741.34 6955409 7669556 7573430 6979991 6786441 6451311
2744.23 6189887 6084518 5971809 6072866 6115800 6160949
2747.13 6286729 6388425 6552536 6526785 6577349 6375500
2750.02 6205317 5969130 5680521 5307443 5007719 4620831
2752.91 4295318 3996092 3791016 3379089 3101753 2909420
2755.80 2713759 2475511 2342158 2217470 2152415 2072767
2758.70 2014655 1938957 1781455 1832103 1790906 1942393
2761.59 1943190 2022824 2050172 2034543 2039108 2054909
2764.48 2179763 2247894 2189908 2337852 2301841 2298064
2767.37 2356749 2297321 2246385 2408308 2334338 2530266
2770.27 2519765 2580221 2906032 2772159 2575438 2475708
2773.16 2419167 2425957 2382423 2559169 2616410 2699976
2776.05 2747365 2705672 2822221 2843702 2777321 2909703
2778.95 2761778 2791345 2692170 2563681 2590899 2480301
2781.84 2421571 2216954 2298886 2063002 2056668 1985191
2784.73 1915936 2000313 1905966 1975482 1897285 1880731
2787.62 1753449 1880838 1881065 1840891 1720334 1812220
2790.52 1769511 1795518 1856053 1737118 1791145 1788193
2793.41 1852729 1748892 1708630 1723476 1908609 1741719
2796.30 1744372 1826894 1857240 1871934 1882780 1901745
2799.19 1966786 1884913 1958440 2013243 1849890 2077229
2802.09 2029957 2095325 2061445 2150773 2217891 2244726
2804.98 2392651 2452260 2464295 2395379 2592535 2611721
2807.87 2679967 2621058 2865923 2784324 2780325 2898162
2810.77 2922431 3078713 3089346 3216455 3227231 3299933
2813.66 3482058 3569127 3539417 3532237 3484151 3555621
2816.55 3707291 3815960 3679632 3730671 3879727 3904999
2819.44 3996376 4029024 4121239 4144648 4203925 4493339
2822.34 4459252 4645138 4789865 4994332 5087624 5110485
2825.23 5127847 5322744 5291594 5288305 5226374 5383179
2828.12 5443011 5426537 5501225 5537557 5763061 5764845
2831.01 5799481 5946478 6096269 5810517 6241876 6230693
2833.91 6175546 6296458 6330820 6426419 6330587 6491571
2836.80 6503899 6618582 6760676 6784771 7000525 7153156
2839.69 7374019 7445815 7739861 7877171 8062794 8324444
2842.59 8365397 8542967 8658995 8865835 9029190 9324379
2845.48 9531114 9785208 9988326 10160841 10462857 10645592
2848.37 10870955 11207880 11612998 11923731 12260195 12639458
2851.26 13092303 13403496 13729100 14257104 14831948 15357140
2854.16 16084822 16794680 17565342 18533388 19281815 20134275
2857.05 21018289 21813236 22960234 23889790 24897506 25674210
2859.94 26781531 27809955 28709674 29832275 30609771 31783688
2862.83 32804868 33685556 34713512 35740626 36950967 38041885
2865.73 39147559 40147529 41586974 43147456 44189773 45075280
2868.62 46010548 47075037 48181702 49269376 50468479 51827226
2871.51 53050009 53965672 55025605 56232038 57018856 58094213
2874.41 58928669 59574121 60278367 61114296 61723788 62424722
2877.30 63074413 63563017 64118207 64793894 65409313 65893496
2880.19 66253202 66380380 66216381 66857058 66877659 66858680
2883.08 66329190 65834954 65373115 65137721 65149450 65027954
2885.98 65138852 65245052 65286637 65110571 64633554 64299201
2888.87 63693768 63068802 62468304 62096993 61898376 61587179
2891.76 61305727 60665642 60428915 60039583 59533250 58966530
2894.65 58509529 57905499 57004099 56511995 55900657 55097760
2897.55 54267868 53549179 52868436 52281671 51496303 50851949
2900.44 50267369 50118286 50024376 49891186 49938018 49827445
2903.33 49435726 49525141 49233217 49147740 48548680 48205313
2906.23 47718158 47403288 47285305 47356634 47374366 47656535
2909.12 47699609 48269741 48873456 49640581 50314710 51098959
2912.01 51743597 51808289 52032881 52645651 53300090 53681721
2914.90 53811235 54590808 55250781 56191914 56886466 58104328
2917.80 59238097 60508047 61749128 63279877 64739353 66622154
2920.69 68529076 70463599 72332066 74144064 75708014 77420435
2923.58 78996558 81031373 82502033 84333207 86088320 88073997
2926.47 89685846 91197832 92765662 94353508 95928439 97306021
2929.37 98600959 100969179 102624791 104199860 106531598 108852298
2932.26 109654676 109467140 109196551 109773147 110735588 112006703
2935.15 113257769 114195469 115224423 116005931 116791871 117784924
2938.05 118300078 118558762 118964123 118876952 118606464 118597670
2940.94 117757971 116633057 115445933 114585386 113539190 112494212
2943.83 111209479 110219673 109193340 109339735 109239137 111041666
2946.72 114180893 125342489 141037258 133886804 129165109 126269811
2949.62 124690308 122163063 122091015 122636608 122822992 121299662
2952.51 117864967 113587735 109786102 105492944 101324729 97885102
2955.40 94584368 92008371 89883112 87660689 86307589 85016844
2958.29 84124055 83314728 82540414 82022054 81341735 81005190
2961.19 79978688 79721849 80395369 79577093 79223211 78543441
2964.08 78465931 78262488 78466081 78425340 79045368 79487552
2966.97 80605010 81331176 82898181 84309272 85677830 87245522
2969.87 88967440 90776916 92637440 94482059 96079234 97777236
2972.76 99332989 100797514 101936466 102796824 103318504 103530054
2975.65 103271237 102550013 101649037 99820631 97623106 94614433
2978.54 91485242 88206657 85636616 83655622 83205560 84060764
2981.44 86237642 89035158 91976966 94049610 94872957 95011260
2984.33 94297180 92984344 91117815 89078264 86762286 84221889
2987.22 81571609 78669345 75418515 72141647 68888718 65587594
2990.11 62331552 59000887 55907506 52956866 50288802 47599710
2993.01 45306427 42923327 40895230 39157890 37576874 35959762
2995.90 34659167 33366591 32221325 31216882 30257251 29185215
2998.79 28401974 27702185 26928079 26245293 25296505 25109626
3001.69 24826681 24572482 24857522 25155730 25606437 26144609
3004.58 26791655 27334571 27692061 28226459 28829638 29466406
3007.47 30023993 30953593 31799773 32883569 33802103 35066186
3010.36 36459817 37944643 39583676 41566266 43600284 45701987
3013.26 48299350 50735832 53617859 56428775 59369213 62509630
3016.15 65744108 69035570 72182128 75223274 78358566 81455276
3019.04 84246080 86688276 89127793 91298740 93321787 94873294
3021.93 96190998 97109813 97268309 96895634 95911099 94524369
3024.83 92990529 91736729 91093260 92141617 94669753 98851109
3027.72 103875101 108741051 112680538 114914321 115995526 116005064
3030.61 115320659 114162319 113017215 111807108 110193729 108585769
3033.51 107009319 105317578 103177153 99896313 96210154 92896295
3036.40 89991960 86010952 83010736 80728289 78655635 76875010
3039.29 75205957 73673205 72450522 70901105 69334923 67777784
3042.18 66451074 64837360 63157695 61653421 60338509 58970912
3045.08 57713823 56666140 55753989 54613965 53904780 53223699
3047.97 52867144 52495664 52271849 52259115 52282469 52508890
3050.86 52954712 53594083 54437077 55315001 56106188 57205887
3053.75 57752892 58427495 59143580 60089633 61132854 62321477
3056.65 63264731 64515017 65637195 66564378 67466706 68527309
3059.54 69497392 69924200 70909365 71485782 71989034 72652663
3062.43 73100577 74289791 75226172 76648426 77457632 78081551
3065.33 78763006 79436984 79929057 80034456 80344030 80822969
3068.22 81456768 82153887 82608331 82994101 83263346 83336627
3071.11 83518369 82823344 82461942 81676166 80882530 80032519
3074.00 78819797 77374843 76256520 74781235 73730625 72663907
3076.90 71737464 71129733 71024838 71031815 71178370 71299597
3079.79 71221558 70991284 70637717 69779959 68806957 67639630
3082.68 66197805 64751973 63128146 61439972 59896287 58198758
3085.57 56610672 54908672 53470279 51979738 50765593 49806548
3088.47 48875506 48059233 47303549 46101182 44934878 43185446
3091.36 41897850 39654816 37760300 36594071 35846469 35076778
3094.25 34462295 33715783 32794262 32003275 30999384 29799548
3097.15 28551407 27244043 25940800 24627695 23349924 22118223
3100.04 20937782 19893891 19094786 18142107 17367238 16843725
3102.93 16363778 15946812 15600369 15466628 15220194 15211726
3105.82 15232094 15344826 15117091 15457509 15565560 15648186
3108.72 15990422 15994703 16267418 16271738 16392370 16339483
3111.61 16488980 16289048 16286274 16107445 15862987 15585027
3114.50 15297288 15082722 14708669 14385600 14000897 13909195
3117.39 13706603 13648344 13699943 13672705 13918404 13963180
3120.29 14053326 14035670 13636080 13372914 12962199 12620799
3123.18 12163351 11872959 11426134 10908887 10577118 10097248
3126.07 9511004 9050548 8577311 7996860 7662649 7010203
3128.97 6553955 6230046 5954303 5461925 5240291 4933754
3131.86 4558806 4425094 4075714 3946639 3727900 3692502
3134.75 3472951 3288587 3060755 3021535 2985928 2788650
3137.64 2828588 2686546 2780553 2593126 2523757 2542214
3140.54 2449328 2329942 2275559 2291801 2346492 2311978
3143.43 2246159 2259334 2121841 2070627 2146755 2181231
3146.32 2023005 1982116 2018470 1966645 1940662 1988327
3149.21 1951537 2014535 1841918 1802226 1932919 1887039
3152.11 1913165 1832368 1874260 1737016 1720117 1797795
3155.00 1762128 1890718 1893979 1855811 1747460 1849850
3157.89 2008504 1788214 1810190 1909526 1920656 1761043
3160.79 1899146 1797536 1883031 1889590 1888734 1840280
3163.68 1798024 1781508 1826089 1824797 1800771 1942980
3166.57 1897724 1787330 1968707 1853687 1895042 1903226
3169.46 1911569 1854402 1807998 1758482 1862669 1776608
3172.36 1744971 1932852 1751321 1821294 1722438 1676525
3175.25 1642404 1682380 1529687 1669519 1641642 1561296
3178.14 1490573 1412727 1400983 1372814 1450672 1290119
3181.03 1289093 1231673 1123491 1186915 1016070 1111479
3183.93 1132350 1042049 940861 985780 823014 869316
3186.82 896397 897359 839400 823006 759030 795214
3189.71 912915 755780 695199 817342 787425 755000
3192.61 820947 702920 685697 702610 670391 709027
3195.50 536183 664496 613648 567709 491044 720101
3198.39 626898 502685 534464 571871 619361 513641
3201.28 497649 450870 511902 438656 485036 488156
3204.18 400637 400829 411660 424023 379013 398035
3207.07 391642 431861 337029 352644 416257 380622
3209.96 362300 351039 333361 221628 336064 253218
3212.85 232428 256063 346535 296676 134186 236948
3215.75 327689 149692 341227 221693 279651 121510
3218.64 170800 282838 259500 193948 338635 281948
3221.53 192941 139256 312978 337071 215794 341208
3224.43 270633 447201 332450 184274 260341 245438
3227.32 324529 116404 311163 150721 71189 203263
3230.21 113933 136101 261568 168882 173797 182488
3233.10 104155 140752 143777 173925 65485 143336
3236.00 281930 130961 87913 258810 50292-91212
3238.89 5444 160456 89340 82711 161256 7840
3241.78 59900 93399 166443-45308 219257 80750
3244.67 68333 164498 130925 49204 30559 8533
3247.57 54897 52030-6566 93295-47708-96135
3250.46 88113-514 10713 98527 29686 62880
3253.35 8097 33084 31058 1991-51756 27311
3256.25 19982 93659 23020-28924 29308-10127
3259.14 64309 1625-51334 125140-145200 17888
3262.03 145489-73369 179042-45616-18579-91830
3264.92 52441-84988-208623 11301 202118-25549
3267.82-31777 97768 10889 58268 15651-30825
3270.71 88832-49928 185483-69538 46271 88084
3273.60-37892 19880-31868-78784-104363-73230
3276.49 87124 38458 84628-46345 48165 75005
3279.39 169281-77520 58677 35747-84351-28820
3282.28-29640 69276 110761-13138 19122 163740
3285.17 112812 17866 107356-1849 22793 9683
3288.07 115547 19375-48870-101627 142415-51879
3290.96 148533 172411 167861 85505 30377 32949
3293.85 120607-15106-40531 178341 90631 128723
3296.74 161733 232828 53239 51927 93953 37464
3299.64-23453 114403 129835 4216 181755 25115
3302.53 50903 96760 158923-45364 241786 103096
3305.42 89119 131592 28386 10414 211686 10893
3308.31-14160 8762-34205 44925 65946 230374
3311.21 144298 113229-23555 236864 105634 54677
3314.10 75046-60344 129325 44351 189003-3383
3316.99 109601 129033 107225 46470 94755 56196
3319.89-80730 58025-103310 114144-74727-61736
3322.78-195592 39607 56377 149368 3246-119423
3325.67-32077 50897-161384-6269-80097 18039
3328.56 10388-118915 94540-86865-102774 34739
3331.46 47-80554 31350-151992 36673-38977
3334.35-3605-74386-109016-79524-112907 12655
3337.24-91277 4477-76599-83152 111499 69994
3340.13-20714-14755-11557 17345-80440-68507
3343.03 18731-21160-127501-41744 18982 26598
3345.92 19929-83723-179975-89968 66757 39164
3348.81-64894 51734-89344-42182 89298 52745
3351.71-199381 31042-48443-110666 72259 16197
3354.60-64145-21719-140507-116932 80180-36429
3357.49 111087-32568 67353 9722-6655-3518
3360.38 11490 71878-6315 72077-51103-40014
3363.28 40557 144217 82535 98125-99253 45393
3366.17 164523-100417-44223 68567-20416-3543
3369.06 115265 128746 78670-74528 161872 97742
3371.95 139884 42648 28146 153613 185609 203569
3374.85 197578 122842 181600 232040 237212 144829
3377.74 325727 219035 43786 259038 99083 72309
3380.63 8949 171001 87196 143689 187019 300537
3383.53 309594 74613 182603 342482 239705 99176
3386.42 64401 276022 244277 75876 174913 68521
3389.31 295272 187804 213494 144738 189083 170990
3392.20 304390 234699-43229 130527 168716 124101
3395.10 67873 243400 61309 30243-13543 101963
3397.99 183793 23010-49078-44071-34106 753
3400.88-152817-11407 86500 31022-32105-186310
3403.77-23215-60801-10397 46217-59331 38446
3406.67-246136-62994-120798-35300 128473-166190
3409.56-187145-40523-78413-78830-16891-97180
3412.45-71140-12869 5579-258220-156607-117122
3415.35-48142 29837-129911 22529-38412-676
3418.24-119734-48018-99700-183282-86481 150779
3421.13-94972-15136-118878 67382 20513-213911
3424.02-85700-9056-94243 58293-53040-219399
3426.92 159641 53562-93131-160840-39878-42559
3429.81 69375 68934-2934 51876 83503 21863
3432.70-8898 38264-132696-54517-7801-43762
3435.59-75379 192651 175098 103460-40482-67336
3438.49 2733 83743 5541 42494 87211-61361
3441.38 1648 50227 127100 55898 15399-31274
3444.27 42851-18963 79980 245299 80528-36995
3447.17-62659 114665 276726 154332 9677 16593
3450.06 101394 300491 253752 164447 99892 322873
3452.95 214290 152288 250290 218931 123454-42536
3455.84 262467 258087 329161 81124 311922 185629
3458.74 283070 291890 318766 251217 241867 152617
3461.63 310334 380328 307264 135082 161503 279823
3464.52 283034 232428 62073 266821 341829 329963
3467.41 309990 270471 343716 161696 87956 200126
3470.31-46966 162493 288424 168566 386867 218894
3473.20 161945 56576 116035 65493 161896 101792
3476.09 38950 105481 76565 183815 97951 152041
3478.99-28730-84797 42441 71299 64321 88557
3481.88 122203 166099 114400-58266-128020 340113
3484.77 62340 43894 259 158909-33900-23297
3487.66 64888 108057-48224-86637-30710 21982
3490.56-15987-88347-120843-27135 45479-18651
3493.45-141498-49946-79959 98527-22704-171891
3496.34 38713-252791-66148-109179-155467 20791
3499.23-123663 8629-263391-94319-54811-138848
3502.13-98111-98636-93240-157687-207412-48967
3505.02-71173-133084-201848-189926-79879-96614
3507.91-4999-153600-54310-130659-27349-118359
3510.81-97448-150829-64606-238019-124839-151175
3513.70-133837-204323-92447-94254-84429-131132
3516.59-82509-103261-88231-170848-102322-211984
3519.48-23617-5234-168722-236333-95137-58568
3522.38-130227-64155-121649-274641-78610-154666
3525.27-70586-87187-161977-84934-166186 29839
3528.16-210202-210555-28500-137799-78039 39529
3531.05-155108-238553 12717-33187-2421-80957
3533.95-198096-73493-187869-112053-153746-139002
3536.84 51671-32309-181429-187189-105979 125919
3539.73-182912-169520-81516-195343-29541-137768
3542.63-42158-72513-102731 30129 1105-211435
3545.52-132623 9282-76233-55182-124194-27325
3548.41-70631-85466 52617-141792-3894-95890
3551.30-130398-210036 111621-34144 97004 15067
3554.20 17584-127827 1852-58524-75062-158191
3557.09-144632 20284-131514-220134 57061-145261
3559.98 517-112315-125273-75301 16800 72886
3562.87 23843-97257 17790-212158-3596-81352
3565.77-80429-102504 35318-164245-122181-69371
3568.66 73209-8166 112321-99843-62329-47964
3571.55 85012-80079-12128 20328-67192-53672
3574.45 112200-2333 10871-24986-63997 111470
3577.34-37658 140337-59283 197101-11367-75860
3580.23 101487 12173 29848 79056 138865-9634
3583.12 105111 173778 44215 106971 93509 71027
3586.02-227173-168047-49507 91427-70122-229779
3588.91 99561-69948 49108 62700 99166 98788
3591.80-44273-45318 38982 55315 217303 157878
3594.69 23486 153846-30048 116058 123691 180007
3597.59 89122-64776 102600 284915 87866 121027
3600.48 205186 156798 291063 288458 106870 284895
3603.37 304433 232990 173129 43425 210525 310080
3606.27 140791 91934 200644 273528 253640 6007
3609.16 187733 301825 112879 244758 144850 162589
3612.05 46139 188112 246067 274998 5244 134163
3614.94 84007 139840 84864 21432 29269 65006
3617.84 10888 165931-109354-324415 97668 2022
3620.73 78281-160316-76034-120168 73486-190645
3623.62-33172-23235-169778-121472-14290-142728
3626.51-52828-109420-198934-590441-20943-541942
3629.41-458720-47998-186404-128278-164387-172648
3632.30-151573-33818-167613-7154-29540-108260
3635.19-21130-95705-129248-159472-130227-25951
3638.09-66727-152247 13395-141162-50117-223814
3640.98-106801-28362-148511-82461-94936-37681
3643.87-41894 9470-72201-46253-125768 6955
3646.76-224097-243132 23548-103033-598013-276577
3649.66-62125-290606-120739-205231 22819-121548
3652.55-137327-91082-53996-14048-29966-125214
3655.44-128317-349398-67959-75000-88825-74774
3658.33 50892-9021 858-97228-14461-48946
3661.23-1288-60285-167871-85571 67229-107445
3664.12-61089-83301 21341-106513-87256-169605
3667.01-307600-62936-107044-308135-75691-35742
3669.91-408667-702338 159468-222638-53356-164922
3672.80 28571-304159-144804-503911-157803-346431
3675.69-592129-47461 24728-187776-83854-109016
3678.58-251583-212852-192705-136081-172974-157185
3681.48-10213-144192-80659-63137-62906-212174
3684.37 2196-174416 40790-269722 173-220039
3687.26 319-741873-467611-117408-129220-249286
3690.15-173185-196539-252364 6759-77070-18253
3693.05-120107-146361-17189-23253-107310-44641
3695.94-56453-65719-82383-165205-143976-29599
3698.83-98878-273832-88462-30642-98643-322961
3701.73-120485-23796-129534-109402-134200-203512
3704.62-177383-129912-193583-66222-169697-95547
3707.51-247263-146054-191325-329269-346298-144610
3710.40-220950-73520-384842-599531-222418-291335
3713.30-83165-83643-241611-175040-75107-268656
3716.19-172409-207354-164897-86934-161695-206178
3719.08-125907-78226-106407-184271-132213-210776
3721.97-205306-93627-132996-231195-195090-146206
3724.87-222987-178736-200568-230314 29314-201700
3727.76-153042-129248-147057-179219-132322-24584
3730.65-125332-220683-542386-284292-27043-129121
3733.55-175978-233550-272259-321875-67855-399958
3736.44-408539-153486-212663-209475-58460-85711
3739.33-26002-72361-152806-181204-46570-82885
3742.22-20484-46172-80322-515261-952418-285506
3745.12 60398 14262 52819 50495 42958-6
3748.01 61551-75649-661691-7341 111783 12087
3750.90 118859-187216-461485 205541 96739 202978
3753.79 152498 272773 146860 225514 187114-1937
3756.69 276787 223019 277030 130407 154512 92308
3759.58-74529 223306 236636 283691 208187 142271
3762.47 247460 200282 225313 238192 313179 195905
3765.37 25114 199921 260429 161840 79843 124944
3768.26 85357 71633-214482-181808 140474-10422
3771.15 4317 34750-15049-26533-72860-33899
3774.04 39807-3241-19610 38264-86724-39003
3776.94 84044-186428-102216 105870-101055-178721
3779.83-63490-36042 52539-69032-11198-66646
3782.72-25375-29350-51058 5294-111089-55426
3785.61 74626 25762 57258 132550 39634 55643
3788.51 66382-58653 136156 249344-58612 85597
3791.40 98117 13579 113443 86527 58026 16033
3794.29 193848 53559 230023-165088-23865 10534
3797.19 71404 161036 219409 210516 43893-53170
3800.08 135481-133592-602360 112678 130258 102438
3802.97 82635 184146 315944 62064 184136 11498
3805.86 235376-314096-241168 196942 108194 201491
3808.76 142228 289066 132567 83166 219835 243554
3811.65 100787 66979 91375 264667 222047 238532
3814.54 108412 259319-556162-69759 284586 229170
3817.43 239361 245902 243462 270850 128828 55513
3820.33 8178 57663-16714 239735 267787 354026
3823.22 315515 365647 364781 414445 375415 488419
3826.11 352723 336041 487400 382856 462256 523251
3829.01 427246 487516 556698 377322 358003 264972
3831.90 528442 452925 504438 371030 609623 265489
3834.79 485494 581213 522811 321957 708741-245135
3837.68 49909 664164 428347 485378 453115 509261
3840.58 323749 536139 539446 498733 600524 337014
3843.47 585842 591116 494140 598201 560647 424599
3846.36 586163 758283 593793 623991 607688 594094
3849.25 660788 667098 495157 683499 351404 104436
3852.15 751539 692703 585263-125281 302179 814199
3855.04 714413 822664 865520 812858 812887 916191
3857.93 835860 864822 819824 873273 696837 842473
3860.83 845016 673538 811920 976764 858453 959681
3863.72 897118 818484 654736 913992 988707 899948
3866.61 961803 1036728 1014735 919826 666109 929421
3869.50 486999 779360 970752 860397 806897 880764
3872.40 958569 829530 856270 833254 882777 932746
3875.29 889736 878949 969296 937629 954350 1034343
3878.18 976324 1031501 1104858 860069 1015304 933372
3881.07 1047388 931620 1046080 1046638 980527 1012615
3883.97 977384 1131388 938131 699895 1139660 1096796
3886.86 1197165 1149581 1239339 1299806 1319993 1231539
3889.75 1174843 1316861 1055747 1141216 1412194 1399236
3892.65 1379356 1325148 1450405 1416589 1464084 1459043
3895.54 1457427 1491633 1514930 1575549 1470907 1361150
3898.43 1406846 1250436 1528019 1497622 1532160 1572995
3901.32 1466329 1547634 1771272 1618795 1536571 1272907
3904.22 1527798 1389513 1454621 1525162 1436708 1387732
3907.11 1605060 1389307 1448696 1372791 1415802 1288033
3910.00 1295968 1162418 1202984 1098299 1058349 1116385
3912.89 1086158 981482 988616 1013177 918920 902567
3915.79 911608 808518 681249 845063 785605 650772
3918.68 761175 639542 641406 611928 746479 708619
3921.57 686495 701675 615862 656482 626162 618784
3924.47 549202 518573 559649 497608 690531 457099
3927.36 511791 419062 583576 459783 290751 412999
3930.25 369564 450735 414705 278649 415918 363772
3933.14 430730 393291 466832 331117 406146 350159
3936.04 407563 413693 399465 297529 387633 392265
3938.93 299685 405418 414799 360152 352458 349529
3941.82 333084 344207 339766 332332 458270 323804
3944.71 405495 482774 466637 432175 370495 337269
3947.61 519651 497216 550487 393069 350927 452481
3950.50 424586 481926 580839 613390 536006 500218
3953.39 541718 626046 572487 521679 468864 534249
3956.29 608135 650475 596221 501943 644686 429388
3959.18 603214 759306 692392 654877 594769 637990
3962.07 686374 609048 652339 691591 799146 681010
3964.96 573839 648840 691503 692784 583148 551392
3967.86 584190 717603 712723 717388 681957 697680
3970.75 665763 642106 565676 501758 650557 480634
3973.64 539467 560435
##END=
