##TITLE=1,2-Dimethylbenzene
##JCAMP-DX=4.24
##DATA TYPE=INFRARED SPECTRUM
##CLASS=IUPAC A
##ORIGIN=NIST, Analytical Chemistry Division, 301-975-3108
##OWNER=COPYRIGHT (C) 2001 by the U.S. Secretary of Commerce
##DATE=01/06/01
##$SPECTRA VERSION=1.10
##$UNCERTAINTY IN Y=2.2 % relative (B=1.21E-04,C=1.57E-9,D=3.06E-14)
##CAS NAME=1,2-Dimethylbenzene
##CAS REGISTRY NO=95-47-6
##MOLFORM=1,2-( C H3)2 C6 H4
##MP=-25.18 C
##BP=144.4 C
##$NIST SOURCE=QUANT-IR
##SPECTROMETER/DATA SYSTEM=IFS66V (Bruker)
##INSTRUMENT PARAMETERS=KBr Beam Splitter; MCT Detector; Multipass cell
##STATE=gas
##SAMPLE DESCRIPTION=o-Xylene Primary Gas Standard
##PRESSURE=101.3 Pa
##TEMPERATURE=23 C
##SAMPLING PROCEDURE=1 L/min Flow
##RESOLUTION=0.9640
##DATA PROCESSING=3-Term B-H Apodization
##XUNITS=cm-1
##YUNITS=(micromol/mol)-1m-1 (base 10)
##XFACTOR=1.0
##YFACTOR=18.189E-13
##DELTAX=0.4820
##FIRSTX=575.17
##LASTX=3974.606
##FIRSTY=3.12E-06
##MAXX=3974.12
##MINX=575.17
##MAXY=.0014566
##MINY=-1.95E-06
##NPOINTS=7052
##XYDATA=(X++(Y..Y))
575.17 1720109 1719885 1496636 1303839 1153384 1076892
577.58 1098175 890034 671641 989337 1802427 2654747
580.47 2953165 2473518 1707370 1235148 1125117 1200749
583.37 1510133 1741267 1596782 1409360 1507173 1760738
586.26 2043157 2215513 2109039 1808817 1677313 1654194
589.15 1545851 1560190 1594315 1307543 876557 598118
592.04 631904 747850 514473 164265 198468 458784
594.94 557960 465535 377823 315332 239630 265689
597.83 419968 397565 149211-86634-232979-222200
600.72 13147 167079 78960-108606-210379-103557
603.62 25096 24479 15777 33084 102191 178669
606.51 119555 28267-59325-149320-150962-107705
609.40-141928-253347-209394-21030 63230 124425
612.29 246901 312659 299098 162971 12808-57908
615.19 5672 142761 102840-72945-129817-108611
618.08-81781-43548-60122-96820-191424-233557
620.97-93444 22507 29226 107804 282280 204087
623.86-73083-143324-37356-870-1831-29200
626.76-37585 48694 70957-58023-115586-30617
629.65 28005-15414-152719-217512-86735 20115
632.54 28627 25059 13689 1686 44208 38176
635.44-38009-46914-6411 7808 30950-14507
638.33-146089-139102 26286 63820-19183-69647
641.22-72572-26771 45680 65305-6838-124764
644.11-198010-158463-49948 60766 152528 121531
647.01 8758-90737-150910-143732-68925 14365
649.90 38161 31294 289-53292-36435-23224
652.79-13815 26496 2352-102172-116591-24630
655.68-1493-951 31338-1096 27975 85505
658.58 143344 215013 207698 155092 108578 25127
661.47-17923-4021 24083 112965 201140 173267
664.36 162227 199200 185999 106658-124479-596424
667.26-814545-473319-105766-43827-28693 91922
670.15 191403 169503 128722 93089 60227 93192
673.04 203314 234096 146071 14824-6390 86736
675.93 171260 164326 39612-46006 23758 101338
678.83 132340 124489 71262 54338 85693 87896
681.72 80342 48721 72325 159145 196627 186023
684.61 182091 127181 58990 39721 109321 213643
687.50 225967 156882 189985 339207 437280 439432
690.40 376874 297716 286812 341518 424365 420145
693.29 386957 396402 427856 423331 340183 245020
696.18 290888 470943 690327 743926 661442 614417
699.08 595852 569343 556700 521100 496675 503519
701.97 618639 747985 800605 797159 736558 698984
704.86 747458 728545 718432 722822 723225 782662
707.75 852641 933408 1054960 1097779 1151349 1253073
710.65 1376144 1507984 1743585 2043258 2277290 2440073
713.54 2702283 3093875 3586984 4131846 4718251 5311491
716.43 6037028 6947681 8043707 9268017 10638055 12190802
719.32 14063343 16257663 18707252 21386249 24408844 27787208
722.22 31583889 35851865 40627405 45845034 51417090 57274766
725.11 63633383 70348612 76590602 81922490 87291437 93073714
728.00 98855205 104396955 109520674 113935188 117662175 120712550
730.90 123060129 124491270 125019581 124638646 123460006 121602271
733.79 119314575 116809686 114528821 112910259 112995866 115663917
736.68 121230075 129344731 141458092 163602058 208461328 295307534
739.57 441990240 644764917 800779095 720266094 443290775 224771655
742.47 140121049 115795059 108441390 106531713 106921438 108545121
745.36 110978887 114219517 117972779 121860489 125429552 128635718
748.25 131253476 132964480 133618847 133280566 131803098 129199072
751.14 125443489 120812838 115490130 109592217 103125778 96356703
754.04 89422326 82371404 75303846 68368579 61628591 55234813
756.93 49201730 43624339 38501081 33773654 29445562 25540225
759.82 22036406 19028536 16389689 14057955 12026016 10302348
762.72 8769995 7466685 6434136 5548590 4711277 4048735
765.61 3579486 3244891 2975929 2759087 2560895 2356743
768.50 2041802 1688093 1389964 1187120 1080203 1057831
771.39 1076844 1081595 1024964 944140 841027 814558
774.29 866878 891959 805841 745070 784122 795489
777.18 702821 656726 659410 670949 687996 698592
780.07 682450 634881 583573 582400 591878 627367
782.96 605521 495136 399562 414659 490024 537915
785.86 513666 493643 516073 571935 564009 490802
788.75 450184 469583 488400 455656 354820 321458
791.64 386528 469488 490734 472549 461014 438915
794.54 358519 290901 326578 375532 338680 298796
797.43 276715 216858 178629 197737 211335 248749
800.32 258177 271027 314614 338119 323895 304387
803.21 348854 432252 428035 415392 406260 397192
806.11 420165 412897 411219 417145 369665 384859
809.00 434922 439201 441213 483951 504048 491668
811.89 489767 547571 643995 702566 677165 677402
814.78 706712 750887 809312 778015 741107 785404
817.68 831847 855084 826151 818230 857831 894293
820.57 960049 1095790 1126813 994611 923288 946722
823.46 947878 947574 957548 953870 914414 850670
826.36 776044 730550 713915 715997 766102 854232
829.25 908518 930408 904658 813893 669387 605902
832.14 635015 593612 507703 498042 521232 527783
835.03 547991 610893 633046 558149 462259 413476
837.93 411262 422754 391154 341317 340624 309964
840.82 265198 327418 375133 350582 337440 378218
843.71 446771 435017 325932 263374 261791 263860
846.60 258231 287409 353565 404505 415045 358717
849.50 309470 408864 525322 551286 555842 549748
852.39 536307 570399 624204 652746 707648 834119
855.28 959576 1031459 1048270 994410 918200 919079
858.18 960083 1021826 1087669 1112704 1115801 1145899
861.07 1198832 1294620 1403524 1453179 1460030 1483863
863.96 1510470 1510119 1512763 1544448 1596421 1665184
866.85 1702578 1721015 1736926 1743058 1717471 1707158
869.75 1711565 1668272 1588220 1565849 1599564 1608386
872.64 1604210 1564052 1480555 1494112 1585398 1597236
875.53 1476804 1371043 1362673 1393133 1382035 1279479
878.42 1182936 1183579 1204264 1179705 1097412 1017966
881.32 972467 929277 896409 876645 843918 834346
884.21 803700 725857 684881 671939 646797 645622
887.10 673752 699891 698714 704763 706953 695533
890.00 688230 693322 696328 678259 668052 710606
892.89 734583 721531 734515 804272 856890 862613
895.78 900539 957054 981818 992623 986214 994974
898.67 1011855 1007776 1019675 1059553 1076487 1069649
901.57 1050175 1023598 1004811 994074 968765 956742
904.46 990213 1038351 1052491 1011873 960071 957822
907.35 965902 1008149 1066542 1086712 1097889 1122303
910.24 1143835 1154248 1140829 1108578 1075992 1075329
913.14 1075793 1050532 1043386 1064944 1085958 1146944
916.03 1202131 1185273 1143134 1121790 1151688 1197058
918.92 1205683 1200849 1163043 1150658 1207353 1253772
921.82 1261979 1301725 1340206 1296206 1220563 1236254
924.71 1298402 1326059 1344056 1365424 1409428 1508181
927.60 1615033 1745002 1948741 2247868 2686667 3290487
930.49 3775735 3750410 3338625 2885690 2511861 2218968
933.39 1983320 1847504 1799899 1732807 1661868 1642903
936.28 1636735 1655558 1665306 1671788 1738691 1836750
939.17 1882974 1884172 1884095 1904816 1944744 1950605
942.06 1917603 1905044 1904636 1878195 1830094 1789683
944.96 1738482 1697603 1680265 1639202 1561775 1499736
947.85 1480652 1471153 1400927 1285121 1201704 1233249
950.74 1265339 1210298 1164075 1166284 1178880 1179273
953.64 1161273 1113664 1075740 1096784 1132095 1129797
956.53 1104186 1129676 1155561 1113671 1075295 1082651
959.42 1127117 1175427 1200057 1207607 1164672 1146941
962.31 1214479 1281488 1324170 1369341 1425177 1510163
965.21 1608558 1710625 1807656 1882710 1980438 2149563
968.10 2343485 2545384 2780323 3055115 3339192 3628449
970.99 3942175 4320681 4741957 5168097 5626845 6123363
973.88 6632395 7144608 7626266 8105017 8613543 9101834
976.78 9514958 9863249 10216812 10558975 10802934 10969978
979.67 11092407 11173936 11232785 11293487 11423837 11696264
982.56 12138208 12720147 13212699 13423123 13428706 13123173
985.46 12519653 12138219 12252478 12672257 13030623 12978042
988.35 12608531 12283281 12131741 12078946 12004582 11868790
991.24 11649578 11343650 10968748 10583923 10220457 9851907
994.13 9462832 9059894 8655691 8231969 7752988 7281157
997.03 6888168 6548546 6236710 5954098 5703056 5488173
999.92 5322905 5242322 5185449 5099072 5030684 5011445
1002.81 5042974 5121726 5189595 5215181 5248944 5349939
1005.70 5479104 5600497 5743575 5919581 6086679 6253355
1008.60 6454854 6681044 6907281 7099661 7248103 7437225
1011.49 7697166 8000011 8265651 8378095 8411305 8466197
1014.38 8493447 8483727 8484355 8525486 8580415 8618766
1017.28 8641450 8728357 8898786 9132772 9407319 9668639
1020.17 9950517 10246625 10428399 10676592 11471362 13520755
1023.06 17268117 19888184 17482232 12716993 9963342 8913938
1025.95 8342560 8001942 7824571 7737605 7670775 7600350
1028.85 7545995 7529095 7551233 7574242 7505620 7352655
1031.74 7186769 6992200 6844876 6771636 6677047 6556428
1034.63 6437707 6337756 6286847 6246207 6200351 6170513
1037.52 6165859 6223171 6350546 6552023 6815500 7146624
1040.42 7633752 8267910 8975148 9768331 10643856 11613771
1043.31 12701717 13901149 15135033 16324670 17460016 18544587
1046.20 19552452 20407939 21013763 21267518 21215344 20981080
1049.10 20576723 19971876 19174411 18288955 17609678 17572202
1051.99 18640930 21376891 25374378 28054028 27542482 24616597
1054.88 21207529 18854257 17714321 17418726 17665452 18173267
1057.77 18785825 19384888 19854455 20122652 20103616 19850180
1060.67 19407394 18720442 17819945 16790677 15654395 14410013
1063.56 13088773 11761954 10496507 9344198 8296618 7301689
1066.45 6354796 5538594 4877464 4338970 3853422 3366054
1069.34 2936639 2614360 2360035 2113521 1856944 1640624
1072.24 1473572 1352460 1267911 1205468 1158767 1117549
1075.13 1050313 954089 885134 885203 901219 877730
1078.02 829963 785883 731781 693638 694241 671228
1080.92 613297 618112 645410 620830 584010 564800
1083.81 572023 602674 621786 632633 654464 669308
1086.70 651523 641317 675317 710126 703262 670612
1089.59 622319 625464 677651 705326 708055 697355
1092.49 684260 680219 680896 693727 727956 762553
1095.38 731489 659012 650047 724957 794605 846090
1098.27 927682 988203 1016435 1066240 1097588 1131330
1101.16 1202109 1273856 1357744 1471260 1605101 1734771
1104.06 1847621 1976677 2138658 2360891 2623486 2882450
1106.95 3139664 3420238 3717191 4027027 4370591 4737502
1109.84 5109503 5513331 5941730 6362813 6783099 7224517
1112.74 7683678 8096423 8475684 8895471 9273606 9570647
1115.63 9834702 10077228 10270954 10397060 10402997 10242223
1118.52 9962151 9592106 9209820 8948018 8876986 9045418
1121.41 9376258 9754432 10126714 10435610 10714598 10968238
1124.31 11133114 11229157 11258749 11238317 11204366 11127439
1127.20 10971905 10732512 10452997 10212940 9980491 9703007
1130.09 9433253 9201376 8940382 8642650 8344221 8049004
1132.98 7793664 7573471 7346313 7146564 6988140 6851073
1135.88 6733851 6623931 6509733 6374091 6238732 6139501
1138.77 6030108 5856653 5606738 5331281 5096695 4899332
1141.66 4717089 4600973 4581099 4610046 4627783 4636273
1144.56 4657531 4687895 4695294 4668548 4631166 4609021
1147.45 4593042 4569448 4533984 4477944 4403190 4321921
1150.34 4219077 4116878 4026417 3941899 3828809 3692777
1153.23 3576766 3474702 3357383 3230488 3111511 2983896
1156.13 2856644 2740753 2667070 2665872 2657943 2560511
1159.02 2424424 2360423 2341629 2292871 2242001 2229417
1161.91 2240034 2296437 2385614 2412533 2369649 2325520
1164.80 2299143 2295713 2298084 2286844 2243408 2172229
1167.70 2093631 2026096 1993253 1994878 2027083 2048941
1170.59 2049539 2044228 2011538 1991847 1983382 1967557
1173.48 1928569 1870236 1853484 1865747 1867579 1861024
1176.38 1840693 1819097 1800095 1804289 1835363 1846968
1179.27 1812575 1753199 1697935 1651173 1616047 1605506
1182.16 1605720 1621151 1647157 1629156 1563846 1517802
1185.05 1502637 1478874 1442901 1405880 1374967 1353788
1187.95 1322992 1301176 1306424 1322639 1312295 1280405
1190.84 1266149 1255536 1238575 1225193 1197352 1171912
1193.73 1167383 1175884 1185417 1197575 1206387 1189734
1196.62 1150261 1122456 1105085 1080510 1080713 1094227
1199.52 1109052 1130574 1092064 1039588 1062258 1108329
1202.41 1129483 1136726 1138676 1174720 1241083 1283256
1205.30 1271671 1241900 1257516 1316851 1372259 1425070
1208.20 1478412 1499553 1520234 1600109 1725110 1858128
1211.09 1974680 2091903 2235646 2378252 2527816 2716773
1213.98 2919674 3128551 3329803 3516349 3694127 3856738
1216.87 4013408 4160520 4275830 4335660 4370442 4437347
1219.77 4502598 4520914 4533035 4571616 4594106 4600848
1222.66 4645660 4746303 4844673 4918377 4999071 5083018
1225.55 5147225 5095738 4869009 4513930 4197909 4119490
1228.44 4213712 4332687 4438480 4481551 4442120 4403355
1231.34 4374218 4285938 4138355 3983660 3803809 3570568
1234.23 3321103 3075849 2837755 2602710 2337143 2062902
1237.12 1841100 1649069 1433827 1242843 1093020 955393
1240.02 846831 779878 718400 664142 630742 597333
1242.91 551249 501096 462927 432684 403137 398060
1245.80 418899 444334 442396 404862 366271 376859
1248.69 409280 434669 462272 472280 472062 474302
1251.59 462028 461843 501828 529276 515025 523353
1254.48 551998 561362 559813 572147 590883 594263
1257.37 591382 613547 655496 686503 685682 667164
1260.26 670119 692976 704108 717640 729617 720480
1263.16 722251 750682 777345 804514 822894 805295
1266.05 771215 760701 761018 750510 747108 778480
1268.94 819184 820265 788558 779154 802659 815301
1271.84 813951 808623 811003 830704 850355 855192
1274.73 833908 829770 862575 894951 910320 925693
1277.62 938229 937322 922262 931014 959955 958296
1280.51 967278 1031367 1063337 1035746 1018630 1036812
1283.41 1061443 1095796 1127240 1118472 1090734 1079220
1286.30 1088787 1120834 1151821 1140525 1079024 1034316
1289.19 1041932 1052684 1035215 1037084 1074725 1099690
1292.08 1084978 1068885 1095431 1138025 1155110 1161152
1294.98 1170847 1159467 1115058 1090018 1092236 1069077
1297.87 1030604 1001273 988757 998674 981697 942907
1300.76 938004 942973 921715 915204 906346 891483
1303.66 898883 890688 864051 868503 883896 851254
1306.55 809606 824332 858672 886776 903900 911816
1309.44 926851 952111 969088 965685 934028 895338
1312.33 896974 940278 982240 994646 1009403 1044809
1315.23 1063867 1064333 1061296 1071385 1092749 1111233
1318.12 1119670 1130562 1154681 1180696 1181232 1180078
1321.01 1221440 1276324 1280319 1258677 1263627 1299570
1323.90 1327738 1333442 1357136 1397661 1426477 1439560
1326.80 1429167 1404435 1415516 1466284 1509161 1537258
1329.69 1562426 1585798 1599295 1635276 1725063 1806165
1332.58 1848389 1886973 1903107 1876301 1812974 1735404
1335.48 1692261 1691177 1689980 1668197 1653001 1688279
1338.37 1764334 1827095 1826594 1791183 1807919 1867996
1341.26 1900572 1898951 1891939 1916336 1955764 1960128
1344.15 1991436 2091325 2147791 2085214 2041800 2112269
1347.05 2163604 2186216 2203392 2162925 2130257 2105196
1349.94 2073284 2082442 2038913 1964263 2024047 2161153
1352.83 2166829 2147271 2368871 2649294 2731123 2672306
1355.72 2610936 2657640 2760905 2795969 2741483 2641766
1358.62 2554492 2573131 2680258 2755462 2814859 2937341
1361.51 3046280 3076242 3075453 3145020 3269885 3396502
1364.40 3549836 3695212 3815761 3957547 4122996 4299363
1367.29 4493892 4712718 4957147 5218984 5464206 5686585
1370.19 5943045 6251191 6537810 6764838 6979876 7218122
1373.08 7451010 7698680 7935730 8135769 8340353 8483624
1375.97 8509969 8408080 8177225 7919832 7732625 7684490
1378.87 7909443 8519742 9491902 10652739 11761293 12658511
1381.76 13310499 13734622 13953676 14079229 14146424 14109224
1384.65 13995358 13772971 13428948 13039361 12665449 12567176
1387.54 13249083 14787261 16118222 16032169 14751205 13169620
1390.44 11855943 11098501 10824012 10852786 11056234 11331831
1393.33 11604060 11866123 12132622 12307400 12320061 12229566
1396.22 12012490 11631671 11134243 10560768 9908330 9213073
1399.11 8563411 7961945 7353670 6752231 6199415 5729915
1402.01 5338999 5004834 4715538 4504404 4376727 4286987
1404.90 4216074 4147037 4088982 4027096 3947960 3899648
1407.79 3900050 3913745 3896272 3870168 3869620 3885064
1410.69 3881539 3873513 3892885 3931689 3959366 3980817
1413.58 4057122 4166488 4210813 4224560 4263969 4324361
1416.47 4376434 4392046 4439303 4542759 4586832 4614565
1419.36 4752675 4844295 4807343 4822938 4919040 5017526
1422.26 5119189 5247515 5407355 5607137 5809201 6016627
1425.15 6279158 6583867 6880286 7134990 7397155 7732962
1428.04 8101133 8437819 8755507 9115737 9527636 9966454
1430.93 10403893 10833037 11259498 11641461 12006651 12397525
1433.83 12759947 13049566 13273964 13431118 13499994 13630135
1436.72 14027073 14580705 15169129 15858236 16649817 17514000
1439.61 18418435 19328294 20303418 21377690 22511395 23701693
1442.51 24925064 26173562 27470265 28635989 29685493 31001327
1445.40 32304897 32900451 32869918 33486743 35027746 35445248
1448.29 34744931 34781091 35638321 36773435 38005709 39276914
1451.18 40549517 41747711 42822876 43853562 44971041 46172899
1454.08 47403073 48724907 50178346 51680202 53246469 55329501
1456.97 58097102 60867516 63181046 65578917 68194940 69518527
1459.86 69824379 71260055 73832505 76267276 78045018 79384175
1462.75 80329423 81065596 81498598 80655274 78830816 77259554
1465.65 76264477 75688574 75323507 74969983 74573786 74144850
1468.54 73590447 72882635 71971517 70568309 68537913 66384416
1471.43 64858229 64511176 65359010 67051376 69215946 71224022
1474.33 72392720 72540053 71787934 70332213 68381875 66043358
1477.22 63421788 60819337 58533944 56674518 55161928 53860671
1480.11 52699284 51630587 50543434 49220298 47602594 46063765
1483.00 44926359 44218471 43801335 43579969 43509510 43556824
1485.90 43731841 44032449 44477213 45141418 45967059 46907294
1488.79 47978868 49200632 50568318 51972917 53302828 54648642
1491.68 56156270 57823984 59597552 61498468 63599013 65986237
1494.57 68184195 68392840 65365159 61503407 59290901 58416135
1497.47 58271172 58670574 59683975 61822896 65357005 70075803
1500.36 75845745 78806080 72243200 60450175 53076411 50932056
1503.25 51078940 52027363 53157069 54058759 54681182 54951118
1506.15 54513633 53509366 52155353 50216809 47672153 44698751
1509.04 41415694 37974975 34502010 31042097 27666913 24441920
1511.93 21493172 18897945 16608100 14582078 12813926 11306160
1514.82 10071370 9042653 8141116 7372263 6777006 6380140
1517.72 6101592 5838657 5611152 5392015 5165444 4913098
1520.61 4673748 4676618 4787277 4746066 4705280 4708509
1523.50 4680093 4639593 4554825 4459345 4476012 4527723
1526.39 4492529 4413256 4366493 4335065 4313700 4312983
1529.29 4291096 4262221 4262232 4250499 4225689 4232200
1532.18 4242266 4226222 4214095 4247278 4312059 4334471
1535.07 4321499 4311946 4317382 4327224 4316270 4231892
1537.97 4008117 3767138 3755778 3802945 3836552 3969570
1540.86 4004886 3899684 3879048 3968001 4001754 3996802
1543.75 3982578 3886766 3812222 3863854 3931876 3967611
1546.64 3969716 3931796 3890602 3882929 3896943 3867287
1549.54 3808000 3802460 3836328 3836863 3806770 3771712
1552.43 3716050 3642742 3521721 3442498 3549313 3660156
1555.32 3637229 3590007 3519016 3383995 3251953 3115644
1558.21 3104893 3230565 3180346 3074256 3211871 3392546
1561.11 3422128 3402731 3380997 3360427 3326537 3276108
1564.00 3229562 3187610 3157269 3137723 3128860 3143929
1566.89 3160241 3165631 3147248 3087851 3000031 2974963
1569.79 3073466 3192890 3265178 3296736 3331788 3409672
1572.68 3498758 3584131 3675678 3781246 3864448 3806879
1575.57 3743282 4026129 4462840 4743033 4951598 5162569
1578.46 5371485 5603980 5849559 6082533 6304525 6517185
1581.36 6730109 6950160 7169939 7390977 7630433 7918265
1584.25 8251526 8593232 8950629 9356394 9795613 10245487
1587.14 10705336 11168823 11612439 12024699 12394800 12723382
1590.03 13010952 13275000 13546819 13822991 14076486 14257020
1592.93 14338469 14353219 14312779 14153624 13832683 13411979
1595.82 12972977 12565634 12271593 12206394 12422151 12917905
1598.71 13637465 14462086 15241511 15842095 16237952 16490975
1601.61 16642350 16715278 16758666 16839709 16955472 17025124
1604.50 17042465 17048941 17007641 16908541 16790668 16645638
1607.39 16435512 16144852 15782444 15323678 14763242 14134600
1610.28 13439280 12698658 11988830 11389012 10950599 10762105
1613.18 10845274 11124453 11509193 11903305 12198283 12243967
1616.07 12092443 12075277 12143919 12067316 11905342 11701459
1618.96 11401143 11002288 10563772 10152952 9747971 9283359
1621.85 8767889 8201027 7575746 7041189 6637537 6206844
1624.75 5725362 5250840 4807017 4412942 4050259 3691758
1627.64 3388112 3139570 2900630 2674058 2475264 2295776
1630.53 2115454 1965069 1841512 1723621 1624260 1515483
1633.43 1414805 1307643 1115237 896705 855086 985868
1636.32 1028571 948051 895341 894530 886377 856856
1639.21 805857 754963 740030 740498 712394 690014
1642.10 688782 666149 634697 628815 623804 563613
1645.00 399179 298489 425546 537891 520516 513815
1647.89 540753 581766 623479 645377 632279 623319
1650.78 607665 454654 184023 26811 66830 320203
1653.67 564973 682603 814091 913794 982557 1076314
1656.57 1168756 1251968 1354910 1456123 1564028 1698920
1659.46 1850901 2000632 2135050 2270840 2405197 2486754
1662.35 2571811 2746589 2935009 3061390 3112720 3109097
1665.25 3103368 3104751 3099563 3090158 3060513 3062827
1668.14 3105909 3148000 3336706 3650223 3824902 3733389
1671.03 3484703 3302210 3185839 3101224 3094416 3109664
1673.92 3095359 3034853 3033573 3187239 3350434 3407303
1676.82 3401387 3359809 3273506 3166363 3042122 2897787
1679.71 2736753 2564928 2382670 2192637 2004907 1813961
1682.60 1629024 1508552 1354170 1077716 1001950 1204338
1685.49 1317182 1297563 1284926 1286203 1243553 1183336
1688.39 1151519 1115168 1045678 1000753 999649 986135
1691.28 969102 960408 929861 921240 940083 939537
1694.17 899134 739616 460065 445649 738350 917101
1697.07 969792 1020711 1037666 985660 828363 677868
1699.96 704111 885586 1111666 1267977 1334414 1357936
1702.85 1384263 1410599 1428739 1513632 1634052 1685917
1705.74 1688834 1726723 1809753 1878953 1900065 1886523
1708.64 1880665 1877644 1837856 1775022 1731819 1745201
1711.53 1788215 1838044 1906468 1951438 1985250 2044341
1714.42 2070201 2088489 2096219 1943271 1594745 1313010
1717.31 1377666 1540962 1601359 1691821 1770867 1787855
1720.21 1785164 1773881 1738640 1686391 1631831 1564698
1723.10 1478251 1372780 1275028 1212120 1165353 1096109
1725.99 1009120 949465 911124 858716 793133 729597
1728.89 663881 625894 637183 649771 628241 596232
1731.78 585773 502743 349486 332777 341829 349148
1734.67 496687 604174 609364 610849 616050 611834
1737.56 609015 614979 601943 540082 524031 589533
1740.46 622132 616605 618072 608684 594703 600365
1743.35 628761 673972 705474 708537 706806 702811
1746.24 694253 700957 720062 721420 704777 701267
1749.13 715884 724479 662352 552281 571637 695192
1752.03 767375 798016 801910 810454 846259 868775
1754.92 859710 845943 834909 840963 893838 959513
1757.81 999961 1012824 1005431 1010535 1028694 1021846
1760.71 966815 899490 924455 996186 1015711 1027274
1763.60 1049464 1086716 1134897 1148613 1133663 1124561
1766.49 1124922 1124830 1129587 1207583 1355152 1484622
1769.38 1584431 1669966 1725804 1811148 1945327 1960732
1772.28 1995275 2258953 2515448 2688006 2882798 3073316
1775.17 3251699 3461590 3686848 3874424 4032066 4197113
1778.06 4379749 4556606 4705071 4829023 4917850 4998789
1780.95 5100269 5188546 5212825 5165002 5067873 4918548
1783.85 4709176 4458107 4220793 4032361 3916515 3920633
1786.74 4064878 4306756 4579079 4838737 5053916 5199581
1789.63 5233586 5151722 5042629 4928286 4729542 4498496
1792.53 4397830 4350884 4217900 4034367 3829996 3611714
1795.42 3371661 3114398 2875713 2663401 2478457 2298603
1798.31 2103199 1915229 1770817 1643722 1477652 1300803
1801.20 1167805 1045949 928781 854032 800860 758543
1804.10 709162 629200 558038 539465 542410 514250
1806.99 464541 436767 455367 489295 483476 447468
1809.88 429999 448236 475649 524390 598564 678043
1812.77 753712 823468 900222 1000128 1136985 1299428
1815.67 1452381 1608743 1781913 1946647 2105374 2276081
1818.56 2457992 2647189 2824892 2977737 3104930 3194236
1821.45 3253714 3293993 3304768 3292326 3271421 3218777
1824.35 3119686 3050909 3063276 3121382 3222653 3412535
1827.24 3710178 4061311 4293429 4148578 3480759 2721143
1830.13 2431723 2507836 2685136 2885658 3056534 3198395
1833.02 3305053 3341203 3304118 3200957 3056718 2893647
1835.92 2708637 2493874 2259561 2023283 1784477 1537665
1838.81 1310701 1133493 976441 834624 731088 643642
1841.70 553520 495691 452911 348732 250057 284272
1844.59 380737 451319 524401 609075 676936 731485
1847.49 820770 935133 1016741 1099214 1230744 1380475
1850.38 1515713 1641968 1767328 1881785 1973424 2043133
1853.27 2120330 2211627 2279027 2312172 2325164 2349945
1856.17 2394437 2407354 2404910 2433277 2495195 2612480
1859.06 2776151 2927194 2980896 2946323 2861627 2765549
1861.95 2713051 2688452 2686857 2719777 2752832 2770724
1864.84 2796825 2844263 2897211 2944127 2963948 2967596
1867.74 2983668 2943016 2836449 2792830 2811824 2789816
1870.63 2738713 2686177 2607313 2512701 2433917 2393553
1873.52 2368720 2335751 2321654 2310072 2282986 2268846
1876.41 2277154 2292571 2271937 2232350 2223553 2238631
1879.31 2274052 2296261 2281312 2287123 2361353 2484790
1882.20 2630496 2792086 2952018 3097631 3234322 3361421
1885.09 3471929 3586985 3712121 3827429 3960903 4124983
1887.99 4291803 4455038 4658349 4912127 5166833 5414926
1890.88 5666621 5905026 6129159 6348672 6564602 6769685
1893.77 6957144 7113429 7248115 7354618 7413998 7429325
1896.66 7413878 7369209 7271225 7111285 6875214 6566561
1899.56 6215403 5852416 5548357 5381940 5403833 5646708
1902.45 6040603 6450603 6789900 7012607 7108411 7091630
1905.34 6977646 6786873 6550853 6308969 6070406 5827472
1908.23 5565194 5266891 4938587 4605258 4287238 3981400
1911.13 3668404 3337169 3000554 2683854 2398569 2135141
1914.02 1879517 1643026 1450400 1287945 1119504 957564
1916.91 818965 699712 622896 571694 520935 462875
1919.81 404204 369325 342507 310383 294150 309888
1922.70 335990 346380 356741 396657 439979 472049
1925.59 522676 589180 669942 790686 932251 1060306
1928.48 1204602 1363242 1520990 1695838 1891290 2103644
1931.38 2332074 2572979 2825194 3085424 3332497 3566512
1934.27 3793470 4019080 4229057 4422672 4613270 4760433
1937.16 4831432 4827420 4784806 4761189 4761090 4752702
1940.05 4699272 4594012 4515142 4563234 4837780 5364943
1942.95 5994263 6419662 6111851 4986815 3942799 3581935
1945.84 3649793 3884075 4185056 4446897 4640603 4777066
1948.73 4832606 4801575 4705681 4553981 4346819 4080882
1951.63 3772543 3445752 3108500 2750638 2389447 2075945
1954.52 1808690 1565840 1343062 1151624 1001065 888324
1957.41 813045 742659 674239 645435 646131 621166
1960.30 570144 549039 557471 564239 562728 580920
1963.20 610376 618237 624125 626037 620101 602160
1966.09 547195 500877 508452 534881 537668 524784
1968.98 514297 513056 516246 525603 522596 498655
1971.87 474391 465023 482326 535197 569136 503265
1974.77 411906 396826 396757 382417 397845 410348
1977.66 387223 371639 385322 393584 386537 382392
1980.55 376421 369145 369997 370459 359072 341532
1983.45 315861 288357 276803 272143 265610 273091
1986.34 282639 274678 268639 267482 254946 244340
1989.23 232887 221718 226728 231071 209031 177112
1992.12 155738 153886 166752 154719 128287 128098
1995.02 133953 129733 121270 106184 92032 90049
1997.91 101904 125479 137884 138480 143236 130525
2000.80 105284 97507 89459 77256 72346 56220
2003.69 33931 17256 5415 14237 44308 85157
2006.59 112079 40861-87494-108905-58670-25916
2009.48-26777-47566-60543-68022-61525-35990
2012.37-11739 3806 6423 5041 1300 2116
2015.27 8044 6638 2883 4836 19670 42960
2018.16 57225 65870 81180 84835 48597 8667
2021.05-4716-7864-9197-8267-7712-17904
2023.94-42218-61192-59273-49845-57970-61574
2026.84-56269-50454-37605-31484-32935-29743
2029.73-36482-46160-50401-58342-58704-57959
2032.62-64857-61060-47375-45271-64208-78847
2035.51-71243-66096-65400-55815-43299-44258
2038.41-49562-57156-64979-60435-38025-20115
2041.30-23077-28292-19691-9560-21590-28635
2044.19-8010-183-8230-2437-1798-14986
2047.09-16443-7563-4203-12158-15625-13351
2049.98-34686-50957-47992-55572-55626-46274
2052.87-40424-13635-5413-38412-59922-61286
2055.76-48527-55153-96038-118549-112017-102840
2058.66-119100-148505-155276-147259-150486-159702
2061.55-159755-167404-184762-199693-206846-208314
2064.44-202596-192967-197341-199915-202971-206666
2067.33-194706-201844-225311-216863-199051-215887
2070.23-220047-195452-179841-198288-214691-193946
2073.12-176057-163468-153183-168968-187752-193073
2076.01-189129-174561-157027-144108-145304-165582
2078.91-178999-174433-169842-157834-142998-138105
2081.80-142171-145291-139325-128208-113986-95559
2084.69-74292-45274-25086-56097-96727-95939
2087.58-89025-103931-105628-90981-86642-74617
2090.48-80040-111211-129855-137957-146548-158218
2093.37-166699-156613-148707-158413-145925-113957
2096.26-90512-69012-51792-32214 17922 47662
2099.15 11056-28477-24920-5101 2209 14746
2102.05 43097 87461 114039 90752 62247 69361
2104.94 78333 69722 79816 120195 171221 178488
2107.83 154948 150530 151097 146453 150673 172724
2110.73 217346 247829 234481 212641 205018 233338
2113.62 275837 310215 367499 424184 422811 400343
2116.51 378322 350332 318835 291559 309405 360975
2119.40 354510 298999 269408 273584 290418 281268
2122.30 260473 263605 256429 208172 143339 102503
2125.19 92786 100875 95544 98408 127430 118987
2128.08 92697 100315 118570 117710 97315 70769
2130.97 37274-3032-25787-36738-64274-99589
2133.87-124154-134922-135737-143170-161825-187224
2136.76-205015-213088-214475-202272-181092-173514
2139.65-187042-203101-215450-214022-192515-162807
2142.55-150574-167761-182388-178662-167835-150384
2145.44-143474-144878-136569-138368-148461-147290
2148.33-142504-126339-100346-84930-67251-57250
2151.22-70875-84653-95350-105347-108397-95529
2154.12-79961-88217-93036-79614-58705-18220
2157.01 32032 69578 77426 36378-10759-13350
2159.90 3498-827-3018 9088-16492-64881
2162.79-74820-72556-79334-67906-36974-10083
2165.69-21991-48924-52926-58156-66992-38678
2168.58-5155-44233-107711-133423-147761-141668
2171.47-94337-43520-55425-114486-142152-142940
2174.37-160704-154221-87758-45839-84651-127222
2177.26-130413-114116-101055-81714-45673-48497
2180.15-91622-134754-157980-150932-116624-72181
2183.04-65786-87842-113000-140013-139344-105113
2185.94-59437-42596-47758-46116-45879-51073
2188.83-47892-23946-6174-20239-44942-52047
2191.72-47729-25096 37309 78417 85048 110667
2194.61 137236 148533 184846 232989 251914 248135
2197.51 248607 264755 277037 297258 318189 314284
2200.40 310733 321751 340898 344229 347686 387699
2203.29 450907 513653 541556 513675 474669 487987
2206.19 519364 517779 490403 470074 478376 514011
2209.08 528077 514262 543127 592627 613163 628049
2211.97 627126 584284 533453 494730 462865 435445
2214.86 410018 392617 370993 328794 300154 313766
2217.76 332628 330240 318894 304464 299439 311780
2220.65 323288 325419 316007 298816 283888 255912
2223.54 222105 198596 191432 201239 217057 221037
2226.43 210609 205610 198164 183611 167050 147567
2229.33 132419 132925 134156 120874 105321 100298
2232.22 107381 107894 106460 117436 133840 129496
2235.11 98835 74115 66571 63794 60067 60110
2238.01 52923 36111 8300-17848-2565 25898
2240.90 13230-11187-11898-10856-16854-13475
2243.79-14257-19049-13224-25552-58944-85734
2246.68-90863-89482-106970-124613-115478-107233
2249.58-120514-129340-105090-81978-88613-72488
2252.47-53809-67572-65321-40290-23211-14497
2255.36-6460 2375 9326 3913 9647 42813
2258.25 62930 63816 77790 92764 96292 115329
2261.15 132598 130394 159965 212240 227210 236405
2264.04 261291 271868 286111 309860 333576 363012
2266.93 392762 410404 435360 479568 497536 504916
2269.83 534019 547675 549450 574827 604858 609113
2272.72 603401 602303 600238 591021 576574 572135
2275.61 574320 566972 557700 546977 536108 530310
2278.50 527904 505371 462579 448581 472814 496014
2281.40 511207 515597 494894 464100 440523 428375
2284.29 432834 424121 399504 384142 378849 370335
2287.18 358513 336070 285217 223260 188347 178403
2290.07 161351 152495 161024 160233 151306 138765
2292.97 136373 161792 170675 137226 110707 114092
2295.86 138567 151992 114271 66497 47917 47071
2298.75 54285 53676 37493 35172 61316 77576
2301.65 60386 41143 68469 108381 125405 114616
2304.54 115773 137874 148701 139511 145137 205707
2307.43 252399 251242 250832 294268 362467 382205
2310.32 356733 392035 497522 532013 443953 389159
2313.22 478801 525070 407769 285758 351898 436886
2316.11 327989 196069 300108 473504 495675 469049
2319.00 567721 628378 415832 99500 124121 389037
2321.89 364928 107275 172515 451654 368862 78416
2324.79 170518 451795 296582-75447 20212 330299
2327.68 135503-212964-3547 253574-99506-398855
2330.57-79955 68606-380903-490285-1892 53949
2333.47-369058-241488 202942 1931-351300-26721
2336.36 268128-60981-132375 315797 296829-71993
2339.25 139155 461168 188665 38770 363997 343265
2342.14 21001 152269 356188 136923 51174 267569
2345.04 251269 148230 313663 453541 464581 587714
2347.93 741177 774577 735212 698611 686729 586503
2350.82 413111 408601 378238 143884 100709 118077
2353.71-135133-177955-113159-409291-462867-346062
2356.61-640669-671628-572668-914850-883122-737340
2359.50-1018844-910874-820019-1043076-863048-902490
2362.39-1074409-859927-983609-1024542-872122-1017083
2365.29-898072-851925-936186-789576-844925-797652
2368.18-702883-715454-602669-613351-543262-475686
2371.07-479044-410956-428536-395711-355627-305672
2373.96-274145-276405-231633-191219-176844-178714
2376.86-132814-91056-72685-60038-49799-40840
2379.75-43522-63946-74248-36736 15385 30929
2382.64 18262 21952 44275 55638 71028 81326
2385.53 63508 63613 94942 96864 71515 58558
2388.43 59652 67722 65974 63067 78056 91645
2391.32 94237 108881 143517 156951 132869 114799
2394.21 103845 109982 144577 159186 144421 134260
2397.11 128347 130342 152513 196679 229696 224867
2400.00 221194 244596 266211 289131 316590 320232
2402.89 304502 316804 360094 391873 422841 467252
2405.78 487906 483483 492666 533309 602461 659197
2408.68 653451 616712 601568 588179 572826 570326
2411.57 556804 537364 545984 567136 584920 614143
2414.46 636028 643773 654914 685172 733371 770803
2417.35 788652 801443 809281 802193 773898 748230
2420.25 745356 788406 865571 901671 896515 897334
2423.14 905957 909982 906863 901831 901188 903459
2426.03 933181 971054 993359 1020781 1052252 1095093
2428.93 1104867 1075979 1079377 1107644 1149498 1180808
2431.82 1166695 1144083 1162012 1196816 1224489 1253017
2434.71 1262649 1260157 1276155 1311034 1345367 1367222
2437.60 1369928 1354040 1337703 1325791 1315710 1293675
2440.50 1287425 1313733 1320384 1319595 1331651 1310425
2443.39 1277974 1274652 1282824 1287246 1283644 1281357
2446.28 1281764 1251052 1191340 1134366 1102302 1080514
2449.17 1041843 1020247 1051900 1087786 1071076 1040059
2452.07 1042469 1069539 1064828 1016884 969519 940248
2454.96 924674 898977 852040 796442 743245 708405
2457.85 663702 600525 571276 571346 557594 533828
2460.75 519232 500676 448754 393753 387543 415163
2463.64 432214 439388 427810 405333 400056 408280
2466.53 407671 396107 388782 389520 383212 356247
2469.42 332472 312937 294952 302460 301645 285486
2472.32 290383 295294 276819 253291 252515 275602
2475.21 289448 299557 326169 330577 294073 270111
2478.10 276526 291138 310431 308424 288797 283316
2480.99 289903 295823 308576 326585 325058 314681
2483.89 319674 327143 330168 331394 316931 300555
2486.78 302072 301592 282386 268198 275830 291618
2489.67 317364 344106 320769 290885 315909 343041
2492.57 335380 300308 261645 245083 243640 239128
2495.46 230364 224547 227906 249656 302057 339096
2498.35 322303 285700 273293 270088 245693 224848
2501.24 214781 211836 223364 244598 238957 211306
2504.14 211405 230216 235620 225114 220816 209158
2507.03 192109 191547 199717 198778 179546 169215
2509.92 179909 190603 195363 200056 202310 204100
2512.81 180271 144301 151140 179933 167606 127059
2515.71 98257 92097 122457 149611 159276 172661
2518.60 176287 156799 118371 89100 84335 73802
2521.49 40219 22251 40111 52515 35286 16872
2524.39 5562-16423-17878 2254 6335 985
2527.28-14082-24057-28863-47562-51026-42763
2530.17-45285-34306-9266-4079-8267-4667
2533.06-15054-43094-55311-35659-15656-28807
2535.96-56462-72498-73423-57533-57607-89832
2538.85-96671-74467-63030-53997-27598-23119
2541.74-59380-81539-65468-32858-24335-39439
2544.63-12084 40402 34985-13087-27487 3878
2547.53 26843 13998-179 17145 50991 69275
2550.42 85996 107151 115922 138979 173425 189143
2553.31 194589 210520 238812 264255 277223 318402
2556.21 399941 484933 540184 553625 562593 580902
2559.10 578432 579081 616972 673146 713003 736175
2561.99 769677 796769 807361 857031 953296 1044100
2564.88 1091323 1112103 1135464 1152276 1150037 1159207
2567.78 1196952 1255383 1309172 1348541 1389840 1445054
2570.67 1506660 1560685 1594993 1609165 1622373 1636602
2573.56 1656899 1672470 1648510 1625960 1623079 1605733
2576.45 1582376 1566767 1564063 1550192 1513220 1498222
2579.35 1496351 1479995 1473903 1493998 1532039 1551318
2582.24 1538427 1516139 1513899 1512441 1465730 1391240
2585.13 1312736 1215655 1113995 1045993 1011832 982486
2588.03 954567 946157 938739 916738 874383 820307
2590.92 795642 802623 787973 720611 633577 559756
2593.81 527451 537168 536057 505823 474007 448913
2596.70 427022 423240 418457 412987 418732 419651
2599.60 416858 411386 405708 402209 400371 400642
2602.49 406664 428200 457304 484866 512653 525855
2605.38 521686 529264 545874 559541 583110 608401
2608.27 598816 570325 556359 553847 577113 601463
2611.17 602210 611066 624369 626583 613437 614442
2614.06 626849 612971 569805 521203 500604 514691
2616.95 530416 527395 536692 575551 578233 538029
2619.85 517645 527766 526644 491931 460139 428473
2622.74 406739 402538 383586 358968 319310 260716
2625.63 212601 185885 188268 207548 196552 145627
2628.52 98755 70621 54638 71814 110396 123680
2631.42 101206 86748 111133 141581 120135 79796
2634.31 64877 38531 21778 36733 36733 25887
2637.20 3235-30378-34029-20871-20918-15237
2640.09-18452-45800-55573-26748 4156 89
2642.99-10783 1042 6521-10827-19951-9467
2645.88 6570 14365 12261-8408-21258-10036
2648.77-15488-22865-11623-17139-27403-20251
2651.67 5881 28375 29112 15450 3192 18691
2654.56 43373 32194 10166 14251 41852 62107
2657.45 61347 74288 87136 65841 54042 63156
2660.34 73065 79423 69121 68699 79354 73063
2663.24 77402 98218 94483 70145 89299 139383
2666.13 153493 143874 147456 166485 185861 196356
2669.02 199248 207541 214752 227723 258668 291909
2671.91 300287 281809 266667 264926 272532 283963
2674.81 292774 296033 289167 285941 301236 317724
2677.70 329626 352204 354627 327280 294650 267981
2680.59 277559 315166 343255 351198 350248 337877
2683.49 330427 334094 337447 349713 352861 341275
2686.38 330890 322573 312850 295795 283233 277774
2689.27 303819 345653 332906 305746 315866 331038
2692.16 320896 317766 327766 309983 285693 296459
2695.06 332439 345421 320727 297468 271711 255696
2697.95 258880 250231 266019 302471 315841 315125
2700.84 322563 351620 363266 356636 358139 354117
2703.73 371669 423272 463203 489117 509273 520611
2706.63 537956 546568 546002 548600 563082 599944
2709.52 645083 667199 673909 690289 710903 718522
2712.41 735292 790240 850596 877461 896125 929413
2715.31 954148 980196 1032628 1118449 1196210 1257648
2718.20 1334479 1415841 1494959 1565059 1603676 1633550
2721.09 1683699 1754435 1839285 1904095 1939498 1998875
2723.98 2070562 2143324 2229594 2297768 2384434 2510174
2726.88 2615117 2712676 2847801 2981900 3114937 3258327
2729.77 3411824 3590569 3780186 4002653 4281473 4556766
2732.66 4775236 4989614 5243750 5504885 5752299 5941295
2735.55 6043054 6133268 6249369 6329510 6337438 6313622
2738.45 6294818 6285401 6270550 6257573 6329815 6584398
2741.34 7017152 7394623 7394070 7085844 6758761 6476058
2744.23 6243698 6096756 6039327 6062356 6117418 6186528
2747.13 6284495 6400423 6495759 6534300 6498839 6373276
2750.02 6182847 5945978 5653646 5324705 4984467 4638550
2752.91 4310098 4019820 3732232 3418406 3134830 2910008
2755.80 2703814 2508571 2351516 2236794 2150844 2078556
2758.70 2006501 1919674 1842847 1817854 1844497 1903723
2761.59 1961008 2007096 2034806 2039909 2047912 2088875
2764.48 2160483 2212439 2245169 2286950 2307602 2315149
2767.37 2320820 2303858 2307193 2350058 2405342 2476060
2770.27 2545371 2651857 2763286 2737183 2606471 2496222
2773.16 2439656 2420684 2447944 2529740 2618879 2685626
2776.05 2722982 2750279 2793828 2818992 2827931 2832669
2778.95 2803793 2754989 2683623 2608131 2553919 2486077
2781.84 2387125 2292572 2215088 2123123 2044481 1989424
2784.73 1959334 1954269 1946782 1935966 1907268 1856941
2787.62 1827555 1847617 1859595 1821340 1781497 1779210
2790.52 1788085 1802456 1805408 1784482 1781979 1801403
2793.41 1802697 1765258 1735966 1767568 1806611 1786547
2796.30 1775215 1812325 1849888 1870374 1887115 1911360
2799.19 1926580 1929321 1949814 1956423 1958514 2007096
2802.09 2052095 2072114 2097044 2146772 2208595 2279348
2804.98 2366597 2429954 2446398 2472391 2546644 2615728
2807.87 2652236 2702725 2773953 2801671 2819652 2877526
2810.77 2956255 3040784 3117172 3185365 3247268 3334509
2813.66 3450590 3527954 3540562 3524448 3524919 3584957
2816.55 3686661 3741324 3735263 3765336 3845628 3919452
2819.44 3982091 4043510 4102452 4162801 4268014 4405063
2822.34 4516957 4642716 4803426 4957446 5059904 5112923
2825.23 5176905 5256740 5289458 5278838 5291952 5357015
2828.12 5417754 5451895 5499747 5589223 5698478 5771210
2831.01 5837745 5934595 5981930 6010940 6123390 6205720
2833.91 6228121 6277469 6339896 6376229 6401349 6457039
2836.80 6532668 6626953 6730650 6840458 6990114 7167132
2839.69 7336632 7506598 7699170 7889821 8080903 8260482
2842.59 8399027 8531789 8684620 8860390 9067204 9302464
2845.48 9541125 9769153 9981399 10197379 10430552 10659267
2848.37 10911933 11230926 11585761 11930127 12278165 12659676
2851.26 13049329 13410628 13797908 14278515 14825536 15420879
2854.16 16089402 16821732 17623789 18473293 19308486 20145215
2857.05 21004267 21916561 22905953 23897663 24837926 25770370
2859.94 26763649 27773443 28764009 29743612 30720071 31743727
2862.83 32758571 33728258 34726322 35795956 36919637 38037807
2865.73 39130877 40292272 41623552 42976090 44119792 45090507
2868.62 46056569 47093233 48181554 49311490 50519864 51776789
2871.51 52949607 54006627 55062748 56111640 57087331 58019143
2874.41 58859467 59591133 60314916 61048865 61742782 62405157
2877.30 63022187 63583248 64157977 64773701 65358954 65838265
2880.19 66160477 66307539 66444210 66683986 66819904 66691073
2883.08 66321818 65855943 65458453 65222463 65124745 65098712
2885.98 65143956 65215054 65200775 65008896 64657691 64215169
2888.87 63677595 63085129 62551280 62158251 61869469 61578274
2891.76 61205255 60777688 60390204 59992774 59513156 58994301
2894.65 58453875 57818353 57121840 56481511 55832038 55085723
2897.55 54304773 53569749 52892896 52225839 51537054 50894384
2900.44 50414754 50152072 50020807 49942440 49882388 49748056
2903.33 49567292 49427300 49265486 48997597 48606508 48175102
2906.23 47776766 47482182 47353070 47357024 47449504 47609461
2909.12 47864334 48308099 48924697 49620912 50341615 51034563
2912.01 51554191 51853138 52168177 52663886 53202280 53613972
2914.90 54009719 54588459 55328492 56142898 57045003 58102862
2917.80 59278285 60515440 61840164 63284733 64876322 66647916
2920.69 68536462 70440785 72301101 74066348 75741484 77399772
2923.58 79119254 80878779 82594915 84331663 86146118 87956560
2926.47 89640496 91212981 92773923 94342245 95859925 97313601
2929.37 98921473 100774767 102600114 104444397 106497808 108314678
2932.26 109266588 109434248 109486400 109945468 110851310 111999939
2935.15 113157810 114203188 115147054 116005786 116841048 117626229
2938.05 118202845 118577207 118801132 118807687 118652129 118324220
2940.94 117629056 116614290 115543225 114537477 113522741 112427304
2943.83 111295264 110265814 109566739 109380536 109906466 111873116
2946.72 117044397 126242044 133820120 133850953 129912395 126736147
2949.62 124528798 122955238 122376591 122475548 122172323 120571693
2952.51 117531752 113690864 109648647 105543282 101574112 97988190
2955.40 94845401 92181045 89903512 87944423 86378223 85153137
2958.29 84168573 83339652 82619333 81992685 81420746 80822993
2961.19 80240640 79998388 79961327 79657420 79158568 78723076
2964.08 78464597 78381323 78428231 78625338 79039948 79686487
2966.97 80536714 81585280 82878655 84297030 85747561 87307454
2969.87 89004281 90796491 92624440 94404261 96096866 97730957
2972.76 99284538 100676085 101818787 102662431 103184749 103345191
2975.65 103093832 102436018 101323121 99630711 97337666 94536851
2978.54 91459514 88456440 85918488 84232748 83746624 84570508
2981.44 86499242 89072628 91648130 93578316 94565047 94680857
2984.33 94045117 92772178 91028187 88971855 86673373 84166972
2987.22 81470795 78543997 75397101 72146541 68875626 65597498
2990.11 62318241 59081391 55974893 53054351 50308758 47725126
2993.01 45306693 43047710 41010835 39219241 37583756 36062457
2995.90 34680162 33420797 32275118 31232703 30233595 29278786
2998.79 28437837 27684731 26944551 26191838 25532055 25109429
3001.69 24853659 24751000 24889235 25209731 25645474 26179657
3004.58 26754471 27276637 27745463 28257353 28840242 29456498
3007.47 30139565 30950374 31867856 32852459 33914019 35125967
3010.36 36500960 38012432 39704493 41599412 43644141 45860852
3013.26 48283847 50872761 53617296 56476344 59443640 62550639
3016.15 65760766 68986109 72145529 75248433 78337510 81339598
3019.04 84119512 86662946 89033736 91220915 93152011 94762138
3021.93 96020801 96823613 97039756 96657994 95749129 94471279
3024.83 93100717 92014991 91730911 92759413 95303923 99186652
3027.72 103819908 108363353 112038755 114426307 115570918 115716258
3030.61 115138261 114145316 112980447 111672481 110180780 108591749
3033.51 106954981 105120685 102769289 99732940 96332407 93002697
3036.40 89693874 86318397 83293284 80837077 78764134 76928561
3039.29 75267354 73767356 72354973 70883022 69346347 67842348
3042.18 66363453 64811305 63220102 61720383 60333101 59013360
3045.08 57792245 56709858 55701679 54747358 53943910 53330657
3047.97 52880948 52551863 52348356 52287352 52359188 52596555
3050.86 53034944 53669914 54453161 55300153 56182049 57041885
3053.75 57774495 58455259 59224494 60136365 61174671 62258917
3056.65 63350638 64477435 65567182 66554771 67514046 68482372
3059.54 69337736 70069626 70794519 71451949 72030193 72617621
3062.43 73325150 74255464 75351235 76459262 77374861 78092787
3065.33 78755628 79361714 79803118 80092815 80413796 80882974
3068.22 81474057 82074082 82571582 82945403 83198755 83329718
3071.11 83248316 82881237 82335657 81654549 80849364 79902127
3074.00 78742198 77458635 76169195 74905742 73747713 72721896
3076.90 71867461 71311703 71086970 71081021 71167699 71227210
3079.79 71158854 70924851 70462907 69714498 68727787 67541744
3082.68 66178568 64690884 63105710 61478716 59855881 58224045
3085.57 56588080 54988549 53474557 52078424 50861312 49830378
3088.47 48916655 48065959 47160873 46072225 44763339 43275984
3091.36 41616573 39760120 38029538 36759336 35861947 35121579
3094.25 34418207 33658324 32821711 31930856 30924772 29773598
3097.15 28530231 27242656 25939125 24640715 23368460 22142265
3100.04 20994289 19973499 19061151 18204296 17458443 16870461
3102.93 16388952 15980859 15668461 15447514 15294921 15234265
3105.82 15250046 15259318 15280747 15402791 15558300 15718941
3108.72 15900491 16058731 16194627 16292385 16348080 16385151
3111.61 16390198 16332901 16233740 16077621 15849013 15583391
3114.50 15314584 15035330 14716633 14379008 14090163 13890145
3117.39 13753900 13686969 13689246 13751143 13865112 13965835
3120.29 14004641 13911538 13659855 13332669 12974493 12592098
3123.18 12207351 11825479 11404187 10961065 10531676 10061476
3126.07 9547540 9047091 8551392 8060772 7575796 7067189
3128.97 6607036 6242505 5895881 5538781 5220457 4917507
3131.86 4626676 4372637 4135877 3933216 3777188 3640758
3134.75 3475477 3283193 3121037 3023787 2942440 2852842
3137.64 2787645 2745613 2702272 2624179 2552828 2508124
3140.54 2438801 2353009 2302819 2303675 2317517 2301306
3143.43 2264861 2216463 2149215 2114160 2130506 2121026
3146.32 2056916 2008605 1993632 1974545 1962496 1967496
3149.21 1971590 1946474 1882931 1856380 1884606 1899428
3152.11 1885807 1861279 1825132 1773138 1751413 1770870
3155.00 1806549 1854477 1872648 1839497 1816027 1861642
3157.89 1896041 1855729 1841664 1876899 1872953 1842433
3160.79 1839725 1846283 1864258 1882147 1873074 1841447
3163.68 1809131 1800749 1812563 1822107 1846968 1885499
3166.57 1880491 1868707 1889243 1891923 1890362 1899370
3169.46 1890516 1855215 1813491 1801236 1808514 1795617
3172.36 1804494 1830347 1812493 1777978 1733583 1685423
3175.25 1659543 1633708 1611357 1624021 1618173 1562092
3178.14 1491235 1433474 1402413 1397496 1382995 1330765
3181.03 1274904 1219587 1168486 1127420 1091166 1093174
3183.93 1092505 1039862 980125 931729 882598 870257
3186.82 884736 878646 848815 813013 793224 815032
3189.71 829827 783800 752931 774607 784476 779879
3192.61 768495 730048 698939 690654 683309 654399
3195.50 619486 617856 606946 569933 577335 625286
3198.39 610143 552842 542887 569333 573064 535783
3201.28 495374 479693 476869 470860 471995 460189
3204.18 426236 407853 410312 407803 396736 394081
3207.07 400575 393787 369806 368830 386292 382650
3209.96 365047 345489 311215 284269 282774 267517
3212.85 252103 274186 298696 264683 216246 232867
3215.75 253707 247929 260867 259030 224019 183470
3218.64 194233 239251 248619 253255 279635 264772
3221.53 212252 209314 267152 293237 283185 296485
3224.43 332392 360119 318831 252895 243108 261289
3227.32 250006 223100 213824 171571 135027 143443
3230.21 145825 165757 197975 192403 175454 158647
3233.10 137073 135367 145855 136923 123502 159169
3236.00 193639 163362 147331 145497 66677-8135
3238.89 25060 91156 104908 104014 96688 65311
3241.78 63516 94355 93465 83672 110914 110442
3244.67 103801 124340 112493 67851 34656 28880
3247.57 39251 38077 33658 24238-17669-26962
3250.46 11784 24462 33582 54221 53463 41225
3253.35 29706 26312 20142-1914-12594 7442
3256.25 37414 50275 27799 4083 6147 17921
3259.14 24231 8470 6605 4845-22145 9693
3262.03 49116 48583 51204 14069-32889-35615
3264.92-30789-78014-96549-1212 72481 35882
3267.82 12951 37479 42788 33915 17400 13276
3270.71 25473 43135 54135 29733 30042 37399
3273.60 11391-8571-33775-69348-79800-36880
3276.49 27443 54269 39214 17913 37571 80935
3279.39 75253 28286 17806 4531-32828-36397
3282.28-1435 47840 60428 35979 54413 102312
3285.17 97935 68745 54793 32686 20423 39208
3288.07 55101 21146-30930-21029 26035 53225
3290.96 105139 153015 142295 93639 53749 54295
3293.85 55083 21894 31819 92445 119548 133546
3296.74 164095 159178 103499 69300 63183 39982
3299.64 36716 76536 90731 84825 91382 72508
3302.53 65356 92351 91641 88400 126520 129371
3305.42 106803 89423 59254 69774 95460 54509
3308.31 5924-6113 929 36381 100759 156072
3311.21 148232 96465 87022 127320 119276 75081
3314.10 39658 29223 61215 95439 99648 79719
3316.99 89378 110260 97136 77251 66695 31412
3319.89-6092-14479-7050 3873-30427-87289
3322.78-89015-14398 63257 74891 9785-49787
3325.67-36886-31563-61645-59998-36952-14664
3328.56-20126-26952-14837-42147-52720-17482
3331.46-14206-30927-43128-52141-30887-17236
3334.35-32593-64194-89044-91311-72355-48411
3337.24-41875-42660-51191-23562 40064 48332
3340.13 8932-10814-8252-18842-46489-44498
3343.03-22613-40381-68120-44449 6 15969
3345.92-12151-77760-115951-68009 5918 15525
3348.81-5747-16593-34472-13727 28989-5502
3351.71-61925-50807-45346-39043 2623 3631
3354.60-31225-64094-93327-66802-5381 26243
3357.49 35695 29549 26959 17785 1848 2945
3360.38 21355 34424 31570 17484-12297-10994
3363.28 44333 93963 92897 44881 3478 35359
3366.17 50263-8061-20934 8822 10348 29910
3369.06 82240 99646 57760 37266 82942 115176
3371.95 101656 69806 73627 127944 176355 192435
3374.85 179369 163573 182366 213000 214246 219207
3377.74 239511 200625 154288 156717 126456 74511
3380.63 71694 104848 122953 147708 205381 259391
3383.53 239000 179490 202802 256896 221109 142124
3386.42 139764 200549 200410 150042 131321 156413
3389.31 204122 214501 192270 175620 179083 210161
3392.20 235533 176246 91298 100672 135729 126191
3395.10 129261 141268 96176 38360 36863 87618
3397.99 106400 45545-20083-38406-33207-48380
3400.88-65255-20068 34167 18832-49713-93797
3403.77-72984-39644-11297 1329-14208-60384
3406.67-117417-117821-80240-22107-7944-87938
3409.56-128651-92918-70960-62527-56858-66663
3412.45-57935-35831-74097-152011-161345-109553
3415.35-53437-35412-45384-31184-20708-40638
3418.24-68260-82198-107906-119821-52398 10818
3421.13-14584-50967-40266-5022-35871-104444
3424.02-94660-54761-33133-21015-59938-61910
3426.92 20523 24157-61362-100729-68420-14315
3429.81 34228 46074 34866 45595 53218 31382
3432.70 9243-20323-60868-58244-35991-33745
3435.59 11760 108710 143186 82240-1105-30477
3438.49 3854 36518 37312 41946 32503-193
3441.38 6414 53071 80871 59859 19374 2717
3444.27 9416 31007 95044 141536 86590 3042
3447.17 6949 106433 181945 141769 61592 52666
3450.06 132230 222703 231036 182266 182047 227359
3452.95 222773 201488 211659 189986 116440 96894
3455.84 182636 257944 246450 211393 222627 241358
3458.74 263580 290563 290816 263401 227747 226979
3461.63 285678 326009 276955 199934 194951 243578
3464.52 256082 205877 175218 235683 307877 323090
3467.41 307724 296572 268749 194463 138991 107738
3470.31 85237 143444 217894 254444 277966 238092
3473.20 156988 104362 92304 103133 116276 99820
3476.09 77493 84692 109797 131413 126904 85493
3478.99 10128-23634 16014 56885 73512 93285
3481.88 122151 130361 75015-8002 22931 127043
3484.77 116857 53913 51688 59704 21968 8420
3487.66 45297 45526-13728-51156-31625-9243
3490.56-29278-71637-78708-34471-2530-34833
3493.45-78319-73069-28259 7376-29494-74879
3496.34-92783-124949-122669-110529-95306-64622
3499.23-61609-95548-139865-124238-95521-104452
3502.13-106468-101094-115330-147381-145708-101545
3505.02-91621-133709-171770-159569-113284-75612
3507.91-69677-88766-94984-86386-79535-92289
3510.81-111853-118266-132883-159830-157518-145854
3513.70-153690-152492-122050-97180-98734-104853
3516.59-100071-98140-112855-132200-142976-128025
3519.48-74768-67819-136210-168195-125469-92753
3522.38-94234-103010-144042-174726-147685-116907
3525.27-99570-104246-120752-119857-98783-92708
3528.16-141635-152775-110139-91600-64748-56174
3531.05-117748-136139-68458-24138-36762-88373
3533.95-129803-134768-139608-140826-132922-89943
3536.84-34021-58873-133545-147020-74526-32700
3539.73-95689-140281-133684-122476-100270-86755
3542.63-75394-70998-55650-23774-53956-120647
3545.52-109398-58588-53854-73931-78906-65602
3548.41-60788-47351-37217-55074-63858-87927
3551.30-127031-98718-14824 29728 41428 28469
3554.20-16694-50988-47851-54309-91337-123122
3557.09-103704-75095-108848-116642-71937-60322
3559.98-66560-87307-99010-60417 2493 34126
3562.87 5398-36321-68643-93337-77020-67796
3565.77-78524-64333-59435-97932-105533-48372
3568.66 11305 35997 21100-32044-55337-21783
3571.55 1178-16856-19292-16425-32771-10807
3574.45 31325 26514-286-19469-6632 26458
3577.34 41822 47501 56912 68399 27021-1400
3580.23 27842 37951 44847 75532 81389 66630
3583.12 92573 114554 96423 89232 76613-5608
3586.02-118544-133523-51788-6819-62115-89079
3588.91-33257 762 26851 64566 82337 56156
3591.80 33-14394 25838 91627 147484 135007
3594.69 94905 74331 60255 85638 128345 131161
3597.59 75349 38691 105199 170200 150366 141621
3600.48 170967 206035 246318 238577 211451 243553
3603.37 268776 230420 162435 135330 189479 224000
3606.27 175883 146963 191460 232663 192274 135130
3609.16 170553 212462 196922 186101 168942 133471
3612.05 122255 169640 221392 191675 117080 95416
3614.94 107289 107360 80525 45577 37684 44924
3617.84 58888 35461-81412-133564-40095 25431
3620.73-5390-71973-95948-65393-50544-76340
3623.62-71061-72683-109737-103777-80590-86250
3626.51-93531-137978-261227-330398-316616-373987
3629.41-349126-207347-147425-150299-157824-158095
3632.30-128664-100839-88307-57701-48689-62499
3635.19-65973-88520-124180-136865-109008-72325
3638.09-77200-84324-71950-83775-115707-140479
3640.98-115804-87648-98416-98080-77610-52879
3643.87-31368-27699-46349-68176-74741-95553
3646.76-157651-156601-108707-207102-349073-296875
3649.66-195859-187571-176010-127545-81855-91666
3652.55-112255-91516-55633-35399-54548-106766
3655.44-176259-204639-142942-87545-75531-44411
3658.33-2789 2244-24626-46831-42502-30872
3661.23-34940-72925-104725-67897-28630-50636
3664.12-69801-53618-44063-71494-116959-176725
3667.01-195736-148710-152798-179785-138007-175640
3669.91-353265-369489-180913-102178-111551-96830
3672.80-112450-184137-267433-314325-307517-355025
3675.69-353878-182398-74825-100381-118309-145455
3678.58-197507-210323-185181-163222-154204-123199
3681.48-89342-92361-88613-76550-98222-114312
3684.37-96120-82211-93132-119589-120138-133069
3687.26-257675-443610-416787-237421-171293-193173
3690.15-199321-198654-163935-87599-50229-62306
3693.05-95520-97746-58477-48378-65225-63157
3695.94-58860-70664-100254-130010-116578-90330
3698.83-126541-164890-121009-83150-137992-193362
3701.73-146295-89392-98047-120916-146799-173127
3704.62-171005-157954-144472-127331-129526-152575
3707.51-179055-187750-222732-284620-280786-218274
3710.40-176736-211292-347879-419270-334296-226383
3713.30-146860-134667-172883-166828-158565-190427
3716.19-200896-185757-156235-134419-152872-165353
3719.08-134660-106365-120561-148800-166581-184182
3721.97-173126-141291-152954-188970-190557-182122
3724.87-190885-195930-194321-155149-109070-130389
3727.76-151769-144446-150281-151448-117493-90340
3730.65-140783-271747-361223-275838-142741-125664
3733.55-176558-228220-263064-245932-235254-306621
3736.44-321705-243636-198799-165581-107629-68450
3739.33-58696-85680-130629-132442-92272-60767
3742.22-45801-68308-212195-488137-603108-362592
3745.12-77541 24895 42559 45763 35272 25000
3748.01-17272-181608-293841-142427 26995 54789
3750.90-7109-155857-182225-3120 130337 166856
3753.79 192546 206892 199568 189258 151593 132349
3756.69 190530 237255 222256 175038 128822 72974
3759.58 62462 149732 231577 245210 213254 192736
3762.47 207123 217450 226647 250467 250462 184425
3765.37 131817 169819 204379 166015 118832 103226
3768.26 79699-4056-109244-92937 3310 25785
3771.15 12846 10574-7040-33066-44891-23749
3774.04 3946 3825-1445-11931-34338-23042
3776.94-27992-80778-63977-20220-67457-113812
3779.83-82221-27790-6860-23000-37417-41202
3782.72-37087-33866-32998-41454-58556-31300
3785.61 22074 46767 68143 83430 68489 52851
3788.51 34309 37639 105374 125892 67794 56469
3791.40 68372 65195 79102 80452 62243 74993
3794.29 110766 122214 76343-16048-36613 16124
3797.19 80648 149259 189863 158875 71775 25165
3800.08-11236-170333-249627-70989 88064 108074
3802.97 123940 183610 205538 158423 118069 99249
3805.86 22085-126127-117613 45815 140994 166826
3808.76 191770 201981 163049 143961 183566 188792
3811.65 132235 96280 133964 202090 227076 203919
3814.54 156506 5051-172673-77742 147561 234316
3817.43 240407 243993 246181 219189 145682 70589
3820.33 36057 33974 77839 180231 272886 318926
3823.22 337628 354432 375822 393378 411917 417585
3826.11 388563 385733 417409 432323 457287 477218
3829.01 472636 486784 481868 417054 354284 365553
3831.90 436410 473840 463551 462638 455574 422515
3834.79 460968 520101 493258 455955 341764 124031
3837.68 170398 409598 487194 471190 469004 449261
3840.58 436402 481579 522372 529261 506646 480938
3843.47 522202 555897 550418 555815 534521 518727
3846.36 588081 656010 642474 616557 609914 618143
3849.25 637104 620512 585652 530446 394120 373086
3852.15 553489 624921 430600 227423 350751 625127
3855.04 755826 805672 833689 830447 841573 864381
3857.93 861505 848792 840080 814529 787699 801405
3860.83 794545 769321 821656 893637 912757 914019
3863.72 881990 806684 782793 863744 933748 943390
3866.61 968216 1002571 980693 885328 801446 747530
3869.50 696045 763393 870038 872138 851078 878908
3872.40 897054 870460 848993 855092 882114 903544
3875.29 900627 908563 935199 951173 971552 996067
3878.18 1008704 1029348 1017075 969277 961120 979146
3881.07 988901 993519 1015200 1024150 1007427 1001919
3883.97 1023031 1023207 936476 901370 1013891 1118801
3886.86 1159751 1187607 1233576 1281133 1284023 1245522
3889.75 1225310 1206237 1160800 1204540 1326141 1384362
3892.65 1374930 1376349 1408560 1434877 1450209 1459504
3895.54 1468879 1490952 1520194 1522622 1468841 1403929
3898.43 1363903 1372576 1446767 1506972 1530955 1532311
3901.32 1527775 1586865 1656333 1619756 1500380 1420226
3904.22 1427435 1440866 1458161 1474794 1453905 1459486
3907.11 1484461 1457039 1419928 1399671 1369873 1320175
3910.00 1261833 1208169 1164804 1117659 1089554 1088369
3912.89 1062673 1015895 994054 977983 940771 909540
3915.79 874879 807675 766918 780377 761753 719030
3918.68 699675 669616 642513 657657 697051 708430
3921.57 695353 675036 650520 639131 628413 600834
3924.47 562354 539550 538766 560262 572203 528875
3927.36 485038 486176 497413 445063 377931 375128
3930.25 399229 413269 388081 356831 369335 391200
3933.14 405602 417269 410941 386761 376012 380130
3936.04 394430 401512 377497 353655 363355 364850
3938.93 357062 379135 391843 373205 355345 346377
3941.82 340974 340075 343450 365644 386705 384211
3944.71 408909 451235 455849 423649 387288 400999
3947.61 464012 505591 488949 428224 397495 419091
3950.50 449061 496309 556367 576353 548356 528910
3953.39 553365 582627 567849 525811 507888 540469
3956.29 594300 615960 588655 563916 552053 542131
3959.18 603976 686627 692308 652723 627968 638797
3962.07 650125 643469 658496 704895 728263 682883
3964.96 632741 643810 672258 657851 606855 579633
3967.86 614269 676608 708789 706641 695260 684408
3970.75 664495 625620 576114 559398 563506 541539
3973.64 537109 562438
##END=
