##TITLE=1,2-Dimethylbenzene
##JCAMP-DX=4.24
##DATA TYPE=INFRARED SPECTRUM
##CLASS=IUPAC A
##ORIGIN=NIST, Analytical Chemistry Division, 301-975-3108
##OWNER=COPYRIGHT (C) 2001 by the U.S. Secretary of Commerce
##DATE=01/06/01
##$SPECTRA VERSION=1.10
##$UNCERTAINTY IN Y=2.2 % relative (B=1.21E-04,C=1.57E-9,D=3.06E-14)
##CAS NAME=1,2-Dimethylbenzene
##CAS REGISTRY NO=95-47-6
##MOLFORM=1,2-( C H3)2 C6 H4
##MP=-25.18 C
##BP=144.4 C
##$NIST SOURCE=QUANT-IR
##SPECTROMETER/DATA SYSTEM=IFS66V (Bruker)
##INSTRUMENT PARAMETERS=KBr Beam Splitter; MCT Detector; Multipass cell
##STATE=gas
##SAMPLE DESCRIPTION=o-Xylene Primary Gas Standard
##PRESSURE=101.3 Pa
##TEMPERATURE=23 C
##SAMPLING PROCEDURE=1 L/min Flow
##RESOLUTION=0.9640
##DATA PROCESSING=Triangular Apodization
##XUNITS=cm-1
##YUNITS=(micromol/mol)-1m-1 (base 10)
##XFACTOR=1.0
##YFACTOR=18.189E-13
##DELTAX=0.4820
##FIRSTX=575.17
##LASTX=3974.606
##FIRSTY=2.99E-06
##MAXX=3974.12
##MINX=575.17
##MAXY=.0014363
##MINY=-2.36E-06
##NPOINTS=7052
##XYDATA=(X++(Y..Y))
575.17 1645604 1789095 1416642 1332119 1174691 1043757
577.58 1205072 984002 638568 996588 1751816 2621735
580.47 2941048 2418417 1634667 1222792 1207295 1176062
583.37 1518559 1825355 1590381 1362915 1521639 1744976
586.26 2005110 2198361 2110991 1732434 1634817 1711864
589.15 1480275 1512383 1649748 1302017 881185 593503
592.04 616004 861578 573299 124477 215216 525565
594.94 594181 458052 385599 355853 254149 234423
597.83 461282 443993 140660-48652-178915-239411
600.72 63910 220458 89782-70827-224311-65980
603.62 84739 24843 37469 49647 85181 236826
606.51 106581 45567-21196-140999-125723-70587
609.40-77243-243539-215412 58094 72740 105559
612.29 276738 293107 331949 164448 29422-37063
615.19-8635 198726 145065-90695-102985-62247
618.08-83627 13305-64293-42164-152582-247704
620.97-43260 69919 36099 62425 339335 261031
623.86-110414-135535 31033 11137 25297 7813
626.76-51985 80373 128013-49925-123248 18853
629.65 47137 33097-118979-232584-29927 61218
632.54 36790 49198 46046 2911 74637 88896
635.44-37747-21840 36399 17646 58321 50799
638.33-136547-147183 96581 103460-14065-30295
641.22-48929-253 71859 104552 22791-83165
644.11-172032-119405-5567 68907 195290 150847
647.01 25258-44067-118303-99853-40202 67610
649.90 61726 60422 55021-45308 16116 21913
652.79 630 77659 59562-68367-105446 57325
655.68 38694 10776 118875 7091 76071 137015
658.58 151696 275373 235616 180164 167453 67267
661.47 18894 69080 53887 147378 274830 194445
664.36 179751 249865 214155 138440 16126-517504
667.26-829412-342992 24119-844-7257 145549
670.15 262950 205221 178486 160849 115820 128802
673.04 277251 297936 217195 70051 43315 172098
675.93 227651 262235 106164-138 116699 185861
678.83 194701 220923 136217 126203 185810 161278
681.72 182444 132851 140516 267068 286245 258243
684.61 288350 227209 158159 143491 199793 339187
687.50 347546 254013 268817 472861 537302 551471
690.40 492900 406105 413009 451565 572771 549644
693.29 501607 536650 559154 585369 503459 387293
696.18 450610 611894 864013 919996 783575 791102
699.08 773070 746550 759677 716519 716320 697907
701.97 826497 988323 999306 1043553 973776 914733
704.86 1046489 988000 991657 1048021 999823 1124585
707.75 1184495 1254048 1442677 1460426 1532776 1668215
710.65 1812063 1945911 2186239 2545471 2793913 2958296
713.54 3251114 3682045 4195464 4762751 5398572 6000222
716.43 6755159 7705241 8831237 10085863 11483205 13043822
719.32 14924973 17155654 19604992 22264794 25283807 28651147
722.22 32387746 36612051 41295990 46428503 51903835 57566250
725.11 63702279 70367937 76624479 81587929 86846828 92668600
728.00 98247274 103679336 108730557 113038748 116721822 119756737
730.90 122195357 123696507 124392626 124239460 123363506 121857977
733.79 120059307 118002416 116410079 115269978 115993652 119231057
736.68 125787381 134851600 147658742 169176768 210270140 287677932
739.57 417881859 600563768 789652491 716051600 400369898 209591485
742.47 150886329 126198770 117379237 112730525 111988332 112091860
745.36 113806360 116083190 119365943 122574409 125724287 128367587
748.25 130793133 132097824 132578219 132064505 130534856 127905771
751.14 124195404 119607537 114447246 108693708 102396227 95751310
754.04 89080820 82147532 75296894 68514716 61939418 55683348
756.93 49791072 44273552 39300722 34587644 30340849 26476707
759.82 22966291 19993191 17364114 14999699 12951807 11218795
762.72 9670972 8283444 7272715 6351910 5462066 4751853
765.61 4274559 3883360 3584950 3319762 3085190 2877118
768.50 2539132 2145266 1865648 1622144 1521423 1452703
771.39 1470088 1449803 1369284 1290009 1159505 1109552
774.29 1170975 1196218 1081399 979470 1051979 1068003
777.18 926273 883854 901736 876719 909324 892456
780.07 890439 828162 761707 776125 757642 799497
782.96 796581 655767 558987 571282 655077 699185
785.86 656435 629477 645978 708724 712403 602475
788.75 574792 592812 612055 596898 465015 428865
791.64 507023 583840 602711 559686 562913 545471
794.54 472791 363222 431508 489052 429299 375659
797.43 395175 305738 262143 312067 286000 351574
800.32 347115 338474 409566 413473 414217 371007
803.21 406674 535983 483581 479450 492432 438362
806.11 514905 469344 468263 513961 415513 446330
809.00 519977 499269 494010 551362 572746 551552
811.89 545555 598565 697432 775219 711752 722431
814.78 770895 767202 892266 816947 768207 845571
817.68 867660 915508 865267 851256 914819 936057
820.57 969116 1130331 1198735 991534 947383 1000938
823.46 979538 977022 991516 988013 948576 890027
826.36 814626 769468 767215 751665 795032 896427
829.25 927743 954614 927374 858350 694375 615266
832.14 704577 640133 529597 540838 570671 564057
835.03 569304 639560 680599 581475 493076 445580
837.93 447829 463359 442090 353136 394290 368779
840.82 267762 379101 427544 374039 371270 394591
843.71 485596 486039 340701 296120 308917 308246
846.60 297946 313783 398517 430926 458847 410606
849.50 308781 449542 581000 563797 589286 585778
852.39 561316 599071 672333 681244 723218 857320
855.28 984348 1036999 1070061 1021966 921773 952727
858.18 987749 1038889 1120963 1136197 1131877 1172277
861.07 1215826 1300757 1430237 1463168 1463825 1488346
863.96 1532542 1518221 1522486 1559463 1597151 1681577
866.85 1704856 1722257 1735728 1754866 1716388 1701129
869.75 1728486 1682955 1592639 1561629 1630298 1606800
872.64 1613033 1597697 1469538 1491216 1601457 1625396
875.53 1477829 1364252 1381127 1398375 1415640 1290941
878.42 1178620 1205327 1221565 1201983 1112507 1025969
881.32 1003525 949121 914197 910413 855265 855004
884.21 848049 733178 714083 709594 671773 670641
887.10 699323 733038 714600 727128 734891 714075
890.00 712463 713560 726608 707745 676389 743676
892.89 767757 741221 748049 825928 895465 862241
895.78 915568 980215 988250 1012515 995451 1003359
898.67 1038203 1016356 1026398 1077973 1089026 1078262
901.57 1066925 1034944 1019884 1016574 991730 965343
904.46 1009973 1053913 1074685 1034700 962783 993675
907.35 980863 1019952 1098497 1095134 1110256 1134617
910.24 1155654 1167237 1155242 1126110 1086740 1092286
913.14 1107299 1065895 1059284 1098186 1093785 1157254
916.03 1236290 1191578 1166180 1130841 1168075 1228268
918.92 1211488 1232671 1184417 1155441 1237441 1284723
921.82 1267780 1312433 1374145 1327726 1226910 1260520
924.71 1345142 1348731 1379155 1403551 1432295 1554197
927.60 1652888 1769856 1971487 2247542 2624634 3196636
930.49 3750467 3671970 3239686 2839352 2495614 2238766
933.39 2004009 1860981 1851363 1769292 1678681 1689440
936.28 1656704 1690170 1702172 1682638 1754532 1860919
939.17 1899595 1888007 1896953 1902278 1960119 1963487
942.06 1916360 1908767 1917528 1889858 1832834 1807249
944.96 1753322 1702127 1702827 1661845 1579026 1515477
947.85 1496284 1506522 1428594 1323350 1208938 1268336
950.74 1323922 1227722 1194355 1198350 1216619 1206929
953.64 1203146 1151469 1101831 1136292 1173754 1177261
956.53 1126441 1162877 1217614 1144806 1120045 1125331
959.42 1172530 1228770 1234925 1272286 1218838 1180912
962.31 1287580 1341515 1382146 1433511 1483652 1575014
965.21 1675481 1772198 1885390 1955988 2042594 2231475
968.10 2423015 2617586 2847604 3128463 3406429 3695618
970.99 3994948 4369792 4798698 5197971 5649206 6140004
973.88 6626122 7139575 7602729 8054448 8565506 9041415
976.78 9452031 9772027 10120061 10483441 10708274 10876405
979.67 11013981 11097987 11176806 11238640 11363348 11629297
982.56 12026591 12593715 13109540 13227992 13285098 13070780
985.46 12395221 12027956 12177022 12567989 12969155 12885069
988.35 12469767 12174578 12037866 12003233 11910057 11777309
991.24 11558131 11264132 10894260 10513860 10175000 9810862
994.13 9434998 9035753 8643976 8248284 7776747 7302318
997.03 6941705 6607525 6304020 6027494 5781127 5576907
999.92 5394356 5325588 5282483 5174581 5111521 5092223
1002.81 5113079 5196765 5268097 5284625 5304537 5415424
1005.70 5549855 5654861 5791257 5973932 6135951 6284544
1008.60 6490348 6705937 6929084 7130134 7253918 7438214
1011.49 7696858 7972732 8273565 8353470 8372111 8458250
1014.38 8489914 8479353 8483275 8535602 8597070 8649872
1017.28 8660941 8750703 8934798 9143812 9443959 9677653
1020.17 9948071 10300738 10492538 10676097 11414640 12945979
1023.06 16527782 20167618 17167362 11879020 9974967 9085596
1025.95 8490230 8131732 7940616 7840078 7760003 7673274
1028.85 7607183 7581601 7586986 7622643 7553590 7372910
1031.74 7253949 7040828 6890902 6854881 6749692 6631957
1034.63 6529972 6418550 6392581 6357868 6311965 6303629
1037.52 6295390 6369721 6501138 6706406 6989697 7291008
1040.42 7776574 8422202 9088260 9875445 10719401 11659134
1043.31 12702776 13866820 15064371 16197247 17288033 18321529
1046.20 19299152 20115004 20727404 20974033 20915356 20729787
1049.10 20377421 19841480 19133829 18326466 17692021 17658601
1051.99 18571533 20863402 24997633 27710589 27000146 24157908
1054.88 20809865 18780431 17770331 17474958 17712077 18136741
1057.77 18682330 19224199 19622686 19878513 19816982 19538732
1060.67 19134293 18450457 17570000 16577141 15489603 14287702
1063.56 13010308 11727809 10499871 9381703 8373061 7409740
1066.45 6463920 5665522 5016657 4477889 4015565 3505528
1069.34 3073862 2754478 2501144 2257277 1981096 1770064
1072.24 1598906 1470554 1383968 1309872 1256817 1212473
1075.13 1149055 1040677 960968 965489 986002 949940
1078.02 894276 859659 802328 749050 765038 752712
1080.92 657352 675949 722629 672386 644210 621665
1083.81 625272 661916 676610 677554 702287 724054
1086.70 699952 677818 721075 762948 741376 727443
1089.59 662307 662297 738268 745409 755495 741222
1092.49 729744 729401 729560 739922 768294 821068
1095.38 793071 705640 697067 791614 861944 883414
1098.27 987407 1051253 1052802 1133402 1158274 1179294
1101.16 1276646 1334365 1422228 1533837 1669946 1807256
1104.06 1909014 2049289 2200361 2422986 2690987 2940689
1106.95 3189595 3468561 3767556 4061946 4404546 4771137
1109.84 5125311 5519694 5949847 6351451 6764187 7182048
1112.74 7647707 8052921 8382621 8826715 9191911 9465619
1115.63 9724198 9963798 10148734 10271216 10305057 10134390
1118.52 9896691 9558395 9186782 8964104 8880310 9053517
1121.41 9383427 9716328 10092144 10359230 10616826 10883777
1124.31 11017277 11118476 11148490 11112436 11092840 11018257
1127.20 10870972 10644765 10354045 10135587 9927897 9640859
1130.09 9368691 9163889 8907432 8603493 8330998 8028946
1132.98 7781032 7583284 7344048 7146371 6998662 6850343
1135.88 6739806 6620466 6513802 6374746 6224163 6135735
1138.77 6028633 5861194 5617233 5339662 5122320 4944285
1141.66 4755205 4633801 4618378 4648222 4654681 4651424
1144.56 4668014 4697029 4704121 4670116 4629022 4607133
1147.45 4592850 4562607 4529024 4473912 4390790 4325004
1150.34 4212067 4116365 4021977 3947239 3838518 3690483
1153.23 3585273 3486841 3374790 3237576 3138084 3003166
1156.13 2885929 2771111 2680812 2690731 2694705 2593088
1159.02 2435177 2384905 2386112 2323881 2265610 2265642
1161.91 2264220 2303825 2412752 2431382 2372261 2339277
1164.80 2307582 2308276 2307999 2298281 2257827 2183328
1167.70 2116529 2040310 2020053 2007308 2049019 2068357
1170.59 2051535 2069770 2013264 2004421 1996769 1977852
1173.48 1955029 1872632 1868923 1886246 1877523 1878476
1176.38 1850538 1835187 1812329 1807910 1848214 1857737
1179.27 1822293 1759688 1711604 1668823 1628380 1624414
1182.16 1620805 1624664 1663871 1646520 1568877 1524066
1185.05 1523081 1493141 1457990 1423505 1387591 1378539
1187.95 1340730 1316605 1321916 1342161 1334793 1287126
1190.84 1285414 1275499 1250245 1249579 1215731 1188944
1193.73 1187522 1195958 1203068 1210733 1225530 1209362
1196.62 1165788 1137839 1137644 1094784 1104158 1122861
1199.52 1115547 1168595 1122275 1045469 1093442 1140480
1202.41 1151209 1168407 1158145 1193421 1267446 1311195
1205.30 1301133 1261523 1282178 1352413 1401994 1446216
1208.20 1517052 1534103 1544113 1632872 1756848 1889661
1211.09 2003581 2105889 2262680 2400609 2532629 2732435
1213.98 2920147 3125997 3323025 3496504 3678211 3827351
1216.87 3983687 4125245 4246940 4305912 4325533 4404036
1219.77 4481667 4490151 4494510 4551958 4574062 4573232
1222.66 4610559 4719210 4817417 4865479 4953872 5011625
1225.55 5093304 5048820 4836335 4504093 4158906 4114443
1228.44 4223387 4308497 4410597 4457294 4388956 4348906
1231.34 4336135 4244579 4085338 3940290 3779310 3536592
1234.23 3300876 3062817 2827751 2610526 2353075 2070348
1237.12 1860458 1693577 1462700 1276184 1142785 998356
1240.02 884925 828628 762297 697807 672101 633741
1242.91 589557 533528 498516 473143 434798 429890
1245.80 448092 475112 473483 436923 385572 405338
1248.69 443599 450758 491224 492718 489133 500928
1251.59 485714 472526 524083 561912 523085 538689
1254.48 576340 579361 574562 586869 612141 613596
1257.37 604497 626453 671691 701710 703289 676106
1260.26 680721 714220 715267 727490 751486 731391
1263.16 730377 768719 786582 810850 838249 817849
1266.05 777040 773769 780629 766741 756732 788296
1268.94 838336 836335 798575 783918 825111 826832
1271.84 829013 822685 820773 846592 860805 876803
1274.73 845387 837197 880367 910873 919014 936545
1277.62 949476 954087 932044 935402 986240 972350
1280.51 960476 1050179 1083227 1038735 1024067 1052418
1283.41 1070103 1098045 1143900 1125385 1096761 1089670
1286.30 1095438 1126674 1160935 1157348 1086192 1037360
1289.19 1058584 1076434 1045900 1042724 1090955 1116760
1292.08 1099179 1071307 1105580 1153204 1162091 1162406
1294.98 1177576 1174273 1119363 1089797 1114198 1079380
1297.87 1041756 1018268 994285 1020229 1003930 947945
1300.76 951994 972161 927132 934535 930416 896304
1303.66 923494 913407 875235 880515 915516 875591
1306.55 816992 851531 880389 905788 924752 926727
1309.44 941493 968391 985263 983835 958772 909649
1312.33 917054 960819 1010222 1011074 1019247 1067923
1315.23 1080526 1082374 1077392 1088298 1112289 1131332
1318.12 1138114 1146796 1170315 1204608 1202886 1190377
1321.01 1233823 1304617 1298685 1271581 1279233 1319036
1323.90 1355613 1344083 1373202 1417330 1441891 1456823
1326.80 1454716 1419581 1430908 1493604 1529173 1555535
1329.69 1579557 1608709 1621401 1638431 1744148 1824377
1332.58 1845555 1893586 1911469 1884244 1831557 1748625
1335.48 1709857 1718763 1720510 1698519 1674531 1710772
1338.37 1787724 1854849 1857107 1801431 1824891 1899480
1341.26 1924236 1923125 1912209 1932501 1997412 1980412
1344.15 1996421 2113045 2191283 2105076 2030865 2158509
1347.05 2186841 2189143 2248348 2171011 2155282 2151075
1349.94 2081119 2136512 2099711 1982615 2052253 2237468
1352.83 2239096 2124370 2398539 2708368 2746422 2696175
1355.72 2615653 2676321 2799747 2828082 2774019 2690772
1358.62 2593794 2612148 2751039 2814954 2840622 2989530
1361.51 3101228 3133017 3114784 3194073 3341533 3436668
1364.40 3607481 3753488 3860465 4007723 4176901 4347403
1367.29 4541286 4755181 4993295 5254554 5502516 5707889
1370.19 5952697 6270158 6554693 6769566 6970073 7227563
1373.08 7437511 7683920 7934383 8092435 8321319 8462816
1375.97 8491872 8428333 8209386 7983998 7843440 7801576
1378.87 8017377 8600342 9530356 10646597 11697717 12543532
1381.76 13154691 13586079 13779346 13907244 14012837 13958317
1384.65 13879309 13692814 13360755 13036567 12694305 12521760
1387.54 13057125 14584108 16048062 15831084 14518605 13073670
1390.44 11813518 11157386 10906436 10922199 11101080 11347833
1393.33 11590099 11800232 12058201 12228440 12193926 12112709
1396.22 11909833 11525919 11046330 10501613 9882795 9192776
1399.11 8573645 8009789 7413444 6831876 6290566 5839158
1402.01 5458488 5136526 4843386 4625159 4511706 4403449
1404.90 4340414 4254676 4199200 4145121 4051501 4003486
1407.79 4002796 4025708 3998065 3967185 3967204 3991644
1410.69 3985095 3969478 3994390 4034851 4070172 4072874
1413.58 4143722 4282917 4306073 4314357 4364079 4419561
1416.47 4492699 4492195 4525450 4667555 4712159 4681900
1419.36 4874304 4992806 4901169 4941914 5060696 5153667
1422.26 5253942 5391478 5541156 5754077 5958696 6147716
1425.15 6417986 6719410 7024894 7272599 7518002 7865311
1428.04 8239086 8573718 8876544 9240356 9650486 10083885
1430.93 10520613 10928513 11373362 11744319 12093305 12501705
1433.83 12866761 13160925 13393813 13596125 13687723 13781189
1436.72 14237311 14815549 15360599 16059504 16840098 17688595
1439.61 18599462 19479599 20434912 21511532 22611394 23782406
1442.51 24991189 26175514 27480675 28680163 29543563 30887779
1445.40 32288385 32942325 32767626 33084803 35269025 35645893
1448.29 34520321 34878305 35779725 36887388 38082234 39316050
1451.18 40573045 41767157 42833632 43842069 44970374 46198275
1454.08 47402859 48719317 50176033 51724073 53186314 55127975
1456.97 57954745 60688841 62828012 64885546 67928836 69281399
1459.86 69041450 70684791 73336040 75692256 77251413 78595856
1462.75 79493898 80040095 80835793 79983112 78048566 76691854
1465.65 75786194 75251285 74912595 74546629 74121455 73714690
1468.54 73158203 72434852 71610918 70354671 68384944 66324046
1471.43 64845154 64513602 65341268 66833888 68844328 70750866
1474.33 71765950 71838458 71101384 69684008 67843241 65645102
1477.22 63125427 60618954 58434031 56641916 55188036 53888611
1480.11 52737485 51664355 50623395 49384001 47757847 46261780
1483.00 45183299 44515820 44108707 43867755 43805581 43825089
1485.90 43999525 44294421 44694318 45355853 46161719 47049907
1488.79 48096869 49249489 50592016 51964215 53245648 54510418
1491.68 55992405 57596103 59287575 61072857 62991216 65143469
1494.57 67367550 68087984 64779225 60816615 59219275 58405303
1497.47 58317639 58703945 59564680 61438919 64775037 68787172
1500.36 73809909 78708389 71732998 58733245 52889348 51251713
1503.25 51330862 52037204 53029847 53724746 54153257 54460082
1506.15 53893295 52797583 51555460 49632098 47127806 44270305
1509.04 41082212 37751619 34412959 31052489 27798149 24654391
1511.93 21771580 19259677 17010940 15014687 13268890 11757981
1514.82 10529677 9510052 8586185 7807127 7180074 6766389
1517.72 6488538 6168381 5936775 5701302 5451935 5239829
1520.61 4897752 4916246 5087889 4938083 4901754 4920001
1523.50 4851557 4825487 4743272 4599251 4632694 4698594
1526.39 4639305 4543349 4507002 4475126 4433365 4449364
1529.29 4415223 4370981 4381927 4370734 4322192 4340672
1532.18 4349913 4327117 4305740 4328770 4409084 4416409
1535.07 4394664 4384308 4384781 4391460 4379837 4314618
1537.97 4122303 3790762 3870095 3922030 3863205 4070640
1540.86 4101156 3945141 3921011 4059373 4060171 4036698
1543.75 4066775 3950980 3844465 3941536 3988726 4018109
1546.64 4026561 3979950 3939415 3924826 3956909 3926389
1549.54 3846084 3845766 3892063 3884774 3841594 3824543
1552.43 3755046 3705830 3595579 3450807 3610515 3734273
1555.32 3658341 3623593 3586311 3413866 3335751 3176518
1558.21 3116483 3355493 3265799 3067486 3276445 3476009
1561.11 3446434 3445595 3418191 3405547 3377341 3320602
1564.00 3285615 3240839 3214522 3199915 3180865 3205416
1566.89 3216249 3223113 3211231 3161937 3075421 3025485
1569.79 3158470 3266435 3337052 3365445 3390311 3482547
1572.68 3569472 3649676 3742374 3837015 3960384 3934153
1575.57 3756830 4102980 4587617 4788021 5001468 5217350
1578.46 5415319 5647567 5897492 6120326 6345860 6554376
1581.36 6767034 6990120 7211085 7433173 7668119 7951035
1584.25 8291536 8624421 8965683 9368633 9799643 10233807
1587.14 10678536 11133988 11561321 11966368 12325472 12649399
1590.03 12934504 13183862 13455333 13718851 13971469 14150077
1592.93 14222158 14232216 14211023 14078075 13771729 13379165
1595.82 12985129 12614908 12333612 12285440 12492357 12959227
1598.71 13642944 14420787 15169339 15734988 16100075 16348520
1601.61 16505273 16581687 16620529 16696471 16830538 16892272
1604.50 16888023 16908380 16867408 16752872 16641408 16497351
1607.39 16294419 15996813 15654395 15212896 14663547 14070719
1610.28 13411116 12701698 12019970 11461759 11024732 10832172
1613.18 10912174 11154426 11507693 11857295 12146330 12212562
1616.07 11956818 11968538 12091984 11952141 11792677 11603816
1618.96 11308503 10916456 10476770 10079129 9699331 9234064
1621.85 8726030 8206982 7562028 7025463 6680361 6237742
1624.75 5756768 5297140 4858012 4470205 4131231 3754997
1627.64 3458054 3222719 2975536 2749558 2546171 2380066
1630.53 2184285 2034409 1921880 1780523 1701249 1574490
1633.43 1470356 1388858 1205550 953280 894157 1083158
1636.32 1104780 985284 941280 952096 935219 906892
1639.21 856969 796457 783335 797000 754260 724525
1642.10 739264 709123 666514 668362 660134 630415
1645.00 462308 290423 500854 609702 539590 554506
1647.89 576466 616074 653476 681057 656537 636953
1650.78 654855 537019 213392 114969 103161 394059
1653.67 656991 681845 868733 946963 1004816 1108969
1656.57 1206038 1270823 1390317 1482725 1584991 1719850
1659.46 1867086 2015982 2142653 2266211 2420733 2493961
1662.35 2545586 2743547 2924409 3042489 3097389 3084404
1665.25 3086073 3098794 3086128 3097107 3059946 3049392
1668.14 3143115 3119441 3291231 3637462 3797319 3715681
1671.03 3424507 3290390 3198621 3083302 3107669 3108880
1673.92 3113743 3040751 2999913 3183673 3346650 3371755
1676.82 3363615 3331602 3237796 3138496 3019507 2878840
1679.71 2723994 2557031 2384594 2196593 2018592 1842430
1682.60 1641298 1528580 1457387 1094966 988799 1294657
1685.49 1352535 1303080 1294600 1311786 1262856 1189961
1688.39 1172113 1145250 1065392 1011527 1034538 1007196
1691.28 982346 994254 942792 934143 961143 953319
1694.17 915535 832421 465413 424881 840184 938474
1697.07 963491 1036721 1040809 1022338 867560 690061
1699.96 741857 911521 1143340 1282436 1339283 1360038
1702.85 1385782 1435383 1421091 1511311 1651511 1691321
1705.74 1680536 1716729 1809631 1874708 1896360 1873768
1708.64 1869679 1882850 1838290 1782141 1730822 1753714
1711.53 1801136 1829810 1911400 1952046 1956388 2045820
1714.42 2048223 2046887 2094885 1961451 1625544 1265404
1717.31 1416508 1606844 1573150 1702002 1772186 1773987
1720.21 1771604 1765079 1730061 1672875 1627570 1559213
1723.10 1481729 1376127 1276980 1218662 1179362 1113163
1725.99 1015305 960947 930588 876520 807290 754169
1728.89 686083 637102 660720 670544 648042 597276
1731.78 605032 567952 322891 381674 405342 319274
1734.67 546193 630232 606849 621560 628589 622020
1737.56 618773 622673 633951 551264 518942 623773
1740.46 638355 620558 636530 624585 607107 616497
1743.35 639116 686982 721254 714118 716966 716820
1746.24 703245 709094 734766 736742 712425 711606
1749.13 724126 742558 707012 547796 578343 741253
1752.03 771814 816215 811524 813270 860571 884823
1754.92 869022 860216 855822 846882 909243 974665
1757.81 1007995 1025881 1010728 1015171 1043807 1036279
1760.71 998739 900182 938881 1039121 1024663 1048051
1763.60 1068045 1097040 1160372 1169315 1150593 1150183
1766.49 1152269 1167507 1155303 1228238 1395450 1508650
1769.38 1601083 1696260 1752083 1797210 2010365 2004436
1772.28 1952653 2315621 2544933 2673741 2892010 3074295
1775.17 3238113 3442495 3676705 3851666 4001638 4161493
1778.06 4341477 4519333 4652997 4784911 4864947 4935271
1780.95 5039277 5128463 5152480 5097880 5013511 4874685
1783.85 4684682 4441274 4222857 4053197 3937440 3938070
1786.74 4074902 4307372 4554835 4797950 4992379 5132347
1789.63 5173939 5073297 4966151 4884693 4701004 4425658
1792.53 4354235 4337935 4171203 4001935 3797468 3590552
1795.42 3363157 3102439 2879425 2666050 2490081 2317455
1798.31 2123715 1929832 1790337 1679322 1511267 1320939
1801.20 1208950 1092022 958564 899498 838331 794681
1804.10 755917 668317 590483 575966 589515 554796
1806.99 503063 470710 490360 534925 524259 485359
1809.88 465051 498828 516667 563444 641613 715228
1812.77 793917 859070 936662 1032007 1163320 1332208
1815.67 1473623 1619129 1798622 1954806 2105337 2274191
1818.56 2447031 2631793 2805530 2946730 3077356 3160709
1821.45 3217238 3263496 3275740 3261297 3248656 3216462
1824.35 3109725 3040183 3071379 3126951 3209980 3382950
1827.24 3646067 3984581 4208815 4143421 3474213 2643725
1830.13 2466296 2565947 2703160 2899784 3039373 3165880
1833.02 3271590 3295013 3261287 3157052 3015915 2861574
1835.92 2686278 2478780 2250520 2025131 1800003 1561338
1838.81 1331194 1173617 1020137 871317 776285 696617
1841.70 595607 534088 520560 413617 280487 341761
1844.59 447267 492188 564132 649918 720056 759831
1847.49 845993 978075 1045764 1114527 1254006 1400466
1850.38 1527748 1646081 1771335 1881687 1975794 2037606
1853.27 2109632 2210182 2273855 2307393 2321444 2336470
1856.17 2404516 2411461 2400980 2444183 2490438 2606167
1859.06 2755250 2919787 2958080 2923743 2855148 2747353
1861.95 2718275 2693873 2684545 2726351 2758514 2770233
1864.84 2791383 2842452 2888015 2936399 2958092 2940099
1867.74 2977827 2953183 2813934 2777269 2826171 2785926
1870.63 2729877 2693940 2612933 2523435 2443152 2408289
1873.52 2395532 2346054 2340770 2336415 2298044 2290206
1876.41 2291783 2321470 2300092 2248084 2256639 2262459
1879.31 2304614 2339368 2314801 2318449 2399116 2523092
1882.20 2657735 2817439 2972617 3112324 3244676 3376658
1885.09 3481146 3592531 3731344 3834860 3967329 4135949
1887.99 4304733 4456385 4648936 4912141 5152655 5387875
1890.88 5639105 5867775 6084601 6296211 6508791 6702365
1893.77 6891202 7033823 7165412 7272693 7326608 7341768
1896.66 7321409 7288071 7187961 7041481 6821176 6525554
1899.56 6205620 5861150 5571068 5420222 5424329 5653157
1902.45 6033194 6406694 6721428 6923396 7006710 6989471
1905.34 6879215 6698471 6465565 6236153 6005355 5768813
1908.23 5517118 5225557 4904674 4577998 4269388 3973387
1911.13 3669963 3346223 3015536 2706823 2429613 2175815
1914.02 1924274 1686195 1496674 1346333 1173879 1008604
1916.91 884160 750404 681840 629778 575694 521827
1919.81 451737 425517 400503 364893 344026 363033
1922.70 392093 401136 400246 449644 497772 517827
1925.59 575501 644823 715456 834638 988314 1095155
1928.48 1243151 1404508 1551174 1726289 1917246 2124334
1931.38 2346341 2581946 2821042 3082356 3315857 3546030
1934.27 3761481 3984378 4190602 4364264 4561150 4704207
1937.16 4775951 4777876 4729850 4716754 4723825 4722127
1940.05 4687100 4581081 4507881 4547133 4776869 5281124
1942.95 5844090 6310289 6122268 4888514 3853079 3642807
1945.84 3705651 3903037 4191233 4420542 4584427 4715230
1948.73 4762128 4722140 4629816 4480293 4284722 4025795
1951.63 3727368 3412698 3092693 2753005 2390146 2095591
1954.52 1838559 1601858 1383837 1191775 1049750 927047
1957.41 861361 789618 708757 677583 685870 661489
1960.30 592522 577818 587022 594489 582182 595711
1963.20 637993 626547 638864 638985 626137 625395
1966.09 561225 507521 523857 554793 549954 536427
1968.98 523663 526535 523085 536076 535935 506810
1971.87 485384 475042 485106 532606 592230 513144
1974.77 398461 415097 418049 381202 408950 428067
1977.66 393168 373171 397267 403986 389505 390189
1980.55 384046 372771 375225 378183 362834 348203
1983.45 325575 292521 285917 284474 270255 278618
1986.34 295122 277767 271343 278623 257066 251305
1989.23 241805 223357 231145 241751 214912 182124
1992.12 164754 154791 181032 166074 126798 137891
1995.02 143545 134531 130559 114279 98918 99069
1997.91 105667 133310 145613 135039 150624 137918
2000.80 102410 105182 97829 76564 83472 62264
2003.69 39887 28310 12183 18438 50759 75800
2006.59 125582 66393-108142-96666-39918-17527
2009.48-14337-46533-47481-59888-56011-25704
2012.37-7140 11340 9056 10664 6415 4211
2015.27 17316 10640 9766 8673 22705 48626
2018.16 60267 63591 78467 94088 49430 6416
2021.05 3636-2977-3353-5169-2335-10226
2023.94-36940-56503-55773-35292-55403-56602
2026.84-46741-49303-30735-25067-34151-21934
2029.73-32243-45172-40760-56481-53661-48178
2032.62-62942-57464-42315-36742-58971-79532
2035.51-60735-59807-61563-53586-34521-42544
2038.41-44242-50918-59713-58316-33553-11744
2041.30-21338-26641-19481 513-17848-34325
2044.19 870 6662-13076 1994 5649-16699
2047.09-13749-4454 393-9847-19872-863
2049.98-33514-53708-34540-54202-54607-34122
2052.87-48670-10727 7321-46877-54488-63350
2055.76-45653-41605-100563-114955-109088-93945
2058.66-111233-149039-150939-138926-143320-160451
2061.55-151628-161448-179690-193538-200316-200124
2064.44-201266-180000-196503-194152-193032-210221
2067.33-183678-190409-227298-215293-178413-216997
2070.23-218197-189228-168951-190215-221662-180041
2073.12-172395-165078-141754-167614-184372-185504
2076.01-185189-168973-153233-141281-137394-162207
2078.91-178277-162796-167463-152713-137023-132953
2081.80-137112-141829-133337-123015-110288-92314
2084.69-73449-52100-13361-54843-104482-90596
2087.58-77001-103175-107344-77369-93266-69042
2090.48-70678-114317-123315-131160-138944-148099
2093.37-162810-149114-131096-157034-140063-101765
2096.26-86765-64447-42527-41239 18100 62402
2099.15 8260-30792-20602 7824 3826 19927
2102.05 41383 86756 123991 90848 56429 74604
2104.94 91535 68026 84870 114422 180880 182613
2107.83 146383 154957 157234 148224 156212 169778
2110.73 217694 257950 229781 218760 202636 235225
2113.62 285296 300942 355717 430986 408746 390933
2116.51 375862 345780 324139 286822 296426 371147
2119.40 359180 286079 270894 267623 296598 282460
2122.30 248311 263312 259643 211396 141466 108839
2125.19 94659 113089 102565 86876 143400 122571
2128.08 84172 102305 119918 118299 94195 70330
2130.97 42748-3743-25090-26733-58713-95115
2133.87-116510-130483-126275-136876-152440-180948
2136.76-196500-202121-207241-196436-173881-163548
2139.65-184107-193971-208333-208138-187065-157703
2142.55-139906-165300-180233-169118-166024-142896
2145.44-135886-147102-128275-130963-147848-137817
2148.33-137754-125465-90425-86796-67347-49144
2151.22-73897-80165-90734-99453-104276-94030
2154.12-66144-85483-90704-69109-58724-17806
2157.01 32456 62908 82428 35787-18373-12888
2159.90 13129 146-11825 18959-7121-73442
2162.79-66458-60004-78922-63276-38294-1005
2165.69-18404-55367-45992-49381-71417-45988
2168.58 12978-41551-115370-117889-139816-140187
2171.47-94440-33238-45099-121150-139982-124220
2174.37-152368-162288-81761-25647-89401-127008
2177.26-124089-106263-92938-91364-34608-43772
2180.15-90852-126715-152998-140634-118156-58759
2183.04-61716-88130-99495-137181-130733-102400
2185.94-48204-36018-50099-39204-40656-43903
2188.83-48241-18456 3704-13427-41024-42267
2191.72-32097-30327 51051 91968 77833 115245
2194.61 148639 143071 183168 239541 251351 248879
2197.51 242980 272287 274967 293699 327859 310345
2200.40 313506 319782 348933 350379 342613 389788
2203.29 445713 509361 541029 513271 457933 485781
2206.19 522634 518054 487692 469741 472884 516290
2209.08 539756 497985 537331 597037 598588 615876
2211.97 626723 573122 526607 493637 461179 438217
2214.86 409123 393568 380677 333641 296814 320697
2217.76 340459 330612 322798 307382 297804 315635
2220.65 323819 324776 318288 293413 289791 258340
2223.54 225470 203879 195138 205387 220218 227686
2226.43 206740 209408 200671 185325 171171 152791
2229.33 133515 137006 142508 123789 110939 101003
2232.22 116162 112089 107695 117564 136513 136442
2235.11 97464 76267 70783 70342 60390 65839
2238.01 56402 40748 19846-20342-603 41654
2240.90 17118-13310-4811-1928-17240-7109
2243.79-6892-23223-4648-18942-54772-81423
2246.68-85462-76306-96976-123473-104807-93986
2249.58-110764-126865-99077-60203-94064-67271
2252.47-34730-68475-61310-29693-17109-9944
2255.36-283 5617 20040 10753 7806 53852
2258.25 72937 62900 82706 104749 95253 119966
2261.15 148764 128392 156809 229724 227187 231198
2264.04 273407 270564 288212 314952 333885 363655
2266.93 396264 412239 423840 487540 496955 491499
2269.83 537775 547838 538790 569395 605477 602617
2272.72 595676 598482 595714 590225 571195 567672
2275.61 575909 562388 556507 545469 534277 526671
2278.50 528459 513408 459269 445499 479004 495284
2281.40 506004 517184 492010 460672 443050 422195
2284.29 437141 426976 396047 383201 380050 369405
2287.18 355286 341477 289656 225540 190406 194197
2290.07 167832 154830 172925 165377 157744 147604
2292.97 132516 168161 184300 136722 113204 118589
2295.86 137142 168155 115977 68116 57265 54850
2298.75 62133 67254 44036 36964 71418 88955
2301.65 73200 36392 79733 114939 137173 116892
2304.54 115501 150047 154951 154528 131914 220517
2307.43 261413 255379 246255 291041 367400 396434
2310.32 341958 373091 498663 547755 436877 346715
2313.22 485193 547681 414664 245198 349027 483837
2316.11 346400 151847 302417 507789 495984 417794
2319.00 544592 656824 450267 47877 80686 461259
2321.89 428705 34279 116307 537492 416225-10643
2324.79 116052 546072 351106-177305-35494 460073
2327.68 186391-354319-18864 420186-101693-547417
2330.57-26595 252977-442813-629219 132212 200021
2333.47-514465-321302 390183 51984-532155-4552
2336.36 460848-133778-289771 458051 400985-253466
2339.25 110704 642174 136054-115782 478358 435277
2342.14-129842 147065 499639 85369-32500 372737
2345.04 281426 62476 352808 491915 404988 569782
2347.93 740478 742023 706992 654490 668993 609165
2350.82 338499 388079 459934 64377 57931 247345
2353.71-214827-244088 68248-499716-545016-121089
2356.61-754756-739947-310836-1072723-910245-472189
2359.50-1215820-867167-606946-1279258-707350-796055
2362.39-1300159-603054-1036066-1121550-623766-1199617
2365.29-804343-750720-1096594-590904-929645-787337
2368.18-596832-834401-462223-690183-516776-425052
2371.07-551878-319312-487793-351832-369235-298016
2373.96-250101-301336-209577-199075-153481-201481
2376.86-117518-90222-73650-58861-51737-37752
2379.75-38815-55181-79446-32703 23345 37206
2382.64 15619 19547 54116 53598 69317 93202
2385.53 61858 55708 106435 102831 69034 64953
2388.43 62115 76728 73920 63125 86147 100041
2391.32 98204 106807 148030 169281 128274 123292
2394.21 112442 106768 156514 169452 144564 144024
2397.11 136985 138665 156708 202150 243681 228597
2400.00 219385 256505 270921 289510 325082 330548
2402.89 306514 316858 374082 396454 418480 474449
2405.78 494207 482304 494235 529669 597266 663763
2408.68 652129 603184 605530 592251 569904 578832
2411.57 566978 537376 553526 579533 584218 622330
2414.46 642674 647518 658498 683924 737257 772981
2417.35 784289 800168 806871 808496 775215 755203
2420.25 750149 782009 877929 905059 889104 896668
2423.14 907191 911271 910711 901762 911753 901556
2426.03 935582 982568 986525 1027790 1041263 1096721
2428.93 1116145 1060459 1084917 1104402 1145384 1187798
2431.82 1166737 1135363 1162433 1202073 1215849 1255345
2434.71 1261585 1253944 1270743 1307307 1339242 1359207
2437.60 1365650 1343935 1333756 1318426 1318165 1292652
2440.50 1273328 1321541 1317214 1303532 1337913 1307185
2443.39 1266824 1274236 1278944 1283878 1278456 1268283
2446.28 1281161 1247349 1188002 1130907 1101540 1091930
2449.17 1046411 1014442 1051447 1099907 1068003 1033756
2452.07 1033421 1069853 1067224 1007113 967224 934821
2454.96 924876 900874 849960 801326 740548 714901
2457.85 680401 600018 576860 585482 566095 537836
2460.75 523472 516157 461575 398162 395250 432896
2463.64 436059 448739 437149 407647 405626 416259
2466.53 416024 399342 393537 392568 395180 358383
2469.42 338489 327952 293431 315360 316257 284200
2472.32 299671 307381 285727 261072 256477 289192
2475.21 298685 296976 332578 344675 294784 272091
2478.10 289317 291700 320983 317205 290448 289544
2480.99 298940 301558 309853 336036 331244 313800
2483.89 325735 332847 330430 339472 322202 300708
2486.78 308089 312612 288227 271831 284651 298483
2489.67 312299 360467 327384 278206 325199 348038
2492.57 339139 305477 263351 251739 253678 247693
2495.46 239548 232001 238932 246765 306308 348206
2498.35 323740 282427 273379 284522 246206 232668
2501.24 222671 219067 224846 254257 251557 207670
2504.14 217487 236630 245538 222975 229210 217566
2507.03 193603 198769 204616 210747 183704 172461
2509.92 188513 198152 197450 207542 200647 213138
2512.81 191534 141224 152085 194882 176408 128389
2515.71 112624 91116 134923 159547 156738 177327
2518.60 178716 163462 122034 90277 92649 88819
2521.49 46965 23970 50715 66066 40755 20166
2524.39 23132-10827-14728 19904 9046 13029
2527.28-7461-19642-10241-43175-42810-25354
2530.17-38949-30155 4721 3447-6965 5264
2533.06-3179-35741-51012-27507-1326-19816
2535.96-50572-60019-67317-47106-35156-86842
2538.85-88413-56837-50552-51776-17131-3051
2541.74-54463-72032-55140-18682-2906-39459
2544.63-10592 61427 49903-9225-21880 19151
2547.53 46415 25802 9582 27697 71063 80467
2550.42 93578 127241 122869 147598 190379 201190
2553.31 204886 222512 250776 285499 286645 324328
2556.21 411208 489380 550879 553608 560653 594958
2559.10 587251 581599 625653 683093 724920 736366
2561.99 776921 814328 808089 857870 957662 1049189
2564.88 1090304 1104927 1133079 1158725 1149050 1160891
2567.78 1197704 1258327 1312401 1345807 1385329 1438975
2570.67 1500328 1551040 1588721 1594836 1613205 1625944
2573.56 1639294 1674261 1634626 1610314 1624212 1597082
2576.45 1578471 1558844 1559647 1556942 1502560 1495464
2579.35 1503830 1475733 1472821 1485522 1530084 1545831
2582.24 1530657 1501425 1498515 1510267 1455369 1378659
2585.13 1313818 1220155 1115545 1052045 1023941 995916
2588.03 956750 955303 945311 922333 886248 821918
2590.92 797193 809457 802488 725949 646064 572601
2593.81 535484 556809 554199 516913 485641 469039
2596.70 435580 442462 435307 421783 437209 430478
2599.60 431455 423802 419244 416216 414559 416334
2602.49 418163 440634 470632 491488 521746 538575
2605.38 524597 536413 556751 563514 584045 619237
2608.27 607228 569369 571085 555253 583995 616990
2611.17 599634 617618 626989 636113 612981 612993
2614.06 635919 617984 578647 527023 506539 525692
2616.95 544021 535365 529391 587897 589448 533971
2619.85 518819 530726 541647 487100 470391 436032
2622.74 405837 418794 384809 367893 333670 268408
2625.63 227855 198097 197086 223076 215213 154618
2628.52 111873 92984 67487 83852 127766 141984
2631.42 111297 92708 116906 161919 132532 77000
2634.31 88215 52226 24092 60710 45702 38654
2637.20 24475-22887-20670 2458-12766-1015
2640.09 3864-33641-45447-13149 25259 12913
2642.99-5707 15556 25405-929-8003 3327
2645.88 21646 23973 28949 5822-17566 13815
2648.77-659-17578 12175-3628-13143-8077
2651.67 19438 45270 40497 32225 11874 28071
2654.56 66755 45986 20885 27237 55804 83182
2657.45 67166 82361 112059 72470 64962 81832
2660.34 82189 101240 79722 78485 103706 83909
2663.24 87923 117350 119167 76961 98109 165366
2666.13 167915 154652 159892 181971 199357 212951
2669.02 208892 224216 229247 237330 269876 304037
2671.91 315786 289566 279259 278548 285962 298647
2674.81 304982 312192 303695 296439 315785 335704
2677.70 333377 367328 370936 336280 316343 279236
2680.59 292733 333316 360563 360777 367271 351044
2683.49 341446 354798 346094 366887 369743 352801
2686.38 348069 336249 335191 310440 306930 294447
2689.27 310707 379801 348021 314179 333844 356376
2692.16 336054 328003 356189 330055 300800 312546
2695.06 352907 372535 330831 322317 296526 270417
2697.95 298147 267844 286464 335047 336805 341752
2700.84 336390 381080 390780 373139 391714 379219
2703.73 389230 456093 486369 508803 536686 536566
2706.63 565262 571303 571249 576359 587932 623627
2709.52 676105 694268 697158 716037 744436 749778
2712.41 758067 818772 886925 906030 918278 967068
2715.31 985625 1013973 1058295 1153836 1232179 1277752
2718.20 1364185 1440628 1515386 1595272 1628658 1656175
2721.09 1712242 1778377 1866668 1942801 1956371 2030457
2723.98 2106826 2163874 2273521 2327380 2405297 2551784
2726.88 2651593 2728906 2887323 3010106 3141003 3291175
2729.77 3431136 3621366 3800950 4007192 4287951 4568486
2732.66 4766302 4964655 5227514 5470300 5714055 5913463
2735.55 5993365 6078360 6208907 6296063 6297432 6278611
2738.45 6268270 6267759 6267671 6248144 6303899 6528693
2741.34 6937785 7360021 7334896 6983464 6715329 6455409
2744.23 6231149 6101287 6035551 6068121 6113416 6166940
2747.13 6254524 6359951 6448334 6472160 6442381 6310064
2750.02 6122473 5902818 5617347 5298167 4976295 4640924
2752.91 4316404 4041378 3775220 3454541 3175068 2969881
2755.80 2767181 2568527 2416215 2302104 2217465 2141799
2758.70 2076450 1989227 1904005 1885510 1903264 1966062
2761.59 2012338 2055032 2085458 2084371 2091677 2123617
2764.48 2206890 2253330 2268951 2326990 2340458 2341066
2767.37 2366578 2336336 2337294 2395230 2430310 2515700
2770.27 2562687 2649872 2802319 2759163 2618947 2524194
2773.16 2480333 2462993 2477770 2568421 2648621 2711276
2776.05 2748164 2758107 2817550 2835542 2832497 2856128
2778.95 2810977 2775608 2704664 2621552 2582620 2518804
2781.84 2418691 2319086 2267672 2160494 2092407 2039321
2784.73 2002080 2008539 1988825 1984195 1958561 1905532
2787.62 1865167 1898190 1917623 1869523 1822061 1835904
2790.52 1835592 1851023 1863987 1827575 1829140 1852959
2793.41 1861503 1820297 1779125 1818471 1880394 1836118
2796.30 1820998 1874288 1906303 1925553 1938467 1965808
2799.19 1989909 1975013 2013349 2024790 2001485 2076553
2802.09 2115799 2133672 2154851 2209929 2271973 2330998
2804.98 2425340 2495241 2502664 2518524 2609504 2680929
2807.87 2707767 2748126 2848382 2861843 2872328 2944404
2810.77 3015033 3105683 3174114 3249121 3302821 3380288
2813.66 3510434 3587185 3596193 3586021 3583225 3641186
2816.55 3758437 3821500 3791509 3827631 3925385 3989231
2819.44 4054906 4114659 4184460 4232267 4334760 4493574
2822.34 4581310 4703348 4865835 5018929 5125032 5164077
2825.23 5227189 5327506 5359769 5346534 5354847 5439580
2828.12 5503560 5530416 5579378 5665202 5791375 5856001
2831.01 5902364 6030948 6083061 6062651 6229406 6308469
2833.91 6305434 6375778 6443418 6488365 6501561 6577774
2836.80 6648731 6748409 6861271 6958252 7114620 7295591
2839.69 7464632 7620875 7828186 8009198 8198458 8395249
2842.59 8522897 8663976 8823093 9001691 9206745 9449418
2845.48 9685585 9919455 10133146 10346909 10599590 10827779
2848.37 11074381 11402945 11767501 12107936 12451083 12839502
2851.26 13247653 13607087 13985968 14485623 15037640 15617352
2854.16 16292431 17010654 17796191 18657616 19465811 20300367
2857.05 21152059 22036635 23034862 24016362 24946967 25847027
2859.94 26852424 27855881 28824952 29817484 30754939 31795617
2862.83 32813754 33758419 34754639 35813540 36938413 38050478
2865.73 39127070 40235473 41562268 42936256 44044147 44989742
2868.62 45956716 46999398 48084843 49186150 50368909 51625145
2871.51 52789018 53791273 54842591 55902546 56832483 57773861
2874.41 58620066 59319631 60045372 60791945 61466358 62126474
2877.30 62752329 63288553 63851544 64463487 65042227 65504187
2880.19 65850609 65977095 66071706 66369938 66509256 66394276
2883.08 66042918 65601134 65229642 65012659 64940107 64886290
2885.98 64923902 64986131 64974284 64778982 64418796 64015901
2888.87 63500975 62924031 62398245 62020787 61744845 61457587
2891.76 61092235 60633426 60272091 59892133 59403406 58883615
2894.65 58380338 57762224 57043554 56446420 55834537 55090412
2897.55 54329678 53617358 52971420 52337786 51665805 51035227
2900.44 50555859 50311126 50181665 50067523 50030413 49881239
2903.33 49669987 49556333 49399789 49157280 48770929 48371493
2906.23 48005104 47716375 47620464 47632597 47731909 47903062
2909.12 48127644 48568213 49176391 49844213 50529635 51222462
2912.01 51772537 52030308 52339675 52870540 53457382 53860633
2914.90 54233906 54850416 55607944 56422767 57299130 58362677
2917.80 59540280 60751837 62063112 63491016 65040500 66782789
2920.69 68643036 70495214 72332438 74067449 75718422 77348116
2923.58 79045360 80817940 82484861 84187277 85983285 87787287
2926.47 89446418 90979625 92538276 94095900 95635775 97038323
2929.37 98575037 100490305 102242001 103925983 105977102 107852244
2932.26 108790651 108928843 109002072 109528748 110451768 111591244
2935.15 112724867 113715824 114648719 115466553 116264533 117072868
2938.05 117614461 117953786 118219420 118206159 118042557 117807760
2940.94 117144369 116156940 115146693 114237960 113302778 112293711
2943.83 111248532 110320188 109687601 109657213 110132980 111907324
2946.72 115884955 125127590 133717963 132367418 128149002 125760370
2949.62 123767043 122139953 121525415 121678743 121336826 119784343
2952.51 116730238 113004935 109210394 105281513 101431462 98028508
2955.40 94952227 92391067 90181204 88210008 86678593 85452942
2958.29 84458909 83620535 82871815 82244609 81658948 81114838
2961.19 80416223 80175369 80249825 79871735 79369325 78957855
2964.08 78719359 78663755 78711763 78897277 79307027 79935989
2966.97 80773259 81745338 83020770 84408050 85768638 87279873
2969.87 88913255 90636353 92395764 94111541 95711823 97280473
2972.76 98764571 100097249 101177272 101971623 102454772 102609740
2975.65 102339710 101695917 100655122 99036562 96871285 94223201
2978.54 91314693 88479438 86085421 84455002 83959323 84694973
2981.44 86457449 88827931 91226664 92986249 93812697 93877362
2984.33 93238168 91990799 90284973 88298922 86068126 83622179
2987.22 81011822 78173224 75092080 71930278 68754025 65566983
2990.11 62375129 59211044 56174962 53327799 50642736 48100060
2993.01 45740434 43502716 41482447 39731926 38110255 36583638
2995.90 35218708 33963663 32813435 31789663 30800320 29828321
2998.79 29006659 28271430 27550849 26819522 26130999 25766417
3001.69 25518098 25373912 25528725 25828866 26233583 26742827
3004.58 27313790 27826039 28270058 28783132 29384911 29998967
3007.47 30668771 31493007 32410905 33402887 34444168 35656303
3010.36 37037793 38525299 40189200 42082976 44088348 46252874
3013.26 48656255 51174858 53878424 56675208 59560562 62601229
3016.15 65734027 68892244 71966073 74974299 77990404 80940506
3019.04 83646383 86110133 88431814 90571495 92467571 94029810
3021.93 95279932 96115796 96369328 96079287 95300986 94172624
3024.83 92971342 92015263 91771697 92790564 95201783 98884813
3027.72 103277626 107577082 111054946 113273042 114354082 114514439
3030.61 113980171 113035465 111950202 110728014 109257757 107697452
3033.51 106094254 104334656 102093463 99122854 95770136 92616689
3036.40 89514327 86148156 83202716 80866174 78811743 76998608
3039.29 75325090 73819584 72435375 70961437 69414217 67927344
3042.18 66497452 64969035 63383092 61923926 60580362 59281518
3045.08 58066705 57025362 56048903 55087283 54307518 53704589
3047.97 53270399 52939010 52727656 52676296 52732407 52952208
3050.86 53370581 53970196 54732824 55532150 56369434 57240311
3053.75 57933122 58588013 59348934 60235862 61258193 62318287
3056.65 63349872 64460609 65535602 66477897 67397180 68377489
3059.54 69229640 69897053 70665286 71315351 71886858 72481144
3062.43 73145606 74074834 75118524 76227334 77101861 77762784
3065.33 78420146 79037982 79488320 79747365 80062756 80524204
3068.22 81094193 81679742 82130128 82482478 82700121 82821702
3071.11 82767407 82360162 81846884 81185462 80393345 79517906
3074.00 78377573 77128826 75916536 74678088 73572650 72589973
3076.90 71725552 71162762 70927490 70879668 70913672 70933468
3079.79 70806433 70543084 70079265 69309583 68334957 67181967
3082.68 65834801 64398180 62844114 61251187 59678330 58083369
3085.57 56483487 54911377 53434196 52046250 50827506 49809834
3088.47 48860139 48001552 47091473 45996776 44698641 43224664
3091.36 41676448 39827041 38087982 36881900 35997592 35225761
3094.25 34506850 33728309 32856729 31981760 30982329 29834700
3097.15 28613094 27352648 26078079 24809236 23565531 22369549
3100.04 21233919 20231946 19356396 18492422 17744079 17173061
3102.93 16692018 16268976 15948537 15728253 15550316 15470783
3105.82 15488089 15486561 15450590 15592811 15722361 15845819
3108.72 16031438 16152342 16282777 16365557 16403431 16429257
3111.61 16440020 16359739 16266079 16116043 15883651 15622443
3114.50 15359883 15099816 14787691 14456307 14164839 13985978
3117.39 13837063 13762720 13758137 13785845 13897550 13964588
3120.29 13995778 13907262 13631536 13317395 12969782 12594786
3123.18 12208239 11848990 11429529 10975293 10574744 10113504
3126.07 9589936 9114587 8627019 8136310 7686257 7167885
3128.97 6704214 6365573 6027405 5647808 5350407 5049096
3131.86 4746290 4511343 4262228 4059617 3898321 3770310
3134.75 3601898 3405203 3232205 3147861 3068011 2959166
3137.64 2899515 2845507 2816441 2720983 2641187 2614843
3140.54 2539017 2445943 2392417 2393284 2410738 2384001
3143.43 2342336 2306735 2227171 2182489 2213783 2209570
3146.32 2125238 2077883 2077035 2046746 2031133 2037879
3149.21 2037273 2027528 1943169 1913335 1959184 1963345
3152.11 1947081 1920224 1897290 1832939 1811587 1840192
3155.00 1858216 1914422 1934042 1896395 1851988 1913802
3157.89 1968899 1893801 1877378 1939476 1925562 1878489
3160.79 1894532 1889022 1907244 1929975 1916630 1887336
3163.68 1851481 1844275 1862319 1865523 1876752 1938596
3166.57 1918421 1890862 1937792 1923601 1918994 1935339
3169.46 1925066 1891395 1844888 1829580 1856572 1821861
3172.36 1825661 1875012 1832616 1808235 1767555 1709365
3175.25 1694944 1671841 1628442 1657426 1653493 1588225
3178.14 1522036 1464293 1432429 1426695 1424807 1353932
3181.03 1309710 1254899 1199271 1173099 1115147 1125965
3183.93 1138562 1068250 1010979 978210 913306 903929
3186.82 926723 914722 883342 850576 819902 844610
3189.71 880723 810192 771985 816488 814127 802163
3192.61 807228 754075 726346 720748 715854 691219
3195.50 637816 653389 648732 593867 592139 670455
3198.39 644416 567827 568073 599280 606428 560274
3201.28 520336 506574 510633 493062 500238 494201
3204.18 448938 433476 440785 437868 421505 418750
3207.07 426797 426701 388990 389796 416601 406115
3209.96 384483 374738 338077 301529 318483 297046
3212.85 270249 296489 333421 298082 221195 265231
3215.75 289824 256962 290788 284020 254696 202337
3218.64 211503 278544 269526 262446 309610 295752
3221.53 228470 219141 300845 321157 290466 316947
3224.43 337620 390055 338214 257476 261424 285852
3227.32 275742 225562 250232 193939 143197 182470
3230.21 161635 179464 229071 205467 192155 183512
3233.10 152042 154312 169361 164112 129418 172134
3236.00 229972 167645 149286 188387 89596-4344
3238.89 47542 128528 116298 117679 125726 77383
3241.78 74041 122842 117358 80624 143031 126047
3244.67 104252 149368 130136 81308 51393 44626
3247.57 62157 56417 43771 58331-3860-20616
3250.46 47644 37574 43178 77014 65309 57615
3253.35 42933 41670 42583 14986-100 25650
3256.25 50818 72126 41690 13580 25842 29143
3259.14 48790 18731 14903 44860-30648 27975
3262.03 77612 40802 79352 27426-24845-22303
3264.92 4434-53245-106803 20952 112224 33760
3267.82 12995 64417 48961 52901 27732 24968
3270.71 42810 46132 84108 27558 39249 64068
3273.60 12501 11830-14389-49312-67966-23494
3276.49 47875 68079 53237 22722 41887 98347
3279.39 97169 21459 35380 31468-27083-17581
3282.28 7650 65875 82774 36252 54546 127411
3285.17 106043 69762 73536 44874 27349 50481
3288.07 75328 43267-27108-10458 58384 50669
3290.96 111968 168435 148592 103417 56696 65955
3293.85 85040 27994 31789 120594 125949 131179
3296.74 172248 177975 102514 74408 86816 53426
3299.64 35486 100001 104874 81735 114894 81079
3302.53 63917 114687 106491 76418 150361 137534
3305.42 104557 113409 58108 70313 127283 60216
3308.31 13575 15055 12920 46171 104971 170423
3311.21 159631 97884 76687 153566 126529 80522
3314.10 55874 30051 77398 103031 117494 75465
3316.99 94065 125136 102156 75713 83690 41828
3319.89-2560 2652-5380 26744-13054-76950
3322.78-86593-1744 73617 89036 19098-60783
3325.67-17359-6295-64528-43147-31047 1368
3328.56-8171-34692 14689-37165-58619 7444
3331.46-7075-27036-24452-55740-15758-7451
3334.35-21884-53825-79295-78213-64479-29848
3337.24-38008-24521-45406-30360 60481 57580
3340.13 6692-6599 1886-2644-43402-41909
3343.03-1346-26478-69934-35946 11352 22315
3345.92 3716-66261-115751-62012 30224 21856
3348.81-9346 3054-33926-19385 55465 8682
3351.71-78053-24697-31632-48650 24572 13227
3354.60-30051-40884-91371-61150 16140 26274
3357.49 47527 28150 36209 27773 6923 9347
3360.38 29254 45324 34334 34770-5506-12014
3363.28 53934 103453 99020 58357-10461 46095
3366.17 84895-17563-16701 37231 13363 30065
3369.06 92797 117482 63134 27328 100900 124752
3371.95 112723 75720 71612 140954 181337 197848
3374.85 185454 160435 183720 224220 216473 204102
3377.74 260167 204560 137830 180296 139430 77297
3380.63 77974 126463 130242 148232 203678 269727
3383.53 254954 158659 198585 279259 230756 135783
3386.42 130232 224979 212181 145488 140599 152724
3389.31 219004 218728 192770 178534 179676 202505
3392.20 252719 190326 71111 110552 157233 122316
3395.10 123238 161515 100993 39241 35061 93881
3397.99 126988 45135-17979-30259-17307-28644
3400.88-72459-14101 49757 28268-42055-98991
3403.77-53633-35166-5888 8028-11499-39654
3406.67-124529-100379-78247-21365 26004-96455
3409.56-133825-68858-65017-59735-43276-65855
3412.45-61375-20613-52030-159313-149575-99468
3415.35-42520-22155-54619-24025-12718-34435
3418.24-67674-68628-88517-130873-46324 37403
3421.13-19451-49416-46741 13029-14436-120958
3424.02-81374-37038-40756 4984-55036-87954
3426.92 49049 42938-67491-97726-53786-10901
3429.81 43251 53458 27060 47693 63651 29001
3432.70 13969-1930-62133-49719-11746-31733
3435.59-268 120848 151554 83474-888-31024
3438.49 15206 52312 33761 47723 49862-2779
3441.38 8232 60851 91165 66170 22158 8825
3444.27 25705 26279 93626 165027 93631 1952
3447.17 2002 113045 204892 147449 59151 52323
3450.06 133711 237480 239598 172855 169052 248200
3452.95 223084 189687 219627 210112 120105 84559
3455.84 195504 273700 251257 197060 234674 242584
3458.74 259201 296208 290792 268313 230600 217138
3461.63 286620 340148 282466 190300 192836 254938
3464.52 270116 213581 159527 242936 316524 319017
3467.41 299666 288662 284584 189417 140804 137874
3470.31 70860 154553 232056 235141 288284 239127
3473.20 153357 107060 101147 105377 130127 106505
3476.09 76686 91016 110432 137066 126604 101349
3478.99 14238-27580 33878 67009 75426 90747
3481.88 122123 135905 95755-21902 5297 165482
3484.77 118064 37610 54071 79331 20807-1990
3487.66 57432 59978-13917-55156-23001 2072
3490.56-18665-69112-80085-29513 14328-30129
3493.45-82049-67189-33346 27984-30498-85956
3496.34-64009-135901-106482-101383-100481-51445
3499.23-61569-77670-152323-116581-76447-109116
3502.13-101719-95090-103030-144190-151894-87007
3505.02-80879-127358-171185-154164-105288-71107
3507.91-61783-92410-92042-84716-73396-87242
3510.81-113604-111636-119256-161942-150555-131250
3513.70-148249-152395-115710-88047-97621-104033
3516.59-97726-90664-108649-127470-133728-137776
3519.48-66124-46729-141462-175758-112524-81362
3522.38-102478-88033-135897-183908-130369-115537
3525.27-92479-97634-121740-115169-102893-65799
3528.16-147360-160143-85136-99117-68364-29544
3531.05-122850-151815-50864-23733-31481-86164
3533.95-135247-117564-136618-128777-130842-99456
3536.84-14797-49924-137166-155502-71756-307
3539.73-109254-141531-115617-125538-86046-87975
3542.63-68349-66953-68112-8992-38477-135668
3545.52-108305-39281-52805-70197-82254-52372
3548.41-62920-48120-23088-63152-55737-69405
3551.30-130543-104450 3534 24612 36464 33688
3554.20-18092-57745-40305-43896-84755-122531
3557.09-107263-43055-113074-126400-47800-64545
3559.98-57267-78008-103904-56224 1103 44990
3562.87-372-38343-54635-101515-65043-53721
3565.77-84957-58823-39690-95733-110828-38793
3568.66 15569 33290 31870-34044-61637-13845
3571.55 16704-23108-18279 1676-39434-14222
3574.45 48349 24296 5644-18507-7514 38988
3577.34 38529 54220 42898 89989 27206-15646
3580.23 49463 39335 38772 81669 92328 50249
3583.12 93759 124600 83399 83474 86916 13778
3586.02-125136-133224-38228 24870-61883-104983
3588.91-2816-658 25368 67032 84003 68910
3591.80-3379-11412 33516 85061 161109 134238
3594.69 85025 89761 53183 87914 133159 142727
3597.59 85765 19424 112150 196928 139066 137099
3600.48 180462 192919 254764 244855 187050 245801
3603.37 274940 230743 166068 119347 195749 245701
3606.27 169184 135343 192066 245455 203451 108241
3609.16 177215 229284 181275 189620 174438 135809
3612.05 114326 164105 231762 198386 99545 98142
3614.94 110738 111269 86186 40519 41834 45835
3617.84 49917 70839-83161-159177-14302 36000
3620.73-524-74817-99649-58300-31301-90332
3623.62-68025-50978-125521-99901-70850-93367
3626.51-97574-110303-257447-352155-245196-377482
3629.41-366685-160502-149562-149478-151417-161125
3632.30-124951-88493-102053-50388-44915-73598
3635.19-57707-83925-121535-135003-110660-56386
3638.09-78635-92937-59888-84242-104103-148228
3640.98-110908-69721-104221-95104-75384-53821
3643.87-31966-26639-48270-71624-79054-73292
3646.76-166689-179022-67489-175469-389502-275664
3649.66-155502-196228-171903-131558-66796-90376
3652.55-122067-86984-59735-30543-56075-98338
3655.44-164686-216812-125735-70830-85163-47244
3658.33 465 2971-27119-51751-41504-30506
3661.23-29466-63265-119986-64621-11928-56985
3664.12-77247-53615-37916-75535-108737-167939
3667.01-215423-120853-142119-205975-130311-117581
3669.91-370943-406994-120242-102060-134992-93966
3672.80-106834-185240-253985-326625-265451-329121
3675.69-398110-147280-54748-127722-116362-132274
3678.58-204494-204167-179153-149976-159315-124650
3681.48-77733-98333-97384-63503-101928-121563
3684.37-92320-83203-87896-131999-124277-121711
3687.26-208513-470316-423300-185199-163535-202354
3690.15-187757-193216-176856-72681-53884-58590
3693.05-99001-109121-48158-44167-75787-61335
3695.94-58508-69035-93873-134696-121759-70530
3698.83-119402-183380-116750-61947-130740-214729
3701.73-138822-72060-106995-119316-139063-176900
3704.62-164472-152430-148366-121753-130591-147603
3707.51-186842-179669-202715-290736-282007-205827
3710.40-180714-177077-344139-436492-300994-227162
3713.30-140232-121728-194113-164047-141083-198704
3716.19-194512-182769-157984-120717-153362-172456
3719.08-133161-98185-120665-152892-156195-184210
3721.97-178464-127325-145867-195689-186220-168801
3724.87-192588-183626-196147-163469-84854-139499
3727.76-157505-134168-147910-158719-122246-83292
3730.65-128341-253975-383609-269312-113305-127990
3733.55-181444-218638-265810-247275-193357-310633
3736.44-332429-209580-195987-173113-101049-73484
3739.33-58849-80128-136990-137629-85846-67914
3742.22-54633-66141-162776-465855-639048-324004
3745.12-34876 8536 29831 36361 27969 6900
3748.01 16706-155381-345703-111708 56185 32393
3750.90 33321-158276-216726 38822 138087 150897
3753.79 184912 206008 185525 194747 157212 107674
3756.69 199858 236731 222199 165757 140918 83500
3759.58 44631 163044 235141 245352 208330 181068
3762.47 213555 214497 218304 242643 261349 184594
3765.37 108945 173473 217340 158707 109341 103756
3768.26 88731 21230-120457-98448 39334 23833
3771.15 7446 19581-3998-26275-45016-21268
3774.04 15122 2428-2692 1959-44826-20305
3776.94 930-98261-69490 15089-67990-120446
3779.83-73247-20487 2758-26354-32495-38641
3782.72-31120-28494-29911-24872-62055-30849
3785.61 37746 42139 64316 92773 62230 57616
3788.51 45198 16977 114619 149984 42570 62530
3791.40 80318 57293 84987 90575 55921 71896
3794.29 115103 119912 100093-28142-32237 31090
3797.19 75927 146374 187105 165282 60036 9210
3800.08 44134-148101-296131-24706 115406 96593
3802.97 107082 182201 214986 142493 113299 99274
3805.86 72499-142165-129542 89708 142515 159610
3808.76 183136 213777 159942 125817 194980 200166
3811.65 132978 89402 134300 206429 230475 187725
3814.54 171168 61533-216196-70267 199139 224239
3817.43 233054 234900 244189 226490 152052 74818
3820.33 55008 51780 78539 193966 280236 318188
3823.22 334370 349900 375733 389923 404908 429755
3826.11 381410 377093 432340 422801 453641 486148
3829.01 455062 485080 492269 419509 351851 360466
3831.90 448313 482269 453742 458046 476162 402605
3834.79 448774 546167 470272 448523 421167 78416
3837.68 153588 481190 477659 459354 474371 459414
3840.58 419649 492946 525078 527250 522234 458488
3843.47 533203 568506 534939 568471 545322 499045
3846.36 588954 673992 629496 612294 610415 608013
3849.25 642679 621808 568164 576573 394434 331877
3852.15 586701 666697 465833 184365 358189 681993
3855.04 740990 792712 833853 815006 830351 865533
3857.93 854362 840753 840233 821390 773081 811101
3860.83 813812 748578 823196 905605 898432 911394
3863.72 893586 807681 764903 874117 948059 923259
3866.61 958123 995415 988299 877982 792928 787917
3869.50 675554 765037 903791 867006 838432 881345
3872.40 909648 865748 851680 856501 884468 913967
3875.29 898910 905267 943623 949357 966267 1003477
3878.18 994618 1031281 1028412 954978 965680 983082
3881.07 995491 986754 1018066 1032148 1002984 1002714
3883.97 1015299 1057558 942452 876075 1041436 1127272
3886.86 1155874 1179056 1223198 1279053 1284676 1234225
3889.75 1218272 1234231 1146428 1192365 1342974 1385542
3892.65 1363338 1363528 1408455 1428151 1443120 1454212
3895.54 1457605 1481171 1507147 1525959 1459829 1401264
3898.43 1370335 1357268 1455941 1504648 1518581 1536738
3901.32 1499201 1567556 1657078 1615304 1487503 1397692
3904.22 1440162 1436195 1443991 1486330 1433942 1441235
3907.11 1491503 1440657 1404610 1392987 1363176 1313535
3910.00 1257794 1202255 1169521 1117922 1080525 1096586
3912.89 1067000 1007800 992760 986543 935561 907807
3915.79 888768 811339 754290 801088 770701 711668
3918.68 715892 678156 644726 658162 707920 710410
3921.57 692332 680966 645669 643101 631258 608894
3924.47 562685 545798 540747 557322 590028 526290
3927.36 483464 482264 516883 456653 367318 391375
3930.25 401786 428833 397847 351807 381386 398219
3933.14 406938 421732 419452 385670 381744 383534
3936.04 395952 412191 383191 348448 374138 377383
3938.93 348749 387708 400988 373601 359197 354473
3941.82 345687 350746 345922 368627 403827 378626
3944.71 406155 461259 457288 431696 386309 396037
3947.61 472553 507482 499239 426835 394776 435919
3950.50 450619 492588 560474 581641 544925 521111
3953.39 551700 590482 570975 527110 504862 541597
3956.29 596329 624549 584318 559749 572850 526974
3959.18 599364 701454 686898 649085 619869 641048
3962.07 657827 638540 650976 699853 737648 680400
3964.96 618317 643699 677750 664441 606603 575792
3967.86 612274 681922 705836 699868 686788 681074
3970.75 661135 630999 571274 555355 581184 538434
3973.64 532974 570320
##END=
