##TITLE=1,2-Dimethylbenzene
##JCAMP-DX=4.24
##DATA TYPE=INFRARED SPECTRUM
##CLASS=IUPAC A
##ORIGIN=NIST, Analytical Chemistry Division, 301-975-3108
##OWNER=COPYRIGHT (C) 2001 by the U.S. Secretary of Commerce
##DATE=01/06/01
##$SPECTRA VERSION=1.10
##$UNCERTAINTY IN Y=2.2 % relative (B=1.21E-04,C=1.57E-9,D=3.06E-14)
##CAS NAME=1,2-Dimethylbenzene
##CAS REGISTRY NO=95-47-6
##MOLFORM=1,2-( C H3)2 C6 H4
##MP=-25.18 C
##BP=144.4 C
##$NIST SOURCE=QUANT-IR
##SPECTROMETER/DATA SYSTEM=IFS66V (Bruker)
##INSTRUMENT PARAMETERS=KBr Beam Splitter; MCT Detector; Multipass cell
##STATE=gas
##SAMPLE DESCRIPTION=o-Xylene Primary Gas Standard
##PRESSURE=101.3 Pa
##TEMPERATURE=23 C
##SAMPLING PROCEDURE=1 L/min Flow
##RESOLUTION=1.9290
##DATA PROCESSING=Happ Genzel Apodization
##XUNITS=cm-1
##YUNITS=(micromol/mol)-1m-1 (base 10)
##XFACTOR=1.0
##YFACTOR=18.189E-13
##DELTAX=0.9645
##FIRSTX=575.652
##LASTX=3974.606
##FIRSTY=2.90E-06
##MAXX=3973.64
##MINX=575.65
##MAXY=.0011361
##MINY=-1.71E-06
##NPOINTS=3526
##XYDATA=(X++(Y..Y))
575.65 1597133 1365146 1068243 930693 1217449 2397651
580.47 2289952 1457437 1270389 1600188 1509716 1809032
586.26 2042306 1909064 1604746 1587814 1196786 787191
592.04 555397 372046 355964 490317 284719 351479
597.83 252323 44-157468 82787-95642-54087
603.62-24995 95998 84628 63183-143667-110943
609.40-217810-21468 110606 302060 116419 50215
615.19 23045 11708-138442-27326-159604-115150
620.97-61024 176549 76245-16775-67325 25790
626.76-23063 11628-77894-18092-172353 16638
632.54-20995 64756-34555 22458-41170-880
638.33-115649 49122-88358 32316-30111-51919
644.11-170417 93202 29294-17210-161202 38877
649.90-34315 25961-74324 46975-114335 5871
655.68-48753 74849 35367 235496 96079 98502
661.47-45145 163819 118493 240954-45510-403133
667.26-509370-15929 18938 220387 30366 196478
673.04 100856 140457 12115 182957-50217 153381
678.83 29240 153873-1429 155775 58537 264135
684.61 36292 170349 81352 292447 229826 494823
690.40 237887 445451 307516 506813 283597 415971
696.18 379949 783680 522093 683604 409591 670240
701.97 592089 894979 605664 855902 593790 928898
707.75 803223 1244156 1114726 1711402 1852249 2649042
713.54 2976579 4324589 5192283 7232063 9142127 12557173
719.32 16175130 21780130 27767179 36360280 45759307 57812835
725.11 69803897 82224795 92761955 104531830 113181118 120768064
730.90 123553489 124730252 120814639 117520940 113108413 117859381
736.68 130585690 175734795 328441136 614012131 624596135 292414678
742.47 125198496 106785811 109726834 113810173 122323354 127778790
748.25 132923162 132249417 129031273 120073891 109667477 95938820
754.04 82673426 68186397 55701742 43598828 34223378 25524776
759.82 19444882 14002721 10610574 7406240 5767784 3970297
765.61 3452101 2605679 2465302 1561021 1387013 935072
771.39 1191794 803705 983642 715741 912705 631529
777.18 799310 559301 795039 526865 699593 494615
782.96 603704 348081 600749 421869 634570 414052
788.75 559361 339900 455762 357091 555219 333330
794.53 416137 262184 379547 152191 274967 166733
800.32 354028 249370 403709 330068 483622 342273
806.11 477943 336976 463164 376228 535233 438692
811.89 623962 608827 750411 694686 829479 738001
817.68 885839 785467 966307 991185 1068517 892286
823.46 1002947 884713 897875 694467 789932 791590
829.25 953224 744876 693435 526707 562411 490515
835.03 634443 501728 481872 360773 399644 268882
840.82 364393 313605 428294 352555 331766 224330
846.60 342339 343057 405505 384262 569931 514234
852.39 615276 630934 871477 964281 1020586 909702
858.17 1054664 1068418 1194515 1265649 1465059 1452561
863.96 1543168 1524697 1683688 1686845 1762289 1680140
869.75 1684052 1561709 1627849 1520237 1560101 1504839
875.53 1448299 1340563 1311713 1168203 1180190 1004509
881.32 962565 846297 851262 712112 697359 632644
887.10 715290 676560 723661 665047 710602 677082
892.89 760456 770924 900412 918149 1012299 971564
898.67 1041105 1024759 1087902 1001831 1014042 953483
904.46 1045292 982396 993165 989709 1104865 1098362
910.24 1165694 1086459 1099352 1034206 1093591 1119096
916.03 1193214 1123781 1204787 1164537 1203951 1216277
921.81 1320511 1260995 1282694 1295853 1400957 1493955
927.60 1800578 2307611 3240025 3531200 2947848 2234764
933.39 1905465 1713943 1671708 1634368 1716947 1796190
939.17 1899813 1894947 1950775 1893124 1885269 1769363
944.96 1724303 1604986 1538751 1423849 1322777 1216934
950.74 1228149 1156195 1185671 1102255 1121877 1103789
956.53 1145861 1095907 1118601 1148577 1202332 1169350
962.31 1285249 1360846 1533603 1690541 1910781 2149165
968.10 2576918 3045412 3658217 4326597 5198830 6116062
973.88 7146647 8102388 9079126 9848351 10527932 10930872
979.67 11175109 11315326 11802183 12660995 13313518 12975715
985.45 12404270 12620014 12831670 12358948 12085874 11809671
991.24 11324682 10578715 9856391 9043804 8221197 7304253
997.03 6578001 5955876 5530551 5240776 5119565 5026298
1002.81 5129325 5206802 5378296 5598048 5929460 6257834
1008.60 6691795 7069194 7486170 7964948 8348295 8444296
1014.38 8499585 8521535 8624827 8761134 9160773 9670012
1020.17 10198015 10965168 14324037 17484265 13584325 9214836
1025.95 8089312 7732284 7625624 7532274 7547258 7322586
1031.74 7032333 6749911 6571234 6344872 6259527 6170226
1037.52 6275020 6568459 7237889 8296251 9824897 11661404
1043.31 13932587 16282505 18518779 20262199 21124660 20880713
1049.09 19883953 18374914 18192965 21949537 26457994 24341686
1054.88 19514744 17679930 18236180 19309200 19989712 19736576
1060.67 18622488 16724676 14381474 11784133 9407628 7318547
1066.45 5630032 4353913 3405985 2638841 2121338 1655434
1072.24 1382339 1202659 1114896 957842 904578 854085
1078.02 793827 698778 669481 618533 622403 568862
1083.81 609072 625810 665800 650883 700746 655907
1089.59 658526 681134 706475 673505 714596 720624
1095.38 699518 716427 865540 964832 1070788 1136270
1101.16 1290300 1471526 1737291 1985698 2390576 2872282
1106.95 3438592 4033421 4752092 5515525 6372409 7220546
1112.73 8092796 8866908 9560867 10044415 10344134 10166193
1118.52 9597838 9040433 9139685 9737464 10428609 10917274
1124.31 11204910 11219211 11096409 10704928 10225659 9696671
1130.09 9198847 8630316 8077187 7565070 7175347 6852044
1135.88 6629069 6367276 6143351 5809337 5358330 4902392
1141.66 4657021 4597724 4650574 4667986 4671701 4604048
1147.45 4571382 4460027 4321629 4114326 3937078 3692261
1153.23 3477306 3223876 2991476 2756704 2669324 2534720
1159.02 2390756 2283172 2252666 2301818 2385352 2328516
1164.80 2306602 2262853 2175473 2035879 2016526 2031058
1170.59 2041429 1990293 1962441 1881137 1870176 1847006
1176.37 1829151 1808967 1831653 1746728 1665632 1605253
1182.16 1631038 1599969 1539762 1465107 1416574 1343458
1187.95 1321537 1303033 1293913 1246367 1226590 1174511
1193.73 1184585 1187400 1186708 1119727 1098081 1089638
1199.52 1111401 1065081 1104844 1128744 1196291 1249133
1205.30 1270711 1310706 1429315 1493456 1631202 1843453
1211.09 2109643 2376259 2732922 3117565 3517682 3846734
1216.87 4149773 4317937 4442672 4510754 4571306 4613820
1222.66 4752621 4914577 5076267 4998231 4544716 4203835
1228.44 4327819 4437119 4412297 4250590 3976957 3554077
1234.23 3086836 2582295 2092882 1635858 1268111 964080
1240.01 791156 666909 597472 500167 440884 405311
1245.80 436053 399492 395292 427149 473212 463214
1251.59 484827 506175 538563 550277 580538 586393
1257.37 629047 664916 682282 684414 720649 720007
1263.16 757696 792828 803166 760638 760651 776413
1268.94 810782 788388 813762 806873 837413 837628
1274.73 853191 881125 930044 926282 944256 959300
1280.51 1023012 1032829 1048565 1087056 1113532 1086442
1286.30 1124311 1111959 1063763 1036180 1058439 1075851
1292.08 1093652 1122346 1165900 1140703 1106432 1055719
1297.87 1016350 981994 961157 929062 919757 894129
1303.65 889113 866884 852600 831599 885496 909928
1309.44 953897 945751 920732 934243 1000733 1032706
1315.23 1068232 1071204 1112465 1131063 1175056 1194008
1321.01 1258912 1265478 1301742 1335213 1398701 1421607
1326.80 1427030 1459038 1540240 1577107 1664599 1783374
1332.58 1881393 1850950 1758331 1685929 1678194 1702999
1338.37 1801671 1808741 1862835 1890730 1927301 1969325
1344.15 2073675 2088406 2116494 2172362 2166825 2103316
1349.94 2062866 2021887 2108448 2251049 2560381 2668749
1355.72 2688650 2746092 2654513 2612084 2752688 2928150
1361.51 3065384 3169918 3409746 3681303 3973689 4304298
1367.29 4730440 5206270 5707686 6237293 6761344 7215545
1373.08 7696876 8128910 8428152 8340967 7956512 7823714
1378.87 8709941 10624275 12531653 13631898 14048379 14064224
1384.65 13714824 13042854 12986307 14662601 15413566 13309751
1390.44 11361180 10931386 11340680 11854530 12238100 12155003
1396.22 11578549 10513063 9242144 7953118 6785439 5762138
1402.01 5038302 4537502 4304172 4142657 4029432 3915307
1407.79 3908207 3873590 3885596 3878002 3934804 3998375
1413.58 4146761 4227673 4326441 4399816 4527502 4649412
1419.36 4797331 4853917 5026939 5256610 5618566 6033823
1425.15 6588143 7130910 7758741 8419589 9151984 9957070
1430.93 10837537 11624335 12394478 13003627 13401723 13744854
1436.72 14619023 15898764 17545599 19346608 21426501 23704942
1442.51 26199020 28588232 30984420 32620498 33865671 34919179
1448.29 35220265 36815380 39275875 41685839 43895412 46191349
1454.08 48788147 51730414 55656577 60676354 65595682 69070193
1459.86 71832301 75939792 79195135 80859875 80167560 77567899
1465.65 75794218 74946822 74088626 72763768 70255900 66706272
1471.43 65134071 67286624 70801390 72068428 70075164 65902166
1477.22 60983446 56852546 53937190 51610505 49083334 46261700
1483.00 44378499 43650103 43625843 44105872 45232124 46968141
1488.79 49279548 51932489 54735422 57869133 61632768 65824268
1494.57 66841359 62249535 58833046 58977190 62557295 70540667
1500.36 74191219 62389335 52263736 52090879 53897228 54626434
1506.15 53288905 49923298 44528267 37968472 31072049 24595281
1511.93 19048017 14723508 11435714 9118516 7455192 6447641
1517.72 5845949 5391039 4929146 4731113 4731962 4703083
1523.50 4615348 4511633 4487196 4427285 4340028 4306659
1529.29 4270877 4248319 4231956 4230840 4258919 4318271
1535.07 4317820 4318334 4162238 3868156 3806579 3925501
1540.86 3933099 3951646 3982614 3899367 3878240 3947502
1546.64 3930357 3891834 3854672 3821377 3821073 3762605
1552.43 3622899 3524184 3602480 3575317 3378219 3179915
1558.21 3158849 3177239 3326971 3400767 3354054 3276599
1564.00 3193483 3144014 3146454 3151196 3077196 3032263
1569.79 3170799 3297383 3418560 3587272 3761065 3818357
1575.57 4104988 4698051 5164916 5611756 6074396 6518922
1581.36 6948865 7402550 7939209 8603201 9373134 10251048
1587.14 11158620 12003826 12701823 13278858 13810035 14208246
1592.93 14321845 14072975 13399642 12626105 12352552 13033859
1598.71 14437144 15737027 16437582 16702264 16854664 17000014
1604.50 17025526 16897084 16613001 16105662 15272927 14099917
1610.28 12713957 11475362 10901725 11179779 11844731 12156159
1616.07 12115191 12019025 11653059 10984460 10153386 9256114
1621.85 8177759 7102874 6179820 5269360 4427192 3718241
1627.64 3146596 2687577 2297790 1978681 1729856 1519545
1633.43 1265590 984428 948871 956060 893063 847200
1639.21 769974 731361 696087 664424 627009 519590
1645.00 397487 481679 529965 583138 629099 614448
1650.78 398390 137165 317355 677350 899907 1079153
1656.57 1256832 1462159 1705898 1996451 2263644 2493632
1662.35 2753235 3024200 3103180 3106100 3080293 3081674
1668.14 3217572 3585041 3652626 3340804 3135150 3093048
1673.92 3067681 3195551 3370463 3339730 3157223 2889566
1679.71 2559236 2192659 1822729 1484662 1174755 1174472
1685.49 1294019 1265970 1196914 1099392 1022833 981123
1691.28 955868 932398 914123 697007 587558 851024
1697.07 1006296 935229 763031 909806 1220608 1357946
1702.85 1412140 1528479 1662082 1748560 1855099 1888314
1708.64 1861177 1784911 1762373 1842900 1947757 2032982
1714.42 2075581 1849858 1472888 1502620 1686406 1775089
1720.21 1762760 1684477 1553750 1377935 1219107 1089150
1725.99 959073 852608 729563 649603 633771 599905
1731.78 478157 352658 404055 556415 614004 612367
1737.56 603253 562157 578819 615953 606803 613296
1743.35 666727 704682 701909 706248 712899 711512
1749.13 688016 612044 676934 784778 821437 854765
1754.92 846850 863765 946557 1004573 1015592 997978
1760.71 940961 976577 1032307 1090309 1134312 1128894
1766.49 1131291 1240147 1469176 1659736 1822895 1977009
1772.28 2266069 2690323 3069047 3469964 3857261 4207557
1778.06 4541326 4813921 5006300 5158119 5136692 4889096
1783.85 4462472 4072936 3990932 4324727 4814971 5142309
1789.63 5134738 4890097 4555936 4314631 4022538 3600679
1795.42 3122624 2676969 2291709 1935910 1626751 1319025
1801.20 1050651 867244 752783 634760 549739 503668
1806.99 459407 471103 455157 456222 535997 676171
1812.77 826480 1019345 1296353 1615688 1943535 2282936
1818.56 2641194 2963598 3178668 3280078 3285643 3198735
1824.35 3089319 3145112 3470071 3996048 3891567 2942970
1830.13 2570919 2870633 3178381 3303095 3179457 2882763
1835.92 2483802 2021431 1548620 1145382 852008 645593
1841.70 498742 355198 317523 450390 600757 748323
1847.49 921202 1122407 1373455 1641822 1868838 2047609
1853.27 2199602 2303461 2356153 2400761 2452004 2636972
1859.06 2878697 2920312 2784300 2702889 2719514 2775183
1864.84 2847223 2932340 2967281 2916889 2820596 2775276
1870.63 2672833 2522836 2399813 2344629 2302308 2282429
1876.41 2273906 2247549 2245984 2281715 2318585 2499545
1882.20 2789134 3094359 3352554 3592368 3834515 4128563
1887.99 4473159 4916645 5413459 5899311 6345532 6761174
1893.77 7100247 7332371 7412047 7344224 7070807 6544183
1899.56 5881279 5483401 5722519 6414692 6945488 7042848
1905.34 6762658 6312737 5815396 5253139 4611425 3979340
1911.13 3332899 2701466 2138161 1666179 1285257 969897
1916.91 718300 574089 461927 375266 316942 316423
1922.70 345668 400562 477844 600194 799024 1067947
1928.48 1362987 1708221 2109749 2581141 3077333 3565365
1934.27 4009292 4421640 4718190 4811697 4770402 4732061
1940.05 4602023 4685842 5421028 6037137 5014536 3823022
1945.84 3911030 4410732 4738069 4765451 4526513 4058154
1951.63 3440145 2750088 2100238 1576116 1172509 905765
1957.41 745637 658785 609682 563703 561675 585332
1963.20 615726 622086 586223 525776 524703 525140
1968.98 516723 518985 497648 480851 521820 491477
1974.77 407573 393795 394426 385615 385613 382889
1980.55 371652 366014 336721 296079 272086 274239
1986.34 273967 264010 243491 229302 218408 183122
1992.12 158761 149259 131536 127203 105940 98632
1997.91 119823 138951 124761 99273 78496 53502
2003.69 20371 26689 71900 18236-71880-43233
2009.48-46514-58810-37444-902 2777 5617
2015.27 3645 12931 37686 69544 65381 22094
2021.05-7971-7521-25848-49811-57989-56063
2026.84-49463-33352-34862-43132-56788-59037
2032.62-58025-53569-70646-66272-56318-45765
2038.41-58251-50494-31476-20285-20384-15787
2044.19-8467-2923-11768-8701-11774-21004
2049.98-44755-51681-46246-21717-36528-53667
2055.76-71315-102739-116304-137278-152826-155423
2061.55-173368-194439-206081-196922-201400-200303
2067.33-209004-212043-212171-198857-197992-191656
2073.12-167618-170648-187946-172080-152751-161829
2078.91-173366-155993-143567-140084-127481-92045
2084.69-53463-59295-93210-97789-94563-81702
2090.48-108540-136325-157013-156679-150325-115174
2096.26-72165-18871 16540-7517-10771 24616
2102.05 76049 89177 69905 79789 121911 165693
2107.83 152009 152701 180594 229624 218832 242853
2113.62 317237 400830 397363 349902 312189 336656
2119.40 307345 280930 274781 260134 198032 120386
2125.19 95206 108329 109741 107796 106509 68064
2130.97 4000-42753-95666-129182-150209-182769
2136.76-209887-197272-184863-199557-204900-170956
2142.55-168601-172390-156288-140941-143068-142798
2148.33-123666-83923-68782-81860-102520-93970
2154.12-88908-72504-14307 53446 33051-2630
2159.90-1016-6916-49872-74437-58395-27770
2165.69-40810-56194-39740-56456-125473-120812
2171.47-75387-100362-148824-126622-84486-106841
2177.26-115757-75234-69988-122730-137604-88430
2183.04-92654-124862-101524-52140-47838-44612
2188.83-29089-24124-46660-7137 61767 113236
2194.61 157385 221224 248343 266531 294714 315128
2200.40 323344 346790 399283 496013 507818 499243
2206.19 502451 487063 502323 533273 580460 619980
2211.97 577389 500560 435808 390683 334815 318735
2217.76 323019 310815 311056 320463 297389 254102
2223.54 206312 205053 213425 205994 180712 151591
2229.33 132066 120614 104350 108659 118092 118645
2235.11 80926 65431 55347 31899-377 9683
2240.90-3167-11582-16280-14459-37175-73470
2246.68-99240-111452-118374-113320-94423-70643
2252.47-63128-41244-16332 1417 9051 38656
2258.25 67001 90373 112823 145179 196678 242796
2264.04 271546 312387 361024 415669 467926 513433
2269.83 542000 578188 602177 603067 588130 575869
2275.61 564373 548162 529949 497850 466054 492409
2281.40 502842 468429 434148 417870 388126 369330
2287.18 321255 236985 176312 160717 154138 146648
2292.97 152330 140097 123986 129609 78616 51996
2298.75 46032 49035 60661 63098 95901 120631
2304.54 131593 149961 198719 252677 302785 365409
2310.32 420403 478106 449918 451731 367183 352978
2316.11 298856 410313 519071 498685 259527 259082
2321.89 250294 289375 251869 250140 139589 102474
2327.68 34933-17082-126124-190991-229411-151355
2333.47-108393-60001-41865 52124 114991 174006
2339.25 209053 240141 209928 196174 176042 189518
2345.04 249894 405435 601665 736819 701469 567704
2350.82 389579 217075 23688-142995-326893-477921
2356.61-636408-784010-877286-907337-925416-940040
2362.39-963387-959574-943268-889380-848366-775049
2368.18-687235-586558-502256-433034-390289-313155
2373.96-262129-201583-162734-99067-63601-44717
2379.75-60043-27106 14713 32968 53742 72724
2385.53 74147 85778 64272 65911 67942 90003
2391.32 114563 142439 117249 124232 142837 139516
2397.11 138800 192561 222503 248339 287257 314183
2402.89 328968 393754 454092 491741 545088 631920
2408.68 621865 591090 563270 551900 564864 613201
2414.46 642963 695797 759148 800869 789857 763488
2420.25 800698 883555 899409 908709 900905 918161
2426.03 962474 1027277 1076155 1091055 1112197 1162358
2431.82 1159467 1197717 1241317 1271301 1308780 1359632
2437.60 1350685 1328140 1299441 1309898 1319451 1307677
2443.39 1279250 1286093 1278237 1239283 1143649 1076996
2449.17 1042086 1066430 1053632 1056988 1013103 949394
2454.96 886101 801147 701310 617892 564110 539762
2460.75 482757 419448 409519 432458 410510 407079
2466.53 395436 388118 353725 318554 296937 295848
2472.32 282063 267137 270223 307563 309770 287544
2478.10 289073 303009 286918 301650 315319 323515
2483.89 322773 327150 305464 296144 275534 299542
2489.67 319369 317332 323166 301680 250061 239644
2495.46 226608 266263 310397 299128 258866 232926
2501.24 216513 234678 220336 227357 223268 210296
2507.03 193259 193514 176035 190692 196740 194747
2512.81 160922 164573 128649 111406 139403 170449
2518.60 145169 102671 61536 41057 36765 21351
2524.39-9385-1269-5375-20530-43707-43318
2530.17-31129-6384-13811-32539-38369-34078
2535.96-66118-63234-82261-74292-51037-38519
2541.74-65027-42163-23050 16576-318 2935
2547.53 10741 27333 65489 105491 141614 185885
2553.31 214390 262203 336037 471293 548035 575086
2559.10 594385 667959 736797 793736 877623 1025024
2564.88 1109578 1146523 1171609 1255412 1347062 1450757
2570.67 1548326 1609648 1637529 1657762 1631668 1604413
2576.45 1570021 1543486 1501879 1486948 1499953 1537770
2582.24 1522678 1494438 1384121 1217222 1060004 986870
2588.03 944652 908267 832307 794700 706229 584427
2593.81 530381 505754 449805 426419 414562 419984
2599.60 408809 405542 401638 434819 481225 520991
2605.38 531183 566572 589785 578579 562693 594887
2611.17 610219 623365 616005 600744 532571 518607
2616.95 531036 561857 543457 525317 487992 436533
2622.74 395372 353072 262509 203751 190240 148180
2628.52 76918 83937 103883 108036 115834 90895
2634.31 41409 34945 16317-14783-27107-18310
2640.09-39515-23641-5638 422-9604-4285
2645.88 6101-2618-17054-14907-21275-9106
2651.67 15773 19240 20150 28202 23966 55736
2657.45 70690 70875 62739 75265 70201 80284
2663.24 84249 92458 121510 151967 164203 195828
2669.02 204784 239234 276453 285415 267194 285667
2674.81 288514 296936 314064 345531 320037 288624
2680.59 308764 347766 337354 338425 342656 343773
2686.38 318873 299674 290640 324900 318741 323758
2692.16 319097 310175 305597 330758 294810 265910
2697.95 257962 295895 316753 347508 354877 368193
2703.73 416922 487971 519073 545101 552493 606290
2709.52 656698 694675 721337 795433 869992 929221
2715.31 991513 1117948 1260849 1417279 1548161 1645510
2721.09 1757823 1894304 2003827 2149142 2304569 2505855
2726.88 2724945 2983799 3262365 3600640 4026005 4533678
2732.66 5005092 5498770 5897839 6145994 6291722 6318424
2738.45 6278827 6305857 6670708 7211853 7061341 6508900
2744.23 6141452 6082111 6198233 6392528 6492398 6341528
2750.02 5916617 5319740 4646410 4022866 3430525 2923665
2755.80 2525008 2254114 2075573 1927323 1843285 1905900
2761.59 1994471 2044284 2100177 2206087 2276019 2314179
2767.37 2310450 2361401 2477177 2650309 2682215 2525984
2773.16 2443436 2536403 2669057 2757270 2809532 2819459
2778.95 2742657 2617985 2470664 2300641 2126814 2004678
2784.73 1953415 1927242 1867269 1844800 1818449 1788484
2790.52 1794772 1793405 1791124 1771858 1768999 1790540
2796.30 1813272 1870025 1905280 1936459 1955136 2008915
2802.09 2071968 2155653 2284017 2409927 2492506 2603539
2807.87 2708086 2798095 2888584 3038083 3182408 3348227
2813.66 3493698 3535943 3602046 3715362 3788032 3914964
2819.44 4040136 4185730 4395102 4660682 4929399 5118749
2825.23 5232862 5292111 5354310 5460678 5594939 5771279
2831.01 5911778 6045462 6177162 6286557 6368750 6471221
2836.80 6629284 6861033 7163336 7517507 7887655 8243685
2842.59 8539685 8878130 9303258 9763350 10202321 10674535
2848.37 11247336 11934424 12660434 13426692 14312219 15458380
2854.16 16855077 18471302 20154920 21954932 23871559 25799227
2859.94 27762642 29747950 31737141 33743338 35820383 38030346
2865.73 40370907 42878297 45081198 47123849 49349518 51737091
2871.51 53998510 56081752 57970633 59583812 61032035 62380756
2877.30 63588690 64761350 65751131 66305827 66633458 66566669
2883.08 65889515 65296322 65131986 65172434 64925456 64168608
2888.87 63114444 62213174 61536421 60793093 59955503 58977818
2894.65 57791549 56476678 55066531 53599045 52216149 50978202
2900.44 50223515 49945009 49727427 49416805 48935675 48192102
2906.23 47566047 47401518 47662828 48395330 49636815 50940924
2912.01 51862875 52682111 53610985 54667497 56195524 58157405
2917.80 60565022 63356736 66715525 70408448 74028161 77421476
2923.58 80871086 84359555 87903435 91195519 94322839 97382309
2929.37 100786455 104523508 107889490 109357515 110191541 111996216
2935.15 114155731 115982515 117538769 118476868 118740634 118122101
2940.94 116602258 114510070 112434062 110406867 109745185 113638852
2946.72 125319183 131715441 127312404 123470311 122240600 119869853
2952.51 113537382 105652040 98192715 92409213 88114375 85303014
2958.29 83374016 82035856 80830864 80108103 79537304 78830582
2964.08 78436843 78748245 79780668 81715911 84308202 87388795
2969.87 90802193 94372493 97678192 100558901 102484946 103146656
2975.65 102187973 99327980 94383968 88705033 84844465 85155077
2981.44 89059750 93101542 94281600 92539012 88840084 84074628
2987.22 78424951 72143092 65588947 59156159 53138179 47815458
2993.01 43154683 39309943 36123556 33487611 31249636 29341166
2998.79 27683530 26250031 25192812 24875587 25265078 26205383
3004.58 27244242 28298895 29485345 31011921 32888134 35214509
3010.36 38099043 41686381 45958538 50955628 56529490 62608239
3016.15 68949338 75242751 81224070 86575419 91085700 94582866
3021.93 96518907 96388308 94414860 92436617 93544279 99579207
3027.72 107908764 113781686 115342830 114056323 111581231 108570058
3033.51 104845703 99553554 93006784 86496431 81037747 77026619
3039.29 73799735 70860871 67843024 64802232 61768601 59073629
3045.08 56740891 54830361 53407129 52624339 52349673 52708012
3050.86 53737418 55324458 56973703 58505868 60192625 62274288
3056.65 64449115 66547531 68420836 70064377 71404006 72691412
3062.43 74334062 76372167 78050291 79287301 80098596 80954203
3068.22 82015997 82891541 83211835 82790547 81584751 79805216
3074.00 77443667 74964166 72808361 71487600 71121806 71170428
3079.79 70798212 69596232 67445108 64649794 61471163 58230241
3085.57 55023463 52177918 49887351 48043772 45953340 43184431
3091.36 39821613 36962300 35130951 33625730 31867169 29729488
3097.15 27229466 24659171 22179251 20032628 18255830 16932343
3102.93 16022998 15491222 15264381 15274181 15418772 15730995
3108.72 16039832 16278148 16362070 16314707 16036213 15586840
3114.50 15009888 14409528 13919699 13728562 13769971 13937719
3120.29 13827016 13321836 12585135 11813984 10957351 10047147
3126.07 9045863 8065645 7086618 6260257 5548490 4930505
3131.86 4378778 3961506 3621428 3303814 3028240 2869103
3137.64 2737891 2632730 2491927 2376546 2304145 2295883
3143.43 2203768 2143096 2090184 2030040 1972003 1972252
3149.21 1924930 1887159 1880048 1859423 1782309 1786897
3155.00 1833110 1851223 1850498 1870850 1856235 1858711
3160.79 1845754 1875263 1835362 1816289 1823665 1873344
3166.57 1875007 1895291 1885302 1858688 1803760 1810536
3172.36 1806448 1778843 1687851 1644390 1609054 1559132
3178.14 1441857 1398697 1320023 1228316 1127142 1096987
3183.93 1027543 941080 876988 871350 817862 815232
3189.71 784247 778223 768553 738054 686035 658169
3195.50 608409 595997 591993 579201 552892 539590
3201.28 480447 478869 444567 424012 397822 403832
3207.07 381199 382875 369275 345636 288449 274964
3212.85 267501 265292 231437 259258 235972 214751
3218.64 219057 266225 242215 243411 269596 315444
3224.43 321413 284140 243120 232913 168246 152194
3230.21 162835 190974 152300 146350 131316 163315
3236.00 160632 119249 35223 75151 92898 84468
3241.78 76757 101976 102421 116267 66722 42195
3247.57 29980 18027-11847 26948 39940 47617
3253.35 18168 9952 6745 39959 9784 20692
3259.14 5817 5768 7957 50095 4290-27494
3264.92-67228-4556 31223 37986 25154 26928
3270.71 32316 43457 19594-6116-61253-21236
3276.49 27034 43353 53019 46195-9662-10032
3282.28 23427 60510 74589 78902 32596 42465
3288.07 8133 3259 56184 130643 93588 58787
3293.85 36260 85827 132771 141808 76480 55122
3299.64 62303 91653 72816 88585 97459 121546
3305.42 83059 79491 42792 11902 45359 129468
3311.21 111593 112492 72956 53917 75637 96417
3316.99 91984 83459 25936 49-22481-55129
3322.78-16582 42190-23164-40857-53024-21432
3328.56-27789-28985-34229-25031-45008-26042
3334.35-66290-74869-61740-38222-14931 30653
3340.13-5654-19295-42976-38174-38879-2677
3345.92-67878-49797-7954-9012-13338-10162
3351.71-53053-21639-20751-51864-56211 18781
3357.49 24116 21443 5511 32143 6197 20272
3363.28 61620 57359 21377 14617-5097 49478
3369.06 66315 73443 85628 94141 120806 183080
3374.85 173410 207982 215190 203681 138321 102672
3380.63 93792 169960 216455 223136 208846 185307
3386.42 166797 171209 158077 206096 179404 211234
3392.20 158190 123420 121030 123772 59221 78204
3397.99 34617-20221-52615-9981-13832-57245
3403.77-48155-8117-68962-88825-53942-65839
3409.56-100294-59856-64619-57279-128108-100015
3415.35-54602-26018-51348-79658-91312-22697
3421.13-34028-29003-77991-54930-46678-22410
3426.92-23692-57906-25212 42019 38180 34636
3432.70-28485-43026-19036 85649 63584 6771
3438.49 16892 40038 12374 49934 44164 20570
3444.27 44197 98919 41732 98945 115522 102948
3450.06 177796 208258 203543 216672 163330 150884
3455.84 212062 235504 238866 282518 255353 259236
3461.63 278450 238944 220957 221830 237800 312475
3467.41 280960 206283 112674 159968 234937 224677
3473.20 119823 108710 90817 101094 111323 77468
3478.99 4410 52010 91294 104312 39287 85031
3484.77 71634 48161 23772 24034-29825-24193
3490.56-59550-35245-46980-46670-30164-59485
3496.34-116930-101910-83192-92293-122640-98172
3502.13-116678-124211-123651-125729-148385-85408
3507.91-90379-80637-102182-115118-154455-146646
3513.70-146183-102799-106819-99279-133843-106367
3519.48-107847-127065-115508-109849-155519-118352
3525.27-115748-104173-120956-122526-97958-77818
3531.05-103408-47773-89705-125644-140594-81429
3536.84-88537-100614-85124-109969-124925-83681
3542.63-69900-46857-92187-72334-73084-61544
3548.41-55502-49435-96097-67596 5365 19856
3554.20-39638-63563-104995-94103-99743-67216
3559.98-86073-42624-211-26791-82044-69176
3565.77-75820-77718-50341 19016-23090-19461
3571.55-19307-15051-8500 19253-9186 25276
3577.34 43266 53345 16050 42980 58682 88772
3583.12 92173 89698-23779-80956-57654-47235
3588.91-9463 59713 37861 19306 78548 124732
3594.69 77241 98258 98452 89638 128887 165001
3600.48 199228 236915 236223 220289 166930 192799
3606.27 175691 200403 168939 194247 176914 152688
3612.05 163841 176399 107732 99697 51473 53022
3617.84-9262-61688-28523-44900-77378-61536
3623.62-90164-89488-96964-163733-304181-331054
3629.41-243637-149812-151683-99131-73416-54380
3635.19-100950-110442-96136-71196-100352-112639
3640.98-109268-82568-60444-33395-67765-103271
3646.76-149351-216448-274674-184924-137075-89588
3652.55-90079-47618-121700-156615-113320-33042
3658.33-20817-27127-46980-60566-73222-44881
3664.12-62204-77449-161165-161136-164175-223644
3669.91-284704-141128-116701-182366-303889-316654
3675.69-215520-98248-162909-181884-177539-113499
3681.48-100737-80536-108189-86195-116470-181013
3687.26-353297-274693-200082-172679-111763-65169
3693.05-87140-53395-68764-72368-117797-109261
3698.83-137199-116794-155901-110280-130594-152769
3704.62-164609-128854-160935-192974-261643-220588
3710.40-263490-338869-250727-149321-171853-176304
3716.19-185173-144785-153363-118400-152942-162632
3721.97-167922-167571-196590-181788-162738-125440
3727.76-155676-126794-140031-237117-260698-154911
3733.55-224709-242682-292451-241866-166839-75304
3739.33-102030-102665-77536-126984-410739-324773
3745.12-34207 50333-6664-141585-131274 3410
3750.90-101199-6688 145747 206399 170328 174164
3756.69 199554 180089 90669 157704 213312 216519
3762.47 210281 243630 185218 176986 152444 104623
3768.26-15420-49514-913 10740-30618-15424
3774.04-6587-8088-37731-46292-63872-71545
3779.83-50699-17050-43815-29083-49422-12371
3785.61 35831 77434 46549 69306 86154 75777
3791.40 63570 79063 81262 96537 11039 31808
3797.19 127460 140549 15455-120360-78076 106747
3802.97 158560 168794 58719-43415 11945 171533
3808.76 171324 179460 149126 143051 172719 191591
3814.54-3008-3272 178582 252379 189448 96503
3820.33 52064 183869 296677 363982 385462 411409
3826.11 393544 441776 461485 483253 411083 400986
3831.90 444716 465172 445998 493963 404425 250654
3837.68 339416 477634 447226 490677 504591 517137
3843.47 531346 553485 547566 627729 618239 628953
3849.25 601265 510190 454001 505085 371486 574879
3855.04 781423 844294 846009 856349 808486 801088
3860.83 794348 879798 887083 841687 853064 955628
3866.61 965620 895902 750774 789197 848862 884673
3872.40 862580 873714 885507 924266 944418 1000799
3878.18 1005225 993513 968549 1007799 1004591 1022112
3883.97 978702 976040 1079626 1204777 1251084 1258730
3889.75 1193147 1247732 1342554 1398986 1421065 1467871
3895.54 1486317 1503476 1409439 1410003 1479873 1542209
3901.32 1581079 1587325 1452734 1450244 1452571 1474959
3907.11 1441428 1404855 1306943 1220503 1119317 1086216
3912.89 1017263 978561 897239 829289 760403 734549
3918.68 663937 678016 686164 683431 630338 604562
3924.47 543328 561939 519568 497680 429779 399801
3930.25 386212 383884 380362 416246 384065 393442
3936.04 379390 375385 354349 383450 363665 356788
3941.82 335781 371900 388003 441459 415189 432352
3947.61 467503 449422 420060 507525 545853 557365
3953.39 553859 545504 543418 600674 561332 582455
3959.18 643581 667634 631241 662599 683282 689612
3964.96 644077 648861 600951 672136 691637 688833
3970.75 613313 577003 539984 567901
##END=
