##TITLE=o-DICHLOROBENZENE
##JCAMP-DX=4.24
##DATA TYPE=INFRARED SPECTRUM
##CLASS=COBLENTZ
##ORIGIN=DOW CORNING CORP.
##OWNER=COBLENTZ SOCIETY
Collection (C) 2018 copyright by the U.S. Secretary of Commerce
on behalf of the United States of America. All rights reserved.
##DATE=Not specified, most likely prior to 1970
##NAMES=1,2-dichlorobenzene
##CAS REGISTRY NO=95-50-1
##MOLFORM=C6 H4 Cl2
##SOURCE REFERENCE=COBLENTZ NO. 4275
##$NIST SOURCE=COBLENTZ
##$NIST IMAGE=cob4275
##SPECTROMETER/DATA SYSTEM=Not specified, most likely a grating or hybrid spectrometer.
##STATE=SOLUTION (9.99% IN CCl4 FOR 3800-1300, 10.05% IN CS2 FOR 1300-650, AND 9.99% IN CCl4 FOR 650-250 CM^-^1) VERSUS SOLVENT
##PATH LENGTH=0.011, 0.011, AND 0.020 CM (CsBr CELL)
##SAMPLING PROCEDURE=TRANSMISSION
##RESOLUTION=4
##DATA PROCESSING=DIGITIZED BY NIST FROM HARD COPY (FROM TWO SEGMENTS)
##XUNITS=1/CM
##YUNITS=TRANSMITTANCE
##XFACTOR=1.000000
##YFACTOR=1
##DELTAX=1.279324
##FIRSTX=249.893
##LASTX=3796.18
##FIRSTY=0.9
##MAXX=3796.18
##MINX=249.893
##MAXY=0.94
##MINY=0.01
##NPOINTS=2773
##XYDATA=(X++(Y..Y))
249.893000 0.9000 0.9020 0.9020 0.9030 0.9030
256.289619 0.9050 0.9050 0.9070 0.9090 0.9090
262.686239 0.9090 0.9090 0.9090 0.9090 0.9090
269.082858 0.9090 0.9090 0.9090 0.9070 0.9070
275.479477 0.9090 0.9090 0.9100 0.9120 0.9140
281.876096 0.9140 0.9140 0.9140 0.9120 0.9120
288.272716 0.9120 0.9100 0.9100 0.9140 0.9140
294.669335 0.9160 0.9190 0.9210 0.9210 0.9210
301.065954 0.9190 0.9170 0.9170 0.9170 0.9170
307.462573 0.9170 0.9170 0.9170 0.9170 0.9170
313.859193 0.9190 0.9210 0.9230 0.9260 0.9260
320.255812 0.9260 0.9240 0.9230 0.9230 0.9190
326.652431 0.9170 0.9160 0.9160 0.9120 0.9120
333.049050 0.9100 0.9140 0.9170 0.9260 0.9310
339.445670 0.9330 0.9370 0.9370 0.9380 0.9380
345.842289 0.9380 0.9380 0.9380 0.9380 0.9400
352.238908 0.9400 0.9400 0.9400 0.9380 0.9380
358.635527 0.9370 0.9370 0.9350 0.9350 0.9350
365.032147 0.9350 0.9350 0.9350 0.9350 0.9330
371.428766 0.9310 0.9310 0.9310 0.9300 0.9260
377.825385 0.9240 0.9160 0.9140 0.9160 0.9160
384.222004 0.9160 0.9170 0.9170 0.9170 0.9160
390.618624 0.9160 0.9170 0.9170 0.9190 0.9190
397.015243 0.9190 0.9190 0.9170 0.9160 0.9160
403.411862 0.9160 0.9160 0.9170 0.9190 0.9190
409.808481 0.9170 0.9160 0.9160 0.9140 0.9120
416.205101 0.9100 0.9090 0.9070 0.9000 0.8910
422.601720 0.8820 0.8750 0.8561 0.8282 0.7952
428.998339 0.7480 0.7130 0.6810 0.6730 0.6411
435.394958 0.5822 0.5083 0.4373 0.4002 0.4000
441.791578 0.4770 0.5690 0.6639 0.7628 0.7999
448.188197 0.8319 0.8469 0.8560 0.8560 0.8530
454.584816 0.8460 0.8390 0.8210 0.8180 0.8070
460.981435 0.7980 0.7831 0.7701 0.7650 0.7620
467.378055 0.7560 0.7550 0.7530 0.7530 0.7560
473.774674 0.7560 0.7560 0.7530 0.7480 0.7371
480.171293 0.7200 0.6970 0.6690 0.6151 0.5402
486.567912 0.5400 0.5759 0.6307 0.6638 0.7147
492.964532 0.7440 0.7970 0.8160 0.8370 0.8560
499.361151 0.8719 0.8810 0.8880 0.8930 0.8930
505.757770 0.8950 0.8960 0.8960 0.8980 0.9020
512.154389 0.9030 0.9030 0.9030 0.9030 0.9030
518.551009 0.9030 0.9030 0.9030 0.9030 0.9020
524.947628 0.9020 0.9030 0.9030 0.9030 0.9020
531.344247 0.9020 0.9000 0.8980 0.8950 0.8930
537.740867 0.8840 0.8790 0.8750 0.8631 0.8560
544.137486 0.8420 0.8090 0.7810 0.7810 0.7880
550.534105 0.8070 0.8558 0.8909 0.8950 0.8980
556.930724 0.8980 0.9000 0.9000 0.9030 0.9070
563.327344 0.9090 0.9090 0.9090 0.9070 0.9070
569.723963 0.9070 0.9070 0.9050 0.9050 0.9050
576.120582 0.9050 0.9090 0.9100 0.9120 0.9140
582.517201 0.9140 0.9140 0.9140 0.9140 0.9140
588.913821 0.9160 0.9160 0.9160 0.9160 0.9160
595.310440 0.9160 0.9170 0.9170 0.9170 0.9170
601.707059 0.9160 0.9160 0.9160 0.9160 0.9170
608.103678 0.9170 0.9170 0.9190 0.9210 0.9190
614.500298 0.9190 0.9210 0.9210 0.9190 0.9190
620.896917 0.9190 0.9170 0.9120 0.9070 0.9020
627.293536 0.9020 0.9000 0.8980 0.8960 0.8960
633.690155 0.8960 0.8950 0.8930 0.8880 0.8820
640.086775 0.8810 0.8770 0.8720 0.8680 0.8531
646.483394 0.8440 0.8330 0.8280 0.8140 0.7841
652.880013 0.7601 0.7441 0.6952 0.6253 0.5434
659.276632 0.4088 0.2630 0.2630 0.3739 0.6056
665.673252 0.7108 0.7429 0.7719 0.7790 0.7840
672.069871 0.7860 0.8040 0.8140 0.8210 0.8350
678.466490 0.8370 0.8490 0.8580 0.8600 0.8670
684.863109 0.8770 0.8820 0.8860 0.8860 0.8860
691.259729 0.8860 0.8880 0.8910 0.8930 0.8930
697.656348 0.8930 0.8950 0.8950 0.8950 0.8950
704.052967 0.8960 0.8960 0.8960 0.8960 0.8950
710.449586 0.8930 0.8930 0.8890 0.8880 0.8840
716.846206 0.8770 0.8740 0.8581 0.8540 0.8530
723.242825 0.8440 0.8330 0.8190 0.8000 0.7900
729.639444 0.7601 0.7131 0.6831 0.6382 0.5763
736.036063 0.5129 0.4539 0.3820 0.2411 0.1951
742.432683 0.1880 0.1601 0.1152 0.0244 0.0220
748.829302 0.0240 0.0450 0.0890 0.1240 0.1410
755.225921 0.2738 0.4276 0.5586 0.6496 0.7107
761.622540 0.7621 0.7970 0.8140 0.8190 0.8300
768.019160 0.8320 0.8330 0.8330 0.8330 0.8370
774.415779 0.8470 0.8540 0.8560 0.8580 0.8580
780.812398 0.8600 0.8630 0.8740 0.8810 0.8860
787.209018 0.8930 0.8930 0.8950 0.8960 0.8980
793.605637 0.9000 0.9020 0.9020 0.9020 0.9000
800.002256 0.9000 0.8980 0.8960 0.8960 0.8930
806.398875 0.8930 0.8820 0.8740 0.8581 0.8421
812.795495 0.8249 0.7970 0.7600 0.7020 0.6880
819.192114 0.6880 0.8506 0.8859 0.8930 0.8950
825.588733 0.8960 0.8960 0.8960 0.8950 0.8950
831.985352 0.8930 0.8930 0.8930 0.8930 0.8930
838.381972 0.8910 0.8890 0.8880 0.8840 0.8820
844.778591 0.8790 0.8770 0.8750 0.8750 0.8770
851.175210 0.8770 0.8810 0.8810 0.8820 0.8820
857.571829 0.8840 0.8840 0.8840 0.8820 0.8820
863.968449 0.8820 0.8840 0.8860 0.8880 0.8890
870.365068 0.8960 0.9020 0.9030 0.9070 0.9100
876.761687 0.9140 0.9170 0.9170 0.9170 0.9170
883.158306 0.9170 0.9170 0.9170 0.9170 0.9170
889.554926 0.9190 0.9210 0.9210 0.9190 0.9190
895.951545 0.9190 0.9190 0.9190 0.9210 0.9210
902.348164 0.9210 0.9210 0.9230 0.9210 0.9210
908.744783 0.9190 0.9160 0.9140 0.9120 0.9120
915.141403 0.9100 0.9090 0.9070 0.9030 0.9020
921.538022 0.8980 0.8960 0.8960 0.8950 0.8930
927.934641 0.8930 0.8790 0.8740 0.8600 0.8460
934.331260 0.8260 0.7971 0.7362 0.6155 0.6150
940.727880 0.7302 0.8161 0.8790 0.8880 0.8930
947.124499 0.8950 0.9000 0.9020 0.9030 0.9050
953.521118 0.9050 0.9050 0.9050 0.9070 0.9090
959.917737 0.9090 0.9090 0.9070 0.9070 0.9070
966.314357 0.9050 0.9050 0.9030 0.8910 0.8910
972.710976 0.8980 0.8980 0.9000 0.9000 0.9020
979.107595 0.9020 0.9020 0.9030 0.9030 0.9030
985.504214 0.9030 0.9020 0.9000 0.8960 0.8950
991.900834 0.8930 0.8930 0.8890 0.8890 0.8860
998.297453 0.8820 0.8810 0.8740 0.8700 0.8471
1004.694072 0.8330 0.8190 0.8090 0.8020 0.7670
1011.090691 0.6691 0.6341 0.6340 0.6948 0.6990
1017.487311 0.7131 0.7500 0.7600 0.7600 0.7500
1023.883930 0.7160 0.6781 0.6481 0.6311 0.6151
1030.280549 0.5186 0.3578 0.2759 0.1950 0.1150
1036.677168 0.0341 0.0340 0.1757 0.3535 0.5463
1043.073788 0.7771 0.8251 0.8530 0.8610 0.8740
1049.470407 0.8810 0.8880 0.8950 0.8950 0.8980
1055.867026 0.9050 0.9070 0.9070 0.9050 0.9030
1062.263646 0.9030 0.9020 0.8950 0.8950 0.8950
1068.660265 0.8930 0.8910 0.8880 0.8860 0.8840
1075.056884 0.8810 0.8770 0.8750 0.8740 0.8630
1081.453503 0.8560 0.8439 0.8179 0.7740 0.7110
1087.850123 0.5761 0.5760 0.7177 0.8675 0.8770
1094.246742 0.8790 0.8820 0.8820 0.8810 0.8770
1100.643361 0.8740 0.8610 0.8580 0.8540 0.8460
1107.039980 0.8370 0.8230 0.8020 0.7840 0.7720
1113.436600 0.7550 0.7290 0.6881 0.6481 0.6151
1119.833219 0.5167 0.4167 0.2969 0.2290 0.1880
1126.229838 0.1460 0.1460 0.1590 0.1660 0.2667
1132.626457 0.3613 0.4592 0.5711 0.6480 0.6810
1139.023077 0.7040 0.7439 0.7650 0.7770 0.7909
1145.419696 0.7981 0.8160 0.8180 0.8250 0.8260
1151.816315 0.8250 0.8190 0.8160 0.8120 0.8120
1158.212934 0.8160 0.8160 0.8140 0.7950 0.7790
1164.609554 0.7670 0.7630 0.7630 0.7650 0.7770
1171.006173 0.7900 0.8020 0.8140 0.8300 0.8460
1177.402792 0.8610 0.8670 0.8740 0.8790 0.8820
1183.799411 0.8860 0.8960 0.9050 0.9090 0.9100
1190.196031 0.9120 0.9140 0.9140 0.9160 0.9160
1196.592650 0.9160 0.9160 0.9160 0.9160 0.9140
1202.989269 0.9160 0.9160 0.9160 0.9160 0.9160
1209.385888 0.9160 0.9140 0.9140 0.9140 0.9140
1215.782508 0.9120 0.9120 0.9120 0.9120 0.9120
1222.179127 0.9100 0.9100 0.9100 0.9100 0.9100
1228.575746 0.9090 0.9090 0.9070 0.9070 0.9030
1234.972365 0.9020 0.8980 0.8950 0.8950 0.8860
1241.368985 0.8810 0.8770 0.8600 0.8400 0.8111
1247.765604 0.7180 0.7181 0.7651 0.8090 0.8350
1254.162223 0.8400 0.8420 0.8420 0.8440 0.8460
1260.558842 0.8580 0.8630 0.8740 0.8820 0.8860
1266.955462 0.8840 0.8820 0.8790 0.8750 0.8670
1273.352081 0.8680 0.8740 0.8860 0.8960 0.9020
1279.748700 0.9030 0.9070 0.9140 0.9140 0.9160
1286.145319 0.9160 0.9170 0.9170 0.9190 0.9210
1292.541939 0.9210 0.9210 0.9210 0.9210 0.9230
1298.938558 0.9240 0.9260 0.9280 0.9280 0.9300
1305.335177 0.9280 0.9280 0.9280 0.9260 0.9260
1311.731797 0.9260 0.9260 0.9240 0.9240 0.9230
1318.128416 0.9230 0.9230 0.9230 0.9230 0.9230
1324.525035 0.9230 0.9210 0.9210 0.9210 0.9190
1330.921654 0.9170 0.9170 0.9170 0.9170 0.9170
1337.318274 0.9170 0.9170 0.9160 0.9160 0.9140
1343.714893 0.9120 0.9100 0.9100 0.9100 0.9070
1350.111512 0.9030 0.8960 0.8950 0.8930 0.8860
1356.508131 0.8750 0.8680 0.8670 0.8560 0.8510
1362.904751 0.8460 0.8440 0.8460 0.8490 0.8580
1369.301370 0.8790 0.8880 0.8930 0.8930 0.8950
1375.697989 0.8950 0.8950 0.8930 0.8930 0.8930
1382.094608 0.8890 0.8860 0.8810 0.8750 0.8720
1388.491228 0.8680 0.8600 0.8460 0.8460 0.8610
1394.887847 0.8630 0.8650 0.8630 0.8600 0.8530
1401.284466 0.8400 0.8330 0.8190 0.8020 0.7900
1407.681085 0.7770 0.7740 0.7760 0.7910 0.7980
1414.077705 0.8041 0.8210 0.8230 0.8250 0.8260
1420.474324 0.8260 0.8250 0.8210 0.8070 0.7970
1426.870943 0.7669 0.7408 0.6808 0.6099 0.5359
1433.267562 0.4820 0.3581 0.1742 0.1011 0.1010
1439.664182 0.5037 0.6801 0.7150 0.7130 0.7090
1446.060801 0.6950 0.6810 0.6311 0.5761 0.5012
1452.457420 0.4397 0.3736 0.2625 0.0888 0.0100
1458.854039 0.0100 0.0200 0.1549 0.2628 0.2790
1465.250659 0.2810 0.2831 0.3072 0.3744 0.5332
1471.647278 0.6390 0.6410 0.6410 0.6150 0.5481
1478.043897 0.4050 0.4061 0.6880 0.6920 0.6880
1484.440516 0.6830 0.6810 0.6830 0.6920 0.7269
1490.837136 0.7932 0.8330 0.8440 0.8470 0.8530
1497.233755 0.8580 0.8650 0.8720 0.8750 0.8770
1503.630374 0.8790 0.8810 0.8810 0.8820 0.8820
1510.026993 0.8820 0.8820 0.8840 0.8840 0.8840
1516.423613 0.8840 0.8820 0.8820 0.8810 0.8790
1522.820232 0.8790 0.8770 0.8770 0.8770 0.8770
1529.216851 0.8750 0.8770 0.8750 0.8750 0.8750
1535.613470 0.8740 0.8740 0.8720 0.8670 0.8650
1542.010090 0.8650 0.8630 0.8610 0.8600 0.8580
1548.406709 0.8560 0.8530 0.8510 0.8470 0.8460
1554.803328 0.8440 0.8400 0.8350 0.8330 0.8210
1561.199947 0.8180 0.8140 0.8090 0.8000 0.7840
1567.596567 0.7759 0.7618 0.7018 0.6169 0.5639
1573.993186 0.5010 0.5010 0.5200 0.5380 0.6338
1580.389805 0.7513 0.8250 0.8350 0.8420 0.8440
1586.786425 0.8460 0.8460 0.8440 0.8420 0.8400
1593.183044 0.8349 0.8230 0.8140 0.8120 0.8090
1599.579663 0.7970 0.7950 0.7970 0.8000 0.8070
1605.976282 0.8141 0.8250 0.8320 0.8370 0.8420
1612.372902 0.8510 0.8560 0.8670 0.8720 0.8740
1618.769521 0.8770 0.8790 0.8810 0.8810 0.8810
1625.166140 0.8810 0.8810 0.8820 0.8820 0.8820
1631.562759 0.8840 0.8860 0.8860 0.8880 0.8880
1637.959379 0.8890 0.8890 0.8910 0.8910 0.8930
1644.355998 0.8930 0.8930 0.8930 0.8930 0.8930
1650.752617 0.8910 0.8910 0.8910 0.8910 0.8890
1657.149236 0.8890 0.8890 0.8880 0.8860 0.8860
1663.545856 0.8860 0.8860 0.8860 0.8840 0.8840
1669.942475 0.8840 0.8840 0.8840 0.8840 0.8840
1676.339094 0.8810 0.8790 0.8770 0.8740 0.8720
1682.735713 0.8650 0.8630 0.8630 0.8650 0.8670
1689.132333 0.8700 0.8770 0.8810 0.8810 0.8810
1695.528952 0.8820 0.8840 0.8840 0.8860 0.8860
1701.925571 0.8860 0.8860 0.8860 0.8860 0.8860
1708.322190 0.8860 0.8860 0.8930 0.8930 0.8930
1714.718810 0.8950 0.8950 0.8950 0.8950 0.8950
1721.115429 0.8950 0.8950 0.8950 0.8950 0.8950
1727.512048 0.8950 0.8960 0.8960 0.8980 0.8980
1733.908667 0.8980 0.8980 0.8980 0.8980 0.8980
1740.305287 0.8980 0.9000 0.9000 0.9000 0.9000
1746.701906 0.9000 0.9000 0.9000 0.9000 0.8980
1753.098525 0.8960 0.8960 0.8960 0.8980 0.8980
1759.495144 0.8960 0.8960 0.8960 0.8960 0.8950
1765.891764 0.8950 0.8930 0.8910 0.8860 0.8840
1772.288383 0.8840 0.8820 0.8810 0.8790 0.8790
1778.685002 0.8770 0.8740 0.8720 0.8670 0.8560
1785.081621 0.8510 0.8420 0.8389 0.8210 0.8140
1791.478241 0.8090 0.8090 0.8210 0.8330 0.8510
1797.874860 0.8681 0.8790 0.8860 0.8890 0.8930
1804.271479 0.8930 0.8950 0.8950 0.8930 0.8930
1810.668098 0.8930 0.8930 0.8910 0.8890 0.8880
1817.064718 0.8880 0.8840 0.8840 0.8820 0.8810
1823.461337 0.8770 0.8750 0.8740 0.8750 0.8810
1829.857956 0.8840 0.8880 0.8910 0.8930 0.8950
1836.254576 0.8960 0.9000 0.9000 0.9020 0.9020
1842.651195 0.9020 0.9000 0.9000 0.9000 0.9000
1849.047814 0.8980 0.8960 0.8960 0.8960 0.8960
1855.444433 0.8960 0.8960 0.8960 0.8960 0.8960
1861.841053 0.8950 0.8950 0.8950 0.8930 0.8910
1868.237672 0.8890 0.8880 0.8860 0.8840 0.8810
1874.634291 0.8750 0.8740 0.8720 0.8720 0.8740
1881.030910 0.8750 0.8770 0.8790 0.8820 0.8860
1887.427530 0.8880 0.8910 0.8910 0.8930 0.8930
1893.824149 0.8930 0.8930 0.8910 0.8880 0.8860
1900.220768 0.8790 0.8750 0.8740 0.8670 0.8600
1906.617387 0.8530 0.8510 0.8330 0.8090 0.8070
1913.014007 0.8090 0.8160 0.8231 0.8440 0.8490
1919.410626 0.8600 0.8790 0.8840 0.8890 0.8910
1925.807245 0.8910 0.8910 0.8910 0.8890 0.8860
1932.203864 0.8810 0.8810 0.8810 0.8770 0.8750
1938.600484 0.8740 0.8719 0.8610 0.8580 0.8530
1944.997103 0.8530 0.8470 0.8460 0.8460 0.8490
1951.393722 0.8611 0.8720 0.8811 0.8930 0.8960
1957.790341 0.8980 0.9000 0.9000 0.9020 0.9020
1964.186961 0.9020 0.9020 0.9020 0.9030 0.9030
1970.583580 0.9030 0.9030 0.9030 0.9030 0.9030
1976.980199 0.9050 0.9050 0.9050 0.9050 0.9050
1983.376818 0.9050 0.9050 0.9070 0.9070 0.9070
1989.773438 0.9070 0.9070 0.9090 0.9090 0.9090
1996.170057 0.9120 0.9140 0.9140 0.9140 0.9120
2002.566676 0.9100 0.9095 0.9090 0.9080 0.9070
2008.963295 0.9070 0.9070 0.9070 0.9070 0.9070
2015.359915 0.9070 0.9070 0.9070 0.9070 0.9070
2021.756534 0.9070 0.9070 0.9070 0.9070 0.9070
2028.153153 0.9070 0.9070 0.9070 0.9070 0.9070
2034.549772 0.9060 0.9050 0.9050 0.9050 0.9050
2040.946392 0.9050 0.9040 0.9030 0.9030 0.9030
2047.343011 0.9030 0.9030 0.9030 0.9030 0.9030
2053.739630 0.9030 0.9030 0.9030 0.9025 0.9020
2060.136249 0.9020 0.9020 0.9020 0.9020 0.9020
2066.532869 0.9020 0.9020 0.9020 0.9010 0.9000
2072.929488 0.9000 0.9000 0.9000 0.9000 0.9000
2079.326107 0.9000 0.8990 0.8980 0.8980 0.8980
2085.722726 0.8980 0.8980 0.8980 0.8980 0.8980
2092.119346 0.8980 0.8971 0.8961 0.8969 0.8979
2098.515965 0.8980 0.8980 0.8980 0.8980 0.8980
2104.912584 0.8980 0.8980 0.8980 0.8970 0.8960
2111.309204 0.8960 0.8960 0.8960 0.8960 0.8960
2117.705823 0.8960 0.8960 0.8960 0.8960 0.8960
2124.102442 0.8960 0.8960 0.8960 0.8960 0.8960
2130.499061 0.8960 0.8960 0.8960 0.8960 0.8960
2136.895681 0.8960 0.8960 0.8960 0.8960 0.8960
2143.292300 0.8960 0.8960 0.8960 0.8960 0.8960
2149.688919 0.8960 0.8960 0.8955 0.8950 0.8950
2156.085538 0.8950 0.8950 0.8950 0.8950 0.8950
2162.482158 0.8950 0.8950 0.8955 0.8960 0.8960
2168.878777 0.8960 0.8955 0.8950 0.8950 0.8950
2175.275396 0.8955 0.8960 0.8955 0.8950 0.8950
2181.672015 0.8950 0.8955 0.8960 0.8960 0.8960
2188.068635 0.8960 0.8960 0.8960 0.8960 0.8955
2194.465254 0.8950 0.8950 0.8950 0.8950 0.8950
2200.861873 0.8955 0.8959 0.8960 0.8960 0.8960
2207.258492 0.8960 0.8960 0.8960 0.8960 0.8960
2213.655112 0.8960 0.8960 0.8960 0.8960 0.8960
2220.051731 0.8960 0.8960 0.8960 0.8960 0.8960
2226.448350 0.8956 0.8951 0.8950 0.8950 0.8950
2232.844969 0.8950 0.8950 0.8950 0.8941 0.8931
2239.241589 0.8930 0.8930 0.8921 0.8911 0.8910
2245.638208 0.8910 0.8910 0.8910 0.8910 0.8910
2252.034827 0.8901 0.8891 0.8890 0.8890 0.8890
2258.431446 0.8890 0.8890 0.8890 0.8886 0.8881
2264.828066 0.8880 0.8880 0.8880 0.8880 0.8871
2271.224685 0.8861 0.8860 0.8860 0.8860 0.8860
2277.621304 0.8860 0.8860 0.8860 0.8860 0.8860
2284.017923 0.8860 0.8860 0.8860 0.8860 0.8860
2290.414543 0.8860 0.8860 0.8869 0.8879 0.8880
2296.811162 0.8880 0.8880 0.8880 0.8880 0.8880
2303.207781 0.8880 0.8880 0.8884 0.8889 0.8890
2309.604400 0.8890 0.8890 0.8890 0.8890 0.8890
2316.001020 0.8890 0.8890 0.8890 0.8890 0.8899
2322.397639 0.8909 0.8910 0.8910 0.8910 0.8910
2328.794258 0.8918 0.8928 0.8930 0.8930 0.8930
2335.190877 0.8930 0.8921 0.8911 0.8910 0.8910
2341.587497 0.8910 0.8910 0.8910 0.8910 0.8910
2347.984116 0.8910 0.8910 0.8910 0.8902 0.8892
2354.380735 0.8890 0.8890 0.8890 0.8890 0.8890
2360.777355 0.8890 0.8886 0.8881 0.8880 0.8880
2367.173974 0.8880 0.8880 0.8880 0.8880 0.8872
2373.570593 0.8862 0.8860 0.8860 0.8860 0.8860
2379.967212 0.8860 0.8860 0.8860 0.8860 0.8860
2386.363832 0.8860 0.8860 0.8860 0.8860 0.8860
2392.760451 0.8860 0.8860 0.8860 0.8860 0.8860
2399.157070 0.8860 0.8860 0.8860 0.8860 0.8860
2405.553689 0.8860 0.8860 0.8860 0.8860 0.8860
2411.950309 0.8860 0.8860 0.8860 0.8860 0.8860
2418.346928 0.8860 0.8860 0.8860 0.8860 0.8860
2424.743547 0.8860 0.8868 0.8878 0.8880 0.8880
2431.140166 0.8880 0.8880 0.8880 0.8880 0.8880
2437.536786 0.8880 0.8880 0.8880 0.8880 0.8880
2443.933405 0.8880 0.8880 0.8880 0.8880 0.8880
2450.330024 0.8880 0.8872 0.8862 0.8860 0.8860
2456.726643 0.8852 0.8842 0.8840 0.8840 0.8840
2463.123263 0.8840 0.8840 0.8840 0.8840 0.8840
2469.519882 0.8848 0.8858 0.8852 0.8842 0.8840
2475.916501 0.8840 0.8840 0.8840 0.8832 0.8822
2482.313120 0.8820 0.8820 0.8820 0.8820 0.8820
2488.709740 0.8820 0.8820 0.8820 0.8820 0.8820
2495.106359 0.8820 0.8820 0.8820 0.8820 0.8820
2501.502978 0.8820 0.8820 0.8820 0.8820 0.8820
2507.899597 0.8816 0.8811 0.8810 0.8810 0.8810
2514.296217 0.8810 0.8810 0.8810 0.8802 0.8792
2520.692836 0.8790 0.8790 0.8782 0.8772 0.8762
2527.089455 0.8752 0.8750 0.8750 0.8746 0.8741
2533.486074 0.8732 0.8722 0.8705 0.8684 0.8660
2539.882694 0.8635 0.8603 0.8568 0.8560 0.8560
2546.279313 0.8579 0.8604 0.8633 0.8663 0.8689
2552.675932 0.8714 0.8731 0.8746 0.8758 0.8768
2559.072551 0.8778 0.8788 0.8790 0.8790 0.8790
2565.469171 0.8790 0.8790 0.8790 0.8790 0.8790
2571.865790 0.8790 0.8790 0.8782 0.8772 0.8770
2578.262409 0.8770 0.8770 0.8770 0.8770 0.8770
2584.659028 0.8763 0.8753 0.8750 0.8750 0.8758
2591.055648 0.8768 0.8770 0.8770 0.8762 0.8752
2597.452267 0.8750 0.8750 0.8746 0.8741 0.8733
2603.848886 0.8723 0.8720 0.8720 0.8727 0.8737
2610.245505 0.8744 0.8749 0.8750 0.8750 0.8765
2616.642125 0.8785 0.8790 0.8790 0.8790 0.8790
2623.038744 0.8797 0.8807 0.8810 0.8810 0.8810
2629.435363 0.8810 0.8810 0.8810 0.8810 0.8810
2635.831983 0.8810 0.8810 0.8810 0.8810 0.8810
2642.228602 0.8810 0.8810 0.8810 0.8810 0.8810
2648.625221 0.8810 0.8810 0.8810 0.8810 0.8810
2655.021840 0.8810 0.8810 0.8810 0.8810 0.8810
2661.418460 0.8810 0.8810 0.8810 0.8810 0.8810
2667.815079 0.8810 0.8810 0.8810 0.8810 0.8810
2674.211698 0.8810 0.8810 0.8810 0.8810 0.8803
2680.608317 0.8793 0.8790 0.8790 0.8783 0.8773
2687.004937 0.8770 0.8770 0.8770 0.8770 0.8770
2693.401556 0.8770 0.8770 0.8770 0.8770 0.8770
2699.798175 0.8770 0.8770 0.8770 0.8770 0.8770
2706.194794 0.8770 0.8770 0.8770 0.8770 0.8770
2712.591414 0.8770 0.8770 0.8777 0.8787 0.8790
2718.988033 0.8790 0.8790 0.8790 0.8790 0.8790
2725.384652 0.8790 0.8790 0.8790 0.8790 0.8797
2731.781271 0.8807 0.8810 0.8810 0.8810 0.8810
2738.177891 0.8810 0.8810 0.8803 0.8793 0.8790
2744.574510 0.8790 0.8790 0.8790 0.8790 0.8790
2750.971129 0.8790 0.8790 0.8790 0.8790 0.8790
2757.367748 0.8790 0.8790 0.8790 0.8797 0.8807
2763.764368 0.8810 0.8810 0.8810 0.8810 0.8803
2770.160987 0.8793 0.8790 0.8790 0.8790 0.8790
2776.557606 0.8790 0.8790 0.8797 0.8807 0.8810
2782.954225 0.8810 0.8810 0.8810 0.8810 0.8810
2789.350845 0.8803 0.8793 0.8790 0.8790 0.8790
2795.747464 0.8790 0.8790 0.8790 0.8783 0.8773
2802.144083 0.8763 0.8753 0.8747 0.8742 0.8740
2808.540702 0.8740 0.8733 0.8723 0.8720 0.8720
2814.937322 0.8720 0.8720 0.8720 0.8720 0.8727
2821.333941 0.8737 0.8740 0.8740 0.8740 0.8740
2827.730560 0.8740 0.8740 0.8740 0.8740 0.8740
2834.127179 0.8740 0.8740 0.8740 0.8740 0.8740
2840.523799 0.8740 0.8740 0.8740 0.8740 0.8740
2846.920418 0.8740 0.8740 0.8740 0.8740 0.8740
2853.317037 0.8740 0.8740 0.8740 0.8740 0.8734
2859.713656 0.8724 0.8720 0.8720 0.8720 0.8720
2866.110276 0.8720 0.8720 0.8720 0.8720 0.8726
2872.506895 0.8736 0.8740 0.8740 0.8740 0.8740
2878.903514 0.8740 0.8740 0.8740 0.8740 0.8740
2885.300133 0.8740 0.8740 0.8740 0.8734 0.8724
2891.696753 0.8720 0.8720 0.8720 0.8720 0.8720
2898.093372 0.8720 0.8720 0.8720 0.8714 0.8704
2904.489991 0.8700 0.8700 0.8700 0.8700 0.8700
2910.886611 0.8700 0.8700 0.8700 0.8694 0.8684
2917.283230 0.8680 0.8680 0.8677 0.8672 0.8670
2923.679849 0.8670 0.8664 0.8654 0.8644 0.8634
2930.076468 0.8630 0.8630 0.8630 0.8630 0.8630
2936.473088 0.8630 0.8624 0.8614 0.8610 0.8610
2942.869707 0.8610 0.8610 0.8610 0.8610 0.8610
2949.266326 0.8610 0.8610 0.8610 0.8607 0.8602
2955.662945 0.8594 0.8584 0.8580 0.8580 0.8580
2962.059565 0.8580 0.8580 0.8580 0.8580 0.8580
2968.456184 0.8580 0.8580 0.8580 0.8580 0.8580
2974.852803 0.8580 0.8580 0.8580 0.8574 0.8564
2981.249422 0.8554 0.8544 0.8540 0.8540 0.8540
2987.646042 0.8540 0.8540 0.8540 0.8540 0.8540
2994.042661 0.8540 0.8540 0.8546 0.8556 0.8560
3000.439280 0.8560 0.8560 0.8560 0.8560 0.8560
3006.835899 0.8560 0.8560 0.8554 0.8544 0.8540
3013.232519 0.8540 0.8537 0.8532 0.8530 0.8530
3019.629138 0.8524 0.8514 0.8510 0.8510 0.8498
3026.025757 0.8478 0.8470 0.8470 0.8467 0.8462
3032.422376 0.8460 0.8460 0.8454 0.8444 0.8429
3038.818996 0.8409 0.8386 0.8361 0.8342 0.8327
3045.215615 0.8301 0.8266 0.8244 0.8234 0.8204
3051.612234 0.8159 0.8126 0.8101 0.8065 0.8020
3058.008853 0.7933 0.7813 0.7688 0.7558 0.7445
3064.405473 0.7345 0.7210 0.7045 0.6913 0.6808
3070.802092 0.6760 0.6760 0.6809 0.6900 0.7077
3077.198711 0.7322 0.7530 0.7710 0.7917 0.8147
3083.595330 0.8269 0.8304 0.8339 0.8374 0.8412
3089.991950 0.8452 0.8475 0.8485 0.8495 0.8505
3096.388569 0.8515 0.8525 0.8533 0.8538 0.8540
3102.785188 0.8540 0.8540 0.8540 0.8540 0.8540
3109.181807 0.8540 0.8540 0.8540 0.8540 0.8537
3115.578427 0.8532 0.8530 0.8530 0.8525 0.8515
3121.975046 0.8515 0.8525 0.8533 0.8538 0.8551
3128.371665 0.8571 0.8580 0.8580 0.8575 0.8565
3134.768284 0.8560 0.8560 0.8552 0.8537 0.8530
3141.164904 0.8530 0.8530 0.8530 0.8530 0.8530
3147.561523 0.8533 0.8538 0.8545 0.8555 0.8565
3153.958142 0.8575 0.8588 0.8603 0.8610 0.8610
3160.354762 0.8610 0.8610 0.8615 0.8625 0.8630
3166.751381 0.8630 0.8635 0.8645 0.8650 0.8650
3173.148000 0.8655 0.8665 0.8673 0.8678 0.8680
3179.544619 0.8680 0.8685 0.8695 0.8700 0.8700
3185.941239 0.8705 0.8715 0.8720 0.8720 0.8720
3192.337858 0.8720 0.8720 0.8720 0.8725 0.8735
3198.734477 0.8742 0.8747 0.8750 0.8750 0.8750
3205.131096 0.8750 0.8755 0.8765 0.8770 0.8770
3211.527716 0.8770 0.8770 0.8770 0.8770 0.8770
3217.924335 0.8770 0.8770 0.8770 0.8775 0.8785
3224.320954 0.8790 0.8790 0.8790 0.8790 0.8790
3230.717573 0.8790 0.8790 0.8790 0.8790 0.8790
3237.114193 0.8790 0.8790 0.8790 0.8790 0.8790
3243.510812 0.8790 0.8795 0.8805 0.8810 0.8810
3249.907431 0.8810 0.8810 0.8810 0.8810 0.8810
3256.304050 0.8810 0.8810 0.8810 0.8810 0.8810
3262.700670 0.8810 0.8810 0.8810 0.8810 0.8810
3269.097289 0.8810 0.8810 0.8810 0.8810 0.8810
3275.493908 0.8810 0.8810 0.8810 0.8810 0.8810
3281.890527 0.8810 0.8810 0.8810 0.8810 0.8810
3288.287147 0.8810 0.8810 0.8810 0.8810 0.8810
3294.683766 0.8810 0.8810 0.8810 0.8810 0.8810
3301.080385 0.8806 0.8796 0.8790 0.8790 0.8790
3307.477004 0.8790 0.8795 0.8805 0.8810 0.8810
3313.873624 0.8810 0.8810 0.8810 0.8810 0.8806
3320.270243 0.8796 0.8790 0.8790 0.8794 0.8804
3326.666862 0.8810 0.8810 0.8810 0.8810 0.8810
3333.063481 0.8810 0.8810 0.8810 0.8806 0.8796
3339.460101 0.8790 0.8790 0.8790 0.8790 0.8790
3345.856720 0.8790 0.8790 0.8790 0.8790 0.8790
3352.253339 0.8790 0.8790 0.8790 0.8790 0.8790
3358.649958 0.8790 0.8790 0.8790 0.8790 0.8790
3365.046578 0.8790 0.8790 0.8790 0.8790 0.8790
3371.443197 0.8790 0.8790 0.8790 0.8790 0.8790
3377.839816 0.8790 0.8790 0.8790 0.8790 0.8790
3384.236435 0.8790 0.8790 0.8790 0.8790 0.8790
3390.633055 0.8790 0.8790 0.8794 0.8804 0.8810
3397.029674 0.8810 0.8810 0.8810 0.8810 0.8810
3403.426293 0.8810 0.8810 0.8810 0.8810 0.8810
3409.822912 0.8810 0.8810 0.8810 0.8810 0.8810
3416.219532 0.8810 0.8810 0.8812 0.8817 0.8820
3422.616151 0.8820 0.8820 0.8820 0.8820 0.8820
3429.012770 0.8820 0.8820 0.8820 0.8820 0.8820
3435.409390 0.8820 0.8820 0.8820 0.8820 0.8820
3441.806009 0.8820 0.8820 0.8820 0.8820 0.8820
3448.202628 0.8820 0.8820 0.8820 0.8820 0.8820
3454.599247 0.8820 0.8820 0.8820 0.8820 0.8824
3460.995867 0.8834 0.8840 0.8840 0.8836 0.8826
3467.392486 0.8820 0.8820 0.8820 0.8820 0.8820
3473.789105 0.8820 0.8820 0.8820 0.8820 0.8820
3480.185724 0.8820 0.8820 0.8820 0.8820 0.8820
3486.582344 0.8820 0.8820 0.8820 0.8820 0.8820
3492.978963 0.8820 0.8820 0.8820 0.8820 0.8824
3499.375582 0.8834 0.8840 0.8840 0.8840 0.8840
3505.772201 0.8840 0.8840 0.8840 0.8840 0.8840
3512.168821 0.8840 0.8840 0.8840 0.8840 0.8840
3518.565440 0.8840 0.8840 0.8844 0.8854 0.8860
3524.962059 0.8860 0.8860 0.8860 0.8860 0.8860
3531.358678 0.8856 0.8847 0.8840 0.8840 0.8840
3537.755298 0.8840 0.8840 0.8840 0.8840 0.8840
3544.151917 0.8840 0.8840 0.8840 0.8840 0.8840
3550.548536 0.8840 0.8840 0.8840 0.8843 0.8853
3556.945155 0.8860 0.8860 0.8863 0.8874 0.8882
3563.341775 0.8887 0.8890 0.8890 0.8888 0.8883
3569.738394 0.8880 0.8880 0.8880 0.8880 0.8882
3576.135013 0.8887 0.8900 0.8930 0.8950 0.8950
3582.531632 0.8947 0.8937 0.8923 0.8903 0.8890
3588.928252 0.8890 0.8890 0.8890 0.8890 0.8890
3595.324871 0.8890 0.8890 0.8893 0.8903 0.8907
3601.721490 0.8897 0.8890 0.8890 0.8888 0.8883
3608.118109 0.8880 0.8880 0.8882 0.8887 0.8890
3614.514729 0.8890 0.8893 0.8903 0.8910 0.8910
3620.911348 0.8910 0.8910 0.8910 0.8910 0.8910
3627.307967 0.8910 0.8907 0.8897 0.8890 0.8890
3633.704586 0.8888 0.8883 0.8880 0.8880 0.8880
3640.101206 0.8880 0.8882 0.8887 0.8893 0.8903
3646.497825 0.8907 0.8897 0.8888 0.8883 0.8877
3652.894444 0.8867 0.8860 0.8860 0.8857 0.8847
3659.291063 0.8840 0.8840 0.8840 0.8840 0.8843
3665.687683 0.8853 0.8863 0.8873 0.8880 0.8880
3672.084302 0.8880 0.8880 0.8877 0.8867 0.8860
3678.480921 0.8860 0.8860 0.8860 0.8864 0.8879
3684.877541 0.8890 0.8890 0.8890 0.8890 0.8885
3691.274160 0.8870 0.8860 0.8860 0.8860 0.8860
3697.670779 0.8857 0.8847 0.8840 0.8840 0.8840
3704.067398 0.8840 0.8840 0.8840 0.8843 0.8853
3710.464018 0.8860 0.8860 0.8857 0.8847 0.8840
3716.860637 0.8840 0.8840 0.8840 0.8840 0.8840
3723.257256 0.8840 0.8840 0.8843 0.8853 0.8860
3729.653875 0.8860 0.8860 0.8860 0.8860 0.8860
3736.050495 0.8860 0.8860 0.8860 0.8860 0.8863
3742.447114 0.8873 0.8880 0.8880 0.8880 0.8880
3748.843733 0.8877 0.8867 0.8860 0.8860 0.8860
3755.240352 0.8860 0.8857 0.8847 0.8840 0.8840
3761.636972 0.8840 0.8840 0.8840 0.8840 0.8840
3768.033591 0.8840 0.8840 0.8840 0.8840 0.8840
3774.430210 0.8837 0.8827 0.8820 0.8820 0.8820
3780.826829 0.8820 0.8820 0.8820 0.8820 0.8820
3787.223449 0.8820 0.8820 0.8822 0.8833 0.8840
3793.620068 0.8840 0.8840 0.8840
##END=
