##TITLE=BENZENE, 1,2-DICHLORO-
##JCAMP-DX=4.24
##DATA TYPE=INFRARED SPECTRUM
##CLASS=COBLENTZ III
##ORIGIN=DOW CHEMICAL COMPANY
##OWNER=COBLENTZ SOCIETY
Collection (C) 2018 copyright by the U.S. Secretary of Commerce
on behalf of the United States of America. All rights reserved.
##DATE=1962/02/21
##NAMES=1,2-dichlorobenzene
##CAS REGISTRY NO=95-50-1
##MOLFORM=C6 H4 Cl2
##SOURCE REFERENCE=COBLENTZ NO. 10049
##$NIST SOURCE=COBLENTZ
##$NIST IMAGE=cob10049
##SPECTROMETER/DATA SYSTEM=DOW KBr FOREPRISM-GRATING
##INSTRUMENT PARAMETERS=BLAZED AT 3.5, 12.0, 20.0 MICRON, CHANGED AT 5.0, 7.5, 14.9 MICRON
##STATE=SOLUTION (10% IN CCl4 FOR 3800-1333 AND 10% IN CS2 FOR 1333-400 CM^-^1) VS. SOLVENT
##PATH LENGTH=0.011, 0.011 CM
##SAMPLING PROCEDURE=TRANSMISSION
##RESOLUTION=4
##DATA PROCESSING=DIGITIZED BY NIST FROM HARD COPY (FROM TWO SEGMENTS)
##XUNITS=1/CM
##YUNITS=TRANSMITTANCE
##XFACTOR=1.000000
##YFACTOR=1
##DELTAX=0.870987
##FIRSTX=382.58
##LASTX=3797.72
##FIRSTY=0.936
##MAXX=3797.72
##MINX=382.58
##MAXY=1.039
##MINY=7.95304e-006
##NPOINTS=3922
##XYDATA=(X++(Y..Y))
382.580000 0.9360 0.9360 0.9360 0.9360 0.9360
386.934936 0.9360 0.9340 0.9340 0.9330 0.9320
391.289872 0.9300 0.9290 0.9290 0.9270 0.9260
395.644808 0.9250 0.9230 0.9230 0.9220 0.9210
399.999743 0.9190 0.9190 0.9180 0.9180 0.9170
404.354679 0.9170 0.9150 0.9150 0.9140 0.9130
408.709615 0.9130 0.9110 0.9100 0.9080 0.9080
413.064551 0.9070 0.9060 0.9040 0.9020 0.8980
417.419487 0.8950 0.8920 0.8890 0.8870 0.8850
421.774423 0.8830 0.8790 0.8750 0.8690 0.8650
426.129359 0.8610 0.8570 0.8540 0.8510 0.8490
430.484295 0.8470 0.8470 0.8460 0.8460 0.8460
434.839230 0.8470 0.8530 0.8580 0.8640 0.8800
439.194166 0.8960 0.9189 0.9339 0.9450 0.9520
443.549102 0.9560 0.9590 0.9600 0.9610 0.9610
447.904038 0.9630 0.9630 0.9600 0.9600 0.9590
452.258974 0.9570 0.9560 0.9530 0.9520 0.9510
456.613910 0.9480 0.9470 0.9440 0.9400 0.9340
460.968846 0.9320 0.9270 0.9250 0.9220 0.9210
465.323782 0.9190 0.9180 0.9180 0.9190 0.9210
469.678717 0.9230 0.9250 0.9260 0.9270 0.9270
474.033653 0.9270 0.9270 0.9260 0.9250 0.9210
478.388589 0.9110 0.9100 0.9030 0.8950 0.8850
482.743525 0.8790 0.8720 0.8620 0.8610 0.8600
487.098461 0.8610 0.8690 0.8750 0.8880 0.9000
491.453397 0.9110 0.9220 0.9330 0.9420 0.9519
495.808333 0.9590 0.9670 0.9720 0.9760 0.9790
500.163268 0.9820 0.9850 0.9860 0.9860 0.9860
504.518204 0.9850 0.9850 0.9850 0.9830 0.9830
508.873140 0.9830 0.9830 0.9830 0.9850 0.9850
513.228076 0.9850 0.9860 0.9860 0.9870 0.9870
517.583012 0.9870 0.9890 0.9870 0.9890 0.9890
521.937948 0.9890 0.9900 0.9910 0.9910 0.9930
526.292884 0.9930 0.9930 0.9940 0.9940 0.9950
530.647820 0.9950 0.9950 0.9950 0.9950 0.9940
535.002755 0.9930 0.9910 0.9910 0.9910 0.9900
539.357691 0.9900 0.9910 0.9910 0.9930 0.9930
543.712627 0.9930 0.9940 0.9940 0.9950 0.9950
548.067563 0.9970 0.9980 1.0000 1.0000 1.0010
552.422499 1.0020 1.0020 1.0040 1.0040 1.0040
556.777435 1.0040 1.0050 1.0050 1.0050 1.0050
561.132371 1.0040 1.0040 1.0040 1.0040 1.0020
565.487307 1.0010 1.0010 1.0010 1.0010 1.0020
569.842242 1.0020 1.0050 1.0060 1.0080 1.0090
574.197178 1.0090 1.0100 1.0100 1.0100 1.0120
578.552114 1.0120 1.0120 1.0130 1.0140 1.0160
582.907050 1.0170 1.0190 1.0190 1.0190 1.0200
587.261986 1.0200 1.0200 1.0200 1.0200 1.0200
591.616922 1.0190 1.0170 1.0170 1.0190 1.0200
595.971858 1.0200 1.0210 1.0210 1.0210 1.0210
600.326793 1.0230 1.0230 1.0230 1.0230 1.0230
604.681729 1.0230 1.0230 1.0230 1.0240 1.0250
609.036665 1.0250 1.0270 1.0280 1.0290 1.0310
613.391601 1.0310 1.0320 1.0320 1.0320 1.0320
617.746537 1.0310 1.0290 1.0270 1.0270 1.0250
622.101473 1.0250 1.0240 1.0240 1.0230 1.0210
626.456409 1.0200 1.0170 1.0160 1.0130 1.0130
630.811345 1.0120 1.0120 1.0100 1.0100 1.0100
635.166280 1.0080 1.0060 1.0020 1.0010 1.0000
639.521216 0.9980 0.9940 0.9900 0.9860 0.9830
643.876152 0.9780 0.9720 0.9670 0.9590 0.9490
648.231088 0.9221 0.8991 0.8811 0.8611 0.8381
652.586024 0.8050 0.7240 0.6261 0.5691 0.5191
656.940960 0.4671 0.2547 0.2540 0.3934 0.6259
661.295896 0.6450 0.7619 0.7740 0.8189 0.8729
665.650832 0.8910 0.9040 0.9080 0.9140 0.9140
670.005767 0.8680 0.8680 0.9060 0.9130 0.9150
674.360703 0.9180 0.9210 0.9220 0.9270 0.9330
678.715639 0.9410 0.9480 0.9550 0.9570 0.9610
683.070575 0.9630 0.9660 0.9710 0.9720 0.9740
687.425511 0.9750 0.9780 0.9780 0.9790 0.9790
691.780447 0.9800 0.9800 0.9820 0.9820 0.9820
696.135383 0.9820 0.9830 0.9830 0.9850 0.9860
700.490319 0.9860 0.9870 0.9870 0.9870 0.9870
704.845254 0.9870 0.9860 0.9860 0.9860 0.9850
709.200190 0.9820 0.9800 0.9790 0.9760 0.9740
713.555126 0.9700 0.9670 0.9640 0.9610 0.9570
717.910062 0.9530 0.9480 0.9420 0.9380 0.9330
722.264998 0.9270 0.9190 0.9110 0.9000 0.8870
726.619934 0.8661 0.8620 0.8301 0.8071 0.7781
730.974870 0.7410 0.6980 0.6440 0.5780 0.5400
735.329805 0.5021 0.4132 0.3073 0.2402 0.1573
739.684741 0.1520 0.1440 0.1350 0.1150 0.0950
744.039677 0.0720 0.0481 0.0251 0.0021 0.0000
748.394613 0.0010 0.0040 0.0160 0.0620 0.0720
752.749549 0.0810 0.1907 0.3086 0.4106 0.5723
757.104485 0.6340 0.6840 0.7260 0.7590 0.7860
761.459421 0.8070 0.8309 0.8509 0.8699 0.8849
765.814357 0.9000 0.9110 0.9220 0.9300 0.9380
770.169292 0.9440 0.9490 0.9520 0.9560 0.9590
774.524228 0.9610 0.9640 0.9670 0.9680 0.9740
778.879164 0.9740 0.9750 0.9750 0.9780 0.9790
783.234100 0.9800 0.9820 0.9830 0.9830 0.9850
787.589036 0.9850 0.9860 0.9850 0.9860 0.9860
791.943972 0.9860 0.9860 0.9860 0.9860 0.9870
796.298908 0.9890 0.9890 0.9900 0.9910 0.9930
800.653844 0.9930 0.9940 0.9930 0.9930 0.9940
805.008779 0.9940 0.9950 0.9950 0.9950 0.9950
809.363715 0.9950 0.9950 0.9970 0.9970 0.9970
813.718651 0.9950 0.9950 0.9950 0.9950 0.9940
818.073587 0.9940 0.9940 0.9940 0.9930 0.9930
822.428523 0.9910 0.9910 0.9910 0.9910 0.9900
826.783459 0.9890 0.9870 0.9860 0.9830 0.9800
831.138395 0.9790 0.9760 0.9750 0.9740 0.9720
835.493330 0.9710 0.9700 0.9680 0.9680 0.9670
839.848266 0.9660 0.9640 0.9630 0.9610 0.9590
844.203202 0.9570 0.9550 0.9530 0.9510 0.9470
848.558138 0.9440 0.9440 0.9450 0.9450 0.9480
852.913074 0.9490 0.9530 0.9550 0.9560 0.9590
857.268010 0.9590 0.9600 0.9630 0.9660 0.9640
861.622946 0.9670 0.9670 0.9680 0.9710 0.9710
865.977882 0.9680 0.9660 0.9660 0.9610 0.9590
870.332817 0.9530 0.9520 0.9530 0.9590 0.9610
874.687753 0.9670 0.9740 0.9780 0.9800 0.9820
879.042689 0.9830 0.9860 0.9870 0.9870 0.9890
883.397625 0.9900 0.9910 0.9910 0.9890 0.9870
887.752561 0.9870 0.9870 0.9910 0.9910 0.9850
892.107497 0.9830 0.9830 0.9830 0.9830 0.9830
896.462433 0.9830 0.9830 0.9830 0.9830 0.9830
900.817369 0.9850 0.9850 0.9860 0.9870 0.9890
905.172304 0.9890 0.9900 0.9900 0.9900 0.9890
909.527240 0.9890 0.9890 0.9870 0.9860 0.9850
913.882176 0.9860 0.9860 0.9860 0.9830 0.9820
918.237112 0.9790 0.9780 0.9760 0.9750 0.9740
922.592048 0.9710 0.9670 0.9660 0.9640 0.9640
926.946984 0.9610 0.9600 0.9520 0.9450 0.9380
931.301920 0.9300 0.9190 0.9020 0.8790 0.8470
935.656855 0.8041 0.7022 0.6521 0.6520 0.7168
940.011791 0.8500 0.8890 0.9100 0.9250 0.9340
944.366727 0.9420 0.9480 0.9510 0.9530 0.9560
948.721663 0.9590 0.9600 0.9610 0.9630 0.9630
953.076599 0.9640 0.9660 0.9670 0.9680 0.9680
957.431535 0.9700 0.9700 0.9710 0.9710 0.9710
961.786471 0.9710 0.9700 0.9700 0.9680 0.9680
966.141407 0.9670 0.9670 0.9660 0.9660 0.9640
970.496342 0.9640 0.9630 0.9630 0.9610 0.9610
974.851278 0.9630 0.9630 0.9630 0.9630 0.9640
979.206214 0.9640 0.9630 0.9630 0.9660 0.9660
983.561150 0.9660 0.9660 0.9630 0.9630 0.9640
987.916086 0.9660 0.9660 0.9670 0.9670 0.9670
992.271022 0.9670 0.9670 0.9670 0.9670 0.9660
996.625958 0.9660 0.9640 0.9630 0.9600 0.9560
1000.980894 0.9520 0.9470 0.9410 0.9340 0.9270
1005.335829 0.9190 0.9110 0.9030 0.8950 0.8870
1009.690765 0.8790 0.8690 0.8600 0.8510 0.8240
1014.045701 0.8010 0.7830 0.7641 0.7640 0.7829
1018.400637 0.8020 0.8050 0.8240 0.8270 0.8240
1022.755573 0.8150 0.8010 0.7771 0.7242 0.6991
1027.110509 0.6910 0.6870 0.6720 0.5960 0.5200
1031.465445 0.4780 0.4101 0.3112 0.1335 0.0742
1035.820380 0.0160 0.0130 0.0140 0.0470 0.2699
1040.175316 0.3979 0.5517 0.6478 0.7427 0.8188
1044.530252 0.8580 0.8840 0.9000 0.9040 0.9140
1048.885188 0.9270 0.9360 0.9420 0.9450 0.9520
1053.240124 0.9550 0.9570 0.9570 0.9590 0.9610
1057.595060 0.9630 0.9670 0.9680 0.9680 0.9700
1061.949996 0.9700 0.9710 0.9710 0.9710 0.9700
1066.304932 0.9700 0.9700 0.9680 0.9660 0.9640
1070.659867 0.9630 0.9560 0.9530 0.9530 0.9550
1075.014803 0.9590 0.9630 0.9640 0.9680 0.9680
1079.369739 0.9700 0.9700 0.9680 0.9660 0.9660
1083.724675 0.9640 0.9640 0.9640 0.9610 0.9590
1088.079611 0.9590 0.9600 0.9640 0.9660 0.9680
1092.434547 0.9710 0.9710 0.9720 0.9750 0.9750
1096.789483 0.9750 0.9750 0.9740 0.9720 0.9720
1101.144419 0.9700 0.9670 0.9640 0.9610 0.9560
1105.499354 0.9520 0.9450 0.9380 0.9270 0.9110
1109.854290 0.8990 0.8890 0.8830 0.8760 0.8660
1114.209226 0.8530 0.8350 0.8110 0.7750 0.7320
1118.564162 0.6751 0.6031 0.5591 0.5161 0.4114
1122.919098 0.3339 0.2260 0.1940 0.1610 0.1290
1127.274034 0.1120 0.0960 0.0930 0.1349 0.1729
1131.628970 0.2110 0.2500 0.2860 0.4029 0.5578
1135.983905 0.6219 0.6599 0.6819 0.7289 0.7479
1140.338841 0.7690 0.7770 0.7880 0.7960 0.8040
1144.693777 0.8130 0.8230 0.8340 0.8450 0.8550
1149.048713 0.8680 0.8790 0.8880 0.8950 0.8980
1153.403649 0.8980 0.8890 0.8770 0.8660 0.8660
1157.758585 0.8720 0.8790 0.8830 0.8870 0.8870
1162.113521 0.8850 0.8790 0.8700 0.8650 0.8530
1166.468457 0.8390 0.8320 0.8270 0.8020 0.8010
1170.823392 0.8020 0.8130 0.8240 0.8320 0.8410
1175.178328 0.8470 0.8570 0.8790 0.8810 0.8850
1179.533264 0.8850 0.8870 0.8870 0.8890 0.8920
1183.888200 0.9000 0.9080 0.9180 0.9290 0.9400
1188.243136 0.9490 0.9600 0.9680 0.9740 0.9760
1192.598072 0.9790 0.9800 0.9850 0.9870 0.9890
1196.953008 0.9900 0.9910 0.9910 0.9910 0.9910
1201.307944 0.9900 0.9900 0.9900 0.9890 0.9890
1205.662879 0.9890 0.9870 0.9870 0.9870 0.9870
1210.017815 0.9870 0.9870 0.9890 0.9890 0.9900
1214.372751 0.9900 0.9910 0.9900 0.9900 0.9910
1218.727687 0.9910 0.9910 0.9930 0.9940 0.9940
1223.082623 0.9940 0.9950 0.9950 0.9950 0.9970
1227.437559 0.9970 0.9970 0.9970 0.9970 0.9970
1231.792495 0.9970 0.9970 0.9970 0.9950 0.9940
1236.147431 0.9890 0.9860 0.9820 0.9760 0.9750
1240.502366 0.9710 0.9700 0.9660 0.9630 0.9590
1244.857302 0.9490 0.9380 0.9210 0.9000 0.8720
1249.212238 0.8281 0.7781 0.7521 0.7550 0.8038
1253.567174 0.8490 0.8800 0.8950 0.9020 0.9030
1257.922110 0.9040 0.9020 0.8870 0.8850 0.8880
1262.277046 0.8980 0.9080 0.9220 0.9320 0.9380
1266.631982 0.9450 0.9490 0.9510 0.9530 0.9550
1270.986917 0.9550 0.9530 0.9410 0.9270 0.9130
1275.341853 0.9110 0.9130 0.9360 0.9410 0.9550
1279.696789 0.9610 0.9680 0.9700 0.9740 0.9750
1284.051725 0.9760 0.9760 0.9760 0.9760 0.9760
1288.406661 0.9760 0.9750 0.9740 0.9710 0.9670
1292.761597 0.9640 0.9640 0.9660 0.9700 0.9740
1297.116533 0.9780 0.9820 0.9850 0.9910 0.9950
1301.471469 0.9950 0.9970 0.9980 0.9980 0.9980
1305.826404 1.0000 1.0000 1.0020 1.0040 1.0050
1310.181340 1.0050 1.0050 1.0040 1.0020 1.0020
1314.536276 1.0020 1.0020 1.0020 1.0010 1.0000
1318.891212 1.0000 0.9980 1.0000 1.0010 1.0020
1323.246148 1.0020 1.0020 1.0040 1.0020 1.0010
1327.601084 1.0040 1.0050 1.0060 1.0090 1.0090
1331.956020 1.0060 1.0060 1.0050 1.0060 1.0060
1336.310956 1.0060 1.0080 1.0080 1.0080 1.0080
1340.665891 1.0080 1.0080 1.0080 1.0080 1.0080
1345.020827 1.0060 1.0060 1.0060 1.0050 1.0050
1349.375763 1.0040 1.0040 1.0020 1.0010 1.0000
1353.730699 0.9980 0.9950 0.9930 0.9910 0.9870
1358.085635 0.9830 0.9760 0.9720 0.9610 0.9560
1362.440571 0.9520 0.9420 0.9320 0.9260 0.9260
1366.795507 0.9270 0.9380 0.9530 0.9640 0.9760
1371.150442 0.9800 0.9850 0.9900 0.9940 0.9980
1375.505378 0.9980 1.0000 1.0010 1.0020 1.0060
1379.860314 1.0090 1.0100 1.0120 1.0120 1.0100
1384.215250 1.0080 1.0050 1.0020 1.0010 0.9980
1388.570186 0.9930 0.9850 0.9760 0.9740 0.9750
1392.925122 0.9760 0.9780 0.9830 0.9850 0.9940
1397.280058 0.9940 0.9900 0.9830 0.9790 0.9740
1401.634994 0.9610 0.9590 0.9520 0.9380 0.9260
1405.989929 0.9140 0.9000 0.8940 0.8760 0.8750
1410.344865 0.8790 0.8870 0.9020 0.9110 0.9180
1414.699801 0.9290 0.9340 0.9400 0.9440 0.9440
1419.054737 0.9450 0.9450 0.9440 0.9420 0.9380
1423.409673 0.9330 0.9220 0.9130 0.9000 0.8870
1427.764609 0.8679 0.8319 0.7769 0.6920 0.6460
1432.119545 0.5920 0.5361 0.4072 0.2903 0.1714
1436.474481 0.1109 0.0513 0.2830 0.3220 0.6988
1440.829416 0.7819 0.8020 0.8200 0.8220 0.8220
1445.184352 0.8170 0.8080 0.7890 0.7750 0.7370
1449.539288 0.6580 0.5581 0.5470 0.5360 0.3644
1453.894224 0.3078 0.2469 0.1869 0.1269 0.0690
1458.249160 0.0090 0.0060 0.0080 0.2096 0.2589
1462.604096 0.3070 0.3070 0.3040 0.2970 0.2880
1466.959032 0.2880 0.3220 0.3659 0.4149 0.6594
1471.313967 0.7241 0.7600 0.7850 0.8020 0.8120
1475.668903 0.8200 0.8240 0.8300 0.8300 0.8310
1480.023839 0.8300 0.8170 0.8120 0.8050 0.7920
1484.378775 0.7780 0.7730 0.7660 0.7560 0.7550
1488.733711 0.7561 0.7971 0.8580 0.8870 0.9110
1493.088647 0.9270 0.9370 0.9440 0.9510 0.9550
1497.443583 0.9590 0.9610 0.9660 0.9710 0.9750
1501.798519 0.9790 0.9800 0.9830 0.9850 0.9850
1506.153454 0.9850 0.9850 0.9860 0.9910 0.9940
1510.508390 0.9980 1.0000 1.0020 1.0040 1.0040
1514.863326 1.0050 1.0050 1.0060 1.0060 1.0060
1519.218262 1.0080 1.0080 1.0080 1.0090 1.0100
1523.573198 1.0100 1.0100 1.0100 1.0100 1.0120
1527.928134 1.0130 1.0130 1.0130 1.0130 1.0130
1532.283070 1.0130 1.0130 1.0140 1.0140 1.0130
1536.638006 1.0130 1.0120 1.0120 1.0130 1.0160
1540.992941 1.0160 1.0170 1.0190 1.0210 1.0210
1545.347877 1.0200 1.0170 1.0130 1.0120 1.0100
1549.702813 1.0100 1.0100 1.0090 1.0080 1.0010
1554.057749 1.0000 0.9980 0.9970 0.9940 0.9900
1558.412685 0.9890 0.9860 0.9850 0.9830 0.9850
1562.767621 0.9820 0.9760 0.9710 0.9590 0.9560
1567.122557 0.9480 0.9320 0.9229 0.8889 0.8260
1571.477492 0.7920 0.7450 0.6940 0.5841 0.5610
1575.832428 0.5621 0.5861 0.6231 0.6731 0.7411
1580.187364 0.8270 0.9380 0.9480 0.9570 0.9660
1584.542300 0.9740 0.9790 0.9830 0.9860 0.9870
1588.897236 0.9870 0.9870 0.9870 0.9860 0.9850
1593.252172 0.9800 0.9780 0.9740 0.9640 0.9570
1597.607108 0.9530 0.9480 0.9380 0.9260 0.9220
1601.962044 0.9220 0.9250 0.9290 0.9340 0.9380
1606.316979 0.9450 0.9480 0.9510 0.9530 0.9570
1610.671915 0.9660 0.9700 0.9740 0.9800 0.9890
1615.026851 0.9950 1.0000 1.0010 1.0020 1.0050
1619.381787 1.0060 1.0080 1.0080 1.0090 1.0120
1623.736723 1.0130 1.0140 1.0170 1.0190 1.0200
1628.091659 1.0200 1.0210 1.0210 1.0210 1.0230
1632.446595 1.0230 1.0230 1.0230 1.0240 1.0240
1636.801531 1.0270 1.0280 1.0320 1.0350 1.0350
1641.156466 1.0360 1.0360 1.0360 1.0360 1.0360
1645.511402 1.0350 1.0350 1.0320 1.0310 1.0310
1649.866338 1.0290 1.0290 1.0280 1.0270 1.0250
1654.221274 1.0250 1.0250 1.0240 1.0230 1.0210
1658.576210 1.0210 1.0200 1.0170 1.0160 1.0140
1662.931146 1.0140 1.0130 1.0130 1.0130 1.0130
1667.286082 1.0100 1.0010 1.0000 1.0000 1.0040
1671.641017 1.0040 1.0050 1.0050 1.0040 1.0040
1675.995953 1.0040 1.0020 1.0010 1.0000 0.9980
1680.350889 0.9970 0.9940 0.9900 0.9860 0.9800
1684.705825 0.9740 0.9630 0.9610 0.9630 0.9630
1689.060761 0.9640 0.9700 0.9750 0.9760 0.9820
1693.415697 0.9830 0.9850 0.9850 0.9850 0.9850
1697.770633 0.9860 0.9870 0.9890 0.9900 0.9900
1702.125569 0.9910 0.9910 0.9930 0.9930 0.9900
1706.480504 0.9870 0.9870 0.9870 0.9890 0.9900
1710.835440 0.9940 0.9950 0.9970 0.9970 0.9980
1715.190376 0.9970 0.9950 0.9950 0.9930 0.9930
1719.545312 0.9930 0.9950 0.9950 0.9950 0.9970
1723.900248 0.9970 0.9950 0.9970 0.9970 0.9980
1728.255184 1.0000 1.0000 0.9980 0.9970 0.9970
1732.610120 0.9970 0.9970 0.9950 0.9940 0.9930
1736.965056 0.9940 0.9940 0.9940 1.0000 1.0000
1741.319991 1.0000 1.0000 1.0000 0.9980 0.9970
1745.674927 0.9970 0.9950 0.9950 0.9950 0.9950
1750.029863 0.9970 0.9980 1.0000 1.0000 1.0010
1754.384799 1.0010 1.0020 1.0020 1.0020 1.0020
1758.739735 1.0020 1.0020 1.0010 1.0010 1.0010
1763.094671 1.0020 1.0040 1.0060 1.0060 1.0060
1767.449607 1.0050 1.0020 1.0010 1.0010 1.0000
1771.804543 1.0000 1.0000 0.9980 0.9970 0.9940
1776.159478 0.9930 0.9910 0.9900 0.9870 0.9860
1780.514414 0.9850 0.9830 0.9800 0.9780 0.9750
1784.869350 0.9720 0.9680 0.9630 0.9550 0.9530
1789.224286 0.9420 0.9340 0.9190 0.9130 0.8920
1793.579222 0.8910 0.8920 0.9000 0.9130 0.9220
1797.934158 0.9330 0.9440 0.9600 0.9720 0.9790
1802.289094 0.9800 0.9850 0.9870 0.9900 0.9930
1806.644029 0.9940 0.9950 0.9950 0.9970 0.9970
1810.998965 0.9980 1.0000 1.0000 1.0000 0.9980
1815.353901 0.9980 0.9970 0.9970 0.9950 0.9930
1819.708837 0.9930 0.9910 0.9900 0.9900 0.9890
1824.063773 0.9870 0.9860 0.9850 0.9850 0.9800
1828.418709 0.9740 0.9700 0.9680 0.9700 0.9740
1832.773645 0.9740 0.9780 0.9800 0.9860 0.9900
1837.128581 0.9950 0.9970 1.0000 1.0020 1.0020
1841.483516 1.0020 1.0040 1.0040 1.0040 1.0040
1845.838452 1.0040 1.0040 1.0040 1.0040 1.0040
1850.193388 1.0040 1.0020 1.0020 1.0020 1.0020
1854.548324 1.0020 1.0040 1.0040 1.0040 1.0040
1858.903260 1.0040 1.0040 1.0040 1.0040 1.0040
1863.258196 1.0040 1.0040 1.0040 1.0020 1.0020
1867.613132 1.0020 1.0010 1.0010 1.0000 1.0000
1871.968068 0.9980 0.9970 0.9970 0.9950 0.9940
1876.323003 0.9910 0.9900 0.9870 0.9830 0.9780
1880.677939 0.9700 0.9680 0.9700 0.9720 0.9750
1885.032875 0.9780 0.9850 0.9870 0.9890 0.9910
1889.387811 0.9950 1.0000 1.0000 1.0000 1.0000
1893.742747 1.0000 1.0000 1.0000 1.0000 0.9980
1898.097683 0.9980 0.9970 0.9950 0.9940 0.9930
1902.452619 0.9910 0.9900 0.9870 0.9850 0.9800
1906.807554 0.9750 0.9700 0.9630 0.9530 0.9440
1911.162490 0.9300 0.9150 0.9000 0.8980 0.8990
1915.517426 0.9030 0.9100 0.9220 0.9330 0.9480
1919.872362 0.9570 0.9680 0.9800 0.9850 0.9910
1924.227298 0.9940 0.9950 0.9970 0.9970 0.9970
1928.582234 0.9980 1.0000 1.0000 1.0000 0.9980
1932.937170 0.9970 0.9950 0.9950 0.9940 0.9940
1937.292106 0.9930 0.9930 0.9900 0.9870 0.9830
1941.647041 0.9790 0.9760 0.9720 0.9680 0.9610
1946.001977 0.9550 0.9450 0.9370 0.9360 0.9370
1950.356913 0.9420 0.9490 0.9510 0.9590 0.9670
1954.711849 0.9740 0.9780 0.9830 0.9870 0.9930
1959.066785 1.0101 1.0390 1.0390 1.0320 1.0090
1963.421721 1.0050 1.0060 1.0050 1.0040 1.0040
1967.776657 1.0020 1.0020 1.0020 1.0020 1.0020
1972.131593 1.0020 1.0040 1.0050 1.0050 1.0050
1976.486528 1.0060 1.0050 1.0080 1.0090 1.0090
1980.841464 1.0060 1.0060 1.0060 1.0060 1.0060
1985.196400 1.0060 1.0060 1.0060 1.0060 1.0080
1989.551336 1.0120 1.0140 1.0010 1.0090 1.0140
1993.906272 1.0120 1.0160 1.0270 1.0290 1.0330
1998.261208 1.0330 1.0170 1.0140 1.0135 1.0130
2002.616144 1.0115 1.0100 1.0095 1.0090 1.0095
2006.971079 1.0100 1.0110 1.0120 1.0130 1.0140
2011.326015 1.0155 1.0170 1.0180 1.0190 1.0175
2015.680951 1.0160 1.0160 1.0160 1.0150 1.0140
2020.035887 1.0140 1.0141 1.0186 1.0230 1.0240
2024.390823 1.0250 1.0260 1.0269 1.0229 1.0190
2028.745759 1.0175 1.0160 1.0150 1.0140 1.0140
2033.100695 1.0140 1.0140 1.0140 1.0140 1.0140
2037.455631 1.0135 1.0130 1.0145 1.0160 1.0160
2041.810566 1.0160 1.0160 1.0160 1.0160 1.0160
2046.165502 1.0165 1.0170 1.0170 1.0170 1.0165
2050.520438 1.0160 1.0150 1.0140 1.0135 1.0130
2054.875374 1.0125 1.0120 1.0120 1.0120 1.0120
2059.230310 1.0120 1.0120 1.0120 1.0120 1.0121
2063.585246 1.0141 1.0160 1.0150 1.0139 1.0119
2067.940182 1.0100 1.0095 1.0090 1.0090 1.0091
2072.295118 1.0111 1.0130 1.0130 1.0130 1.0130
2076.650053 1.0130 1.0130 1.0130 1.0130 1.0130
2081.004989 1.0130 1.0130 1.0130 1.0130 1.0130
2085.359925 1.0130 1.0130 1.0130 1.0125 1.0120
2089.714861 1.0120 1.0120 1.0120 1.0120 1.0120
2094.069797 1.0120 1.0120 1.0120 1.0120 1.0120
2098.424733 1.0120 1.0119 1.0109 1.0100 1.0095
2102.779669 1.0090 1.0090 1.0090 1.0085 1.0080
2107.134604 1.0080 1.0077 1.0042 1.0010 1.0005
2111.489540 1.0000 1.0005 1.0011 1.0026 1.0041
2115.844476 1.0051 1.0061 1.0076 1.0090 1.0090
2120.199412 1.0090 1.0095 1.0100 1.0100 1.0101
2124.554348 1.0111 1.0120 1.0120 1.0119 1.0109
2128.909284 1.0100 1.0100 1.0100 1.0100 1.0100
2133.264220 1.0100 1.0100 1.0100 1.0101 1.0111
2137.619156 1.0119 1.0109 1.0100 1.0100 1.0100
2141.974091 1.0100 1.0100 1.0100 1.0100 1.0100
2146.329027 1.0100 1.0100 1.0100 1.0095 1.0090
2150.683963 1.0090 1.0090 1.0085 1.0079 1.0069
2155.038899 1.0061 1.0071 1.0080 1.0080 1.0080
2159.393835 1.0080 1.0079 1.0069 1.0060 1.0060
2163.748771 1.0060 1.0060 1.0059 1.0049 1.0040
2168.103707 1.0040 1.0039 1.0029 1.0020 1.0020
2172.458643 1.0021 1.0031 1.0040 1.0040 1.0041
2176.813578 1.0046 1.0051 1.0056 1.0061 1.0071
2181.168514 1.0080 1.0080 1.0080 1.0080 1.0079
2185.523450 1.0069 1.0060 1.0060 1.0059 1.0054
2189.878386 1.0050 1.0050 1.0049 1.0044 1.0040
2194.233322 1.0040 1.0040 1.0040 1.0039 1.0029
2198.588258 1.0020 1.0020 1.0020 1.0020 1.0020
2202.943194 1.0020 1.0020 1.0020 1.0022 1.0032
2207.298129 1.0041 1.0046 1.0050 1.0050 1.0051
2211.653065 1.0056 1.0060 1.0060 1.0062 1.0072
2216.008001 1.0080 1.0080 1.0078 1.0068 1.0060
2220.362937 1.0060 1.0059 1.0054 1.0050 1.0050
2224.717873 1.0049 1.0044 1.0040 1.0040 1.0040
2229.072809 1.0040 1.0040 1.0040 1.0040 1.0040
2233.427745 1.0041 1.0046 1.0050 1.0050 1.0050
2237.782681 1.0050 1.0050 1.0050 1.0049 1.0044
2242.137616 1.0041 1.0046 1.0050 1.0050 1.0049
2246.492552 1.0044 1.0040 1.0040 1.0038 1.0028
2250.847488 1.0020 1.0020 1.0019 1.0014 1.0009
2255.202424 1.0004 1.0000 1.0000 1.0000 1.0000
2259.557360 1.0001 1.0006 1.0010 1.0010 1.0011
2263.912296 1.0016 1.0020 1.0020 1.0020 1.0020
2268.267232 1.0020 1.0020 1.0020 1.0020 1.0019
2272.622168 1.0014 1.0010 1.0010 1.0009 1.0004
2276.977103 0.9998 0.9988 0.9979 0.9974 0.9967
2281.332039 0.9952 0.9937 0.9922 0.9909 0.9904
2285.686975 0.9899 0.9894 0.9890 0.9890 0.9891
2290.041911 0.9896 0.9901 0.9906 0.9913 0.9928
2294.396847 0.9941 0.9946 0.9952 0.9962 0.9970
2298.751783 0.9970 0.9970 0.9970 0.9968 0.9958
2303.106719 0.9950 0.9950 0.9950 0.9950 0.9949
2307.461655 0.9944 0.9937 0.9922 0.9910 0.9910
2311.816590 0.9909 0.9904 0.9900 0.9900 0.9901
2316.171526 0.9906 0.9912 0.9922 0.9931 0.9936
2320.526462 0.9940 0.9940 0.9940 0.9940 0.9939
2324.881398 0.9934 0.9930 0.9930 0.9930 0.9930
2329.236334 0.9931 0.9936 0.9941 0.9946 0.9953
2333.591270 0.9963 0.9974 0.9989 1.0000 1.0000
2337.946206 1.0000 1.0000 1.0001 1.0006 1.0010
2342.301141 1.0010 1.0010 1.0010 1.0010 1.0010
2346.656077 1.0009 1.0004 0.9997 0.9987 0.9979
2351.011013 0.9974 0.9970 0.9970 0.9967 0.9957
2355.365949 0.9950 0.9950 0.9953 0.9963 0.9970
2359.720885 0.9970 0.9970 0.9970 0.9970 0.9970
2364.075821 0.9970 0.9970 0.9970 0.9970 0.9967
2368.430757 0.9957 0.9943 0.9918 0.9896 0.9881
2372.785693 0.9869 0.9864 0.9860 0.9860 0.9864
2377.140628 0.9879 0.9893 0.9903 0.9914 0.9929
2381.495564 0.9944 0.9959 0.9971 0.9976 0.9980
2385.850500 0.9980 0.9983 0.9993 1.0000 1.0000
2390.205436 1.0000 1.0000 1.0000 1.0000 0.9997
2394.560372 0.9987 0.9980 0.9980 0.9979 0.9974
2398.915308 0.9970 0.9970 0.9967 0.9957 0.9950
2403.270244 0.9950 0.9950 0.9950 0.9950 0.9950
2407.625180 0.9950 0.9950 0.9958 0.9983 1.0002
2411.980115 1.0007 1.0010 1.0010 1.0012 1.0016
2416.335051 1.0023 1.0033 1.0040 1.0040 1.0034
2420.689987 1.0014 1.0000 1.0000 1.0000 1.0000
2425.044923 0.9997 0.9987 0.9980 0.9980 0.9980
2429.399859 0.9980 0.9980 0.9980 0.9980 0.9980
2433.754795 0.9985 1.0000 1.0010 1.0010 1.0008
2438.109731 1.0003 0.9997 0.9987 0.9978 0.9973
2442.464666 0.9972 0.9977 0.9983 0.9993 1.0000
2446.819602 1.0000 1.0002 1.0007 1.0010 1.0010
2451.174538 1.0010 1.0010 1.0010 1.0010 1.0012
2455.529474 1.0017 1.0020 1.0020 1.0016 1.0007
2459.884410 1.0000 1.0000 1.0000 1.0000 1.0000
2464.239346 1.0000 1.0000 1.0000 1.0000 1.0000
2468.594282 1.0000 1.0000 1.0002 1.0007 1.0012
2472.949218 1.0017 1.0024 1.0034 1.0040 1.0040
2477.304153 1.0042 1.0047 1.0050 1.0050 1.0052
2481.659089 1.0057 1.0060 1.0060 1.0060 1.0060
2486.014025 1.0064 1.0074 1.0080 1.0080 1.0076
2490.368961 1.0066 1.0060 1.0060 1.0060 1.0060
2494.723897 1.0058 1.0053 1.0050 1.0050 1.0048
2499.078833 1.0043 1.0040 1.0040 1.0040 1.0040
2503.433769 1.0040 1.0040 1.0040 1.0040 1.0040
2507.788705 1.0040 1.0040 1.0040 1.0040 1.0040
2512.143640 1.0042 1.0047 1.0050 1.0050 1.0050
2516.498576 1.0050 1.0050 1.0050 1.0050 1.0050
2520.853512 1.0050 1.0050 1.0048 1.0043 1.0040
2525.208448 1.0040 1.0034 1.0019 1.0008 1.0003
2529.563384 1.0000 1.0000 0.9996 0.9986 0.9978
2533.918320 0.9973 0.9964 0.9949 0.9940 0.9940
2538.273256 0.9934 0.9919 0.9906 0.9896 0.9867
2542.628191 0.9812 0.9763 0.9723 0.9702 0.9707
2546.983127 0.9718 0.9738 0.9760 0.9785 0.9810
2551.338063 0.9835 0.9860 0.9885 0.9910 0.9935
2555.692999 0.9960 0.9986 1.0002 1.0007 1.0010
2560.047935 1.0010 1.0012 1.0017 1.0024 1.0034
2564.402871 1.0040 1.0040 1.0040 1.0040 1.0040
2568.757807 1.0040 1.0040 1.0040 1.0040 1.0040
2573.112743 1.0040 1.0040 1.0040 1.0040 1.0036
2577.467678 1.0026 1.0016 1.0006 1.0000 1.0000
2581.822614 1.0000 1.0000 0.9996 0.9986 0.9984
2586.177550 0.9994 1.0002 1.0007 1.0012 1.0017
2590.532486 1.0024 1.0035 1.0035 1.0025 1.0020
2594.887422 1.0020 1.0018 1.0013 1.0008 1.0003
2599.242358 0.9995 0.9985 0.9973 0.9958 0.9939
2603.597294 0.9914 0.9891 0.9871 0.9858 0.9853
2607.952230 0.9850 0.9850 0.9888 0.9968 1.0012
2612.307165 1.0017 1.0020 1.0020 1.0025 1.0035
2616.662101 1.0040 1.0040 1.0040 1.0040 1.0042
2621.017037 1.0047 1.0050 1.0050 1.0050 1.0050
2625.371973 1.0050 1.0050 1.0050 1.0050 1.0050
2629.726909 1.0050 1.0050 1.0050 1.0052 1.0057
2634.081845 1.0060 1.0060 1.0060 1.0060 1.0067
2638.436781 1.0082 1.0090 1.0090 1.0088 1.0083
2642.791716 1.0080 1.0080 1.0080 1.0080 1.0083
2647.146652 1.0088 1.0090 1.0090 1.0088 1.0083
2651.501588 1.0075 1.0065 1.0060 1.0060 1.0060
2655.856524 1.0060 1.0065 1.0075 1.0073 1.0058
2660.211460 1.0053 1.0057 1.0060 1.0060 1.0060
2664.566396 1.0060 1.0057 1.0053 1.0053 1.0057
2668.921332 1.0060 1.0060 1.0065 1.0075 1.0080
2673.276268 1.0080 1.0080 1.0080 1.0083 1.0088
2677.631203 1.0090 1.0090 1.0087 1.0082 1.0080
2681.986139 1.0080 1.0075 1.0065 1.0057 1.0052
2686.341075 1.0047 1.0042 1.0040 1.0040 1.0035
2690.696011 1.0025 1.0020 1.0020 1.0017 1.0012
2695.050947 1.0010 1.0010 1.0007 1.0002 1.0000
2699.405883 1.0000 0.9995 0.9985 0.9972 0.9957
2703.760819 0.9947 0.9942 0.9937 0.9932 0.9933
2708.115755 0.9938 0.9948 0.9963 0.9978 0.9993
2712.470690 1.0000 1.0000 1.0003 1.0008 1.0010
2716.825626 1.0010 1.0013 1.0018 1.0020 1.0020
2721.180562 1.0020 1.0020 1.0017 1.0012 1.0010
2725.535498 1.0010 1.0013 1.0018 1.0020 1.0020
2729.890434 1.0026 1.0036 1.0040 1.0040 1.0034
2734.245370 1.0024 1.0026 1.0036 1.0040 1.0040
2738.600306 1.0046 1.0056 1.0060 1.0060 1.0066
2742.955241 1.0076 1.0080 1.0080 1.0080 1.0080
2747.310177 1.0074 1.0064 1.0060 1.0060 1.0060
2751.665113 1.0060 1.0060 1.0060 1.0060 1.0060
2756.020049 1.0060 1.0060 1.0069 1.0084 1.0087
2760.374985 1.0082 1.0080 1.0080 1.0080 1.0080
2764.729921 1.0080 1.0080 1.0083 1.0088 1.0081
2769.084857 1.0066 1.0066 1.0076 1.0080 1.0080
2773.439793 1.0083 1.0088 1.0090 1.0090 1.0090
2777.794728 1.0090 1.0090 1.0090 1.0090 1.0090
2782.149664 1.0087 1.0082 1.0080 1.0080 1.0080
2786.504600 1.0080 1.0083 1.0088 1.0093 1.0098
2790.859536 1.0106 1.0116 1.0120 1.0120 1.0120
2795.214472 1.0120 1.0102 1.0072 1.0057 1.0052
2799.569408 1.0050 1.0050 1.0050 1.0050 1.0050
2803.924344 1.0050 1.0050 1.0050 1.0059 1.0074
2808.279280 1.0074 1.0064 1.0054 1.0044 1.0040
2812.634215 1.0040 1.0034 1.0024 1.0026 1.0036
2816.989151 1.0043 1.0048 1.0050 1.0050 1.0053
2821.344087 1.0058 1.0060 1.0060 1.0060 1.0060
2825.699023 1.0060 1.0060 1.0066 1.0076 1.0074
2830.053959 1.0064 1.0060 1.0060 1.0060 1.0060
2834.408895 1.0060 1.0060 1.0057 1.0052 1.0050
2838.763831 1.0050 1.0050 1.0050 1.0050 1.0050
2843.118767 1.0050 1.0050 1.0047 1.0042 1.0040
2847.473702 1.0040 1.0040 1.0040 1.0034 1.0024
2851.828638 1.0020 1.0020 1.0027 1.0037 1.0040
2856.183574 1.0040 1.0040 1.0040 1.0043 1.0048
2860.538510 1.0050 1.0050 1.0053 1.0058 1.0067
2864.893446 1.0076 1.0080 1.0080 1.0083 1.0088
2869.248382 1.0090 1.0090 1.0090 1.0090 1.0090
2873.603318 1.0090 1.0090 1.0090 1.0093 1.0098
2877.958253 1.0100 1.0100 1.0097 1.0092 1.0090
2882.313189 1.0090 1.0090 1.0090 1.0090 1.0090
2886.668125 1.0093 1.0098 1.0100 1.0100 1.0100
2891.023061 1.0100 1.0100 1.0100 1.0100 1.0100
2895.377997 1.0100 1.0100 1.0100 1.0100 1.0097
2899.732933 1.0092 1.0080 1.0065 1.0060 1.0060
2904.087869 1.0057 1.0052 1.0050 1.0050 1.0047
2908.442805 1.0042 1.0040 1.0040 1.0033 1.0023
2912.797740 1.0016 1.0012 1.0000 0.9985 0.9980
2917.152676 0.9980 0.9977 0.9972 0.9970 0.9970
2921.507612 0.9973 0.9979 0.9980 0.9980 0.9980
2925.862548 0.9980 0.9987 0.9997 1.0004 1.0009
2930.217484 1.0010 1.0010 1.0014 1.0019 1.0027
2934.572420 1.0037 1.0040 1.0040 1.0040 1.0040
2938.927356 1.0040 1.0040 1.0040 1.0040 1.0044
2943.282292 1.0049 1.0050 1.0050 1.0050 1.0050
2947.637227 1.0050 1.0050 1.0046 1.0041 1.0040
2951.992163 1.0040 1.0040 1.0040 1.0033 1.0023
2956.347099 1.0016 1.0011 1.0006 1.0001 1.0000
2960.702035 1.0000 1.0000 1.0000 1.0000 1.0000
2965.056971 0.9993 0.9983 0.9980 0.9980 0.9980
2969.411907 0.9980 0.9980 0.9980 0.9980 0.9980
2973.766843 0.9980 0.9980 0.9976 0.9971 0.9962
2978.121778 0.9952 0.9946 0.9941 0.9940 0.9940
2982.476714 0.9936 0.9931 0.9923 0.9913 0.9903
2986.831650 0.9893 0.9879 0.9864 0.9860 0.9860
2991.186586 0.9856 0.9851 0.9850 0.9850 0.9854
2995.541522 0.9859 0.9860 0.9860 0.9864 0.9869
2999.896458 0.9885 0.9905 0.9918 0.9928 0.9930
3004.251394 0.9930 0.9930 0.9930 0.9930 0.9930
3008.606330 0.9930 0.9930 0.9922 0.9912 0.9910
3012.961265 0.9910 0.9910 0.9910 0.9906 0.9901
3017.316201 0.9896 0.9891 0.9878 0.9863 0.9845
3021.671137 0.9825 0.9812 0.9802 0.9800 0.9800
3026.026073 0.9800 0.9800 0.9808 0.9818 0.9832
3030.381009 0.9847 0.9850 0.9850 0.9842 0.9832
3034.735945 0.9826 0.9821 0.9808 0.9793 0.9786
3039.090881 0.9781 0.9772 0.9762 0.9760 0.9760
3043.445817 0.9756 0.9751 0.9750 0.9750 0.9738
3047.800752 0.9723 0.9712 0.9702 0.9660 0.9610
3052.155688 0.9556 0.9501 0.9458 0.9418 0.9390
3056.510624 0.9365 0.9324 0.9279 0.9230 0.9180
3060.865560 0.9097 0.9007 0.8863 0.8708 0.8602
3065.220496 0.8508 0.8396 0.8281 0.8183 0.8088
3069.575432 0.7936 0.7771 0.7736 0.7731 0.7734
3073.930368 0.7739 0.7829 0.7939 0.8074 0.8214
3078.285303 0.8531 0.8889 0.9062 0.9197 0.9270
3082.640239 0.9330 0.9398 0.9468 0.9517 0.9562
3086.995175 0.9607 0.9652 0.9681 0.9706 0.9731
3091.350111 0.9756 0.9785 0.9815 0.9841 0.9866
3095.705047 0.9878 0.9888 0.9894 0.9899 0.9913
3100.059983 0.9928 0.9938 0.9948 0.9950 0.9950
3104.414919 0.9950 0.9950 0.9958 0.9968 0.9970
3108.769855 0.9970 0.9974 0.9979 0.9988 0.9998
3113.124790 1.0000 1.0000 1.0000 1.0000 1.0000
3117.479726 1.0000 1.0000 1.0000 0.9991 0.9981
3121.834662 0.9993 1.0008 1.0010 1.0010 1.0010
3126.189598 1.0010 1.0014 1.0019 1.0020 1.0020
3130.544534 1.0011 1.0001 1.0000 1.0000 1.0000
3134.899470 1.0000 1.0000 1.0000 0.9991 0.9981
3139.254406 0.9976 0.9971 0.9953 0.9933 0.9917
3143.609342 0.9902 0.9896 0.9891 0.9894 0.9899
3147.964277 0.9948 1.0004 1.0023 1.0038 1.0058
3152.319213 1.0078 1.0084 1.0089 1.0090 1.0090
3156.674149 1.0094 1.0099 1.0100 1.0100 1.0100
3161.029085 1.0100 1.0100 1.0100 1.0100 1.0100
3165.384021 1.0100 1.0100 1.0100 1.0100 1.0095
3169.738957 1.0091 1.0090 1.0090 1.0095 1.0100
3174.093893 1.0100 1.0100 1.0109 1.0119 1.0129
3178.448828 1.0139 1.0140 1.0140 1.0131 1.0121
3182.803764 1.0120 1.0120 1.0120 1.0120 1.0120
3187.158700 1.0120 1.0120 1.0120 1.0120 1.0120
3191.513636 1.0120 1.0120 1.0125 1.0130 1.0135
3195.868572 1.0140 1.0154 1.0169 1.0170 1.0170
3200.223508 1.0152 1.0132 1.0130 1.0130 1.0130
3204.578444 1.0130 1.0130 1.0130 1.0130 1.0130
3208.933380 1.0135 1.0140 1.0140 1.0140 1.0149
3213.288315 1.0159 1.0160 1.0160 1.0165 1.0170
3217.643251 1.0170 1.0170 1.0170 1.0170 1.0170
3221.998187 1.0170 1.0170 1.0170 1.0170 1.0170
3226.353123 1.0156 1.0141 1.0140 1.0140 1.0140
3230.708059 1.0140 1.0149 1.0159 1.0160 1.0160
3235.062995 1.0174 1.0189 1.0195 1.0200 1.0200
3239.417931 1.0200 1.0186 1.0171 1.0170 1.0170
3243.772867 1.0170 1.0170 1.0170 1.0170 1.0180
3248.127802 1.0190 1.0200 1.0210 1.0210 1.0210
3252.482738 1.0210 1.0210 1.0210 1.0210 1.0210
3256.837674 1.0210 1.0220 1.0230 1.0230 1.0230
3261.192610 1.0216 1.0201 1.0200 1.0200 1.0200
3265.547546 1.0200 1.0219 1.0239 1.0245 1.0250
3269.902482 1.0250 1.0250 1.0250 1.0250 1.0250
3274.257418 1.0250 1.0240 1.0230 1.0230 1.0230
3278.612353 1.0230 1.0230 1.0230 1.0230 1.0230
3282.967289 1.0230 1.0230 1.0230 1.0235 1.0240
3287.322225 1.0240 1.0240 1.0240 1.0240 1.0240
3291.677161 1.0240 1.0240 1.0240 1.0245 1.0250
3296.032097 1.0250 1.0250 1.0260 1.0270 1.0255
3300.387033 1.0240 1.0240 1.0240 1.0245 1.0250
3304.741969 1.0260 1.0270 1.0260 1.0250 1.0250
3309.096905 1.0250 1.0250 1.0250 1.0250 1.0250
3313.451840 1.0250 1.0250 1.0250 1.0250 1.0250
3317.806776 1.0250 1.0250 1.0250 1.0250 1.0250
3322.161712 1.0250 1.0250 1.0250 1.0250 1.0250
3326.516648 1.0250 1.0250 1.0250 1.0250 1.0250
3330.871584 1.0250 1.0250 1.0250 1.0250 1.0250
3335.226520 1.0250 1.0250 1.0250 1.0250 1.0250
3339.581456 1.0250 1.0250 1.0260 1.0270 1.0270
3343.936392 1.0270 1.0270 1.0270 1.0270 1.0270
3348.291327 1.0270 1.0270 1.0270 1.0270 1.0270
3352.646263 1.0270 1.0270 1.0270 1.0270 1.0270
3357.001199 1.0270 1.0270 1.0270 1.0270 1.0270
3361.356135 1.0270 1.0270 1.0270 1.0275 1.0280
3365.711071 1.0280 1.0280 1.0285 1.0290 1.0300
3370.066007 1.0310 1.0310 1.0310 1.0310 1.0310
3374.420943 1.0315 1.0320 1.0320 1.0320 1.0325
3378.775879 1.0330 1.0330 1.0329 1.0319 1.0310
3383.130814 1.0310 1.0310 1.0315 1.0320 1.0320
3387.485750 1.0320 1.0325 1.0330 1.0325 1.0320
3391.840686 1.0320 1.0320 1.0320 1.0320 1.0320
3396.195622 1.0320 1.0320 1.0320 1.0315 1.0310
3400.550558 1.0310 1.0310 1.0310 1.0310 1.0310
3404.905494 1.0310 1.0310 1.0310 1.0310 1.0310
3409.260430 1.0310 1.0310 1.0310 1.0310 1.0310
3413.615365 1.0309 1.0294 1.0280 1.0280 1.0280
3417.970301 1.0275 1.0270 1.0270 1.0269 1.0259
3422.325237 1.0250 1.0250 1.0250 1.0250 1.0250
3426.680173 1.0250 1.0250 1.0250 1.0250 1.0250
3431.035109 1.0250 1.0250 1.0250 1.0250 1.0250
3435.390045 1.0250 1.0250 1.0250 1.0250 1.0250
3439.744981 1.0250 1.0250 1.0250 1.0250 1.0250
3444.099917 1.0250 1.0250 1.0250 1.0250 1.0250
3448.454852 1.0250 1.0250 1.0250 1.0250 1.0251
3452.809788 1.0261 1.0269 1.0259 1.0250 1.0250
3457.164724 1.0250 1.0250 1.0250 1.0245 1.0240
3461.519660 1.0234 1.0229 1.0219 1.0210 1.0210
3465.874596 1.0210 1.0210 1.0210 1.0210 1.0210
3470.229532 1.0210 1.0210 1.0210 1.0210 1.0210
3474.584468 1.0209 1.0204 1.0200 1.0200 1.0198
3478.939404 1.0183 1.0170 1.0170 1.0170 1.0170
3483.294339 1.0171 1.0181 1.0189 1.0179 1.0170
3487.649275 1.0170 1.0170 1.0170 1.0170 1.0170
3492.004211 1.0170 1.0170 1.0170 1.0170 1.0171
3496.359147 1.0181 1.0190 1.0190 1.0190 1.0190
3500.714083 1.0190 1.0190 1.0190 1.0190 1.0190
3505.069019 1.0190 1.0190 1.0190 1.0190 1.0190
3509.423955 1.0189 1.0179 1.0170 1.0170 1.0169
3513.778890 1.0164 1.0161 1.0166 1.0170 1.0170
3518.133826 1.0169 1.0164 1.0158 1.0148 1.0140
3522.488762 1.0140 1.0142 1.0152 1.0160 1.0160
3526.843698 1.0161 1.0166 1.0169 1.0164 1.0158
3531.198634 1.0143 1.0129 1.0124 1.0120 1.0120
3535.553570 1.0121 1.0126 1.0131 1.0136 1.0140
3539.908506 1.0140 1.0140 1.0140 1.0139 1.0134
3544.263442 1.0131 1.0136 1.0140 1.0140 1.0142
3548.618377 1.0152 1.0160 1.0160 1.0160 1.0160
3552.973313 1.0160 1.0160 1.0161 1.0166 1.0170
3557.328249 1.0170 1.0169 1.0164 1.0158 1.0148
3561.683185 1.0140 1.0140 1.0140 1.0140 1.0140
3566.038121 1.0140 1.0140 1.0140 1.0140 1.0140
3570.393057 1.0140 1.0140 1.0140 1.0140 1.0140
3574.747993 1.0140 1.0140 1.0140 1.0143 1.0158
3579.102929 1.0170 1.0170 1.0170 1.0170 1.0170
3583.457864 1.0170 1.0170 1.0170 1.0170 1.0170
3587.812800 1.0170 1.0170 1.0170 1.0170 1.0167
3592.167736 1.0152 1.0140 1.0140 1.0139 1.0134
3596.522672 1.0130 1.0130 1.0130 1.0130 1.0130
3600.877608 1.0130 1.0130 1.0130 1.0130 1.0130
3605.232544 1.0130 1.0130 1.0130 1.0130 1.0130
3609.587480 1.0130 1.0130 1.0130 1.0131 1.0136
3613.942415 1.0140 1.0140 1.0140 1.0140 1.0139
3618.297351 1.0134 1.0130 1.0130 1.0130 1.0130
3622.652287 1.0131 1.0136 1.0140 1.0140 1.0142
3627.007223 1.0152 1.0160 1.0160 1.0156 1.0141
3631.362159 1.0130 1.0130 1.0130 1.0130 1.0130
3635.717095 1.0130 1.0130 1.0130 1.0130 1.0130
3640.072031 1.0130 1.0130 1.0130 1.0130 1.0130
3644.426967 1.0130 1.0131 1.0136 1.0140 1.0140
3648.781902 1.0139 1.0134 1.0131 1.0136 1.0139
3653.136838 1.0134 1.0129 1.0124 1.0120 1.0120
3657.491774 1.0117 1.0107 1.0100 1.0100 1.0100
3661.846710 1.0100 1.0103 1.0113 1.0120 1.0120
3666.201646 1.0120 1.0120 1.0121 1.0126 1.0131
3670.556582 1.0136 1.0139 1.0134 1.0131 1.0136
3674.911518 1.0140 1.0140 1.0140 1.0140 1.0143
3679.266454 1.0153 1.0157 1.0147 1.0140 1.0140
3683.621389 1.0143 1.0153 1.0160 1.0160 1.0157
3687.976325 1.0147 1.0139 1.0134 1.0130 1.0130
3692.331261 1.0129 1.0124 1.0116 1.0101 1.0090
3696.686197 1.0090 1.0089 1.0084 1.0080 1.0080
3701.041133 1.0080 1.0080 1.0077 1.0067 1.0060
3705.396069 1.0060 1.0060 1.0060 1.0060 1.0060
3709.751005 1.0060 1.0060 1.0057 1.0047 1.0040
3714.105940 1.0040 1.0040 1.0040 1.0040 1.0040
3718.460876 1.0037 1.0027 1.0020 1.0020 1.0020
3722.815812 1.0020 1.0018 1.0013 1.0010 1.0010
3727.170748 1.0008 1.0003 1.0000 1.0000 1.0000
3731.525684 1.0000 1.0000 1.0000 1.0000 1.0000
3735.880620 1.0002 1.0007 1.0010 1.0010 1.0012
3740.235556 1.0017 1.0023 1.0033 1.0042 1.0047
3744.590492 1.0050 1.0050 1.0052 1.0057 1.0060
3748.945427 1.0060 1.0063 1.0073 1.0080 1.0080
3753.300363 1.0080 1.0080 1.0082 1.0087 1.0090
3757.655299 1.0090 1.0090 1.0090 1.0092 1.0097
3762.010235 1.0104 1.0114 1.0120 1.0120 1.0120
3766.365171 1.0120 1.0120 1.0120 1.0116 1.0107
3770.720107 1.0100 1.0100 1.0098 1.0093 1.0090
3775.075043 1.0090 1.0088 1.0083 1.0075 1.0060
3779.429979 1.0050 1.0050 1.0048 1.0043 1.0040
3783.784914 1.0040 1.0040 1.0040 1.0036 1.0026
3788.139850 1.0020 1.0020 1.0020 1.0020 1.0020
3792.494786 1.0020 1.0020 1.0020 1.0020 1.0020
3796.849722 1.0020 1.0020
##END=
