##TITLE=ANILINE, o-CHLORO-
##JCAMP-DX=4.24
##DATA TYPE=INFRARED SPECTRUM
##CLASS=COBLENTZ III
##ORIGIN=UNIVERSITY OF FLORIDA
##OWNER=COBLENTZ SOCIETY
Collection (C) 2018 copyright by the U.S. Secretary of Commerce
on behalf of the United States of America. All rights reserved.
##DATE=1967/02/20
##NAMES=2-chlorophenylamine
2-chloroaniline
##CAS REGISTRY NO=95-51-2
##MOLFORM=C6 H6 Cl N
##BP=208-219 C
##SOURCE REFERENCE=COBLENTZ NO. 6960
##$NIST SOURCE=COBLENTZ
##$NIST IMAGE=cob6960
##SPECTROMETER/DATA SYSTEM=BECKMAN IR-4 (HYBRID PRISM-GRATING)
##STATE=LIQUID (NEAT)
##PATH LENGTH=CAPILLARY
##SAMPLING PROCEDURE=TRANSMISSION
##RESOLUTION=4
##DATA PROCESSING=DIGITIZED BY NIST FROM HARD COPY
##XUNITS=MICROMETERS
##YUNITS=TRANSMITTANCE
##XFACTOR=1.000000
##YFACTOR=1
##DELTAX=000.005233
##FIRSTX=0.948
##LASTX=15.0211
##FIRSTY=0.916
##MAXX=15.0211
##MINX=0.948
##MAXY=0.921
##MINY=0.08
##NPOINTS=2690
##XYDATA=(X++(Y..Y))
0.948000 0.9160 0.9170 0.9170 0.9170 0.9170
0.974177 0.9160 0.9170 0.9170 0.9170 0.9170
1.000000 0.9170 0.9170 0.9170 0.9170 0.9180
1.026177 0.9190 0.9190 0.9190 0.9200 0.9190
1.053000 0.9190 0.9190 0.9200 0.9200 0.9200
1.079177 0.9210 0.9210 0.9210 0.9210 0.9210
1.105000 0.9210 0.9210 0.9210 0.9210 0.9200
1.131177 0.9200 0.9200 0.9200 0.9200 0.9200
1.157000 0.9200 0.9200 0.9190 0.9190 0.9190
1.183177 0.9180 0.9170 0.9160 0.9160 0.9140
1.210000 0.9140 0.9130 0.9130 0.9130 0.9140
1.236177 0.9140 0.9140 0.9140 0.9140 0.9150
1.262000 0.9150 0.9160 0.9170 0.9180 0.9190
1.288177 0.9190 0.9190 0.9190 0.9200 0.9200
1.314000 0.9200 0.9200 0.9200 0.9200 0.9200
1.340177 0.9200 0.9200 0.9200 0.9200 0.9190
1.367000 0.9190 0.9180 0.9180 0.9170 0.9170
1.393177 0.9170 0.9170 0.9170 0.9160 0.9150
1.419000 0.9150 0.9150 0.9140 0.9140 0.9130
1.445177 0.9130 0.9130 0.9130 0.9140 0.9150
1.471000 0.9160 0.9170 0.9170 0.9180 0.9190
1.497177 0.9190 0.9190 0.9190 0.9190 0.9190
1.524000 0.9190 0.9190 0.9190 0.9200 0.9200
1.550177 0.9200 0.9190 0.9190 0.9190 0.9180
1.576000 0.9180 0.9180 0.9190 0.9190 0.9190
1.602177 0.9200 0.9200 0.9200 0.9200 0.9200
1.628000 0.9200 0.9200 0.9200 0.9200 0.9190
1.654177 0.9190 0.9190 0.9190 0.9190 0.9190
1.681000 0.9190 0.9190 0.9190 0.9190 0.9190
1.707177 0.9190 0.9190 0.9190 0.9190 0.9190
1.733000 0.9190 0.9190 0.9180 0.9180 0.9190
1.759177 0.9190 0.9190 0.9190 0.9180 0.9180
1.785000 0.9180 0.9180 0.9180 0.9180 0.9170
1.811177 0.9170 0.9150 0.9140 0.9130 0.9110
1.838000 0.9100 0.9090 0.9080 0.9070 0.9060
1.864177 0.9050 0.9030 0.9020 0.9020 0.9030
1.890000 0.9050 0.9070 0.9090 0.9110 0.9130
1.916177 0.9150 0.9160 0.9160 0.9160 0.9160
1.942000 0.9160 0.9160 0.9160 0.9150 0.9140
1.968177 0.9130 0.9120 0.9110 0.9110 0.9100
1.995000 0.9100 0.9100 0.9100 0.9090 0.9090
2.021177 0.9100 0.9100 0.9100 0.9100 0.9100
2.047000 0.9100 0.9090 0.9090 0.9080 0.9080
2.073177 0.9070 0.9070 0.9060 0.9060 0.9060
2.099000 0.9060 0.9060 0.9060 0.9060 0.9060
2.125177 0.9060 0.9070 0.9080 0.9090 0.9100
2.152000 0.9110 0.9120 0.9120 0.9130 0.9130
2.178177 0.9130 0.9130 0.9130 0.9130 0.9130
2.204000 0.9130 0.9130 0.9120 0.9120 0.9120
2.230177 0.9130 0.9140 0.9150 0.9150 0.9150
2.256000 0.9150 0.9150 0.9140 0.9130 0.9120
2.282177 0.9120 0.9110 0.9100 0.9090 0.9090
2.309000 0.9090 0.9080 0.9080 0.9080 0.9080
2.335177 0.9080 0.9070 0.9060 0.9050 0.9020
2.361000 0.8990 0.8980 0.8930 0.8900 0.8900
2.387177 0.8890 0.8880 0.8880 0.8870 0.8880
2.413000 0.8890 0.8900 0.8910 0.8910 0.8910
2.439177 0.8920 0.8920 0.8920 0.8910 0.8910
2.466000 0.8910 0.8900 0.8900 0.8890 0.8890
2.492177 0.8880 0.8880 0.8880 0.8880 0.8880
2.518000 0.8880 0.8880 0.8880 0.8880 0.8880
2.544177 0.8880 0.8880 0.8880 0.8880 0.8880
2.570000 0.8880 0.8880 0.8880 0.8880 0.8880
2.596177 0.8880 0.8880 0.8870 0.8870 0.8860
2.623000 0.8860 0.8850 0.8840 0.8820 0.8810
2.649177 0.8780 0.8780 0.8770 0.8770 0.8760
2.675000 0.8750 0.8690 0.8670 0.8620 0.8580
2.701177 0.8510 0.8470 0.8410 0.8370 0.8300
2.727000 0.8290 0.8270 0.8230 0.8210 0.8200
2.753177 0.8180 0.8170 0.8170 0.8160 0.8150
2.780000 0.8140 0.8120 0.8100 0.8070 0.8000
2.806177 0.7940 0.7800 0.7680 0.7560 0.7370
2.832000 0.6800 0.6300 0.5740 0.5480 0.5180
2.858177 0.4570 0.4390 0.4410 0.4470 0.4570
2.884000 0.4720 0.4830 0.4980 0.5010 0.5030
2.910177 0.5030 0.4900 0.4610 0.4290 0.4000
2.937000 0.3700 0.3470 0.3470 0.3500 0.3590
2.963177 0.3700 0.3880 0.4030 0.4330 0.4610
2.989000 0.4810 0.5010 0.5220 0.5620 0.5990
3.015177 0.6350 0.6550 0.6740 0.6950 0.7070
3.041000 0.7210 0.7300 0.7330 0.7330 0.7300
3.067177 0.7280 0.7240 0.7190 0.7130 0.7090
3.094000 0.7070 0.7000 0.6990 0.7000 0.7130
3.120177 0.7290 0.7370 0.7470 0.7580 0.7740
3.146000 0.7890 0.8040 0.8190 0.8260 0.8340
3.172177 0.8400 0.8420 0.8430 0.8460 0.8440
3.198000 0.8430 0.8390 0.8280 0.8200 0.8140
3.224177 0.8030 0.7910 0.7710 0.7370 0.7290
3.251000 0.7290 0.7320 0.7360 0.7480 0.7590
3.277177 0.7690 0.7720 0.7730 0.7780 0.7880
3.303000 0.7990 0.8120 0.8200 0.8310 0.8300
3.329177 0.8210 0.8120 0.8010 0.8000 0.8020
3.355000 0.8070 0.8190 0.8290 0.8320 0.8360
3.381177 0.8410 0.8450 0.8480 0.8480 0.8490
3.408000 0.8490 0.8480 0.8470 0.8460 0.8450
3.434177 0.8450 0.8440 0.8440 0.8440 0.8460
3.460000 0.8500 0.8580 0.8600 0.8680 0.8770
3.486177 0.8830 0.8870 0.8940 0.8970 0.8990
3.512000 0.8990 0.9000 0.9010 0.9010 0.9010
3.538177 0.9010 0.9010 0.9020 0.9020 0.9030
3.565000 0.9030 0.9050 0.9050 0.9060 0.9070
3.591177 0.9080 0.9080 0.9080 0.9070 0.9070
3.617000 0.9070 0.9060 0.9060 0.9060 0.9060
3.643177 0.9060 0.9060 0.9050 0.9060 0.9060
3.669000 0.9060 0.9050 0.9050 0.9050 0.9050
3.695177 0.9060 0.9060 0.9060 0.9050 0.9050
3.722000 0.9060 0.9060 0.9060 0.9050 0.9030
3.748177 0.9010 0.9000 0.8990 0.8980 0.8920
3.774000 0.8890 0.8850 0.8810 0.8790 0.8770
3.800177 0.8760 0.8770 0.8780 0.8870 0.8930
3.826000 0.8990 0.8990 0.9000 0.9010 0.9020
3.852177 0.9020 0.9020 0.9030 0.9030 0.9050
3.879000 0.9060 0.9070 0.9080 0.9080 0.9090
3.905177 0.9100 0.9110 0.9120 0.9120 0.9130
3.931000 0.9140 0.9140 0.9140 0.9140 0.9150
3.957177 0.9150 0.9160 0.9160 0.9170 0.9180
3.983000 0.9180 0.9180 0.9180 0.9190 0.9180
4.009177 0.9170 0.9160 0.9140 0.9130 0.9120
4.036000 0.9110 0.9110 0.9100 0.9090 0.9090
4.062177 0.9090 0.9090 0.9100 0.9100 0.9110
4.088000 0.9110 0.9120 0.9120 0.9120 0.9110
4.114177 0.9110 0.9110 0.9120 0.9120 0.9130
4.140000 0.9130 0.9130 0.9130 0.9130 0.9140
4.166177 0.9130 0.9120 0.9120 0.9100 0.9100
4.193000 0.9090 0.9080 0.9080 0.9080 0.9070
4.219177 0.9070 0.9070 0.9070 0.9070 0.9070
4.245000 0.9070 0.9070 0.9070 0.9070 0.9070
4.271177 0.9070 0.9070 0.9070 0.9070 0.9070
4.298000 0.9070 0.9070 0.9070 0.9070 0.9070
4.324177 0.9070 0.9070 0.9070 0.9070 0.9070
4.350000 0.9070 0.9070 0.9080 0.9090 0.9100
4.376177 0.9100 0.9100 0.9110 0.9110 0.9110
4.402000 0.9110 0.9120 0.9130 0.9140 0.9140
4.428177 0.9140 0.9140 0.9140 0.9140 0.9130
4.455000 0.9120 0.9120 0.9120 0.9120 0.9120
4.481177 0.9110 0.9100 0.9100 0.9100 0.9090
4.507000 0.9090 0.9080 0.9080 0.9070 0.9070
4.533177 0.9070 0.9070 0.9070 0.9070 0.9070
4.559000 0.9070 0.9070 0.9070 0.9060 0.9060
4.585177 0.9050 0.9050 0.9030 0.9030 0.9020
4.612000 0.9020 0.9020 0.9020 0.9020 0.9020
4.638177 0.9020 0.9020 0.9010 0.9010 0.9010
4.664000 0.9000 0.9000 0.9010 0.9020 0.9050
4.690177 0.9050 0.9060 0.9060 0.9070 0.9070
4.716000 0.9080 0.9080 0.9070 0.9070 0.9070
4.742177 0.9070 0.9070 0.9070 0.9070 0.9070
4.769000 0.9070 0.9070 0.9070 0.9080 0.9080
4.795177 0.9080 0.9080 0.9080 0.9080 0.9080
4.821000 0.9080 0.9080 0.9090 0.9090 0.9090
4.847177 0.9090 0.9090 0.9080 0.9080 0.9070
4.873000 0.9070 0.9070 0.9060 0.9060 0.9060
4.899177 0.9060 0.9060 0.9070 0.9070 0.9030
4.926000 0.9030 0.9030 0.9030 0.9030 0.9030
4.952177 0.9030 0.9020 0.9020 0.9000 0.8980
4.978000 0.8950 0.8950 0.8940 0.8930 0.8930
5.004177 0.8930 0.8930 0.8940 0.8940 0.8930
5.030000 0.8930 0.8930 0.8930 0.8930 0.8940
5.056177 0.8940 0.8940 0.8940 0.8940 0.8930
5.083000 0.8930 0.8920 0.8920 0.8910 0.8900
5.109177 0.8880 0.8810 0.8790 0.8780 0.8770
5.135000 0.8720 0.8690 0.8660 0.8650 0.8640
5.161177 0.8620 0.8620 0.8630 0.8640 0.8660
5.187000 0.8680 0.8700 0.8700 0.8710 0.8700
5.213177 0.8680 0.8660 0.8640 0.8630 0.8620
5.240000 0.8610 0.8590 0.8560 0.8560 0.8550
5.266177 0.8550 0.8560 0.8580 0.8610 0.8650
5.292000 0.8680 0.8690 0.8690 0.8710 0.8710
5.318177 0.8720 0.8730 0.8730 0.8730 0.8740
5.344000 0.8740 0.8740 0.8740 0.8750 0.8750
5.370177 0.8750 0.8750 0.8760 0.8780 0.8810
5.397000 0.8850 0.8880 0.8890 0.8900 0.8900
5.423177 0.8900 0.8910 0.8900 0.8900 0.8890
5.449000 0.8890 0.8880 0.8880 0.8860 0.8840
5.475177 0.8830 0.8820 0.8810 0.8790 0.8790
5.501000 0.8790 0.8810 0.8790 0.8790 0.8790
5.527177 0.8790 0.8780 0.8770 0.8770 0.8760
5.554000 0.8760 0.8750 0.8730 0.8730 0.8700
5.580177 0.8670 0.8640 0.8600 0.8550 0.8540
5.606000 0.8510 0.8500 0.8500 0.8500 0.8510
5.632177 0.8510 0.8510 0.8520 0.8540 0.8560
5.658000 0.8600 0.8610 0.8620 0.8670 0.8710
5.684177 0.8750 0.8750 0.8770 0.8780 0.8790
5.711000 0.8790 0.8820 0.8850 0.8920 0.8920
5.737177 0.8860 0.8810 0.8790 0.8780 0.8770
5.763000 0.8770 0.8750 0.8750 0.8740 0.8720
5.789177 0.8710 0.8690 0.8690 0.8680 0.8660
5.815000 0.8620 0.8620 0.8610 0.8610 0.8590
5.841177 0.8580 0.8510 0.8450 0.8400 0.8380
5.868000 0.8300 0.8270 0.8260 0.8220 0.8190
5.894177 0.8180 0.8180 0.8140 0.8070 0.7990
5.920000 0.7920 0.7840 0.7840 0.7800 0.7780
5.946177 0.7770 0.7760 0.7710 0.7690 0.7670
5.972000 0.7620 0.7600 0.7590 0.7590 0.7530
5.998177 0.7500 0.7440 0.7370 0.7270 0.7120
6.025000 0.6960 0.6760 0.6310 0.6060 0.5790
6.051177 0.5590 0.5490 0.5380 0.5220 0.5070
6.077000 0.4700 0.4500 0.4310 0.4050 0.3590
6.103177 0.2700 0.2500 0.2390 0.2280 0.2110
6.129000 0.1990 0.1700 0.1390 0.1320 0.1260
6.155177 0.1220 0.1230 0.1260 0.1270 0.1370
6.182000 0.1410 0.1510 0.1600 0.1750 0.1890
6.208177 0.2650 0.2990 0.3210 0.3300 0.3390
6.234000 0.3600 0.3820 0.3980 0.4080 0.4100
6.260177 0.4180 0.4230 0.4320 0.4410 0.4490
6.286000 0.4590 0.4690 0.4770 0.4890 0.4950
6.312177 0.5020 0.5300 0.5550 0.5790 0.6050
6.339000 0.6220 0.6430 0.6470 0.6580 0.6700
6.365177 0.6930 0.7030 0.7150 0.7250 0.7370
6.391000 0.7460 0.7580 0.7670 0.7770 0.7780
6.417177 0.7780 0.7780 0.7770 0.7760 0.7760
6.443000 0.7750 0.7730 0.7720 0.7720 0.7720
6.469177 0.7710 0.7700 0.7690 0.7680 0.7670
6.496000 0.7600 0.7580 0.7500 0.7420 0.7360
6.522177 0.7120 0.6860 0.6740 0.6490 0.6350
6.548000 0.6240 0.6140 0.6050 0.6000 0.5940
6.574177 0.5810 0.5700 0.5580 0.5440 0.5300
6.600000 0.5100 0.4480 0.4290 0.4190 0.4140
6.626177 0.4090 0.3990 0.3830 0.3590 0.2990
6.653000 0.2630 0.2370 0.2120 0.2000 0.1880
6.679177 0.1690 0.1390 0.1290 0.1270 0.1270
6.705000 0.1390 0.1640 0.1830 0.2020 0.2420
6.731177 0.3020 0.3310 0.3610 0.4390 0.4970
6.757000 0.5330 0.5680 0.6340 0.6520 0.6700
6.783177 0.6810 0.6870 0.6880 0.6880 0.6880
6.810000 0.6870 0.6740 0.6030 0.5890 0.5760
6.836177 0.5400 0.5090 0.3720 0.3380 0.3100
6.862000 0.3060 0.3100 0.3280 0.3490 0.3700
6.888177 0.4530 0.4860 0.5190 0.5810 0.6430
6.914000 0.6570 0.6710 0.7030 0.7370 0.7570
6.940177 0.7820 0.7890 0.7890 0.7910 0.7970
6.967000 0.7970 0.7980 0.7980 0.7980 0.7980
6.993177 0.7980 0.7980 0.7980 0.7980 0.7980
7.019000 0.7980 0.7980 0.7990 0.7990 0.8000
7.045177 0.8000 0.8000 0.8000 0.8000 0.8000
7.071000 0.7990 0.7990 0.7990 0.7990 0.8000
7.097177 0.7990 0.7990 0.7990 0.7990 0.7980
7.124000 0.7980 0.7970 0.7960 0.7950 0.7940
7.150177 0.7930 0.7920 0.7900 0.7900 0.7890
7.176000 0.7890 0.7880 0.7880 0.7870 0.7870
7.202177 0.7880 0.7890 0.7890 0.7950 0.7950
7.228000 0.8020 0.8010 0.8020 0.8050 0.8110
7.254177 0.8160 0.8220 0.8260 0.8280 0.8280
7.281000 0.8300 0.8320 0.8350 0.8350 0.8360
7.307177 0.8360 0.8370 0.8370 0.8370 0.8370
7.333000 0.8380 0.8390 0.8410 0.8420 0.8420
7.359177 0.8430 0.8430 0.8440 0.8430 0.8430
7.385000 0.8430 0.8420 0.8410 0.8410 0.8400
7.411177 0.8400 0.8380 0.8370 0.8280 0.8250
7.438000 0.8240 0.8220 0.8210 0.8190 0.8180
7.464177 0.8120 0.8100 0.8040 0.8010 0.7960
7.490000 0.7900 0.7830 0.7740 0.7650 0.7510
7.516177 0.7350 0.7160 0.6830 0.6350 0.6130
7.542000 0.5880 0.5560 0.5210 0.4490 0.4190
7.568177 0.3920 0.3700 0.3490 0.3390 0.3270
7.595000 0.3220 0.3190 0.3170 0.3120 0.3110
7.621177 0.3110 0.3130 0.3160 0.3180 0.3200
7.647000 0.3320 0.3390 0.3450 0.3540 0.3900
7.673177 0.4170 0.4630 0.4820 0.5010 0.5270
7.699000 0.5550 0.5800 0.6050 0.6350 0.6590
7.725177 0.6680 0.6750 0.6870 0.6960 0.7050
7.752000 0.7160 0.7210 0.7340 0.7410 0.7460
7.778177 0.7500 0.7540 0.7590 0.7600 0.7630
7.804000 0.7640 0.7650 0.7650 0.7660 0.7660
7.830177 0.7650 0.7640 0.7630 0.7580 0.7510
7.856000 0.7470 0.7320 0.7240 0.7070 0.6940
7.882177 0.6700 0.6360 0.6220 0.6110 0.6080
7.909000 0.6050 0.6050 0.6110 0.6210 0.6300
7.935177 0.6380 0.6480 0.6510 0.6600 0.6650
7.961000 0.6700 0.6830 0.6920 0.6950 0.6960
7.987177 0.6990 0.7020 0.7110 0.7200 0.7280
8.013000 0.7360 0.7460 0.7580 0.7650 0.7710
8.039177 0.7780 0.7870 0.7900 0.7930 0.7960
8.066000 0.7990 0.8030 0.8080 0.8110 0.8140
8.092177 0.8160 0.8180 0.8180 0.8190 0.8210
8.118000 0.8230 0.8250 0.8260 0.8260 0.8270
8.144177 0.8270 0.8270 0.8280 0.8280 0.8280
8.170000 0.8280 0.8290 0.8290 0.8300 0.8310
8.196177 0.8310 0.8320 0.8320 0.8340 0.8340
8.223000 0.8320 0.8350 0.8350 0.8360 0.8360
8.249177 0.8370 0.8370 0.8370 0.8370 0.8370
8.275000 0.8370 0.8380 0.8380 0.8380 0.8380
8.301177 0.8380 0.8380 0.8380 0.8380 0.8380
8.327000 0.8380 0.8380 0.8370 0.8370 0.8360
8.353177 0.8360 0.8340 0.8290 0.8290 0.8280
8.380000 0.8280 0.8280 0.8280 0.8280 0.8270
8.406177 0.8270 0.8270 0.8260 0.8250 0.8240
8.432000 0.8240 0.8230 0.8220 0.8220 0.8210
8.458177 0.8190 0.8170 0.8160 0.8160 0.8150
8.484000 0.8140 0.8130 0.8120 0.8110 0.8100
8.510177 0.8080 0.8050 0.8020 0.7980 0.7950
8.537000 0.7890 0.7870 0.7830 0.7790 0.7740
8.563177 0.7680 0.7590 0.7500 0.7400 0.7260
8.589000 0.7090 0.6910 0.6400 0.6210 0.6100
8.615177 0.5760 0.5400 0.5370 0.5400 0.5480
8.641000 0.5610 0.5930 0.6100 0.6380 0.6530
8.667177 0.6580 0.6590 0.6590 0.6590 0.6590
8.694000 0.6590 0.6580 0.6550 0.6510 0.6400
8.720177 0.6300 0.6240 0.6170 0.6120 0.6080
8.746000 0.6070 0.6060 0.6080 0.6110 0.6130
8.772177 0.6200 0.6300 0.6320 0.6640 0.6670
8.798000 0.6690 0.6740 0.6880 0.6980 0.7070
8.824177 0.7160 0.7250 0.7340 0.7440 0.7490
8.851000 0.7510 0.7530 0.7550 0.7560 0.7560
8.877177 0.7580 0.7590 0.7590 0.7590 0.7600
8.903000 0.7600 0.7600 0.7600 0.7600 0.7590
8.929177 0.7570 0.7560 0.7530 0.7510 0.7480
8.955000 0.7420 0.7410 0.7390 0.7350 0.7320
8.981177 0.7280 0.7230 0.7210 0.7190 0.7160
9.008000 0.7120 0.7090 0.7040 0.6970 0.6870
9.034177 0.6790 0.6740 0.6570 0.6530 0.6490
9.060000 0.6380 0.6310 0.6240 0.6140 0.6080
9.086177 0.6010 0.5910 0.5830 0.5790 0.5740
9.112000 0.5570 0.5430 0.5390 0.5280 0.5180
9.138177 0.5110 0.5030 0.4890 0.4800 0.4690
9.165000 0.4600 0.4580 0.4550 0.4490 0.4480
9.191177 0.4420 0.4410 0.4400 0.4390 0.4360
9.217000 0.4340 0.4340 0.4320 0.4310 0.4310
9.243177 0.4270 0.4260 0.4250 0.4240 0.4220
9.269000 0.4220 0.4210 0.4220 0.4230 0.4250
9.295177 0.4310 0.4350 0.4380 0.4410 0.4480
9.322000 0.4510 0.4660 0.4720 0.4800 0.4890
9.348177 0.5000 0.5020 0.5030 0.5100 0.5150
9.374000 0.5290 0.5360 0.5460 0.5510 0.5590
9.400177 0.5600 0.5630 0.5640 0.5660 0.5670
9.426000 0.5670 0.5660 0.5650 0.5630 0.5630
9.452177 0.5590 0.5590 0.5520 0.5500 0.5400
9.479000 0.5350 0.5290 0.5210 0.5100 0.4830
9.505177 0.4690 0.4550 0.4470 0.4400 0.4330
9.531000 0.4200 0.4090 0.4080 0.4090 0.4110
9.557177 0.4330 0.4610 0.4850 0.4930 0.5020
9.583000 0.5220 0.5410 0.5560 0.5760 0.5800
9.609177 0.6010 0.6090 0.6120 0.6140 0.6180
9.636000 0.6210 0.6210 0.6210 0.6200 0.6200
9.662177 0.6140 0.6110 0.6050 0.6020 0.5990
9.688000 0.5890 0.5800 0.5670 0.5560 0.5450
9.714177 0.5310 0.5100 0.4620 0.4400 0.4240
9.740000 0.4060 0.3900 0.3710 0.3620 0.3470
9.766177 0.3420 0.3420 0.3470 0.3500 0.3620
9.793000 0.3730 0.3960 0.4100 0.4410 0.4710
9.819177 0.5000 0.5180 0.5360 0.5600 0.5700
9.845000 0.5900 0.6050 0.6210 0.6360 0.6500
9.871177 0.6630 0.6700 0.6750 0.6840 0.6930
9.897000 0.7000 0.7060 0.7130 0.7200 0.7280
9.923177 0.7360 0.7460 0.7510 0.7550 0.7570
9.950000 0.7580 0.7600 0.7630 0.7670 0.7700
9.976177 0.7750 0.7780 0.7790 0.7800 0.7810
10.002000 0.7820 0.7840 0.7870 0.7870 0.7880
10.028177 0.7880 0.7890 0.7890 0.7900 0.7900
10.054000 0.7900 0.7900 0.7910 0.7920 0.7920
10.080177 0.7920 0.7910 0.7910 0.7910 0.7910
10.107000 0.7900 0.7900 0.7900 0.7900 0.7890
10.133177 0.7880 0.7880 0.7880 0.7880 0.7880
10.159000 0.7880 0.7880 0.7870 0.7860 0.7860
10.185177 0.7840 0.7840 0.7820 0.7810 0.7810
10.211000 0.7800 0.7800 0.7800 0.7790 0.7780
10.237177 0.7780 0.7780 0.7780 0.7780 0.7770
10.264000 0.7770 0.7770 0.7770 0.7770 0.7760
10.290177 0.7750 0.7740 0.7740 0.7730 0.7730
10.316000 0.7730 0.7730 0.7730 0.7740 0.7750
10.342177 0.7760 0.7760 0.7760 0.7770 0.7770
10.368000 0.7780 0.7780 0.7790 0.7800 0.7810
10.394177 0.7820 0.7820 0.7830 0.7830 0.7830
10.421000 0.7840 0.7860 0.7860 0.7870 0.7880
10.447177 0.7880 0.7890 0.7890 0.7890 0.7890
10.473000 0.7890 0.7890 0.7890 0.7890 0.7890
10.499177 0.7890 0.7890 0.7890 0.7880 0.7880
10.525000 0.7870 0.7870 0.7870 0.7860 0.7840
10.551177 0.7830 0.7820 0.7800 0.7780 0.7780
10.578000 0.7750 0.7740 0.7730 0.7720 0.7720
10.604177 0.7710 0.7700 0.7700 0.7700 0.7690
10.630000 0.7660 0.7600 0.7560 0.7550 0.7520
10.656177 0.7500 0.7490 0.7450 0.7350 0.7310
10.682000 0.7260 0.7210 0.7130 0.7100 0.7050
10.708177 0.7030 0.6960 0.6860 0.6770 0.6670
10.735000 0.6500 0.6460 0.6460 0.6380 0.6360
10.761177 0.6350 0.6360 0.6380 0.6440 0.6480
10.787000 0.6510 0.6530 0.6570 0.6610 0.6650
10.813177 0.6690 0.6780 0.6890 0.6980 0.7060
10.839000 0.7120 0.7200 0.7260 0.7320 0.7370
10.865177 0.7430 0.7480 0.7520 0.7550 0.7590
10.892000 0.7620 0.7650 0.7660 0.7680 0.7710
10.918177 0.7720 0.7740 0.7750 0.7760 0.7760
10.944000 0.7760 0.7770 0.7770 0.7770 0.7780
10.970177 0.7780 0.7780 0.7770 0.7760 0.7770
10.996000 0.7770 0.7780 0.7780 0.7780 0.7780
11.022177 0.7770 0.7770 0.7760 0.7760 0.7760
11.049000 0.7750 0.7740 0.7740 0.7730 0.7730
11.075177 0.7730 0.7740 0.7740 0.7740 0.7740
11.101000 0.7730 0.7730 0.7730 0.7720 0.7710
11.127177 0.7700 0.7690 0.7690 0.7680 0.7680
11.153000 0.7670 0.7670 0.7670 0.7670 0.7660
11.179177 0.7660 0.7660 0.7650 0.7620 0.7620
11.206000 0.7600 0.7600 0.7590 0.7580 0.7560
11.232177 0.7550 0.7540 0.7530 0.7510 0.7490
11.258000 0.7490 0.7490 0.7460 0.7430 0.7400
11.284177 0.7400 0.7370 0.7360 0.7360 0.7340
11.310000 0.7330 0.7310 0.7240 0.7210 0.7170
11.336177 0.7110 0.7080 0.7050 0.7030 0.7010
11.363000 0.7010 0.7000 0.6990 0.6980 0.6980
11.389177 0.6970 0.6960 0.6950 0.6950 0.6950
11.415000 0.6960 0.6970 0.6980 0.7000 0.7010
11.441177 0.7020 0.7020 0.7050 0.7080 0.7100
11.467000 0.7120 0.7150 0.7150 0.7180 0.7180
11.493177 0.7180 0.7190 0.7190 0.7190 0.7190
11.520000 0.7190 0.7190 0.7190 0.7190 0.7190
11.546177 0.7190 0.7190 0.7180 0.7170 0.7170
11.572000 0.7150 0.7130 0.7120 0.7110 0.7110
11.598177 0.7100 0.7100 0.7100 0.7100 0.7090
11.624000 0.7050 0.7020 0.7020 0.7010 0.7000
11.650177 0.7000 0.6990 0.6980 0.6970 0.6930
11.677000 0.6920 0.6920 0.6910 0.6910 0.6890
11.703177 0.6880 0.6850 0.6840 0.6800 0.6750
11.729000 0.6690 0.6620 0.6600 0.6590 0.6580
11.755177 0.6540 0.6530 0.6510 0.6500 0.6490
11.781000 0.6480 0.6430 0.6410 0.6410 0.6400
11.807177 0.6390 0.6390 0.6380 0.6370 0.6370
11.834000 0.6370 0.6370 0.6370 0.6380 0.6380
11.860177 0.6380 0.6370 0.6370 0.6380 0.6380
11.886000 0.6380 0.6380 0.6380 0.6380 0.6390
11.912177 0.6390 0.6380 0.6340 0.6280 0.6270
11.938000 0.6250 0.6230 0.6230 0.6210 0.6200
11.964177 0.6180 0.6160 0.6150 0.6130 0.6120
11.991000 0.6110 0.6120 0.6130 0.6150 0.6210
12.017177 0.6250 0.6300 0.6340 0.6370 0.6400
12.043000 0.6450 0.6480 0.6500 0.6530 0.6570
12.069177 0.6600 0.6630 0.6650 0.6680 0.6720
12.095000 0.6740 0.6770 0.6810 0.6840 0.6850
12.121177 0.6860 0.6870 0.6870 0.6880 0.6880
12.148000 0.6880 0.6890 0.6890 0.6910 0.6910
12.174177 0.6890 0.6910 0.6910 0.6910 0.6910
12.200000 0.6920 0.6920 0.6920 0.6920 0.6920
12.226177 0.6910 0.6910 0.6890 0.6890 0.6880
12.252000 0.6880 0.6880 0.6880 0.6880 0.6880
12.278177 0.6870 0.6860 0.6860 0.6850 0.6830
12.305000 0.6820 0.6820 0.6800 0.6790 0.6780
12.331177 0.6740 0.6730 0.6720 0.6720 0.6720
12.357000 0.6710 0.6700 0.6690 0.6690 0.6690
12.383177 0.6680 0.6680 0.6670 0.6640 0.6630
12.409000 0.6620 0.6610 0.6590 0.6560 0.6560
12.435177 0.6550 0.6540 0.6540 0.6530 0.6520
12.462000 0.6510 0.6510 0.6500 0.6500 0.6490
12.488177 0.6490 0.6490 0.6490 0.6480 0.6480
12.514000 0.6460 0.6440 0.6400 0.6400 0.6390
12.540177 0.6370 0.6330 0.6320 0.6320 0.6310
12.566000 0.6310 0.6310 0.6300 0.6290 0.6280
12.592177 0.6260 0.6260 0.6230 0.6220 0.6210
12.619000 0.6210 0.6200 0.6200 0.6200 0.6180
12.645177 0.6170 0.6140 0.6110 0.6110 0.6100
12.671000 0.6090 0.6080 0.6080 0.6030 0.6020
12.697177 0.6010 0.6010 0.6000 0.6010 0.6000
12.723000 0.5980 0.5970 0.5920 0.5900 0.5890
12.749177 0.5880 0.5850 0.5820 0.5820 0.5810
12.776000 0.5810 0.5790 0.5770 0.5760 0.5750
12.802177 0.5740 0.5730 0.5730 0.5720 0.5720
12.828000 0.5690 0.5670 0.5630 0.5610 0.5610
12.854177 0.5600 0.5590 0.5580 0.5540 0.5510
12.880000 0.5510 0.5490 0.5490 0.5480 0.5420
12.906177 0.5410 0.5410 0.5380 0.5340 0.5320
12.933000 0.5300 0.5290 0.5280 0.5280 0.5250
12.959177 0.5220 0.5210 0.5200 0.5180 0.5180
12.985000 0.5110 0.5090 0.5090 0.5040 0.5020
13.011177 0.4940 0.4900 0.4860 0.4840 0.4810
13.037000 0.4770 0.4720 0.4650 0.4590 0.4580
13.063177 0.4510 0.4490 0.4420 0.4400 0.4380
13.090000 0.4310 0.4300 0.4240 0.4210 0.4150
13.116177 0.4030 0.3950 0.3850 0.3810 0.3770
13.142000 0.3690 0.3630 0.3600 0.3510 0.3490
13.168177 0.3390 0.3190 0.3100 0.3000 0.2900
13.194000 0.2840 0.2790 0.2700 0.2580 0.2450
13.220177 0.2350 0.2300 0.2210 0.2100 0.2030
13.247000 0.1990 0.1910 0.1820 0.1780 0.1680
13.273177 0.1520 0.1480 0.1390 0.1370 0.1320
13.299000 0.1250 0.1170 0.1100 0.1090 0.1070
13.325177 0.1050 0.1040 0.1010 0.1000 0.0980
13.351000 0.0970 0.0930 0.0920 0.0870 0.0850
13.377177 0.0830 0.0820 0.0810 0.0800 0.0800
13.404000 0.0800 0.0800 0.0800 0.0810 0.0820
13.430177 0.0830 0.0830 0.0850 0.0860 0.0870
13.456000 0.0900 0.0940 0.0980 0.0990 0.1000
13.482177 0.1010 0.1040 0.1070 0.1090 0.1170
13.508000 0.1260 0.1310 0.1400 0.1450 0.1500
13.534177 0.1540 0.1610 0.1670 0.1720 0.1810
13.561000 0.1980 0.2010 0.2190 0.2280 0.2390
13.587177 0.2480 0.2500 0.2590 0.2650 0.2800
13.613000 0.2990 0.3110 0.3210 0.3250 0.3290
13.639177 0.3360 0.3410 0.3490 0.3580 0.3620
13.665000 0.3710 0.3790 0.3890 0.3990 0.4030
13.691177 0.4080 0.4100 0.4130 0.4150 0.4200
13.718000 0.4230 0.4350 0.4440 0.4450 0.4480
13.744177 0.4480 0.4490 0.4530 0.4550 0.4590
13.770000 0.4620 0.4640 0.4680 0.4690 0.4700
13.796177 0.4710 0.4710 0.4720 0.4730 0.4770
13.822000 0.4780 0.4790 0.4790 0.4800 0.4810
13.848177 0.4810 0.4810 0.4820 0.4820 0.4820
13.875000 0.4820 0.4820 0.4820 0.4820 0.4830
13.901177 0.4850 0.4860 0.4870 0.4880 0.4880
13.927000 0.4890 0.4890 0.4890 0.4890 0.4890
13.953177 0.4900 0.4900 0.4910 0.4930 0.4940
13.979000 0.4940 0.4950 0.4950 0.4950 0.4950
14.005177 0.4950 0.4950 0.4950 0.4940 0.4940
14.032000 0.4940 0.4930 0.4910 0.4910 0.4910
14.058177 0.4910 0.4900 0.4900 0.4890 0.4880
14.084000 0.4870 0.4860 0.4820 0.4820 0.4820
14.110177 0.4810 0.4810 0.4780 0.4740 0.4720
14.136000 0.4720 0.4710 0.4700 0.4690 0.4680
14.162177 0.4670 0.4620 0.4610 0.4600 0.4590
14.189000 0.4560 0.4530 0.4510 0.4510 0.4500
14.215177 0.4490 0.4470 0.4450 0.4440 0.4440
14.241000 0.4430 0.4420 0.4420 0.4410 0.4410
14.267177 0.4400 0.4400 0.4390 0.4390 0.4380
14.293000 0.4370 0.4360 0.4360 0.4360 0.4350
14.319177 0.4330 0.4320 0.4320 0.4320 0.4310
14.346000 0.4300 0.4300 0.4290 0.4290 0.4290
14.372177 0.4270 0.4270 0.4270 0.4270 0.4270
14.398000 0.4260 0.4260 0.4250 0.4250 0.4250
14.424177 0.4240 0.4220 0.4220 0.4220 0.4210
14.450000 0.4200 0.4200 0.4190 0.4190 0.4180
14.476177 0.4170 0.4170 0.4170 0.4160 0.4160
14.503000 0.4160 0.4160 0.4150 0.4140 0.4130
14.529177 0.4120 0.4100 0.4100 0.4090 0.4080
14.555000 0.4060 0.4020 0.4010 0.4000 0.3990
14.581177 0.3980 0.3920 0.3900 0.3890 0.3880
14.607000 0.3870 0.3820 0.3780 0.3720 0.3690
14.633177 0.3680 0.3620 0.3590 0.3530 0.3500
14.660000 0.3480 0.3410 0.3340 0.3180 0.3110
14.686177 0.3040 0.2980 0.2890 0.2840 0.2700
14.712000 0.2590 0.2490 0.2400 0.2330 0.2290
14.738177 0.2270 0.2210 0.2180 0.2170 0.2160
14.764000 0.2150 0.2160 0.2170 0.2180 0.2190
14.790177 0.2220 0.2270 0.2280 0.2310 0.2340
14.817000 0.2410 0.2500 0.2530 0.2570 0.2590
14.843177 0.2690 0.2750 0.2800 0.2890 0.2990
14.869000 0.3040 0.3080 0.3180 0.3220 0.3280
14.895177 0.3300 0.3350 0.3390 0.3420 0.3480
14.921000 0.3510 0.3580 0.3650 0.3680 0.3700
14.947177 0.3720 0.3770 0.3790 0.3790 0.3810
14.974000 0.3810 0.3810 0.3820 0.3820 0.3820
15.000177 0.3820 0.3820 0.3820 0.3820 0.3820
##END=
