##TITLE=ANILINE, o-CHLORO-
##JCAMP-DX=4.24
##DATA TYPE=INFRARED SPECTRUM
##CLASS=COBLENTZ III
##ORIGIN=WESTERN REGIONAL RES. USDA
##OWNER=COBLENTZ SOCIETY
Collection (C) 2018 copyright by the U.S. Secretary of Commerce
on behalf of the United States of America. All rights reserved.
##DATE=1964/06/01
##NAMES=2-chlorophenylamine
2-chloroaniline
##CAS REGISTRY NO=95-51-2
##MOLFORM=C6 H6 Cl N
##SOURCE REFERENCE=COBLENTZ NO. 6192
##$NIST SOURCE=COBLENTZ
##$NIST IMAGE=cob6192
##SPECTROMETER/DATA SYSTEM=BECKMAN IR-7 (GRATING)
##INSTRUMENT PARAMETERS=GRATING CHANGES AT 3000, 2200, 1150 CM^-^1
##STATE=SOLUTION (10% IN CCl4 FOR 4000-1330 CM^-^1, 10% IN CS2 FOR 1330-600 CM^-^1)
##PATH LENGTH=0.010 CM, 0.010 CM
$$SPECTRAL CONTAMINATION DUE TO CCl4 AROUND 1550 CM^-^1
##SAMPLING PROCEDURE=TRANSMISSION
##RESOLUTION=4
##DATA PROCESSING=DIGITIZED BY NIST FROM HARD COPY (FROM TWO SEGMENTS)
##XUNITS=1/CM
##YUNITS=TRANSMITTANCE
##XFACTOR=1.000000
##YFACTOR=1
##DELTAX=0.646056
##FIRSTX=599.354
##LASTX=4011.17
##FIRSTY=0.59
##MAXX=4011.17
##MINX=599.354
##MAXY=0.879
##MINY=0
##NPOINTS=5282
##XYDATA=(X++(Y..Y))
599.354000 0.5900 0.5900 0.5900 0.5900 0.5900
602.584279 0.5900 0.5900 0.5910 0.5910 0.5900
605.814557 0.5900 0.5890 0.5890 0.5880 0.5870
609.044836 0.5850 0.5840 0.5830 0.5830 0.5840
612.275115 0.5850 0.5850 0.5850 0.5850 0.5840
615.505393 0.5830 0.5830 0.5820 0.5820 0.5810
618.735672 0.5810 0.5810 0.5800 0.5790 0.5780
621.965951 0.5770 0.5760 0.5760 0.5740 0.5740
625.196229 0.5730 0.5720 0.5720 0.5720 0.5710
628.426508 0.5710 0.5700 0.5700 0.5690 0.5690
631.656786 0.5690 0.5670 0.5660 0.5650 0.5650
634.887065 0.5640 0.5620 0.5600 0.5580 0.5580
638.117344 0.5570 0.5560 0.5550 0.5530 0.5510
641.347622 0.5490 0.5480 0.5480 0.5470 0.5460
644.577901 0.5440 0.5410 0.5400 0.5390 0.5390
647.808180 0.5370 0.5370 0.5360 0.5350 0.5340
651.038458 0.5330 0.5300 0.5300 0.5290 0.5280
654.268737 0.5290 0.5300 0.5320 0.5330 0.5350
657.499016 0.5370 0.5430 0.5460 0.5480 0.5490
660.729294 0.5490 0.5490 0.5510 0.5520 0.5530
663.959573 0.5530 0.5540 0.5540 0.5530 0.5500
667.189852 0.5480 0.5420 0.5390 0.5370 0.5280
670.420130 0.5130 0.4920 0.4670 0.4390 0.4081
673.650409 0.3741 0.3570 0.3391 0.3041 0.2681
676.880687 0.2430 0.2060 0.1690 0.1610 0.1610
680.110966 0.1630 0.2668 0.3668 0.3919 0.4099
683.341245 0.4270 0.4480 0.4660 0.4820 0.4960
686.571523 0.5070 0.5160 0.5240 0.5300 0.5350
689.801802 0.5450 0.5480 0.5490 0.5510 0.5520
693.032081 0.5530 0.5530 0.5540 0.5540 0.5540
696.262359 0.5540 0.5540 0.5540 0.5550 0.5550
699.492638 0.5570 0.5580 0.5600 0.5600 0.5610
702.722917 0.5610 0.5600 0.5600 0.5600 0.5620
705.953195 0.5630 0.5660 0.5720 0.5780 0.5890
709.183474 0.5970 0.6030 0.6060 0.6090 0.6100
712.413753 0.6110 0.6110 0.6120 0.6120 0.6120
715.644031 0.6110 0.6100 0.6080 0.6080 0.6060
718.874310 0.6040 0.5970 0.5940 0.5850 0.5810
722.104589 0.5760 0.5720 0.5690 0.5650 0.5570
725.334867 0.5480 0.5420 0.5360 0.5210 0.5051
728.565146 0.4860 0.4640 0.4370 0.4050 0.3681
731.795424 0.3460 0.3241 0.2732 0.1983 0.1691
735.025703 0.1379 0.0920 0.0570 0.0330 0.0160
738.255982 0.0070 0.0010 0.0000 0.0000 0.0000
741.486260 0.0000 0.0000 0.0100 0.0190 0.0200
744.716539 0.0320 0.0520 0.0719 0.0850 0.1009
747.946818 0.1221 0.1820 0.2170 0.2510 0.2860
751.177096 0.3180 0.3679 0.3860 0.4030 0.4190
754.407375 0.4340 0.4480 0.4620 0.4750 0.4870
757.637654 0.4980 0.5080 0.5180 0.5280 0.5439
760.867932 0.5510 0.5580 0.5640 0.5690 0.5770
764.098211 0.5820 0.5870 0.5900 0.5960 0.6020
767.328490 0.6060 0.6090 0.6150 0.6180 0.6210
770.558768 0.6250 0.6270 0.6290 0.6310 0.6340
773.789047 0.6370 0.6400 0.6410 0.6420 0.6450
777.019326 0.6450 0.6460 0.6490 0.6500 0.6510
780.249604 0.6510 0.6510 0.6510 0.6510 0.6510
783.479883 0.6520 0.6530 0.6540 0.6550 0.6560
786.710161 0.6580 0.6580 0.6580 0.6630 0.6650
789.940440 0.6680 0.6720 0.6740 0.6750 0.6760
793.170719 0.6760 0.6770 0.6800 0.6820 0.6840
796.400997 0.6850 0.6860 0.6880 0.6900 0.6930
799.631276 0.6950 0.6950 0.6950 0.6960 0.6970
802.861555 0.6970 0.6990 0.7020 0.7020 0.7020
806.091833 0.7030 0.7030 0.7040 0.7040 0.7050
809.322112 0.7050 0.7060 0.7080 0.7090 0.7090
812.552391 0.7090 0.7100 0.7100 0.7100 0.7100
815.782669 0.7100 0.7100 0.7100 0.7090 0.7090
819.012948 0.7090 0.7080 0.7080 0.7060 0.7050
822.243227 0.7040 0.7020 0.7010 0.6990 0.6960
825.473505 0.6930 0.6890 0.6850 0.6790 0.6740
828.703784 0.6670 0.6580 0.6490 0.6380 0.6260
831.934062 0.6130 0.6010 0.5920 0.5810 0.5710
835.164341 0.5670 0.5660 0.5660 0.5670 0.5780
838.394620 0.5930 0.6040 0.6130 0.6200 0.6260
841.624898 0.6290 0.6310 0.6350 0.6370 0.6400
844.855177 0.6420 0.6420 0.6420 0.6410 0.6400
848.085456 0.6370 0.6350 0.6340 0.6320 0.6310
851.315734 0.6290 0.6290 0.6290 0.6290 0.6300
854.546013 0.6310 0.6310 0.6310 0.6340 0.6350
857.776292 0.6360 0.6380 0.6440 0.6470 0.6480
861.006570 0.6500 0.6510 0.6530 0.6560 0.6580
864.236849 0.6610 0.6640 0.6650 0.6670 0.6680
867.467128 0.6700 0.6740 0.6760 0.6790 0.6830
870.697406 0.6830 0.6840 0.6850 0.6860 0.6870
873.927685 0.6890 0.6950 0.6960 0.6980 0.7010
877.157964 0.7050 0.7080 0.7220 0.7270 0.7310
880.388242 0.7340 0.7380 0.7400 0.7440 0.7470
883.618521 0.7510 0.7540 0.7570 0.7610 0.7630
886.848799 0.7650 0.7680 0.7750 0.7780 0.7820
890.079078 0.7820 0.7830 0.7860 0.7880 0.7900
893.309357 0.7930 0.7940 0.7950 0.7960 0.7970
896.539635 0.7980 0.7990 0.8000 0.8000 0.8000
899.769914 0.8000 0.8000 0.8000 0.8000 0.8000
903.000193 0.8000 0.8000 0.8000 0.8000 0.8000
906.230471 0.8000 0.8000 0.8000 0.8000 0.7990
909.460750 0.7990 0.7980 0.7980 0.7970 0.7970
912.691029 0.7970 0.7960 0.7940 0.7910 0.7860
915.921307 0.7810 0.7750 0.7580 0.7400 0.7180
919.151586 0.6960 0.6501 0.6261 0.5672 0.5610
922.381865 0.5610 0.5670 0.5870 0.6420 0.6650
925.612143 0.6830 0.6990 0.7359 0.7540 0.7680
928.842422 0.7770 0.7810 0.7840 0.7880 0.7930
932.072700 0.7950 0.7970 0.7980 0.8010 0.8030
935.302979 0.8040 0.8060 0.8070 0.8090 0.8090
938.533258 0.8110 0.8130 0.8130 0.8130 0.8140
941.763536 0.8150 0.8160 0.8160 0.8160 0.8160
944.993815 0.8160 0.8160 0.8170 0.8170 0.8180
948.224094 0.8180 0.8180 0.8180 0.8180 0.8170
951.454372 0.8170 0.8160 0.8160 0.8150 0.8150
954.684651 0.8140 0.8140 0.8140 0.8140 0.8130
957.914930 0.8130 0.8110 0.8110 0.8110 0.8090
961.145208 0.8090 0.8090 0.8100 0.8110 0.8120
964.375487 0.8140 0.8150 0.8150 0.8160 0.8160
967.605766 0.8160 0.8160 0.8160 0.8160 0.8160
970.836044 0.8160 0.8160 0.8160 0.8170 0.8180
974.066323 0.8190 0.8200 0.8220 0.8230 0.8260
977.296602 0.8260 0.8270 0.8270 0.8280 0.8290
980.526880 0.8290 0.8300 0.8300 0.8320 0.8320
983.757159 0.8320 0.8320 0.8320 0.8330 0.8330
986.987437 0.8330 0.8320 0.8320 0.8310 0.8300
990.217716 0.8300 0.8290 0.8280 0.8280 0.8270
993.447995 0.8270 0.8250 0.8250 0.8240 0.8230
996.678273 0.8230 0.8220 0.8190 0.8170 0.8140
999.908552 0.8130 0.8110 0.8100 0.8090 0.8070
1003.138831 0.8050 0.8000 0.7970 0.7950 0.7900
1006.369109 0.7820 0.7720 0.7610 0.7500 0.7390
1009.599388 0.7280 0.7240 0.7180 0.7100 0.6900
1012.829667 0.6720 0.6400 0.6150 0.5750 0.5560
1016.059945 0.5380 0.4751 0.4171 0.3522 0.2872
1019.290224 0.2790 0.2790 0.2821 0.3830 0.4020
1022.520503 0.4280 0.4620 0.4970 0.5669 0.5939
1025.750781 0.6130 0.6210 0.6450 0.6610 0.6720
1028.981060 0.6900 0.6950 0.6980 0.7050 0.7130
1032.211339 0.7210 0.7210 0.7220 0.7220 0.7230
1035.441617 0.7230 0.7220 0.7200 0.7180 0.7090
1038.671896 0.7010 0.6860 0.6660 0.6440 0.6120
1041.902174 0.5780 0.5450 0.5280 0.5110 0.4761
1045.132453 0.4750 0.4760 0.4850 0.4950 0.5420
1048.362732 0.5570 0.5710 0.5800 0.5870 0.5910
1051.593010 0.5950 0.5990 0.6000 0.6040 0.6080
1054.823289 0.6080 0.6090 0.6090 0.6100 0.6080
1058.053568 0.6020 0.6010 0.5990 0.5960 0.5920
1061.283846 0.5870 0.5810 0.5740 0.5670 0.5600
1064.514125 0.5520 0.5440 0.5390 0.5330 0.5190
1067.744404 0.5050 0.4890 0.4740 0.4590 0.4440
1070.974682 0.4320 0.4210 0.4140 0.4100 0.4060
1074.204961 0.4050 0.4050 0.4060 0.4080 0.4100
1077.435240 0.4120 0.4110 0.4090 0.4070 0.3990
1080.665518 0.3930 0.3800 0.3710 0.3690 0.3680
1083.895797 0.3680 0.3680 0.3790 0.3860 0.3960
1087.126075 0.4090 0.4250 0.4430 0.4600 0.4760
1090.356354 0.4900 0.4990 0.5030 0.5120 0.5220
1093.586633 0.5330 0.5500 0.5550 0.5660 0.5820
1096.816911 0.6010 0.6220 0.6420 0.6610 0.6770
1100.047190 0.6870 0.6910 0.7040 0.7240 0.7320
1103.277469 0.7380 0.7440 0.7500 0.7560 0.7630
1106.507747 0.7700 0.7740 0.7780 0.7800 0.7850
1109.738026 0.7860 0.7880 0.7910 0.7930 0.7940
1112.968305 0.7950 0.7950 0.7960 0.7960 0.7960
1116.198583 0.7970 0.7970 0.7970 0.7970 0.7970
1119.428862 0.7970 0.7970 0.7960 0.7950 0.7940
1122.659141 0.7900 0.7880 0.7860 0.7820 0.7810
1125.889419 0.7760 0.7690 0.7620 0.7540 0.7480
1129.119698 0.7420 0.7330 0.7260 0.7190 0.7040
1132.349977 0.6850 0.6630 0.6381 0.6101 0.5801
1135.580255 0.5450 0.5420 0.5390 0.5380 0.5420
1138.810534 0.5550 0.5730 0.5880 0.6010 0.6120
1142.040812 0.6220 0.6340 0.6470 0.6600 0.6670
1145.271091 0.6830 0.6860 0.6870 0.6870 0.6750
1148.501370 0.6478 0.5760 0.5570 0.5480 0.5380
1151.731648 0.5190 0.5000 0.4820 0.4451 0.4440
1154.961927 0.4440 0.4710 0.4970 0.5760 0.5930
1158.192206 0.6290 0.6699 0.6920 0.7399 0.7490
1161.422484 0.7570 0.7660 0.7740 0.7770 0.7790
1164.652763 0.7820 0.7860 0.7880 0.7900 0.7930
1167.883042 0.7940 0.7950 0.7950 0.7960 0.7960
1171.113320 0.7970 0.7980 0.7980 0.7990 0.8000
1174.343599 0.8000 0.8010 0.8030 0.8040 0.8060
1177.573878 0.8070 0.8090 0.8090 0.8100 0.8110
1180.804156 0.8110 0.8110 0.8120 0.8130 0.8130
1184.034435 0.8140 0.8140 0.8140 0.8150 0.8150
1187.264713 0.8160 0.8170 0.8170 0.8180 0.8190
1190.494992 0.8200 0.8200 0.8220 0.8220 0.8220
1193.725271 0.8230 0.8230 0.8230 0.8240 0.8240
1196.955549 0.8250 0.8250 0.8250 0.8250 0.8260
1200.185828 0.8260 0.8270 0.8270 0.8270 0.8270
1203.416107 0.8270 0.8270 0.8280 0.8280 0.8280
1206.646385 0.8280 0.8280 0.8290 0.8290 0.8290
1209.876664 0.8290 0.8290 0.8290 0.8290 0.8280
1213.106943 0.8280 0.8280 0.8280 0.8280 0.8280
1216.337221 0.8270 0.8270 0.8270 0.8270 0.8270
1219.567500 0.8270 0.8270 0.8270 0.8270 0.8270
1222.797779 0.8260 0.8260 0.8260 0.8250 0.8250
1226.028057 0.8250 0.8250 0.8250 0.8250 0.8240
1229.258336 0.8240 0.8230 0.8220 0.8210 0.8200
1232.488615 0.8180 0.8170 0.8160 0.8140 0.8110
1235.718893 0.8090 0.8070 0.8060 0.8000 0.7970
1238.949172 0.7940 0.7910 0.7900 0.7870 0.7850
1242.179450 0.7820 0.7810 0.7780 0.7770 0.7750
1245.409729 0.7740 0.7730 0.7700 0.7670 0.7630
1248.640008 0.7520 0.7450 0.7400 0.7340 0.7300
1251.870286 0.7240 0.7180 0.7130 0.7010 0.6850
1255.100565 0.6660 0.6440 0.6180 0.5881 0.5551
1258.330844 0.5420 0.5290 0.5200 0.5190 0.5190
1261.561122 0.5490 0.5810 0.6120 0.6370 0.6700
1264.791401 0.6971 0.7270 0.7380 0.7490 0.7570
1268.021680 0.7630 0.7680 0.7720 0.7740 0.7750
1271.251958 0.7770 0.7770 0.7780 0.7790 0.7790
1274.482237 0.7800 0.7810 0.7810 0.7820 0.7820
1277.712516 0.7820 0.7810 0.7800 0.7790 0.7790
1280.942794 0.7780 0.7770 0.7750 0.7730 0.7680
1284.173073 0.7640 0.7600 0.7570 0.7520 0.7460
1287.403351 0.7370 0.7240 0.7160 0.7070 0.6861
1290.633630 0.6720 0.6600 0.6490 0.6360 0.6170
1293.863909 0.5900 0.5620 0.5500 0.5370 0.5001
1297.094187 0.4639 0.4209 0.3750 0.3520 0.3270
1300.324466 0.2800 0.2360 0.1961 0.1800 0.1630
1303.554745 0.1400 0.1370 0.1370 0.1400 0.1470
1306.785023 0.1800 0.1920 0.2070 0.2230 0.2300
1310.015302 0.2370 0.2500 0.2570 0.2630 0.2890
1313.245581 0.3170 0.3770 0.4090 0.4409 0.4729
1316.475859 0.5052 0.5671 0.5971 0.6240 0.6490
1319.706138 0.6720 0.6920 0.7230 0.7320 0.7420
1322.936417 0.7520 0.7610 0.7690 0.7760 0.7830
1326.166695 0.7900 0.7960 0.8000 0.8020 0.8060
1329.396974 0.8070 0.8080 0.8090 0.8090 0.8140
1332.627253 0.8160 0.8180 0.8190 0.8210 0.8230
1335.857531 0.8250 0.8260 0.8270 0.8280 0.8290
1339.087810 0.8290 0.8300 0.8300 0.8320 0.8330
1342.318088 0.8340 0.8340 0.8340 0.8340 0.8340
1345.548367 0.8350 0.8350 0.8350 0.8350 0.8350
1348.778646 0.8350 0.8350 0.8350 0.8340 0.8340
1352.008924 0.8340 0.8340 0.8340 0.8340 0.8340
1355.239203 0.8340 0.8320 0.8320 0.8320 0.8320
1358.469482 0.8310 0.8310 0.8300 0.8300 0.8300
1361.699760 0.8290 0.8290 0.8290 0.8290 0.8280
1364.930039 0.8270 0.8250 0.8230 0.8220 0.8190
1368.160318 0.8140 0.8110 0.8080 0.8060 0.8030
1371.390596 0.8000 0.7970 0.7930 0.7890 0.7830
1374.620875 0.7820 0.7820 0.7820 0.7840 0.7880
1377.851154 0.7950 0.8010 0.8070 0.8110 0.8140
1381.081432 0.8140 0.8170 0.8200 0.8220 0.8230
1384.311711 0.8240 0.8250 0.8250 0.8250 0.8250
1387.541990 0.8250 0.8250 0.8250 0.8240 0.8230
1390.772268 0.8200 0.8180 0.8150 0.8140 0.8130
1394.002547 0.8130 0.8140 0.8140 0.8150 0.8180
1397.232825 0.8210 0.8230 0.8230 0.8250 0.8250
1400.463104 0.8260 0.8270 0.8270 0.8270 0.8270
1403.693383 0.8270 0.8270 0.8260 0.8250 0.8240
1406.923661 0.8230 0.8230 0.8220 0.8200 0.8180
1410.153940 0.8160 0.8130 0.8110 0.8100 0.8080
1413.384219 0.8070 0.8040 0.8020 0.8020 0.8010
1416.614497 0.8000 0.8010 0.8020 0.8020 0.8060
1419.844776 0.8080 0.8090 0.8090 0.8090 0.8100
1423.075055 0.8110 0.8120 0.8120 0.8120 0.8120
1426.305333 0.8110 0.8110 0.8100 0.8090 0.8080
1429.535612 0.8070 0.8060 0.8030 0.7990 0.7980
1432.765891 0.7980 0.7950 0.7890 0.7840 0.7810
1435.996169 0.7750 0.7660 0.7520 0.7410 0.7260
1439.226448 0.7109 0.6800 0.6630 0.6510 0.6310
1442.456726 0.5930 0.5600 0.5260 0.4291 0.3352
1445.687005 0.2399 0.2090 0.1930 0.1779 0.1470
1448.917284 0.1170 0.1170 0.1910 0.2120 0.2270
1452.147562 0.3732 0.4362 0.5531 0.5980 0.6210
1455.377841 0.6600 0.6790 0.6990 0.7040 0.7100
1458.608120 0.7130 0.7130 0.7130 0.7130 0.7130
1461.838398 0.7130 0.7130 0.7110 0.7090 0.7040
1465.068677 0.6990 0.6940 0.6880 0.6810 0.6690
1468.298956 0.6530 0.6330 0.6100 0.5850 0.5580
1471.529234 0.5429 0.5279 0.4969 0.4460 0.4249
1474.759513 0.3860 0.3680 0.3490 0.3090 0.2580
1477.989792 0.1859 0.1359 0.0849 0.0480 0.0230
1481.220070 0.0070 0.0050 0.0040 0.0030 0.0030
1484.450349 0.0030 0.0040 0.0120 0.0160 0.0200
1487.680628 0.0460 0.0810 0.1090 0.1330 0.1520
1490.910906 0.1810 0.1960 0.2130 0.2310 0.2460
1494.141185 0.2530 0.2580 0.2590 0.2580 0.2580
1497.371463 0.2430 0.2430 0.2450 0.2700 0.2900
1500.601742 0.3080 0.3250 0.3410 0.3779 0.4069
1503.832021 0.4401 0.4620 0.4800 0.4940 0.5070
1507.062299 0.5170 0.5240 0.5290 0.5320 0.5320
1510.292578 0.5330 0.5330 0.5330 0.5330 0.5330
1513.522857 0.5340 0.5340 0.5360 0.5400 0.5440
1516.753135 0.5460 0.5500 0.5530 0.5580 0.5580
1519.983414 0.5580 0.5580 0.5580 0.5570 0.5560
1523.213693 0.5530 0.5490 0.5470 0.5450 0.5440
1526.443971 0.5410 0.5400 0.5380 0.5350 0.5300
1529.674250 0.5260 0.5200 0.5160 0.5120 0.5090
1532.904529 0.5040 0.4980 0.4910 0.4830 0.4760
1536.134807 0.4710 0.4660 0.4630 0.4530 0.4460
1539.365086 0.4390 0.4350 0.4310 0.4280 0.4260
1542.595364 0.4240 0.4210 0.4190 0.4170 0.4140
1545.825643 0.4120 0.4120 0.4120 0.4110 0.4120
1549.055922 0.4120 0.4130 0.4160 0.4180 0.4210
1552.286200 0.4210 0.4260 0.4280 0.4280 0.4300
1555.516479 0.4320 0.4350 0.4390 0.4430 0.4470
1558.746758 0.4510 0.4540 0.4570 0.4580 0.4580
1561.977036 0.4580 0.4590 0.4590 0.4580 0.4570
1565.207315 0.4540 0.4510 0.4500 0.4460 0.4410
1568.437594 0.4360 0.4260 0.4230 0.4180 0.4110
1571.667872 0.4030 0.3940 0.3850 0.3770 0.3690
1574.898151 0.3620 0.3600 0.3600 0.3590 0.3620
1578.128430 0.3650 0.3680 0.3730 0.3780 0.3830
1581.358708 0.3870 0.3930 0.3960 0.4000 0.4020
1584.588987 0.4080 0.4090 0.4110 0.4120 0.4140
1587.819266 0.4170 0.4210 0.4270 0.4270 0.4260
1591.049544 0.4260 0.4250 0.4190 0.4150 0.4110
1594.279823 0.4060 0.4000 0.3930 0.3820 0.3680
1597.510101 0.3600 0.3510 0.3170 0.2860 0.2560
1600.740380 0.2269 0.2020 0.1900 0.1769 0.1540
1603.970659 0.1330 0.1130 0.0940 0.0770 0.0610
1607.200937 0.0460 0.0330 0.0240 0.0140 0.0070
1610.431216 0.0050 0.0030 0.0030 0.0020 0.0020
1613.661495 0.0020 0.0020 0.0030 0.0030 0.0050
1616.891773 0.0060 0.0120 0.0240 0.0350 0.0490
1620.122052 0.0661 0.0881 0.1080 0.1260 0.1440
1623.352331 0.1610 0.2000 0.2220 0.2470 0.2700
1626.582609 0.2880 0.2910 0.3091 0.3640 0.3860
1629.812888 0.3950 0.4030 0.4130 0.4250 0.4390
1633.043167 0.4530 0.4670 0.4830 0.4970 0.5101
1636.273445 0.5450 0.5620 0.5770 0.5920 0.6060
1639.503724 0.6190 0.6300 0.6400 0.6490 0.6560
1642.734003 0.6600 0.6690 0.6760 0.6830 0.6880
1645.964281 0.6920 0.6960 0.7040 0.7110 0.7210
1649.194560 0.7250 0.7290 0.7330 0.7360 0.7400
1652.424838 0.7430 0.7460 0.7480 0.7500 0.7520
1655.655117 0.7520 0.7540 0.7540 0.7540 0.7550
1658.885396 0.7550 0.7560 0.7560 0.7570 0.7580
1662.115674 0.7580 0.7580 0.7590 0.7590 0.7600
1665.345953 0.7610 0.7610 0.7620 0.7630 0.7640
1668.576232 0.7650 0.7650 0.7650 0.7650 0.7660
1671.806510 0.7660 0.7660 0.7670 0.7680 0.7700
1675.036789 0.7740 0.7770 0.7780 0.7790 0.7840
1678.267068 0.7890 0.7920 0.7950 0.7950 0.7970
1681.497346 0.7980 0.8010 0.8040 0.8060 0.8090
1684.727625 0.8100 0.8120 0.8130 0.8140 0.8160
1687.957904 0.8170 0.8190 0.8200 0.8220 0.8230
1691.188182 0.8250 0.8250 0.8260 0.8270 0.8270
1694.418461 0.8270 0.8280 0.8280 0.8290 0.8290
1697.648739 0.8290 0.8290 0.8290 0.8280 0.8290
1700.879018 0.8290 0.8290 0.8290 0.8300 0.8300
1704.109297 0.8300 0.8300 0.8300 0.8300 0.8300
1707.339575 0.8300 0.8300 0.8300 0.8300 0.8300
1710.569854 0.8300 0.8300 0.8300 0.8300 0.8290
1713.800133 0.8290 0.8290 0.8290 0.8290 0.8290
1717.030411 0.8290 0.8290 0.8280 0.8270 0.8270
1720.260690 0.8270 0.8280 0.8280 0.8280 0.8280
1723.490969 0.8280 0.8280 0.8280 0.8290 0.8290
1726.721247 0.8290 0.8290 0.8300 0.8300 0.8300
1729.951526 0.8300 0.8300 0.8300 0.8310 0.8310
1733.181805 0.8320 0.8320 0.8320 0.8320 0.8320
1736.412083 0.8320 0.8310 0.8310 0.8300 0.8300
1739.642362 0.8300 0.8290 0.8290 0.8290 0.8290
1742.872641 0.8290 0.8290 0.8290 0.8290 0.8280
1746.102919 0.8280 0.8270 0.8270 0.8260 0.8250
1749.333198 0.8230 0.8220 0.8200 0.8180 0.8160
1752.563476 0.8140 0.8130 0.8100 0.8080 0.8060
1755.793755 0.8040 0.8020 0.8000 0.7950 0.7910
1759.024034 0.7880 0.7850 0.7830 0.7820 0.7820
1762.254312 0.7840 0.7850 0.7860 0.7900 0.7910
1765.484591 0.7960 0.7970 0.8020 0.8060 0.8090
1768.714870 0.8120 0.8150 0.8170 0.8200 0.8220
1771.945148 0.8240 0.8260 0.8270 0.8290 0.8300
1775.175427 0.8310 0.8320 0.8340 0.8350 0.8360
1778.405706 0.8380 0.8380 0.8380 0.8390 0.8390
1781.635984 0.8390 0.8400 0.8400 0.8400 0.8400
1784.866263 0.8400 0.8400 0.8400 0.8400 0.8400
1788.096542 0.8400 0.8400 0.8390 0.8390 0.8380
1791.326820 0.8380 0.8360 0.8350 0.8340 0.8310
1794.557099 0.8300 0.8270 0.8270 0.8260 0.8250
1797.787377 0.8260 0.8270 0.8280 0.8290 0.8300
1801.017656 0.8320 0.8330 0.8340 0.8360 0.8360
1804.247935 0.8360 0.8380 0.8390 0.8410 0.8430
1807.478213 0.8430 0.8430 0.8440 0.8440 0.8450
1810.708492 0.8450 0.8460 0.8460 0.8460 0.8460
1813.938771 0.8480 0.8480 0.8490 0.8490 0.8500
1817.169049 0.8500 0.8500 0.8500 0.8500 0.8500
1820.399328 0.8500 0.8500 0.8500 0.8500 0.8500
1823.629607 0.8500 0.8500 0.8490 0.8490 0.8490
1826.859885 0.8490 0.8490 0.8480 0.8480 0.8480
1830.090164 0.8480 0.8470 0.8470 0.8460 0.8460
1833.320443 0.8460 0.8460 0.8450 0.8450 0.8450
1836.550721 0.8440 0.8420 0.8390 0.8390 0.8390
1839.781000 0.8380 0.8360 0.8350 0.8320 0.8310
1843.011279 0.8300 0.8270 0.8230 0.8200 0.8190
1846.241557 0.8130 0.8120 0.8090 0.8090 0.8090
1849.471836 0.8090 0.8120 0.8140 0.8180 0.8200
1852.702114 0.8220 0.8230 0.8260 0.8270 0.8290
1855.932393 0.8300 0.8320 0.8330 0.8360 0.8370
1859.162672 0.8390 0.8390 0.8410 0.8410 0.8420
1862.392950 0.8420 0.8430 0.8430 0.8430 0.8430
1865.623229 0.8430 0.8430 0.8430 0.8420 0.8400
1868.853508 0.8390 0.8390 0.8380 0.8380 0.8380
1872.083786 0.8370 0.8360 0.8340 0.8320 0.8300
1875.314065 0.8270 0.8240 0.8210 0.8170 0.8130
1878.544344 0.8090 0.8040 0.7990 0.7930 0.7880
1881.774622 0.7810 0.7790 0.7770 0.7760 0.7770
1885.004901 0.7790 0.7820 0.7860 0.7910 0.7970
1888.235180 0.8030 0.8090 0.8130 0.8180 0.8220
1891.465458 0.8250 0.8290 0.8320 0.8340 0.8360
1894.695737 0.8380 0.8400 0.8410 0.8430 0.8450
1897.926016 0.8480 0.8480 0.8480 0.8490 0.8490
1901.156294 0.8490 0.8480 0.8480 0.8480 0.8480
1904.386573 0.8480 0.8480 0.8460 0.8460 0.8450
1907.616851 0.8440 0.8410 0.8400 0.8380 0.8360
1910.847130 0.8340 0.8310 0.8290 0.8260 0.8230
1914.077409 0.8200 0.8160 0.8130 0.8090 0.8040
1917.307687 0.8000 0.7950 0.7910 0.7910 0.7900
1920.537966 0.7910 0.7930 0.7950 0.8010 0.8060
1923.768245 0.8100 0.8140 0.8180 0.8220 0.8240
1926.998523 0.8270 0.8300 0.8320 0.8370 0.8390
1930.228802 0.8410 0.8410 0.8430 0.8440 0.8450
1933.459081 0.8450 0.8460 0.8460 0.8470 0.8470
1936.689359 0.8480 0.8490 0.8500 0.8500 0.8510
1939.919638 0.8510 0.8520 0.8520 0.8520 0.8520
1943.149917 0.8520 0.8520 0.8530 0.8530 0.8540
1946.380195 0.8540 0.8540 0.8540 0.8540 0.8540
1949.610474 0.8540 0.8540 0.8540 0.8540 0.8540
1952.840752 0.8550 0.8550 0.8550 0.8550 0.8550
1956.071031 0.8550 0.8550 0.8550 0.8550 0.8550
1959.301310 0.8540 0.8540 0.8540 0.8540 0.8540
1962.531588 0.8540 0.8540 0.8540 0.8540 0.8540
1965.761867 0.8530 0.8530 0.8530 0.8520 0.8520
1968.992146 0.8520 0.8510 0.8510 0.8510 0.8500
1972.222424 0.8500 0.8500 0.8500 0.8490 0.8480
1975.452703 0.8480 0.8480 0.8480 0.8480 0.8470
1978.682982 0.8470 0.8460 0.8460 0.8460 0.8460
1981.913260 0.8460 0.8460 0.8470 0.8480 0.8480
1985.143539 0.8490 0.8490 0.8490 0.8500 0.8500
1988.373818 0.8500 0.8500 0.8500 0.8500 0.8510
1991.604096 0.8510 0.8510 0.8520 0.8520 0.8520
1994.834375 0.8520 0.8530 0.8530 0.8540 0.8540
1998.064654 0.8540 0.8540 0.8540 0.8540 0.8540
2001.294932 0.8540 0.8540 0.8540 0.8540 0.8540
2004.525211 0.8540 0.8540 0.8540 0.8540 0.8540
2007.755489 0.8540 0.8540 0.8540 0.8540 0.8540
2010.985768 0.8540 0.8540 0.8540 0.8540 0.8540
2014.216047 0.8540 0.8540 0.8540 0.8540 0.8540
2017.446325 0.8540 0.8540 0.8540 0.8540 0.8540
2020.676604 0.8540 0.8540 0.8540 0.8540 0.8540
2023.906883 0.8540 0.8540 0.8540 0.8540 0.8540
2027.137161 0.8540 0.8540 0.8540 0.8540 0.8540
2030.367440 0.8540 0.8540 0.8540 0.8540 0.8540
2033.597719 0.8540 0.8540 0.8540 0.8540 0.8540
2036.827997 0.8540 0.8540 0.8540 0.8540 0.8540
2040.058276 0.8540 0.8540 0.8540 0.8540 0.8540
2043.288555 0.8540 0.8543 0.8545 0.8548 0.8550
2046.518833 0.8550 0.8550 0.8550 0.8550 0.8550
2049.749112 0.8550 0.8550 0.8550 0.8550 0.8550
2052.979390 0.8550 0.8550 0.8550 0.8550 0.8550
2056.209669 0.8551 0.8554 0.8556 0.8559 0.8560
2059.439948 0.8560 0.8560 0.8560 0.8562 0.8564
2062.670226 0.8567 0.8569 0.8570 0.8570 0.8570
2065.900505 0.8570 0.8570 0.8570 0.8570 0.8570
2069.130784 0.8572 0.8575 0.8577 0.8580 0.8580
2072.361062 0.8580 0.8580 0.8580 0.8578 0.8575
2075.591341 0.8572 0.8570 0.8570 0.8570 0.8570
2078.821620 0.8570 0.8570 0.8570 0.8570 0.8570
2082.051898 0.8570 0.8570 0.8570 0.8570 0.8570
2085.282177 0.8570 0.8570 0.8570 0.8570 0.8570
2088.512456 0.8570 0.8570 0.8570 0.8570 0.8570
2091.742734 0.8571 0.8574 0.8576 0.8579 0.8580
2094.973013 0.8580 0.8580 0.8580 0.8581 0.8584
2098.203292 0.8587 0.8589 0.8590 0.8590 0.8590
2101.433570 0.8590 0.8590 0.8590 0.8590 0.8590
2104.663849 0.8590 0.8590 0.8590 0.8590 0.8590
2107.894127 0.8590 0.8590 0.8590 0.8590 0.8590
2111.124406 0.8590 0.8590 0.8590 0.8590 0.8590
2114.354685 0.8590 0.8590 0.8590 0.8590 0.8590
2117.584963 0.8590 0.8590 0.8590 0.8589 0.8587
2120.815242 0.8584 0.8582 0.8580 0.8580 0.8580
2124.045521 0.8580 0.8579 0.8577 0.8574 0.8571
2127.275799 0.8570 0.8570 0.8570 0.8570 0.8570
2130.506078 0.8570 0.8570 0.8570 0.8570 0.8570
2133.736357 0.8570 0.8570 0.8570 0.8570 0.8570
2136.966635 0.8570 0.8570 0.8570 0.8570 0.8570
2140.196914 0.8570 0.8570 0.8570 0.8570 0.8570
2143.427193 0.8570 0.8570 0.8570 0.8570 0.8570
2146.657471 0.8570 0.8570 0.8570 0.8570 0.8570
2149.887750 0.8570 0.8570 0.8570 0.8570 0.8570
2153.118028 0.8573 0.8575 0.8578 0.8580 0.8580
2156.348307 0.8580 0.8580 0.8580 0.8580 0.8580
2159.578586 0.8580 0.8580 0.8580 0.8580 0.8580
2162.808864 0.8581 0.8584 0.8586 0.8589 0.8590
2166.039143 0.8590 0.8590 0.8590 0.8590 0.8590
2169.269422 0.8590 0.8590 0.8590 0.8590 0.8590
2172.499700 0.8590 0.8590 0.8590 0.8590 0.8590
2175.729979 0.8590 0.8590 0.8590 0.8590 0.8590
2178.960258 0.8590 0.8590 0.8590 0.8590 0.8590
2182.190536 0.8590 0.8590 0.8590 0.8590 0.8590
2185.420815 0.8590 0.8595 0.8600 0.8605 0.8610
2188.651094 0.8613 0.8615 0.8618 0.8620 0.8620
2191.881372 0.8620 0.8620 0.8621 0.8623 0.8626
2195.111651 0.8628 0.8631 0.8633 0.8636 0.8638
2198.341930 0.8640 0.8640 0.8640 0.8640 0.8641
2201.572208 0.8644 0.8646 0.8649 0.8651 0.8654
2204.802487 0.8656 0.8659 0.8661 0.8664 0.8667
2208.032765 0.8669 0.8672 0.8674 0.8677 0.8679
2211.263044 0.8682 0.8684 0.8687 0.8689 0.8690
2214.493323 0.8690 0.8690 0.8690 0.8690 0.8690
2217.723601 0.8690 0.8690 0.8688 0.8685 0.8683
2220.953880 0.8680 0.8680 0.8680 0.8680 0.8680
2224.184159 0.8680 0.8680 0.8680 0.8680 0.8680
2227.414437 0.8680 0.8680 0.8680 0.8680 0.8680
2230.644716 0.8680 0.8679 0.8677 0.8674 0.8672
2233.874995 0.8669 0.8667 0.8664 0.8662 0.8660
2237.105273 0.8660 0.8660 0.8660 0.8659 0.8656
2240.335552 0.8654 0.8651 0.8649 0.8646 0.8644
2243.565831 0.8641 0.8640 0.8640 0.8640 0.8640
2246.796109 0.8640 0.8640 0.8640 0.8640 0.8638
2250.026388 0.8636 0.8633 0.8631 0.8628 0.8625
2253.256667 0.8623 0.8620 0.8618 0.8615 0.8613
2256.486945 0.8610 0.8605 0.8600 0.8595 0.8590
2259.717224 0.8590 0.8590 0.8590 0.8590 0.8587
2262.947502 0.8585 0.8582 0.8579 0.8574 0.8569
2266.177781 0.8564 0.8559 0.8554 0.8549 0.8544
2269.408060 0.8539 0.8533 0.8528 0.8523 0.8518
2272.638338 0.8513 0.8508 0.8503 0.8498 0.8493
2275.868617 0.8488 0.8483 0.8479 0.8476 0.8474
2279.098896 0.8471 0.8469 0.8466 0.8463 0.8461
2282.329174 0.8460 0.8460 0.8460 0.8460 0.8458
2285.559453 0.8456 0.8453 0.8451 0.8450 0.8450
2288.789732 0.8450 0.8450 0.8450 0.8450 0.8450
2292.020010 0.8450 0.8448 0.8445 0.8443 0.8440
2295.250289 0.8438 0.8435 0.8432 0.8430 0.8430
2298.480568 0.8430 0.8430 0.8430 0.8430 0.8430
2301.710846 0.8430 0.8430 0.8430 0.8430 0.8430
2304.941125 0.8430 0.8430 0.8430 0.8430 0.8430
2308.171403 0.8430 0.8430 0.8430 0.8430 0.8430
2311.401682 0.8430 0.8430 0.8430 0.8430 0.8430
2314.631961 0.8430 0.8433 0.8438 0.8443 0.8448
2317.862239 0.8450 0.8450 0.8450 0.8450 0.8450
2321.092518 0.8450 0.8450 0.8450 0.8450 0.8450
2324.322797 0.8450 0.8450 0.8452 0.8455 0.8457
2327.553075 0.8460 0.8460 0.8460 0.8460 0.8460
2330.783354 0.8467 0.8475 0.8483 0.8490 0.8498
2334.013633 0.8505 0.8513 0.8520 0.8526 0.8531
2337.243911 0.8536 0.8540 0.8543 0.8545 0.8548
2340.474190 0.8550 0.8550 0.8550 0.8550 0.8550
2343.704469 0.8550 0.8550 0.8550 0.8551 0.8553
2346.934747 0.8556 0.8559 0.8561 0.8564 0.8566
2350.165026 0.8569 0.8570 0.8570 0.8570 0.8570
2353.395305 0.8570 0.8570 0.8570 0.8570 0.8573
2356.625583 0.8578 0.8583 0.8589 0.8595 0.8603
2359.855862 0.8611 0.8618 0.8624 0.8629 0.8634
2363.086140 0.8639 0.8644 0.8649 0.8654 0.8660
2366.316419 0.8665 0.8670 0.8675 0.8680 0.8680
2369.546698 0.8680 0.8680 0.8680 0.8683 0.8685
2372.776976 0.8688 0.8690 0.8693 0.8695 0.8698
2376.007255 0.8700 0.8700 0.8700 0.8700 0.8701
2379.237534 0.8703 0.8706 0.8708 0.8710 0.8710
2382.467812 0.8710 0.8710 0.8710 0.8710 0.8710
2385.698091 0.8710 0.8710 0.8710 0.8710 0.8710
2388.928370 0.8711 0.8714 0.8716 0.8719 0.8720
2392.158648 0.8720 0.8720 0.8720 0.8720 0.8720
2395.388927 0.8720 0.8720 0.8720 0.8720 0.8720
2398.619206 0.8720 0.8720 0.8720 0.8720 0.8720
2401.849484 0.8720 0.8720 0.8720 0.8720 0.8720
2405.079763 0.8720 0.8720 0.8720 0.8720 0.8720
2408.310041 0.8720 0.8720 0.8720 0.8720 0.8720
2411.540320 0.8720 0.8720 0.8720 0.8720 0.8720
2414.770599 0.8720 0.8720 0.8720 0.8719 0.8717
2418.000877 0.8714 0.8712 0.8710 0.8710 0.8710
2421.231156 0.8710 0.8710 0.8710 0.8710 0.8710
2424.461435 0.8710 0.8710 0.8710 0.8710 0.8709
2427.691713 0.8706 0.8704 0.8701 0.8700 0.8700
2430.921992 0.8700 0.8700 0.8698 0.8696 0.8693
2434.152271 0.8691 0.8684 0.8676 0.8669 0.8661
2437.382549 0.8656 0.8651 0.8646 0.8640 0.8635
2440.612828 0.8630 0.8625 0.8620 0.8618 0.8615
2443.843107 0.8612 0.8610 0.8610 0.8610 0.8610
2447.073385 0.8610 0.8613 0.8615 0.8618 0.8620
2450.303664 0.8620 0.8620 0.8620 0.8621 0.8623
2453.533943 0.8626 0.8628 0.8631 0.8633 0.8636
2456.764221 0.8638 0.8644 0.8654 0.8665 0.8675
2459.994500 0.8682 0.8688 0.8693 0.8698 0.8704
2463.224778 0.8712 0.8719 0.8727 0.8732 0.8734
2466.455057 0.8737 0.8739 0.8742 0.8744 0.8747
2469.685336 0.8749 0.8754 0.8759 0.8764 0.8769
2472.915614 0.8770 0.8770 0.8770 0.8770 0.8772
2476.145893 0.8775 0.8777 0.8780 0.8780 0.8780
2479.376172 0.8780 0.8780 0.8783 0.8785 0.8788
2482.606450 0.8790 0.8790 0.8790 0.8790 0.8790
2485.836729 0.8790 0.8790 0.8790 0.8790 0.8790
2489.067008 0.8790 0.8790 0.8790 0.8790 0.8790
2492.297286 0.8790 0.8790 0.8790 0.8790 0.8790
2495.527565 0.8790 0.8790 0.8790 0.8790 0.8790
2498.757844 0.8790 0.8790 0.8790 0.8790 0.8790
2501.988122 0.8790 0.8790 0.8790 0.8790 0.8790
2505.218401 0.8790 0.8788 0.8786 0.8783 0.8781
2508.448680 0.8780 0.8780 0.8780 0.8780 0.8778
2511.678958 0.8775 0.8773 0.8770 0.8768 0.8765
2514.909237 0.8763 0.8760 0.8758 0.8755 0.8752
2518.139515 0.8750 0.8745 0.8740 0.8735 0.8730
2521.369794 0.8730 0.8730 0.8730 0.8730 0.8727
2524.600073 0.8724 0.8722 0.8719 0.8717 0.8714
2527.830351 0.8712 0.8710 0.8710 0.8710 0.8710
2531.060630 0.8709 0.8706 0.8704 0.8701 0.8700
2534.290909 0.8700 0.8700 0.8700 0.8700 0.8700
2537.521187 0.8700 0.8700 0.8700 0.8700 0.8700
2540.751466 0.8700 0.8700 0.8700 0.8700 0.8700
2543.981745 0.8694 0.8687 0.8679 0.8671 0.8658
2547.212023 0.8643 0.8627 0.8612 0.8597 0.8582
2550.442302 0.8566 0.8551 0.8545 0.8540 0.8535
2553.672581 0.8530 0.8527 0.8525 0.8522 0.8520
2556.902859 0.8515 0.8509 0.8504 0.8501 0.8506
2560.133138 0.8511 0.8516 0.8520 0.8520 0.8520
2563.363416 0.8520 0.8522 0.8530 0.8538 0.8545
2566.593695 0.8555 0.8567 0.8580 0.8593 0.8604
2569.823974 0.8615 0.8625 0.8635 0.8644 0.8651
2573.054252 0.8659 0.8667 0.8673 0.8678 0.8683
2576.284531 0.8688 0.8692 0.8694 0.8697 0.8699
2579.514810 0.8698 0.8696 0.8693 0.8691 0.8688
2582.745088 0.8685 0.8683 0.8680 0.8680 0.8680
2585.975367 0.8680 0.8680 0.8680 0.8680 0.8680
2589.205646 0.8680 0.8670 0.8660 0.8650 0.8639
2592.435924 0.8624 0.8609 0.8593 0.8578 0.8557
2595.666203 0.8537 0.8517 0.8497 0.8479 0.8461
2598.896482 0.8443 0.8426 0.8408 0.8390 0.8372
2602.126760 0.8356 0.8343 0.8331 0.8318 0.8305
2605.357039 0.8293 0.8280 0.8267 0.8257 0.8249
2608.587318 0.8241 0.8233 0.8229 0.8226 0.8224
2611.817596 0.8221 0.8222 0.8224 0.8227 0.8229
2615.047875 0.8232 0.8234 0.8237 0.8239 0.8249
2618.278153 0.8262 0.8275 0.8288 0.8302 0.8318
2621.508432 0.8333 0.8348 0.8370 0.8393 0.8416
2624.738711 0.8438 0.8464 0.8489 0.8515 0.8540
2627.968989 0.8560 0.8581 0.8601 0.8621 0.8631
2631.199268 0.8641 0.8651 0.8661 0.8666 0.8671
2634.429547 0.8676 0.8681 0.8683 0.8686 0.8688
2637.659825 0.8691 0.8693 0.8696 0.8698 0.8700
2640.890104 0.8700 0.8700 0.8700 0.8700 0.8700
2644.120383 0.8700 0.8700 0.8700 0.8700 0.8700
2647.350661 0.8700 0.8700 0.8700 0.8700 0.8700
2650.580940 0.8700 0.8700 0.8700 0.8700 0.8700
2653.811219 0.8700 0.8700 0.8700 0.8700 0.8700
2657.041497 0.8700 0.8700 0.8700 0.8700 0.8700
2660.271776 0.8700 0.8700 0.8700 0.8700 0.8700
2663.502054 0.8700 0.8700 0.8700 0.8700 0.8700
2666.732333 0.8700 0.8700 0.8700 0.8700 0.8700
2669.962612 0.8700 0.8700 0.8703 0.8706 0.8708
2673.192890 0.8710 0.8710 0.8710 0.8710 0.8710
2676.423169 0.8710 0.8710 0.8710 0.8710 0.8710
2679.653448 0.8710 0.8710 0.8711 0.8714 0.8716
2682.883726 0.8719 0.8721 0.8724 0.8726 0.8729
2686.114005 0.8730 0.8730 0.8730 0.8730 0.8730
2689.344284 0.8730 0.8730 0.8730 0.8732 0.8734
2692.574562 0.8737 0.8740 0.8740 0.8740 0.8740
2695.804841 0.8740 0.8740 0.8740 0.8740 0.8740
2699.035120 0.8740 0.8740 0.8740 0.8740 0.8740
2702.265398 0.8740 0.8740 0.8740 0.8740 0.8740
2705.495677 0.8740 0.8740 0.8740 0.8740 0.8740
2708.725956 0.8740 0.8740 0.8740 0.8740 0.8740
2711.956234 0.8740 0.8740 0.8740 0.8740 0.8740
2715.186513 0.8740 0.8740 0.8739 0.8736 0.8734
2718.416791 0.8731 0.8730 0.8730 0.8730 0.8730
2721.647070 0.8730 0.8730 0.8730 0.8730 0.8730
2724.877349 0.8730 0.8730 0.8730 0.8730 0.8730
2728.107627 0.8730 0.8730 0.8728 0.8726 0.8723
2731.337906 0.8720 0.8720 0.8720 0.8720 0.8720
2734.568185 0.8720 0.8720 0.8720 0.8720 0.8720
2737.798463 0.8720 0.8720 0.8720 0.8720 0.8720
2741.028742 0.8720 0.8720 0.8717 0.8715 0.8712
2744.259021 0.8710 0.8710 0.8710 0.8710 0.8710
2747.489299 0.8710 0.8710 0.8710 0.8710 0.8710
2750.719578 0.8710 0.8710 0.8710 0.8710 0.8710
2753.949857 0.8710 0.8710 0.8710 0.8710 0.8710
2757.180135 0.8710 0.8710 0.8710 0.8710 0.8710
2760.410414 0.8710 0.8710 0.8710 0.8710 0.8710
2763.640693 0.8710 0.8710 0.8710 0.8710 0.8710
2766.870971 0.8710 0.8710 0.8710 0.8710 0.8710
2770.101250 0.8710 0.8710 0.8710 0.8710 0.8710
2773.331528 0.8710 0.8710 0.8710 0.8710 0.8710
2776.561807 0.8710 0.8710 0.8710 0.8710 0.8710
2779.792086 0.8710 0.8710 0.8710 0.8710 0.8710
2783.022364 0.8710 0.8710 0.8710 0.8710 0.8710
2786.252643 0.8710 0.8710 0.8711 0.8714 0.8716
2789.482922 0.8719 0.8720 0.8720 0.8720 0.8720
2792.713200 0.8721 0.8724 0.8726 0.8729 0.8730
2795.943479 0.8730 0.8730 0.8730 0.8730 0.8730
2799.173758 0.8730 0.8730 0.8730 0.8730 0.8730
2802.404036 0.8730 0.8734 0.8739 0.8744 0.8749
2805.634315 0.8750 0.8750 0.8750 0.8750 0.8750
2808.864594 0.8750 0.8750 0.8750 0.8750 0.8750
2812.094872 0.8750 0.8750 0.8747 0.8745 0.8742
2815.325151 0.8740 0.8740 0.8740 0.8740 0.8740
2818.555429 0.8740 0.8740 0.8740 0.8740 0.8740
2821.785708 0.8740 0.8740 0.8739 0.8737 0.8734
2825.015987 0.8732 0.8730 0.8730 0.8730 0.8730
2828.246265 0.8730 0.8730 0.8730 0.8730 0.8730
2831.476544 0.8730 0.8730 0.8730 0.8727 0.8722
2834.706823 0.8717 0.8712 0.8710 0.8710 0.8710
2837.937101 0.8710 0.8708 0.8706 0.8703 0.8700
2841.167380 0.8700 0.8700 0.8700 0.8700 0.8700
2844.397659 0.8700 0.8700 0.8700 0.8700 0.8700
2847.627937 0.8700 0.8700 0.8700 0.8700 0.8700
2850.858216 0.8700 0.8697 0.8695 0.8692 0.8690
2854.088495 0.8687 0.8685 0.8682 0.8679 0.8677
2857.318773 0.8674 0.8672 0.8669 0.8664 0.8658
2860.549052 0.8653 0.8647 0.8640 0.8632 0.8624
2863.779331 0.8617 0.8609 0.8601 0.8594 0.8584
2867.009609 0.8571 0.8558 0.8545 0.8534 0.8524
2870.239888 0.8514 0.8504 0.8500 0.8500 0.8500
2873.470166 0.8500 0.8498 0.8496 0.8493 0.8491
2876.700445 0.8492 0.8494 0.8497 0.8500 0.8500
2879.930724 0.8500 0.8500 0.8500 0.8500 0.8500
2883.161002 0.8500 0.8500 0.8505 0.8510 0.8515
2886.391281 0.8520 0.8523 0.8525 0.8528 0.8530
2889.621560 0.8533 0.8535 0.8538 0.8540 0.8543
2892.851838 0.8546 0.8548 0.8551 0.8553 0.8556
2896.082117 0.8558 0.8562 0.8567 0.8572 0.8577
2899.312396 0.8584 0.8594 0.8604 0.8614 0.8621
2902.542674 0.8624 0.8626 0.8629 0.8630 0.8630
2905.772953 0.8630 0.8630 0.8629 0.8626 0.8623
2909.003232 0.8621 0.8620 0.8620 0.8620 0.8620
2912.233510 0.8611 0.8598 0.8585 0.8572 0.8568
2915.463789 0.8565 0.8563 0.8560 0.8560 0.8560
2918.694067 0.8560 0.8560 0.8562 0.8565 0.8568
2921.924346 0.8570 0.8570 0.8570 0.8570 0.8570
2925.154625 0.8570 0.8570 0.8570 0.8570 0.8573
2928.384903 0.8575 0.8578 0.8581 0.8586 0.8591
2931.615182 0.8596 0.8601 0.8603 0.8606 0.8608
2934.845461 0.8611 0.8613 0.8616 0.8618 0.8620
2938.075739 0.8620 0.8620 0.8620 0.8620 0.8620
2941.306018 0.8620 0.8620 0.8621 0.8624 0.8627
2944.536297 0.8629 0.8630 0.8630 0.8630 0.8630
2947.766575 0.8632 0.8634 0.8637 0.8639 0.8640
2950.996854 0.8640 0.8640 0.8640 0.8636 0.8631
2954.227133 0.8626 0.8621 0.8615 0.8610 0.8605
2957.457411 0.8600 0.8598 0.8595 0.8592 0.8590
2960.687690 0.8587 0.8585 0.8582 0.8580 0.8580
2963.917969 0.8580 0.8580 0.8579 0.8577 0.8574
2967.148247 0.8572 0.8570 0.8570 0.8570 0.8570
2970.378526 0.8570 0.8570 0.8570 0.8570 0.8570
2973.608804 0.8570 0.8570 0.8570 0.8569 0.8566
2976.839083 0.8564 0.8561 0.8560 0.8560 0.8560
2980.069362 0.8560 0.8559 0.8556 0.8553 0.8551
2983.299640 0.8550 0.8550 0.8550 0.8550 0.8550
2986.529919 0.8550 0.8550 0.8550 0.8546 0.8541
2989.760198 0.8536 0.8531 0.8519 0.8506 0.8493
2992.990476 0.8481 0.8473 0.8465 0.8457 0.8450
2996.220755 0.8440 0.8429 0.8419 0.8409 0.8402
2999.451034 0.8394 0.8386 0.8378 0.8365 0.8353
3002.681312 0.8340 0.8326 0.8308 0.8291 0.8273
3005.911591 0.8252 0.8224 0.8196 0.8168 0.8137
3009.141870 0.8099 0.8061 0.8023 0.7979 0.7929
3012.372148 0.7878 0.7827 0.7769 0.7702 0.7635
3015.602427 0.7568 0.7513 0.7468 0.7422 0.7376
3018.832705 0.7332 0.7289 0.7246 0.7203 0.7060
3022.062984 0.6877 0.6694 0.6512 0.6456 0.6438
3025.293263 0.6421 0.6403 0.6400 0.6400 0.6400
3028.523541 0.6400 0.6446 0.6497 0.6547 0.6598
3031.753820 0.6870 0.7149 0.7429 0.7700 0.7708
3034.984099 0.7715 0.7723 0.7730 0.7733 0.7735
3038.214377 0.7738 0.7740 0.7743 0.7746 0.7748
3041.444656 0.7744 0.7721 0.7698 0.7675 0.7654
3044.674935 0.7636 0.7618 0.7601 0.7559 0.7480
3047.905213 0.7401 0.7322 0.7271 0.7250 0.7230
3051.135492 0.7210 0.7191 0.7173 0.7155 0.7137
3054.365771 0.7120 0.7102 0.7084 0.7066 0.7045
3057.596049 0.7022 0.6999 0.6976 0.6950 0.6922
3060.826328 0.6894 0.6866 0.6832 0.6797 0.6761
3064.056607 0.6725 0.6692 0.6658 0.6625 0.6591
3067.286885 0.6556 0.6520 0.6485 0.6449 0.6419
3070.517164 0.6388 0.6358 0.6330 0.6330 0.6330
3073.747442 0.6330 0.6330 0.6330 0.6330 0.6330
3076.977721 0.6351 0.6450 0.6550 0.6649 0.6731
3080.208000 0.6772 0.6813 0.6853 0.6924 0.7051
3083.438278 0.7178 0.7305 0.7408 0.7477 0.7545
3086.668557 0.7614 0.7678 0.7736 0.7794 0.7853
3089.898836 0.7903 0.7947 0.7991 0.8035 0.8070
3093.129114 0.8100 0.8131 0.8161 0.8188 0.8214
3096.359393 0.8239 0.8264 0.8282 0.8297 0.8312
3099.589672 0.8328 0.8336 0.8344 0.8352 0.8359
3102.819950 0.8372 0.8384 0.8397 0.8410 0.8420
3106.050229 0.8430 0.8440 0.8450 0.8458 0.8466
3109.280508 0.8473 0.8480 0.8480 0.8480 0.8480
3112.510786 0.8480 0.8483 0.8485 0.8488 0.8490
3115.741065 0.8490 0.8490 0.8490 0.8490 0.8490
3118.971344 0.8490 0.8490 0.8490 0.8490 0.8490
3122.201622 0.8490 0.8489 0.8486 0.8484 0.8481
3125.431901 0.8480 0.8480 0.8480 0.8480 0.8478
3128.662179 0.8476 0.8473 0.8471 0.8470 0.8470
3131.892458 0.8470 0.8470 0.8470 0.8470 0.8470
3135.122737 0.8470 0.8468 0.8465 0.8463 0.8460
3138.353015 0.8460 0.8460 0.8460 0.8460 0.8460
3141.583294 0.8460 0.8460 0.8460 0.8460 0.8460
3144.813573 0.8460 0.8460 0.8460 0.8460 0.8460
3148.043851 0.8460 0.8460 0.8460 0.8460 0.8459
3151.274130 0.8457 0.8454 0.8452 0.8449 0.8447
3154.504409 0.8444 0.8442 0.8439 0.8437 0.8434
3157.734687 0.8431 0.8428 0.8423 0.8418 0.8413
3160.964966 0.8408 0.8403 0.8397 0.8392 0.8386
3164.195245 0.8378 0.8371 0.8363 0.8355 0.8348
3167.425523 0.8340 0.8332 0.8326 0.8321 0.8316
3170.655802 0.8311 0.8308 0.8305 0.8303 0.8300
3173.886080 0.8300 0.8300 0.8300 0.8300 0.8295
3177.116359 0.8290 0.8285 0.8280 0.8273 0.8265
3180.346638 0.8257 0.8250 0.8239 0.8229 0.8219
3183.576916 0.8209 0.8196 0.8183 0.8171 0.8158
3186.807195 0.8145 0.8132 0.8120 0.8108 0.8098
3190.037474 0.8087 0.8077 0.8069 0.8067 0.8064
3193.267752 0.8062 0.8061 0.8064 0.8066 0.8069
3196.498031 0.8072 0.8077 0.8083 0.8088 0.8105
3199.728310 0.8133 0.8161 0.8189 0.8211 0.8228
3202.958588 0.8246 0.8264 0.8278 0.8291 0.8304
3206.188867 0.8317 0.8327 0.8338 0.8348 0.8358
3209.419146 0.8364 0.8369 0.8374 0.8379 0.8384
3212.649424 0.8389 0.8395 0.8400 0.8402 0.8405
3215.879703 0.8407 0.8410 0.8413 0.8415 0.8418
3219.109982 0.8420 0.8423 0.8425 0.8428 0.8430
3222.340260 0.8430 0.8430 0.8430 0.8430 0.8430
3225.570539 0.8430 0.8430 0.8430 0.8430 0.8430
3228.800817 0.8430 0.8431 0.8433 0.8436 0.8439
3232.031096 0.8441 0.8444 0.8446 0.8449 0.8451
3235.261375 0.8454 0.8456 0.8459 0.8463 0.8468
3238.491653 0.8473 0.8478 0.8480 0.8480 0.8480
3241.721932 0.8480 0.8482 0.8484 0.8487 0.8489
3244.952211 0.8490 0.8490 0.8490 0.8490 0.8492
3248.182489 0.8495 0.8497 0.8500 0.8500 0.8500
3251.412768 0.8500 0.8500 0.8502 0.8505 0.8508
3254.643047 0.8510 0.8513 0.8515 0.8518 0.8520
3257.873325 0.8520 0.8520 0.8520 0.8520 0.8520
3261.103604 0.8520 0.8520 0.8521 0.8526 0.8531
3264.333883 0.8536 0.8540 0.8540 0.8540 0.8540
3267.564161 0.8540 0.8540 0.8540 0.8540 0.8540
3270.794440 0.8540 0.8540 0.8540 0.8540 0.8540
3274.024718 0.8540 0.8540 0.8540 0.8540 0.8540
3277.254997 0.8540 0.8538 0.8536 0.8533 0.8531
3280.485276 0.8526 0.8521 0.8516 0.8511 0.8508
3283.715554 0.8505 0.8503 0.8500 0.8498 0.8495
3286.945833 0.8493 0.8490 0.8488 0.8485 0.8483
3290.176112 0.8480 0.8477 0.8475 0.8472 0.8470
3293.406390 0.8467 0.8465 0.8462 0.8460 0.8460
3296.636669 0.8460 0.8460 0.8459 0.8457 0.8454
3299.866948 0.8452 0.8449 0.8447 0.8444 0.8442
3303.097226 0.8439 0.8437 0.8434 0.8431 0.8429
3306.327505 0.8426 0.8424 0.8421 0.8418 0.8412
3309.557784 0.8407 0.8402 0.8397 0.8392 0.8387
3312.788062 0.8382 0.8378 0.8376 0.8373 0.8371
3316.018341 0.8365 0.8357 0.8350 0.8342 0.8334
3319.248620 0.8327 0.8319 0.8311 0.8303 0.8296
3322.478898 0.8288 0.8281 0.8273 0.8265 0.8258
3325.709177 0.8250 0.8238 0.8225 0.8212 0.8200
3328.939455 0.8189 0.8179 0.8169 0.8159 0.8146
3332.169734 0.8133 0.8120 0.8108 0.8095 0.8082
3335.400013 0.8070 0.8058 0.8047 0.8037 0.8027
3338.630291 0.8018 0.8010 0.8002 0.7995 0.7986
3341.860570 0.7976 0.7966 0.7956 0.7940 0.7917
3345.090849 0.7894 0.7871 0.7848 0.7825 0.7802
3348.321127 0.7779 0.7753 0.7725 0.7697 0.7669
3351.551406 0.7638 0.7605 0.7572 0.7539 0.7502
3354.781685 0.7464 0.7426 0.7388 0.7343 0.7298
3358.011963 0.7252 0.7206 0.7178 0.7153 0.7127
3361.242242 0.7102 0.7076 0.7051 0.7026 0.7000
3364.472521 0.6940 0.6879 0.6818 0.6756 0.6682
3367.702799 0.6609 0.6535 0.6460 0.6375 0.6290
3370.933078 0.6205 0.6106 0.5958 0.5811 0.5664
3374.163357 0.5517 0.5372 0.5227 0.5083 0.4907
3377.393635 0.4676 0.4444 0.4213 0.4048 0.3971
3380.623914 0.3895 0.3819 0.3743 0.3667 0.3590
3383.854192 0.3514 0.3380 0.3200 0.3020 0.2839
3387.084471 0.2747 0.2708 0.2670 0.2632 0.2620
3390.314750 0.2620 0.2620 0.2620 0.2656 0.2704
3393.545028 0.2752 0.2801 0.3020 0.3280 0.3540
3396.775307 0.3800 0.3951 0.4094 0.4236 0.4378
3400.005586 0.4503 0.4627 0.4752 0.4880 0.5070
3403.235864 0.5261 0.5451 0.5628 0.5702 0.5776
3406.466143 0.5850 0.5921 0.5982 0.6043 0.6104
3409.696422 0.6162 0.6210 0.6258 0.6307 0.6352
3412.926700 0.6390 0.6428 0.6466 0.6515 0.6581
3416.156979 0.6647 0.6713 0.6772 0.6823 0.6874
3419.387258 0.6925 0.6986 0.7058 0.7130 0.7202
3422.617536 0.7247 0.7275 0.7303 0.7331 0.7357
3425.847815 0.7383 0.7408 0.7433 0.7442 0.7444
3429.078093 0.7447 0.7450 0.7452 0.7455 0.7457
3432.308372 0.7460 0.7460 0.7460 0.7460 0.7460
3435.538651 0.7458 0.7455 0.7453 0.7450 0.7430
3438.768929 0.7409 0.7389 0.7369 0.7348 0.7328
3441.999208 0.7308 0.7288 0.7270 0.7252 0.7234
3445.229487 0.7217 0.7199 0.7181 0.7163 0.7143
3448.459765 0.7120 0.7097 0.7075 0.7052 0.7029
3451.690044 0.7006 0.6983 0.6953 0.6912 0.6871
3454.920323 0.6831 0.6784 0.6730 0.6677 0.6624
3458.150601 0.6498 0.6315 0.6132 0.5949 0.5796
3461.380880 0.5662 0.5527 0.5392 0.5256 0.5119
3464.611159 0.4982 0.4844 0.4778 0.4734 0.4691
3467.841437 0.4648 0.4592 0.4534 0.4476 0.4417
3471.071716 0.4358 0.4299 0.4240 0.4181 0.4120
3474.301995 0.4059 0.3998 0.3937 0.3876 0.3815
3477.532273 0.3754 0.3697 0.3669 0.3641 0.3613
3480.762552 0.3585 0.3557 0.3529 0.3501 0.3494
3483.992830 0.3553 0.3611 0.3670 0.3729 0.3790
3487.223109 0.3851 0.3912 0.3972 0.4030 0.4089
3490.453388 0.4147 0.4207 0.4268 0.4329 0.4390
3493.683666 0.4448 0.4504 0.4560 0.4616 0.4666
3496.913945 0.4713 0.4759 0.4805 0.4853 0.4901
3500.144224 0.4949 0.4998 0.5152 0.5342 0.5533
3503.374502 0.5723 0.5822 0.5898 0.5974 0.6050
3506.604781 0.6120 0.6188 0.6257 0.6326 0.6387
3509.835060 0.6448 0.6509 0.6570 0.6626 0.6682
3513.065338 0.6738 0.6793 0.6847 0.6900 0.6953
3516.295617 0.7011 0.7097 0.7184 0.7270 0.7346
3519.525896 0.7379 0.7412 0.7445 0.7477 0.7506
3522.756174 0.7534 0.7562 0.7588 0.7608 0.7628
3525.986453 0.7648 0.7668 0.7685 0.7703 0.7721
3529.216731 0.7736 0.7749 0.7762 0.7774 0.7790
3532.447010 0.7808 0.7826 0.7843 0.7856 0.7867
3535.677289 0.7877 0.7887 0.7894 0.7899 0.7904
3538.907567 0.7909 0.7912 0.7914 0.7917 0.7920
3542.137846 0.7930 0.7943 0.7956 0.7968 0.7974
3545.368125 0.7980 0.7985 0.7990 0.7992 0.7995
3548.598403 0.7998 0.8000 0.8005 0.8010 0.8016
3551.828682 0.8020 0.8020 0.8020 0.8020 0.8022
3555.058961 0.8035 0.8048 0.8060 0.8071 0.8076
3558.289239 0.8081 0.8087 0.8092 0.8097 0.8102
3561.519518 0.8107 0.8111 0.8114 0.8116 0.8119
3564.749797 0.8121 0.8124 0.8126 0.8129 0.8131
3567.980075 0.8134 0.8136 0.8139 0.8141 0.8144
3571.210354 0.8147 0.8149 0.8152 0.8154 0.8157
3574.440633 0.8159 0.8162 0.8164 0.8167 0.8170
3577.670911 0.8172 0.8175 0.8177 0.8180 0.8182
3580.901190 0.8185 0.8187 0.8190 0.8192 0.8195
3584.131468 0.8197 0.8200 0.8205 0.8210 0.8215
3587.361747 0.8220 0.8223 0.8225 0.8228 0.8231
3590.592026 0.8236 0.8241 0.8246 0.8250 0.8253
3593.822304 0.8256 0.8258 0.8261 0.8266 0.8271
3597.052583 0.8277 0.8282 0.8287 0.8292 0.8297
3600.282862 0.8302 0.8307 0.8312 0.8317 0.8323
3603.513140 0.8328 0.8333 0.8338 0.8343 0.8348
3606.743419 0.8353 0.8358 0.8363 0.8368 0.8373
3609.973698 0.8378 0.8382 0.8384 0.8387 0.8389
3613.203976 0.8392 0.8394 0.8397 0.8400 0.8402
3616.434255 0.8405 0.8407 0.8410 0.8410 0.8410
3619.664534 0.8410 0.8410 0.8412 0.8415 0.8417
3622.894812 0.8420 0.8423 0.8425 0.8428 0.8430
3626.125091 0.8433 0.8435 0.8438 0.8440 0.8443
3629.355370 0.8446 0.8448 0.8452 0.8460 0.8467
3632.585648 0.8475 0.8482 0.8487 0.8492 0.8497
3635.815927 0.8502 0.8507 0.8512 0.8517 0.8521
3639.046205 0.8524 0.8526 0.8529 0.8531 0.8534
3642.276484 0.8536 0.8539 0.8541 0.8544 0.8547
3645.506763 0.8549 0.8552 0.8554 0.8557 0.8559
3648.737041 0.8562 0.8564 0.8567 0.8570 0.8570
3651.967320 0.8570 0.8570 0.8570 0.8570 0.8570
3655.197599 0.8570 0.8570 0.8572 0.8575 0.8577
3658.427877 0.8580 0.8583 0.8585 0.8588 0.8590
3661.658156 0.8590 0.8590 0.8590 0.8590 0.8590
3664.888435 0.8590 0.8590 0.8590 0.8590 0.8590
3668.118713 0.8590 0.8591 0.8593 0.8596 0.8598
3671.348992 0.8600 0.8600 0.8600 0.8600 0.8600
3674.579271 0.8600 0.8600 0.8600 0.8600 0.8600
3677.809549 0.8600 0.8600 0.8600 0.8600 0.8600
3681.039828 0.8600 0.8598 0.8596 0.8593 0.8591
3684.270106 0.8586 0.8581 0.8576 0.8571 0.8568
3687.500385 0.8566 0.8563 0.8560 0.8558 0.8555
3690.730664 0.8553 0.8550 0.8548 0.8545 0.8543
3693.960942 0.8540 0.8535 0.8530 0.8525 0.8520
3697.191221 0.8520 0.8520 0.8520 0.8520 0.8523
3700.421500 0.8525 0.8528 0.8530 0.8533 0.8536
3703.651778 0.8538 0.8541 0.8543 0.8546 0.8548
3706.882057 0.8551 0.8553 0.8556 0.8558 0.8561
3710.112336 0.8564 0.8566 0.8569 0.8571 0.8574
3713.342614 0.8576 0.8579 0.8581 0.8584 0.8586
3716.572893 0.8589 0.8593 0.8598 0.8603 0.8608
3719.803172 0.8610 0.8610 0.8610 0.8610 0.8610
3723.033450 0.8610 0.8610 0.8610 0.8610 0.8610
3726.263729 0.8610 0.8610 0.8612 0.8615 0.8617
3729.494008 0.8620 0.8620 0.8620 0.8620 0.8620
3732.724286 0.8620 0.8620 0.8620 0.8620 0.8620
3735.954565 0.8620 0.8620 0.8620 0.8617 0.8615
3739.184843 0.8612 0.8610 0.8610 0.8610 0.8610
3742.415122 0.8610 0.8610 0.8610 0.8610 0.8609
3745.645401 0.8607 0.8604 0.8602 0.8600 0.8600
3748.875679 0.8600 0.8600 0.8599 0.8596 0.8594
3752.105958 0.8591 0.8590 0.8590 0.8590 0.8590
3755.336237 0.8590 0.8590 0.8590 0.8590 0.8590
3758.566515 0.8590 0.8590 0.8590 0.8590 0.8590
3761.796794 0.8590 0.8590 0.8590 0.8590 0.8590
3765.027073 0.8590 0.8590 0.8590 0.8590 0.8590
3768.257351 0.8590 0.8590 0.8590 0.8590 0.8587
3771.487630 0.8585 0.8582 0.8580 0.8580 0.8580
3774.717909 0.8580 0.8580 0.8580 0.8580 0.8580
3777.948187 0.8581 0.8583 0.8586 0.8588 0.8590
3781.178466 0.8590 0.8590 0.8590 0.8591 0.8594
3784.408744 0.8596 0.8599 0.8601 0.8604 0.8606
3787.639023 0.8609 0.8610 0.8610 0.8610 0.8610
3790.869302 0.8609 0.8606 0.8603 0.8601 0.8598
3794.099580 0.8596 0.8593 0.8591 0.8590 0.8590
3797.329859 0.8590 0.8590 0.8590 0.8590 0.8590
3800.560138 0.8590 0.8588 0.8585 0.8583 0.8580
3803.790416 0.8578 0.8575 0.8573 0.8570 0.8565
3807.020695 0.8560 0.8555 0.8550 0.8547 0.8545
3810.250974 0.8542 0.8540 0.8540 0.8540 0.8540
3813.481252 0.8539 0.8537 0.8534 0.8532 0.8529
3816.711531 0.8527 0.8524 0.8522 0.8520 0.8520
3819.941810 0.8520 0.8520 0.8520 0.8520 0.8520
3823.172088 0.8520 0.8519 0.8516 0.8514 0.8511
3826.402367 0.8509 0.8506 0.8503 0.8501 0.8500
3829.632646 0.8500 0.8500 0.8500 0.8500 0.8500
3832.862924 0.8500 0.8500 0.8500 0.8500 0.8500
3836.093203 0.8500 0.8498 0.8495 0.8493 0.8490
3839.323481 0.8488 0.8485 0.8483 0.8480 0.8480
3842.553760 0.8480 0.8480 0.8480 0.8477 0.8475
3845.784039 0.8472 0.8470 0.8467 0.8465 0.8462
3849.014317 0.8460 0.8460 0.8460 0.8460 0.8460
3852.244596 0.8460 0.8460 0.8460 0.8460 0.8460
3855.474875 0.8460 0.8460 0.8461 0.8464 0.8466
3858.705153 0.8469 0.8470 0.8470 0.8470 0.8470
3861.935432 0.8471 0.8474 0.8476 0.8479 0.8480
3865.165711 0.8480 0.8480 0.8480 0.8480 0.8480
3868.395989 0.8480 0.8480 0.8480 0.8480 0.8480
3871.626268 0.8480 0.8480 0.8480 0.8480 0.8480
3874.856547 0.8480 0.8480 0.8480 0.8480 0.8478
3878.086825 0.8475 0.8473 0.8470 0.8470 0.8470
3881.317104 0.8470 0.8470 0.8467 0.8465 0.8462
3884.547382 0.8460 0.8460 0.8460 0.8460 0.8460
3887.777661 0.8460 0.8460 0.8460 0.8460 0.8460
3891.007940 0.8460 0.8460 0.8460 0.8460 0.8460
3894.238218 0.8460 0.8460 0.8460 0.8460 0.8460
3897.468497 0.8460 0.8460 0.8460 0.8460 0.8460
3900.698776 0.8460 0.8460 0.8460 0.8462 0.8464
3903.929054 0.8467 0.8469 0.8470 0.8470 0.8470
3907.159333 0.8470 0.8472 0.8475 0.8477 0.8480
3910.389612 0.8480 0.8480 0.8480 0.8480 0.8482
3913.619890 0.8485 0.8487 0.8490 0.8490 0.8490
3916.850169 0.8490 0.8490 0.8493 0.8495 0.8498
3920.080448 0.8500 0.8500 0.8500 0.8500 0.8500
3923.310726 0.8500 0.8500 0.8500 0.8500 0.8500
3926.541005 0.8500 0.8500 0.8501 0.8507 0.8512
3929.771284 0.8517 0.8522 0.8527 0.8532 0.8537
3933.001562 0.8540 0.8540 0.8540 0.8540 0.8536
3936.231841 0.8528 0.8521 0.8513 0.8509 0.8506
3939.462119 0.8503 0.8501 0.8500 0.8500 0.8500
3942.692398 0.8500 0.8500 0.8500 0.8500 0.8500
3945.922677 0.8498 0.8495 0.8493 0.8490 0.8490
3949.152955 0.8490 0.8490 0.8490 0.8490 0.8490
3952.383234 0.8490 0.8490 0.8490 0.8490 0.8490
3955.613513 0.8490 0.8493 0.8495 0.8498 0.8500
3958.843791 0.8500 0.8500 0.8500 0.8501 0.8503
3962.074070 0.8506 0.8508 0.8510 0.8510 0.8510
3965.304349 0.8510 0.8511 0.8513 0.8516 0.8519
3968.534627 0.8520 0.8520 0.8520 0.8520 0.8520
3971.764906 0.8520 0.8520 0.8520 0.8520 0.8520
3974.995185 0.8520 0.8520 0.8520 0.8520 0.8520
3978.225463 0.8520 0.8520 0.8520 0.8520 0.8520
3981.455742 0.8520 0.8520 0.8520 0.8520 0.8518
3984.686021 0.8515 0.8513 0.8510 0.8510 0.8510
3987.916299 0.8510 0.8510 0.8510 0.8510 0.8510
3991.146578 0.8510 0.8507 0.8505 0.8502 0.8500
3994.376856 0.8500 0.8500 0.8500 0.8500 0.8500
3997.607135 0.8500 0.8500 0.8500 0.8500 0.8500
4000.837414 0.8500 0.8500 0.8500 0.8500 0.8500
4004.067692 0.8500 0.8500 0.8500 0.8500 0.8500
4007.297971 0.8500 0.8500 0.8500 0.8500 0.8500
4010.528250 0.8500 0.8500
##END=
