##TITLE=E-BENZAMIDO COPROIC ACID
##JCAMP-DX=4.24
##DATA TYPE=INFRARED SPECTRUM
##CLASS=COBLENTZ
##ORIGIN=DOW CHEMICAL COMPANY
##OWNER=COBLENTZ SOCIETY
Collection (C) 2018 copyright by the U.S. Secretary of Commerce
on behalf of the United States of America. All rights reserved.
##DATE=Not specified, most likely prior to 1970
##NAMES=6-(benzoylamino)hexanoic acid
##CAS REGISTRY NO=956-09-2
##MOLFORM=C13 H17 N O3
##SOURCE REFERENCE=COBLENTZ NO. 2360
##$NIST SOURCE=COBLENTZ
##$NIST IMAGE=cob2360
##SPECTROMETER/DATA SYSTEM=Not specified, most likely a prism, grating, or hybrid spectrometer.
##STATE=SOLID (MINERAL OIL MULL)
##SAMPLING PROCEDURE=TRANSMISSION
##RESOLUTION=4
##DATA PROCESSING=DIGITIZED BY NIST FROM HARD COPY
##XUNITS=MICROMETERS
##YUNITS=TRANSMITTANCE
##XFACTOR=1.000000
##YFACTOR=1
##DELTAX=000.006670
##FIRSTX=2.013
##LASTX=15.9137
##FIRSTY=0.657
##MAXX=15.9137
##MINX=2.013
##MAXY=0.888
##MINY=0.044
##NPOINTS=2085
##XYDATA=(X++(Y..Y))
2.013000 0.6570 0.6580 0.6580 0.6580 0.6580
2.046365 0.6600 0.6600 0.6620 0.6620 0.6620
2.080000 0.6620 0.6630 0.6630 0.6650 0.6650
2.113365 0.6670 0.6670 0.6680 0.6680 0.6680
2.147000 0.6700 0.6700 0.6750 0.6780 0.6780
2.180365 0.6800 0.6820 0.6820 0.6820 0.6820
2.213000 0.6800 0.6800 0.6770 0.6770 0.6750
2.246365 0.6730 0.6730 0.6730 0.6730 0.6720
2.280000 0.6720 0.6720 0.6720 0.6720 0.6720
2.313365 0.6720 0.6720 0.6730 0.6730 0.6730
2.347000 0.6730 0.6750 0.6750 0.6780 0.6780
2.380365 0.6800 0.6820 0.6830 0.6830 0.6850
2.414000 0.6870 0.6880 0.6880 0.6880 0.6880
2.447365 0.6880 0.6880 0.6880 0.6880 0.6900
2.480000 0.6930 0.6980 0.7020 0.7020 0.7080
2.513365 0.7100 0.7120 0.7120 0.7120 0.7150
2.547000 0.7150 0.7180 0.7220 0.7220 0.7230
2.580365 0.7270 0.7280 0.7300 0.7330 0.7370
2.614000 0.7370 0.7370 0.7370 0.7380 0.7380
2.647365 0.7380 0.7380 0.7380 0.7400 0.7400
2.680000 0.7400 0.7420 0.7430 0.7430 0.7430
2.713365 0.7450 0.7450 0.7470 0.7470 0.7500
2.747000 0.7500 0.7500 0.7500 0.7520 0.7530
2.780365 0.7550 0.7580 0.7600 0.7620 0.7620
2.814000 0.7620 0.7620 0.7620 0.7620 0.7630
2.847365 0.7630 0.7630 0.7630 0.7630 0.7630
2.880000 0.7620 0.7620 0.7600 0.7600 0.7580
2.913365 0.7530 0.7470 0.7320 0.7050 0.6820
2.947000 0.6620 0.5890 0.5820 0.5520 0.4920
2.980365 0.4600 0.4300 0.4150 0.3570 0.3540
3.014000 0.3570 0.3820 0.4100 0.4470 0.4800
3.047365 0.5120 0.5500 0.5670 0.5790 0.5890
3.081000 0.5900 0.5920 0.5950 0.5990 0.5990
3.114365 0.5970 0.5940 0.5920 0.5890 0.5840
3.147000 0.5820 0.5790 0.5720 0.5670 0.5620
3.180365 0.5570 0.5520 0.5440 0.5350 0.5250
3.214000 0.5150 0.5120 0.4950 0.4870 0.4790
3.247365 0.4690 0.4600 0.4520 0.4450 0.4370
3.281000 0.4370 0.4340 0.4320 0.4250 0.4170
3.314365 0.4050 0.3970 0.3790 0.3540 0.3290
3.347000 0.2960 0.2460 0.2210 0.1440 0.1130
3.380365 0.0740 0.0490 0.0440 0.0440 0.0460
3.414000 0.0480 0.0530 0.0610 0.0660 0.0760
3.447365 0.0830 0.0830 0.0930 0.0990 0.1030
3.481000 0.1110 0.1210 0.1410 0.1730 0.2270
3.514365 0.3060 0.3470 0.3960 0.4320 0.4800
3.547000 0.4950 0.5170 0.5320 0.5440 0.5550
3.580365 0.5600 0.5690 0.5800 0.5850 0.5940
3.614000 0.5990 0.6020 0.6020 0.6050 0.6050
3.647365 0.6050 0.6030 0.6020 0.6020 0.6000
3.681000 0.5990 0.5920 0.5870 0.5850 0.5850
3.714365 0.5870 0.5890 0.5900 0.5920 0.5940
3.747000 0.5970 0.6000 0.6030 0.6070 0.6130
3.780365 0.6150 0.6180 0.6180 0.6150 0.6130
3.814000 0.6150 0.6170 0.6200 0.6220 0.6250
3.847365 0.6300 0.6330 0.6370 0.6420 0.6500
3.881000 0.6530 0.6620 0.6700 0.6730 0.6800
3.914365 0.6870 0.6920 0.6930 0.7020 0.7020
3.948000 0.7070 0.7120 0.7200 0.7220 0.7270
3.981365 0.7350 0.7400 0.7420 0.7450 0.7500
4.014000 0.7550 0.7580 0.7620 0.7650 0.7720
4.047365 0.7750 0.7780 0.7800 0.7820 0.7820
4.081000 0.7830 0.7830 0.7870 0.7880 0.7880
4.114365 0.7900 0.7900 0.7900 0.7900 0.7900
4.148000 0.7900 0.7900 0.7900 0.7880 0.7880
4.181365 0.7880 0.7880 0.7880 0.7900 0.7920
4.214000 0.7920 0.8000 0.8010 0.8030 0.8100
4.247365 0.8100 0.8130 0.8210 0.8230 0.8300
4.281000 0.8330 0.8400 0.8430 0.8450 0.8460
4.314365 0.8460 0.8460 0.8460 0.8460 0.8450
4.348000 0.8410 0.8410 0.8400 0.8400 0.8410
4.381365 0.8410 0.8430 0.8430 0.8450 0.8450
4.414000 0.8450 0.8450 0.8460 0.8480 0.8500
4.447365 0.8510 0.8510 0.8510 0.8510 0.8510
4.481000 0.8510 0.8510 0.8510 0.8530 0.8530
4.514365 0.8530 0.8550 0.8560 0.8580 0.8580
4.548000 0.8600 0.8610 0.8630 0.8630 0.8630
4.581365 0.8630 0.8630 0.8610 0.8610 0.8610
4.615000 0.8600 0.8600 0.8600 0.8610 0.8610
4.648365 0.8610 0.8610 0.8610 0.8630 0.8630
4.681000 0.8630 0.8650 0.8650 0.8630 0.8630
4.714365 0.8630 0.8630 0.8630 0.8650 0.8700
4.748000 0.8700 0.8710 0.8730 0.8730 0.8730
4.781365 0.8750 0.8750 0.8800 0.8780 0.8800
4.815000 0.8810 0.8810 0.8830 0.8850 0.8850
4.848365 0.8850 0.8850 0.8850 0.8850 0.8810
4.881000 0.8810 0.8810 0.8810 0.8830 0.8830
4.914365 0.8850 0.8850 0.8830 0.8830 0.8830
4.948000 0.8830 0.8850 0.8850 0.8860 0.8880
4.981365 0.8880 0.8880 0.8880 0.8860 0.8860
5.015000 0.8850 0.8850 0.8850 0.8850 0.8850
5.048365 0.8850 0.8850 0.8850 0.8850 0.8850
5.081000 0.8850 0.8850 0.8850 0.8830 0.8830
5.114365 0.8830 0.8830 0.8830 0.8850 0.8880
5.148000 0.8880 0.8880 0.8880 0.8850 0.8830
5.181365 0.8830 0.8830 0.8830 0.8830 0.8830
5.215000 0.8830 0.8850 0.8850 0.8830 0.8830
5.248365 0.8830 0.8810 0.8780 0.8780 0.8780
5.282000 0.8760 0.8760 0.8760 0.8760 0.8760
5.315365 0.8760 0.8760 0.8760 0.8780 0.8780
5.348000 0.8800 0.8810 0.8810 0.8810 0.8810
5.381365 0.8810 0.8810 0.8800 0.8760 0.8730
5.415000 0.8710 0.8650 0.8600 0.8580 0.8560
5.448365 0.8530 0.8510 0.8500 0.8500 0.8480
5.482000 0.8480 0.8480 0.8480 0.8500 0.8500
5.515365 0.8500 0.8510 0.8510 0.8510 0.8530
5.548000 0.8550 0.8550 0.8560 0.8580 0.8580
5.581365 0.8600 0.8610 0.8600 0.8580 0.8530
5.615000 0.8510 0.8500 0.8430 0.8400 0.8350
5.648365 0.8310 0.8300 0.8250 0.8210 0.8150
5.682000 0.8100 0.8010 0.7930 0.7830 0.7770
5.715365 0.7700 0.7630 0.7520 0.7420 0.7220
5.748000 0.7030 0.6870 0.6620 0.6170 0.5700
5.781365 0.5220 0.5020 0.4950 0.3810 0.3290
5.815000 0.3160 0.2590 0.2220 0.1980 0.1810
5.848365 0.1710 0.1630 0.1590 0.1590 0.1580
5.882000 0.1590 0.1630 0.1690 0.1810 0.2070
5.915365 0.2320 0.2810 0.3270 0.3740 0.4290
5.949000 0.5540 0.6100 0.6170 0.6580 0.6770
5.982365 0.6930 0.7020 0.7050 0.7100 0.7100
6.015000 0.7100 0.7050 0.6980 0.6870 0.6670
6.048365 0.6570 0.6080 0.5820 0.5500 0.5020
6.082000 0.4620 0.4120 0.2940 0.2770 0.2290
6.115365 0.1710 0.1330 0.1140 0.1140 0.1230
6.149000 0.1630 0.2020 0.2940 0.3470 0.4050
6.182365 0.4620 0.5000 0.5340 0.5620 0.5650
6.215000 0.5670 0.5790 0.5970 0.6130 0.6620
6.248365 0.7020 0.7150 0.7370 0.7370 0.7230
6.282000 0.6970 0.6830 0.6420 0.6030 0.5790
6.315365 0.5490 0.5390 0.5390 0.5440 0.5590
6.349000 0.5900 0.6030 0.6170 0.6230 0.6270
6.382365 0.6270 0.6180 0.6130 0.5950 0.5720
6.415000 0.5490 0.5290 0.5140 0.4970 0.4800
6.448365 0.4670 0.4470 0.4270 0.3990 0.3620
6.482000 0.3120 0.2760 0.2270 0.1980 0.1390
6.515365 0.1360 0.1380 0.1510 0.1690 0.1940
6.549000 0.2310 0.2940 0.3390 0.3940 0.4540
6.582365 0.5020 0.5220 0.5650 0.5890 0.6020
6.616000 0.6380 0.6620 0.6770 0.6880 0.6920
6.649365 0.6930 0.6870 0.6680 0.6500 0.6220
6.682000 0.5970 0.5670 0.5420 0.5200 0.5070
6.715365 0.4990 0.4920 0.4840 0.4740 0.4590
6.749000 0.4420 0.4240 0.3990 0.3740 0.3490
6.782365 0.3320 0.3220 0.3070 0.2990 0.2920
6.816000 0.2860 0.2840 0.2840 0.2840 0.2870
6.849365 0.2940 0.3040 0.3210 0.3290 0.3420
6.882000 0.3470 0.3620 0.3710 0.3860 0.3960
6.915365 0.4120 0.4240 0.4390 0.4770 0.5170
6.949000 0.5570 0.5870 0.6080 0.6320 0.6420
6.982365 0.6420 0.6400 0.6370 0.6220 0.6030
7.016000 0.5850 0.5640 0.5440 0.5200 0.5070
7.049365 0.4940 0.4920 0.4920 0.4950 0.5220
7.082000 0.5470 0.5690 0.6020 0.6280 0.6430
7.115365 0.6580 0.6730 0.6820 0.6920 0.7000
7.149000 0.7020 0.7030 0.7030 0.7020 0.6880
7.182365 0.6770 0.6630 0.6330 0.6030 0.5720
7.216000 0.5540 0.5300 0.5190 0.4920 0.4890
7.249365 0.4890 0.4920 0.4970 0.5050 0.5240
7.283000 0.5320 0.5570 0.5740 0.5850 0.5950
7.316365 0.6030 0.6130 0.6230 0.6300 0.6320
7.349000 0.6320 0.6300 0.6180 0.6020 0.5920
7.382365 0.5740 0.5620 0.5490 0.5300 0.5290
7.416000 0.5300 0.5340 0.5490 0.5700 0.5970
7.449365 0.6080 0.6320 0.6370 0.6420 0.6420
7.483000 0.6370 0.6270 0.6030 0.5870 0.5520
7.516365 0.5370 0.5100 0.4870 0.4540 0.4270
7.549000 0.4070 0.3860 0.3620 0.3410 0.3370
7.582365 0.3320 0.3310 0.3320 0.3420 0.3560
7.616000 0.3760 0.3860 0.3970 0.4040 0.4090
7.649365 0.4100 0.4100 0.4040 0.3940 0.3690
7.683000 0.3590 0.3540 0.3540 0.3540 0.3540
7.716365 0.3590 0.3620 0.3710 0.3770 0.3910
7.749000 0.3990 0.4050 0.4100 0.4120 0.4120
7.782365 0.4100 0.4070 0.4020 0.3940 0.3910
7.816000 0.3910 0.3920 0.3990 0.4020 0.4100
7.849365 0.4270 0.4390 0.4500 0.4640 0.4770
7.883000 0.4900 0.5020 0.5190 0.5420 0.5550
7.916365 0.5720 0.5870 0.6030 0.6200 0.6270
7.950000 0.6330 0.6400 0.6470 0.6530 0.6570
7.983365 0.6650 0.6720 0.6750 0.6770 0.6820
8.016000 0.6830 0.6830 0.6800 0.6680 0.6550
8.049365 0.6370 0.6220 0.5990 0.5790 0.5570
8.083000 0.5420 0.5290 0.5250 0.5240 0.5240
8.116365 0.5320 0.5490 0.5670 0.5870 0.6080
8.150000 0.6280 0.6500 0.6680 0.6830 0.6970
8.183365 0.7070 0.7120 0.7250 0.7380 0.7450
8.216000 0.7520 0.7530 0.7550 0.7600 0.7630
8.249365 0.7670 0.7700 0.7720 0.7730 0.7800
8.283000 0.7820 0.7830 0.7870 0.7870 0.7880
8.316365 0.7900 0.7900 0.7900 0.7920 0.7920
8.350000 0.7920 0.7930 0.7950 0.7970 0.7980
8.383365 0.7980 0.7970 0.7950 0.7920 0.7880
8.416000 0.7880 0.7850 0.7850 0.7850 0.7850
8.449365 0.7850 0.7850 0.7850 0.7850 0.7850
8.483000 0.7830 0.7830 0.7830 0.7830 0.7800
8.516365 0.7750 0.7750 0.7680 0.7600 0.7550
8.550000 0.7520 0.7500 0.7470 0.7450 0.7450
8.583365 0.7430 0.7430 0.7450 0.7500 0.7530
8.616000 0.7570 0.7620 0.7650 0.7700 0.7700
8.649365 0.7720 0.7720 0.7720 0.7730 0.7750
8.683000 0.7800 0.7820 0.7850 0.7920 0.7980
8.716365 0.8010 0.8030 0.8110 0.8130 0.8150
8.750000 0.8200 0.8200 0.8230 0.8250 0.8260
8.783365 0.8260 0.8260 0.8280 0.8300 0.8310
8.817000 0.8310 0.8330 0.8330 0.8350 0.8350
8.850365 0.8350 0.8350 0.8350 0.8330 0.8330
8.883000 0.8330 0.8310 0.8310 0.8300 0.8300
8.916365 0.8250 0.8230 0.8200 0.8150 0.8110
8.950000 0.8060 0.8050 0.8000 0.7880 0.7780
8.983365 0.7680 0.7580 0.7470 0.7350 0.7180
9.017000 0.7030 0.6880 0.6780 0.6720 0.6650
9.050365 0.6620 0.6580 0.6550 0.6530 0.6530
9.083000 0.6530 0.6550 0.6570 0.6600 0.6620
9.116365 0.6650 0.6750 0.6880 0.6980 0.7120
9.150000 0.7280 0.7470 0.7580 0.7720 0.7830
9.183365 0.7880 0.7900 0.7950 0.7950 0.7970
9.217000 0.7970 0.7970 0.7970 0.7950 0.7930
9.250365 0.7880 0.7780 0.7680 0.7580 0.7480
9.283000 0.7380 0.7320 0.7300 0.7300 0.7320
9.316365 0.7370 0.7430 0.7530 0.7630 0.7780
9.350000 0.7900 0.7950 0.8010 0.8030 0.8030
9.383365 0.8030 0.8030 0.8030 0.8030 0.8030
9.417000 0.8050 0.8060 0.8080 0.8100 0.8110
9.450365 0.8110 0.8130 0.8130 0.8130 0.8150
9.484000 0.8150 0.8160 0.8160 0.8180 0.8200
9.517365 0.8210 0.8210 0.8210 0.8230 0.8230
9.550000 0.8250 0.8250 0.8260 0.8260 0.8280
9.583365 0.8280 0.8280 0.8280 0.8280 0.8280
9.617000 0.8280 0.8280 0.8260 0.8260 0.8250
9.650365 0.8250 0.8230 0.8210 0.8180 0.8130
9.684000 0.8030 0.7980 0.7880 0.7800 0.7720
9.717365 0.7650 0.7620 0.7600 0.7600 0.7620
9.750000 0.7650 0.7720 0.7780 0.7850 0.7920
9.783365 0.7920 0.7930 0.7930 0.7880 0.7770
9.817000 0.7720 0.7650 0.7620 0.7600 0.7600
9.850365 0.7600 0.7620 0.7630 0.7650 0.7700
9.884000 0.7720 0.7730 0.7800 0.7830 0.7870
9.917365 0.7900 0.7920 0.7930 0.7930 0.7930
9.950000 0.7930 0.7930 0.7930 0.7920 0.7920
9.983365 0.7920 0.7920 0.7920 0.7930 0.7970
10.017000 0.8000 0.8030 0.8030 0.8030 0.8030
10.050365 0.8030 0.8030 0.8030 0.8030 0.8030
10.084000 0.8030 0.8030 0.8030 0.8030 0.8010
10.117365 0.8000 0.8000 0.7970 0.7950 0.7930
10.151000 0.7920 0.7920 0.7880 0.7850 0.7850
10.184365 0.7830 0.7830 0.7820 0.7820 0.7800
10.217000 0.7780 0.7770 0.7730 0.7720 0.7670
10.250365 0.7650 0.7630 0.7620 0.7570 0.7550
10.284000 0.7530 0.7520 0.7450 0.7420 0.7370
10.317365 0.7330 0.7320 0.7270 0.7250 0.7220
10.351000 0.7180 0.7130 0.7100 0.7050 0.7030
10.384365 0.7000 0.6970 0.6930 0.6880 0.6820
10.417000 0.6780 0.6750 0.6730 0.6720 0.6670
10.450365 0.6620 0.6530 0.6480 0.6450 0.6400
10.484000 0.6350 0.6320 0.6270 0.6200 0.6130
10.517365 0.6070 0.6030 0.6000 0.5970 0.5920
10.551000 0.5890 0.5840 0.5820 0.5800 0.5750
10.584365 0.5740 0.5720 0.5720 0.5720 0.5720
10.617000 0.5720 0.5720 0.5720 0.5720 0.5740
10.650365 0.5750 0.5770 0.5800 0.5840 0.5890
10.684000 0.5900 0.5920 0.5940 0.6000 0.6000
10.717365 0.6020 0.6030 0.6050 0.6100 0.6100
10.751000 0.6120 0.6130 0.6130 0.6120 0.6120
10.784365 0.6070 0.6050 0.6020 0.5990 0.5840
10.818000 0.5820 0.5820 0.5840 0.5920 0.6020
10.851365 0.6130 0.6320 0.6580 0.6730 0.6870
10.884000 0.6950 0.7020 0.7030 0.7100 0.7120
10.917365 0.7150 0.7200 0.7200 0.7220 0.7220
10.951000 0.7230 0.7230 0.7230 0.7230 0.7230
10.984365 0.7230 0.7230 0.7250 0.7250 0.7270
11.018000 0.7280 0.7300 0.7320 0.7330 0.7330
11.051365 0.7350 0.7400 0.7400 0.7420 0.7430
11.084000 0.7450 0.7500 0.7520 0.7520 0.7530
11.117365 0.7550 0.7600 0.7620 0.7650 0.7670
11.151000 0.7680 0.7700 0.7700 0.7700 0.7720
11.184365 0.7720 0.7720 0.7720 0.7720 0.7750
11.218000 0.7750 0.7780 0.7780 0.7800 0.7800
11.251365 0.7820 0.7830 0.7850 0.7870 0.7880
11.284000 0.7900 0.7900 0.7900 0.7900 0.7920
11.317365 0.7920 0.7920 0.7930 0.7970 0.7970
11.351000 0.7980 0.7980 0.8000 0.8000 0.8000
11.384365 0.8000 0.8000 0.8000 0.8000 0.8000
11.418000 0.8000 0.8000 0.8000 0.7980 0.7970
11.451365 0.7950 0.7920 0.7850 0.7780 0.7730
11.485000 0.7670 0.7620 0.7530 0.7470 0.7330
11.518365 0.7170 0.7070 0.6980 0.6870 0.6850
11.551000 0.6850 0.6850 0.6880 0.6900 0.6950
11.584365 0.7020 0.7100 0.7200 0.7320 0.7470
11.618000 0.7530 0.7600 0.7670 0.7750 0.7830
11.651365 0.7880 0.7920 0.7930 0.7950 0.7970
11.685000 0.8000 0.8030 0.8080 0.8100 0.8110
11.718365 0.8130 0.8160 0.8200 0.8210 0.8210
11.751000 0.8230 0.8250 0.8260 0.8260 0.8280
11.784365 0.8280 0.8300 0.8310 0.8310 0.8330
11.818000 0.8330 0.8330 0.8330 0.8330 0.8330
11.851365 0.8330 0.8310 0.8300 0.8300 0.8300
11.885000 0.8310 0.8310 0.8350 0.8380 0.8400
11.918365 0.8410 0.8410 0.8430 0.8430 0.8430
11.951000 0.8450 0.8450 0.8460 0.8480 0.8500
11.984365 0.8500 0.8510 0.8530 0.8530 0.8530
12.018000 0.8530 0.8530 0.8530 0.8550 0.8550
12.051365 0.8550 0.8550 0.8550 0.8550 0.8550
12.085000 0.8550 0.8550 0.8550 0.8550 0.8550
12.118365 0.8550 0.8560 0.8560 0.8560 0.8560
12.152000 0.8560 0.8560 0.8580 0.8580 0.8580
12.185365 0.8600 0.8600 0.8600 0.8600 0.8600
12.218000 0.8580 0.8580 0.8580 0.8560 0.8560
12.251365 0.8560 0.8560 0.8560 0.8560 0.8560
12.285000 0.8560 0.8560 0.8560 0.8560 0.8560
12.318365 0.8560 0.8560 0.8550 0.8550 0.8530
12.352000 0.8510 0.8480 0.8410 0.8350 0.8310
12.385365 0.8260 0.8210 0.8110 0.7980 0.7780
12.418000 0.7620 0.7450 0.7320 0.7180 0.7100
12.451365 0.7030 0.7030 0.7050 0.7120 0.7220
12.485000 0.7380 0.7570 0.7680 0.7850 0.7980
12.518365 0.8080 0.8200 0.8250 0.8310 0.8310
12.552000 0.8350 0.8400 0.8410 0.8430 0.8450
12.585365 0.8450 0.8450 0.8450 0.8450 0.8450
12.618000 0.8450 0.8450 0.8450 0.8450 0.8450
12.651365 0.8450 0.8430 0.8430 0.8430 0.8410
12.685000 0.8410 0.8410 0.8410 0.8410 0.8430
12.718365 0.8430 0.8430 0.8430 0.8430 0.8430
12.752000 0.8430 0.8410 0.8410 0.8380 0.8360
12.785365 0.8350 0.8330 0.8330 0.8330 0.8330
12.818000 0.8310 0.8300 0.8300 0.8280 0.8280
12.851365 0.8260 0.8260 0.8250 0.8250 0.8210
12.885000 0.8200 0.8150 0.8130 0.8100 0.8060
12.918365 0.8050 0.8030 0.8010 0.8010 0.8010
12.952000 0.8000 0.7980 0.7980 0.7980 0.7980
12.985365 0.8000 0.8010 0.8010 0.8030 0.8050
13.019000 0.8060 0.8060 0.8100 0.8100 0.8110
13.052365 0.8110 0.8130 0.8130 0.8150 0.8150
13.085000 0.8160 0.8160 0.8160 0.8160 0.8160
13.118365 0.8150 0.8150 0.8130 0.8130 0.8110
13.152000 0.8110 0.8110 0.8110 0.8110 0.8110
13.185365 0.8110 0.8110 0.8100 0.8080 0.8060
13.219000 0.8030 0.8030 0.8010 0.8010 0.8000
13.252365 0.7980 0.7980 0.7970 0.7950 0.7920
13.285000 0.7920 0.7920 0.7920 0.7920 0.7900
13.318365 0.7900 0.7880 0.7850 0.7830 0.7820
13.352000 0.7800 0.7770 0.7770 0.7750 0.7730
13.385365 0.7720 0.7700 0.7670 0.7650 0.7620
13.419000 0.7600 0.7570 0.7530 0.7500 0.7450
13.452365 0.7400 0.7330 0.7270 0.7200 0.7130
13.485000 0.7100 0.7070 0.7020 0.6970 0.6870
13.518365 0.6780 0.6730 0.6670 0.6630 0.6600
13.552000 0.6550 0.6530 0.6500 0.6480 0.6480
13.585365 0.6480 0.6500 0.6550 0.6570 0.6600
13.619000 0.6630 0.6680 0.6720 0.6730 0.6800
13.652365 0.6800 0.6830 0.6830 0.6850 0.6850
13.686000 0.6850 0.6830 0.6830 0.6830 0.6830
13.719365 0.6820 0.6800 0.6750 0.6680 0.6630
13.752000 0.6620 0.6570 0.6480 0.6450 0.6350
13.785365 0.6270 0.6200 0.6150 0.6030 0.5940
13.819000 0.5800 0.5690 0.5570 0.5440 0.5320
13.852365 0.5170 0.5020 0.4870 0.4720 0.4520
13.886000 0.4370 0.4220 0.4020 0.3960 0.3720
13.919365 0.3570 0.3460 0.3340 0.3210 0.3110
13.952000 0.3090 0.3070 0.3060 0.3070 0.3090
13.985365 0.3110 0.3160 0.3220 0.3310 0.3440
14.019000 0.3590 0.3690 0.3770 0.3870 0.3970
14.052365 0.4140 0.4350 0.4450 0.4550 0.4700
14.086000 0.4790 0.4890 0.4950 0.5040 0.5100
14.119365 0.5190 0.5250 0.5300 0.5350 0.5420
14.152000 0.5470 0.5500 0.5540 0.5590 0.5600
14.185365 0.5600 0.5620 0.5640 0.5640 0.5620
14.219000 0.5620 0.5600 0.5600 0.5590 0.5550
14.252365 0.5520 0.5500 0.5490 0.5400 0.5350
14.286000 0.5300 0.5220 0.5150 0.5070 0.4950
14.319365 0.4850 0.4720 0.4570 0.4470 0.4340
14.353000 0.4200 0.4070 0.3920 0.3760 0.3610
14.386365 0.3440 0.3260 0.3160 0.3010 0.2770
14.419000 0.2740 0.2690 0.2620 0.2560 0.2520
14.452365 0.2510 0.2520 0.2540 0.2610 0.2670
14.486000 0.2770 0.2870 0.3020 0.3160 0.3260
14.519365 0.3410 0.3570 0.3770 0.3910 0.4100
14.553000 0.4320 0.4450 0.4600 0.4750 0.4850
14.586365 0.4940 0.4990 0.5050 0.5100 0.5190
14.619000 0.5240 0.5270 0.5290 0.5320 0.5340
14.652365 0.5370 0.5390 0.5390 0.5390 0.5390
14.686000 0.5390 0.5370 0.5370 0.5350 0.5350
14.719365 0.5340 0.5320 0.5300 0.5290 0.5240
14.753000 0.5220 0.5190 0.5140 0.5090 0.5020
14.786365 0.5000 0.4970 0.4950 0.4870 0.4800
14.819000 0.4740 0.4670 0.4620 0.4550 0.4520
14.852365 0.4470 0.4420 0.4390 0.4340 0.4300
14.886000 0.4270 0.4250 0.4240 0.4220 0.4220
14.919365 0.4220 0.4220 0.4220 0.4220 0.4240
14.953000 0.4240 0.4250 0.4290 0.4300 0.4370
14.986365 0.4400 0.4420 0.4440 0.4440 0.4450
15.020000 0.4450 0.4450 0.4450 0.4450 0.4440
15.053365 0.4420 0.4400 0.4390 0.4340 0.4320
15.086000 0.4300 0.4290 0.4250 0.4240 0.4220
15.119365 0.4200 0.4200 0.4190 0.4140 0.4120
15.153000 0.4100 0.4090 0.4040 0.4020 0.4000
15.186365 0.4000 0.3990 0.3960 0.3940 0.3910
15.220000 0.3870 0.3840 0.3810 0.3760 0.3720
15.253365 0.3710 0.3660 0.3620 0.3590 0.3540
15.286000 0.3520 0.3510 0.3490 0.3440 0.3420
15.319365 0.3410 0.3390 0.3340 0.3320 0.3290
15.353000 0.3240 0.3210 0.3160 0.3120 0.3110
15.386365 0.3060 0.3010 0.2970 0.2940 0.2910
15.420000 0.2870 0.2840 0.2820 0.2810 0.2760
15.453365 0.2720 0.2690 0.2660 0.2620 0.2610
15.486000 0.2590 0.2560 0.2540 0.2540 0.2520
15.519365 0.2520 0.2510 0.2510 0.2490 0.2490
15.553000 0.2490 0.2470 0.2470 0.2470 0.2460
15.586365 0.2460 0.2460 0.2440 0.2440 0.2440
15.620000 0.2440 0.2440 0.2440 0.2440 0.2440
15.653365 0.2440 0.2440 0.2440 0.2460 0.2460
15.687000 0.2460 0.2470 0.2470 0.2470 0.2490
15.720365 0.2490 0.2510 0.2510 0.2520 0.2520
15.753000 0.2560 0.2590 0.2590 0.2610 0.2620
15.786365 0.2640 0.2660 0.2670 0.2710 0.2720
15.820000 0.2740 0.2760 0.2770 0.2770 0.2810
15.853365 0.2820 0.2860 0.2860 0.2890 0.2890
15.887000 0.2890 0.2860 0.2860 0.2820 0.2810
##END=
