##TITLE=PENTANE, 3-METHYL-
##JCAMP-DX=4.24
##DATA TYPE=INFRARED SPECTRUM
##CLASS=COBLENTZ III
##ORIGIN=DOW CORNING CORP.
##OWNER=COBLENTZ SOCIETY
Collection (C) 2018 copyright by the U.S. Secretary of Commerce
on behalf of the United States of America. All rights reserved.
##DATE=Not specified, most likely prior to 1970
##NAMES=3-methylpentane
##CAS REGISTRY NO=96-14-0
##MOLFORM=C6 H14
##SOURCE REFERENCE=COBLENTZ NO. 4767
##$NIST SOURCE=COBLENTZ
##$NIST IMAGE=cob4767
##SPECTROMETER/DATA SYSTEM=PERKIN-ELMER 521 (GRATING)
##INSTRUMENT PARAMETERS=FILTERS AT 3150, 2500, 2000, 1150, 700, 410; GRATING CHANGES AT 2000, 630 CM^-^1
##STATE=SOLUTION (10% IN CCl4 FOR 3800-1300, 10% IN CS2 FOR 1300-620, AND 10% CCl4 FOR 620-240 CM^-^1) VERSUS SOLVENT
##PATH LENGTH=0.0120, 0.011,AND 0.010 CM (CsBr CELL)
##SAMPLING PROCEDURE=TRANSMISSION
##RESOLUTION=4
##DATA PROCESSING=DIGITIZED BY NIST FROM HARD COPY (FROM TWO SEGMENTS)
##XUNITS=1/CM
##YUNITS=TRANSMITTANCE
##XFACTOR=1.000000
##YFACTOR=1
##DELTAX=1.276600
##FIRSTX=243.404
##LASTX=3791.07
##FIRSTY=0.821
##MAXX=3791.07
##MINX=243.404
##MAXY=0.909
##MINY=0
##NPOINTS=2780
##XYDATA=(X++(Y..Y))
243.404000 0.8210 0.8210 0.8210 0.8210 0.8330
249.786998 0.8370 0.8370 0.8420 0.8440 0.8450
256.169997 0.8470 0.8490 0.8500 0.8500 0.8500
262.552995 0.8540 0.8540 0.8570 0.8610 0.8630
268.935993 0.8680 0.8700 0.8700 0.8730 0.8750
275.318992 0.8760 0.8780 0.8800 0.8800 0.8820
281.701990 0.8820 0.8850 0.8870 0.8890 0.8890
288.084988 0.8890 0.8900 0.8920 0.8940 0.8940
294.467987 0.8940 0.8920 0.8920 0.8960 0.8970
300.850985 0.8990 0.8990 0.8970 0.8970 0.8990
307.233983 0.8990 0.9010 0.9010 0.9020 0.9040
313.616982 0.9020 0.9040 0.9040 0.9060 0.9060
319.999980 0.9060 0.9060 0.9080 0.9080 0.9090
326.382979 0.9090 0.9090 0.9090 0.9090 0.9090
332.765977 0.9060 0.9040 0.9020 0.9020 0.9020
339.148975 0.9010 0.9010 0.9020 0.9020 0.9040
345.531974 0.9060 0.9040 0.9040 0.9040 0.9040
351.914972 0.9040 0.9020 0.9020 0.9010 0.8990
358.297970 0.8960 0.8960 0.8960 0.8940 0.8920
364.680969 0.8920 0.8960 0.8970 0.8970 0.8990
371.063967 0.8990 0.8970 0.8960 0.8920 0.8870
377.446965 0.8830 0.8820 0.8820 0.8800 0.8800
383.829964 0.8800 0.8800 0.8780 0.8760 0.8730
390.212962 0.8710 0.8700 0.8710 0.8710 0.8730
396.595960 0.8750 0.8750 0.8760 0.8760 0.8780
402.978959 0.8780 0.8800 0.8800 0.8820 0.8820
409.361957 0.8820 0.8830 0.8830 0.8830 0.8830
415.744955 0.8830 0.8830 0.8830 0.8820 0.8800
422.127954 0.8800 0.8800 0.8800 0.8800 0.8800
428.510952 0.8800 0.8800 0.8800 0.8800 0.8800
434.893950 0.8800 0.8800 0.8800 0.8800 0.8800
441.276949 0.8820 0.8800 0.8800 0.8800 0.8800
447.659947 0.8800 0.8800 0.8800 0.8800 0.8780
454.042945 0.8780 0.8780 0.8760 0.8750 0.8750
460.425944 0.8750 0.8760 0.8760 0.8760 0.8760
466.808942 0.8750 0.8750 0.8750 0.8750 0.8750
473.191940 0.8750 0.8750 0.8750 0.8750 0.8750
479.574939 0.8750 0.8760 0.8760 0.8760 0.8760
485.957937 0.8760 0.8750 0.8750 0.8750 0.8730
492.340936 0.8730 0.8730 0.8730 0.8710 0.8730
498.723934 0.8730 0.8730 0.8730 0.8710 0.8710
505.106932 0.8700 0.8710 0.8700 0.8700 0.8700
511.489931 0.8680 0.8660 0.8660 0.8660 0.8660
517.872929 0.8660 0.8660 0.8660 0.8660 0.8660
524.255927 0.8680 0.8680 0.8640 0.8640 0.8630
530.638926 0.8630 0.8640 0.8640 0.8680 0.8680
537.021924 0.8700 0.8700 0.8700 0.8680 0.8680
543.404922 0.8660 0.8680 0.8630 0.8610 0.8610
549.787921 0.8630 0.8660 0.8680 0.8680 0.8680
556.170919 0.8680 0.8680 0.8680 0.8700 0.8700
562.553917 0.8700 0.8700 0.8700 0.8700 0.8700
568.936916 0.8700 0.8680 0.8680 0.8680 0.8680
575.319914 0.8680 0.8680 0.8680 0.8680 0.8700
581.702912 0.8700 0.8680 0.8680 0.8680 0.8680
588.085911 0.8680 0.8680 0.8680 0.8680 0.8680
594.468909 0.8680 0.8660 0.8660 0.8640 0.8640
600.851907 0.8640 0.8640 0.8660 0.8680 0.8680
607.234906 0.8680 0.8680 0.8680 0.8700 0.8710
613.617904 0.8730 0.8730 0.8750 0.8710 0.8710
620.000902 0.8680 0.8640 0.8640 0.8640 0.8660
626.383901 0.8660 0.8680 0.8680 0.8680 0.8700
632.766899 0.8710 0.8710 0.8710 0.8710 0.8730
639.149898 0.8730 0.8730 0.8760 0.8760 0.8800
645.532896 0.8780 0.8780 0.8760 0.8750 0.8730
651.915894 0.8710 0.8700 0.8700 0.8700 0.8680
658.298893 0.8680 0.8630 0.8590 0.8560 0.8471
664.681891 0.8440 0.8400 0.8370 0.8330 0.8300
671.064889 0.8300 0.8300 0.8310 0.8350 0.8439
677.447888 0.8520 0.8610 0.8710 0.8730 0.8730
683.830886 0.8750 0.8760 0.8760 0.8760 0.8760
690.213884 0.8780 0.8780 0.8780 0.8800 0.8820
696.596883 0.8830 0.8830 0.8830 0.8830 0.8850
702.979881 0.8850 0.8850 0.8850 0.8850 0.8820
709.362879 0.8820 0.8800 0.8780 0.8760 0.8760
715.745878 0.8730 0.8730 0.8730 0.8710 0.8700
722.128876 0.8680 0.8680 0.8680 0.8630 0.8570
728.511874 0.8540 0.8520 0.8490 0.8470 0.8440
734.894873 0.8420 0.8420 0.8420 0.8440 0.8450
741.277871 0.8420 0.8240 0.8110 0.8110 0.8120
747.660869 0.8210 0.8280 0.8300 0.8330 0.8350
754.043868 0.8350 0.8330 0.8300 0.8210 0.7951
760.426866 0.7860 0.7551 0.7520 0.7500 0.7460
766.809864 0.7450 0.7430 0.7410 0.7340 0.7260
773.192863 0.7240 0.7240 0.7260 0.7429 0.7460
779.575861 0.7791 0.8160 0.8370 0.8540 0.8590
785.958859 0.8610 0.8630 0.8750 0.8760 0.8760
792.341858 0.8730 0.8700 0.8680 0.8680 0.8660
798.724856 0.8630 0.8590 0.8520 0.8420 0.8261
805.107855 0.8180 0.8110 0.8090 0.8050 0.7950
811.490853 0.7740 0.7690 0.7690 0.7780 0.7929
817.873851 0.8180 0.8370 0.8450 0.8520 0.8610
824.256850 0.8680 0.8730 0.8750 0.8760 0.8780
830.639848 0.8830 0.8940 0.8960 0.8990 0.8990
837.022846 0.9020 0.9060 0.9060 0.9080 0.9080
843.405845 0.9060 0.9020 0.8990 0.8960 0.8920
849.788843 0.8890 0.8830 0.8780 0.8750 0.8710
856.171841 0.8700 0.8680 0.8680 0.8640 0.8590
862.554840 0.8540 0.8490 0.8470 0.8440 0.8420
868.937838 0.8400 0.8380 0.8370 0.8370 0.8380
875.320836 0.8400 0.8420 0.8440 0.8490 0.8560
881.703835 0.8680 0.8710 0.8730 0.8750 0.8760
888.086833 0.8760 0.8760 0.8760 0.8780 0.8780
894.469831 0.8780 0.8760 0.8760 0.8760 0.8760
900.852830 0.8760 0.8760 0.8760 0.8750 0.8750
907.235828 0.8750 0.8750 0.8750 0.8750 0.8750
913.618826 0.8750 0.8750 0.8760 0.8760 0.8750
920.001825 0.8730 0.8700 0.8680 0.8630 0.8610
926.384823 0.8590 0.8570 0.8570 0.8520 0.8470
932.767821 0.8420 0.8330 0.8310 0.8260 0.8120
939.150820 0.8110 0.7921 0.7721 0.7401 0.7151
945.533818 0.6739 0.6040 0.5820 0.5820 0.6060
951.916817 0.6270 0.6489 0.6739 0.6909 0.6940
958.299815 0.7010 0.7080 0.7200 0.7290 0.7400
964.682813 0.7520 0.7620 0.7620 0.7600 0.7530
971.065812 0.7410 0.7240 0.7100 0.7030 0.6860
977.448810 0.6650 0.6441 0.6131 0.5961 0.5940
983.831808 0.5960 0.6130 0.6290 0.6460 0.6580
990.214807 0.7069 0.7200 0.7449 0.7689 0.7899
996.597805 0.7920 0.7920 0.7920 0.7880 0.7860
1002.980803 0.7850 0.7780 0.7720 0.7660 0.7640
1009.363802 0.7640 0.7640 0.7660 0.7670 0.7780
1015.746800 0.7920 0.8109 0.8190 0.8230 0.8260
1022.129798 0.8380 0.8420 0.8400 0.8380 0.8280
1028.512797 0.8260 0.8230 0.8140 0.8050 0.7951
1034.895795 0.7860 0.7660 0.7600 0.7600 0.7640
1041.278793 0.7790 0.8049 0.8239 0.8300 0.8350
1047.661792 0.8420 0.8490 0.8540 0.8590 0.8610
1054.044790 0.8640 0.8660 0.8660 0.8660 0.8700
1060.427788 0.8700 0.8700 0.8700 0.8700 0.8710
1066.810787 0.8710 0.8710 0.8710 0.8730 0.8730
1073.193785 0.8750 0.8750 0.8750 0.8750 0.8760
1079.576783 0.8760 0.8760 0.8780 0.8780 0.8780
1085.959782 0.8780 0.8780 0.8780 0.8780 0.8780
1092.342780 0.8760 0.8750 0.8750 0.8730 0.8730
1098.725778 0.8730 0.8710 0.8710 0.8710 0.8710
1105.108777 0.8700 0.8700 0.8680 0.8640 0.8610
1111.491775 0.8560 0.8500 0.8470 0.8370 0.8260
1117.874774 0.8120 0.8120 0.8299 0.8300 0.8280
1124.257772 0.8280 0.8190 0.8140 0.8120 0.8120
1130.640770 0.8070 0.7950 0.7880 0.7850 0.7830
1137.023769 0.7810 0.7740 0.7690 0.7660 0.7660
1143.406767 0.7640 0.7640 0.7640 0.7660 0.7670
1149.789765 0.7690 0.7720 0.7760 0.7850 0.7930
1156.172764 0.8020 0.8090 0.8140 0.8160 0.8180
1162.555762 0.8210 0.8230 0.8230 0.8210 0.8210
1168.938760 0.8240 0.8300 0.8310 0.8370 0.8420
1175.321759 0.8440 0.8470 0.8490 0.8520 0.8540
1181.704757 0.8540 0.8520 0.8520 0.8590 0.8610
1188.087755 0.8630 0.8640 0.8640 0.8660 0.8680
1194.470754 0.8710 0.8760 0.8780 0.8800 0.8800
1200.853752 0.8780 0.8760 0.8750 0.8730 0.8700
1207.236750 0.8700 0.8680 0.8680 0.8680 0.8640
1213.619749 0.8590 0.8590 0.8570 0.8570 0.8570
1220.002747 0.8560 0.8540 0.8540 0.8540 0.8520
1226.385745 0.8520 0.8490 0.8470 0.8450 0.8400
1232.768744 0.8370 0.8350 0.8330 0.8300 0.8300
1239.151742 0.8230 0.8120 0.8040 0.7930 0.7880
1245.534740 0.7860 0.7880 0.8000 0.8050 0.8160
1251.917739 0.8240 0.8330 0.8380 0.8380 0.8380
1258.300737 0.8300 0.8180 0.8120 0.8110 0.8070
1264.683736 0.8020 0.7970 0.7950 0.7930 0.7900
1271.066734 0.7850 0.7850 0.7830 0.7830 0.7830
1277.449732 0.7850 0.7850 0.7850 0.7830 0.7830
1283.832731 0.7850 0.7850 0.7810 0.7780 0.7710
1290.215729 0.7690 0.7660 0.7620 0.7600 0.7590
1296.598727 0.7590 0.7600 0.7660 0.7690 0.8048
1302.981726 0.8350 0.8420 0.8560 0.8570 0.8590
1309.364724 0.8590 0.8570 0.8560 0.8540 0.8520
1315.747722 0.8500 0.8490 0.8490 0.8470 0.8450
1322.130721 0.8420 0.8370 0.8310 0.8310 0.8300
1328.513719 0.8300 0.8300 0.8280 0.8260 0.8230
1334.896717 0.8210 0.8210 0.8190 0.8120 0.8001
1341.279716 0.7930 0.7880 0.7790 0.7720 0.7640
1347.662714 0.7570 0.7530 0.7500 0.7480 0.7460
1354.045712 0.7450 0.7430 0.7410 0.7380 0.7310
1360.428711 0.7190 0.7030 0.6860 0.6631 0.6361
1366.811709 0.6038 0.5419 0.4829 0.3889 0.2920
1373.194707 0.2490 0.2210 0.1941 0.1920 0.1940
1379.577706 0.2041 0.2472 0.3272 0.4540 0.5140
1385.960704 0.5750 0.6289 0.6629 0.6889 0.7099
1392.343702 0.7430 0.7590 0.7600 0.7620 0.7640
1398.726701 0.7640 0.7660 0.7670 0.7690 0.7690
1405.109699 0.7670 0.7670 0.7660 0.7620 0.7590
1411.492697 0.7550 0.7530 0.7520 0.7500 0.7480
1417.875696 0.7480 0.7460 0.7400 0.7290 0.7240
1424.258694 0.7200 0.7200 0.6980 0.6820 0.6770
1430.641693 0.6620 0.6530 0.6460 0.6360 0.6040
1437.024691 0.5800 0.5441 0.5161 0.4971 0.4542
1443.407689 0.4399 0.4119 0.3840 0.3600 0.3100
1449.790688 0.2590 0.1941 0.0653 0.0600 0.0500
1456.173686 0.0460 0.0450 0.0430 0.0430 0.0450
1462.556684 0.0480 0.0530 0.0829 0.1099 0.1758
1468.939683 0.2282 0.2912 0.3861 0.4280 0.4730
1475.322681 0.5160 0.5380 0.5590 0.5779 0.6288
1481.705679 0.6630 0.6720 0.6770 0.6940 0.7080
1488.088678 0.7240 0.7310 0.7410 0.7550 0.7660
1494.471676 0.7720 0.7780 0.7850 0.7930 0.7970
1500.854674 0.8070 0.8180 0.8230 0.8280 0.8300
1507.237673 0.8310 0.8330 0.8370 0.8490 0.8500
1513.620671 0.8520 0.8540 0.8570 0.8590 0.8610
1520.003669 0.8610 0.8610 0.8610 0.8610 0.8610
1526.386668 0.8630 0.8680 0.8700 0.8700 0.8700
1532.769666 0.8700 0.8700 0.8680 0.8680 0.8640
1539.152664 0.8640 0.8640 0.8640 0.8630 0.8630
1545.535663 0.8640 0.8640 0.8640 0.8640 0.8660
1551.918661 0.8660 0.8680 0.8700 0.8700 0.8710
1558.301659 0.8710 0.8710 0.8700 0.8680 0.8680
1564.684658 0.8680 0.8680 0.8680 0.8660 0.8680
1571.067656 0.8680 0.8700 0.8680 0.8680 0.8680
1577.450655 0.8680 0.8680 0.8700 0.8710 0.8730
1583.833653 0.8710 0.8750 0.8760 0.8760 0.8760
1590.216651 0.8760 0.8780 0.8800 0.8800 0.8780
1596.599650 0.8760 0.8760 0.8750 0.8760 0.8760
1602.982648 0.8760 0.8760 0.8760 0.8760 0.8780
1609.365646 0.8780 0.8780 0.8780 0.8760 0.8750
1615.748645 0.8750 0.8730 0.8750 0.8730 0.8730
1622.131643 0.8710 0.8710 0.8700 0.8700 0.8680
1628.514641 0.8680 0.8680 0.8680 0.8680 0.8680
1634.897640 0.8660 0.8660 0.8680 0.8680 0.8660
1641.280638 0.8660 0.8660 0.8640 0.8640 0.8640
1647.663636 0.8640 0.8640 0.8640 0.8640 0.8640
1654.046635 0.8630 0.8630 0.8630 0.8630 0.8630
1660.429633 0.8630 0.8630 0.8630 0.8640 0.8640
1666.812631 0.8640 0.8680 0.8680 0.8700 0.8700
1673.195630 0.8700 0.8710 0.8710 0.8710 0.8730
1679.578628 0.8730 0.8710 0.8730 0.8750 0.8750
1685.961626 0.8760 0.8760 0.8780 0.8780 0.8800
1692.344625 0.8800 0.8800 0.8800 0.8800 0.8820
1698.727623 0.8820 0.8830 0.8830 0.8830 0.8830
1705.110621 0.8830 0.8850 0.8850 0.8850 0.8850
1711.493620 0.8850 0.8850 0.8850 0.8850 0.8850
1717.876618 0.8850 0.8850 0.8850 0.8870 0.8870
1724.259616 0.8870 0.8870 0.8870 0.8870 0.8870
1730.642615 0.8870 0.8870 0.8870 0.8870 0.8870
1737.025613 0.8870 0.8870 0.8870 0.8870 0.8870
1743.408612 0.8870 0.8890 0.8890 0.8890 0.8890
1749.791610 0.8890 0.8890 0.8890 0.8890 0.8890
1756.174608 0.8890 0.8890 0.8870 0.8870 0.8870
1762.557607 0.8870 0.8890 0.8890 0.8900 0.8900
1768.940605 0.8900 0.8900 0.8890 0.8890 0.8890
1775.323603 0.8890 0.8890 0.8890 0.8890 0.8900
1781.706602 0.8900 0.8900 0.8900 0.8920 0.8920
1788.089600 0.8920 0.8920 0.8920 0.8940 0.8940
1794.472598 0.8960 0.8960 0.8920 0.8920 0.8920
1800.855597 0.8940 0.8940 0.8940 0.8940 0.8920
1807.238595 0.8920 0.8920 0.8920 0.8900 0.8900
1813.621593 0.8900 0.8900 0.8920 0.8920 0.8920
1820.004592 0.8920 0.8900 0.8900 0.8900 0.8900
1826.387590 0.8920 0.8890 0.8890 0.8920 0.8920
1832.770588 0.8920 0.8920 0.8920 0.8920 0.8920
1839.153587 0.8940 0.8940 0.8920 0.8920 0.8920
1845.536585 0.8920 0.8920 0.8920 0.8920 0.8900
1851.919583 0.8890 0.8890 0.8870 0.8870 0.8890
1858.302582 0.8900 0.8940 0.8940 0.8940 0.8940
1864.685580 0.8940 0.8940 0.8940 0.8940 0.8920
1871.068578 0.8900 0.8900 0.8900 0.8900 0.8900
1877.451577 0.8900 0.8970 0.8970 0.8920 0.8900
1883.834575 0.8900 0.8890 0.8920 0.8920 0.8940
1890.217574 0.8940 0.8940 0.8940 0.8940 0.8960
1896.600572 0.8960 0.8960 0.8960 0.8940 0.8920
1902.983570 0.8920 0.8920 0.8920 0.8920 0.8920
1909.366569 0.8920 0.8920 0.8940 0.8920 0.8920
1915.749567 0.8920 0.8920 0.8920 0.8940 0.8940
1922.132565 0.8890 0.8870 0.8870 0.8890 0.8940
1928.515564 0.8940 0.8940 0.8920 0.8920 0.8920
1934.898562 0.8940 0.8940 0.8940 0.8940 0.8960
1941.281560 0.8960 0.8940 0.8940 0.8940 0.8920
1947.664559 0.8920 0.8920 0.8920 0.8920 0.8920
1954.047557 0.8920 0.8940 0.8940 0.8940 0.8940
1960.430555 0.8940 0.8940 0.8940 0.8940 0.8940
1966.813554 0.8940 0.8940 0.8940 0.8920 0.8920
1973.196552 0.8920 0.8920 0.8920 0.8920 0.8940
1979.579550 0.8940 0.8900 0.8890 0.8890 0.8890
1985.962549 0.8900 0.8940 0.8970 0.9010 0.9010
1992.345547 0.8970 0.8970 0.8990 0.9010 0.9020
1998.728545 0.9020 0.9020 0.9005 0.8990 0.9000
2005.111544 0.9010 0.9015 0.9020 0.9020 0.9020
2011.494542 0.9020 0.9020 0.9020 0.9020 0.9020
2017.877540 0.9020 0.9020 0.9020 0.9015 0.9010
2024.260539 0.9010 0.9010 0.9010 0.9010 0.9010
2030.643537 0.9010 0.9010 0.9010 0.9010 0.9010
2037.026535 0.9001 0.8991 0.8990 0.8990 0.8990
2043.409534 0.8990 0.8999 0.9009 0.9001 0.8991
2049.792532 0.8990 0.8990 0.8990 0.8990 0.8990
2056.175531 0.8990 0.8990 0.8990 0.8990 0.8990
2062.558529 0.8990 0.8990 0.8990 0.8990 0.8990
2068.941527 0.8990 0.8990 0.8990 0.8990 0.8990
2075.324526 0.8981 0.8971 0.8970 0.8970 0.8956
2081.707524 0.8941 0.8940 0.8940 0.8940 0.8940
2088.090522 0.8940 0.8940 0.8931 0.8921 0.8929
2094.473521 0.8939 0.8940 0.8940 0.8940 0.8940
2100.856519 0.8940 0.8940 0.8931 0.8921 0.8911
2107.239517 0.8901 0.8900 0.8900 0.8900 0.8900
2113.622516 0.8900 0.8900 0.8896 0.8891 0.8894
2120.005514 0.8899 0.8900 0.8900 0.8896 0.8891
2126.388512 0.8890 0.8890 0.8890 0.8890 0.8890
2132.771511 0.8890 0.8890 0.8890 0.8890 0.8890
2139.154509 0.8890 0.8890 0.8890 0.8890 0.8890
2145.537507 0.8890 0.8890 0.8890 0.8890 0.8890
2151.920506 0.8890 0.8890 0.8882 0.8872 0.8878
2158.303504 0.8888 0.8890 0.8890 0.8890 0.8890
2164.686502 0.8890 0.8890 0.8890 0.8890 0.8890
2171.069501 0.8890 0.8890 0.8890 0.8890 0.8890
2177.452499 0.8874 0.8854 0.8842 0.8832 0.8830
2183.835497 0.8830 0.8830 0.8830 0.8838 0.8848
2190.218496 0.8850 0.8850 0.8865 0.8885 0.8890
2196.601494 0.8890 0.8894 0.8899 0.8900 0.8900
2202.984493 0.8896 0.8891 0.8890 0.8890 0.8890
2209.367491 0.8890 0.8890 0.8890 0.8890 0.8890
2215.750489 0.8890 0.8890 0.8890 0.8890 0.8890
2222.133488 0.8890 0.8890 0.8890 0.8875 0.8855
2228.516486 0.8843 0.8833 0.8830 0.8830 0.8837
2234.899484 0.8847 0.8850 0.8850 0.8850 0.8850
2241.282483 0.8850 0.8850 0.8850 0.8850 0.8843
2247.665481 0.8833 0.8830 0.8830 0.8830 0.8830
2254.048479 0.8830 0.8830 0.8830 0.8830 0.8837
2260.431478 0.8847 0.8857 0.8867 0.8877 0.8887
2266.814476 0.8876 0.8856 0.8850 0.8850 0.8843
2273.197474 0.8833 0.8827 0.8822 0.8820 0.8820
2279.580473 0.8823 0.8828 0.8837 0.8847 0.8850
2285.963471 0.8850 0.8850 0.8850 0.8850 0.8850
2292.346469 0.8850 0.8850 0.8843 0.8833 0.8830
2298.729468 0.8830 0.8827 0.8822 0.8814 0.8804
2305.112466 0.8794 0.8783 0.8773 0.8763 0.8757
2311.495464 0.8752 0.8737 0.8717 0.8707 0.8702
2317.878463 0.8700 0.8700 0.8694 0.8684 0.8667
2324.261461 0.8648 0.8640 0.8640 0.8640 0.8640
2330.644459 0.8646 0.8656 0.8666 0.8676 0.8680
2337.027458 0.8680 0.8686 0.8696 0.8700 0.8700
2343.410456 0.8700 0.8700 0.8700 0.8700 0.8700
2349.793455 0.8700 0.8700 0.8700 0.8700 0.8700
2356.176453 0.8700 0.8700 0.8700 0.8700 0.8709
2362.559451 0.8724 0.8730 0.8730 0.8724 0.8714
2368.942450 0.8710 0.8710 0.8710 0.8710 0.8710
2375.325448 0.8710 0.8710 0.8710 0.8710 0.8710
2381.708446 0.8710 0.8710 0.8710 0.8710 0.8707
2388.091445 0.8702 0.8700 0.8700 0.8700 0.8700
2394.474443 0.8700 0.8700 0.8703 0.8708 0.8710
2400.857441 0.8710 0.8707 0.8702 0.8695 0.8685
2407.240440 0.8675 0.8665 0.8660 0.8660 0.8655
2413.623438 0.8645 0.8637 0.8632 0.8630 0.8630
2420.006436 0.8633 0.8638 0.8645 0.8655 0.8660
2426.389435 0.8660 0.8665 0.8675 0.8680 0.8680
2432.772433 0.8685 0.8695 0.8703 0.8708 0.8710
2439.155431 0.8710 0.8715 0.8725 0.8730 0.8730
2445.538430 0.8735 0.8745 0.8752 0.8757 0.8765
2451.921428 0.8775 0.8785 0.8795 0.8805 0.8815
2458.304426 0.8820 0.8820 0.8822 0.8827 0.8830
2464.687425 0.8830 0.8828 0.8823 0.8820 0.8820
2471.070423 0.8820 0.8820 0.8815 0.8805 0.8805
2477.453421 0.8815 0.8815 0.8805 0.8800 0.8800
2483.836420 0.8796 0.8785 0.8780 0.8780 0.8775
2490.219418 0.8765 0.8760 0.8760 0.8758 0.8753
2496.602416 0.8750 0.8750 0.8746 0.8736 0.8730
2502.985415 0.8730 0.8726 0.8716 0.8708 0.8703
2509.368413 0.8700 0.8700 0.8696 0.8686 0.8680
2515.751412 0.8680 0.8680 0.8680 0.8684 0.8694
2522.134410 0.8700 0.8700 0.8700 0.8700 0.8696
2528.517408 0.8686 0.8676 0.8666 0.8656 0.8646
2534.900407 0.8640 0.8640 0.8638 0.8633 0.8626
2541.283405 0.8616 0.8610 0.8610 0.8606 0.8596
2547.666403 0.8586 0.8576 0.8568 0.8563 0.8553
2554.049402 0.8533 0.8520 0.8520 0.8516 0.8506
2560.432400 0.8498 0.8493 0.8482 0.8462 0.8444
2566.815398 0.8429 0.8416 0.8406 0.8396 0.8386
2573.198397 0.8380 0.8380 0.8378 0.8373 0.8363
2579.581395 0.8343 0.8325 0.8310 0.8285 0.8240
2585.964393 0.8195 0.8149 0.8102 0.8053 0.8008
2592.347392 0.7973 0.7950 0.7950 0.7958 0.7983
2598.730390 0.8008 0.8033 0.8060 0.8090 0.8112
2605.113388 0.8117 0.8120 0.8120 0.8120 0.8120
2611.496387 0.8120 0.8120 0.8120 0.8120 0.8120
2617.879385 0.8120 0.8120 0.8120 0.8126 0.8146
2624.262383 0.8163 0.8173 0.8180 0.8180 0.8181
2630.645382 0.8186 0.8193 0.8203 0.8210 0.8210
2637.028380 0.8203 0.8178 0.8157 0.8147 0.8140
2643.411378 0.8140 0.8137 0.8127 0.8120 0.8120
2649.794377 0.8120 0.8120 0.8120 0.8120 0.8120
2656.177375 0.8120 0.8120 0.8120 0.8120 0.8120
2662.560374 0.8120 0.8120 0.8120 0.8120 0.8120
2668.943372 0.8120 0.8119 0.8114 0.8108 0.8098
2675.326370 0.8085 0.8065 0.8044 0.8019 0.8000
2681.709369 0.8000 0.8000 0.8000 0.8002 0.8012
2688.092367 0.8020 0.8020 0.8020 0.8020 0.8020
2694.475365 0.8020 0.8014 0.7989 0.7962 0.7927
2700.858364 0.7895 0.7870 0.7846 0.7826 0.7808
2707.241362 0.7798 0.7785 0.7760 0.7737 0.7722
2713.624360 0.7708 0.7698 0.7688 0.7678 0.7665
2720.007359 0.7640 0.7615 0.7590 0.7568 0.7558
2726.390357 0.7547 0.7532 0.7515 0.7485 0.7449
2732.773355 0.7390 0.7330 0.7270 0.7220 0.7220
2739.156354 0.7248 0.7425 0.7581 0.7641 0.7698
2745.539352 0.7743 0.7786 0.7821 0.7850 0.7850
2751.922350 0.7848 0.7838 0.7830 0.7830 0.7830
2758.305349 0.7830 0.7829 0.7819 0.7810 0.7810
2764.688347 0.7809 0.7799 0.7788 0.7773 0.7753
2771.071345 0.7708 0.7669 0.7664 0.7657 0.7637
2777.454344 0.7615 0.7581 0.7546 0.7511 0.7478
2783.837342 0.7463 0.7445 0.7400 0.7354 0.7294
2790.220340 0.7233 0.7162 0.7096 0.7061 0.7021
2796.603339 0.6946 0.6874 0.6819 0.6765 0.6715
2802.986337 0.6664 0.6610 0.6555 0.6505 0.6451
2809.369335 0.6357 0.6262 0.6167 0.6076 0.6021
2815.752334 0.5970 0.5965 0.5950 0.5845 0.5737
2822.135332 0.5598 0.5461 0.5356 0.5255 0.5195
2828.518331 0.5134 0.5060 0.4982 0.4868 0.4753
2834.901329 0.4643 0.4532 0.4392 0.4249 0.4040
2841.284327 0.3832 0.3650 0.3464 0.3230 0.2991
2847.667326 0.2681 0.2344 0.1547 0.0778 0.0554
2854.050324 0.0338 0.0304 0.0270 0.0260 0.0249
2860.433322 0.0235 0.0219 0.0184 0.0149 0.0124
2866.816321 0.0099 0.0064 0.0029 0.0014 0.0000
2873.199319 0.0000 0.0000 0.0000 0.0000 0.0005
2879.582317 0.0012 0.0106 0.0201 0.0255 0.0311
2885.965316 0.0420 0.0530 0.0565 0.0600 0.0575
2892.348314 0.0550 0.0490 0.0429 0.0324 0.0219
2898.731312 0.0140 0.0060 0.0030 0.0000 0.0000
2905.114311 0.0000 0.0000 0.0000 0.0000 0.0000
2911.497309 0.0000 0.0000 0.0000 0.0000 0.0000
2917.880307 0.0000 0.0000 0.0000 0.0000 0.0000
2924.263306 0.0000 0.0000 0.0000 0.0000 0.0000
2930.646304 0.0000 0.0000 0.0000 0.0000 0.0000
2937.029302 0.0000 0.0000 0.0000 0.0000 0.0000
2943.412301 0.0000 0.0000 0.0000 0.0000 0.0000
2949.795299 0.0000 0.0000 0.0000 0.0000 0.0000
2956.178297 0.0000 0.0000 0.0000 0.0000 0.0000
2962.561296 0.0000 0.0000 0.0000 0.0000 0.0000
2968.944294 0.0000 0.0000 0.0000 0.0037 0.0077
2975.327293 0.0131 0.0185 0.0313 0.0448 0.0610
2981.710291 0.0774 0.0930 0.1084 0.1297 0.1516
2988.093289 0.1740 0.1965 0.2313 0.2677 0.2856
2994.476288 0.3011 0.3344 0.3704 0.4004 0.4298
3000.859286 0.4539 0.4774 0.4990 0.5205 0.5327
3007.242284 0.5436 0.5511 0.5581 0.5642 0.5702
3013.625283 0.5788 0.5877 0.5984 0.6094 0.6208
3020.008281 0.6322 0.6374 0.6415 0.6528 0.6653
3026.391279 0.6700 0.6735 0.6800 0.6870 0.6906
3032.774278 0.6935 0.6986 0.7041 0.7063 0.7078
3039.157276 0.7088 0.7098 0.7150 0.7210 0.7257
3045.540274 0.7302 0.7322 0.7338 0.7365 0.7395
3051.923273 0.7421 0.7446 0.7491 0.7541 0.7558
3058.306271 0.7568 0.7607 0.7652 0.7672 0.7687
3064.689269 0.7698 0.7708 0.7714 0.7719 0.7728
3071.072268 0.7738 0.7760 0.7785 0.7798 0.7808
3077.455266 0.7826 0.7846 0.7878 0.7913 0.7920
3083.838264 0.7920 0.7924 0.7929 0.7930 0.7930
3090.221263 0.7938 0.7948 0.7958 0.7968 0.7981
3096.604261 0.7996 0.8008 0.8018 0.8040 0.8065
3102.987259 0.8086 0.8105 0.8122 0.8137 0.8140
3109.370258 0.8140 0.8155 0.8175 0.8184 0.8189
3115.753256 0.8197 0.8207 0.8217 0.8227 0.8234
3122.136254 0.8239 0.8247 0.8258 0.8268 0.8278
3128.519253 0.8280 0.8280 0.8280 0.8280 0.8273
3134.902251 0.8263 0.8249 0.8234 0.8215 0.8196
3141.285250 0.8172 0.8147 0.8129 0.8114 0.8103
3147.668248 0.8093 0.8083 0.8073 0.8059 0.8044
3154.051246 0.8040 0.8040 0.8033 0.8023 0.8020
3160.434245 0.8020 0.8020 0.8020 0.8020 0.8020
3166.817243 0.8027 0.8037 0.8050 0.8065 0.8077
3173.200241 0.8087 0.8090 0.8090 0.8100 0.8115
3179.583240 0.8127 0.8137 0.8154 0.8174 0.8183
3185.966238 0.8188 0.8197 0.8207 0.8240 0.8285
3192.349236 0.8310 0.8325 0.8337 0.8347 0.8360
3198.732235 0.8375 0.8393 0.8413 0.8430 0.8445
3205.115233 0.8463 0.8483 0.8493 0.8498 0.8507
3211.498231 0.8517 0.8520 0.8520 0.8533 0.8553
3217.881230 0.8570 0.8584 0.8590 0.8590 0.8602
3224.264228 0.8622 0.8630 0.8630 0.8633 0.8638
3230.647226 0.8646 0.8656 0.8660 0.8660 0.8660
3237.030225 0.8660 0.8666 0.8676 0.8689 0.8704
3243.413223 0.8710 0.8710 0.8710 0.8710 0.8710
3249.796221 0.8710 0.8710 0.8710 0.8710 0.8710
3256.179220 0.8716 0.8726 0.8730 0.8730 0.8730
3262.562218 0.8730 0.8730 0.8730 0.8736 0.8746
3268.945216 0.8753 0.8758 0.8760 0.8760 0.8757
3275.328215 0.8752 0.8744 0.8734 0.8730 0.8730
3281.711213 0.8739 0.8754 0.8760 0.8760 0.8760
3288.094212 0.8760 0.8760 0.8760 0.8760 0.8760
3294.477210 0.8760 0.8760 0.8760 0.8760 0.8760
3300.860208 0.8760 0.8760 0.8760 0.8760 0.8760
3307.243207 0.8760 0.8760 0.8760 0.8760 0.8757
3313.626205 0.8752 0.8739 0.8719 0.8710 0.8710
3320.009203 0.8720 0.8740 0.8750 0.8750 0.8750
3326.392202 0.8750 0.8750 0.8750 0.8745 0.8735
3332.775200 0.8730 0.8730 0.8725 0.8715 0.8710
3339.158198 0.8710 0.8710 0.8710 0.8710 0.8710
3345.541197 0.8710 0.8710 0.8715 0.8725 0.8735
3351.924195 0.8745 0.8745 0.8735 0.8735 0.8745
3358.307193 0.8750 0.8750 0.8750 0.8750 0.8750
3364.690192 0.8750 0.8752 0.8757 0.8760 0.8760
3371.073190 0.8760 0.8760 0.8760 0.8760 0.8760
3377.456188 0.8760 0.8760 0.8760 0.8765 0.8775
3383.839187 0.8780 0.8780 0.8780 0.8780 0.8780
3390.222185 0.8780 0.8780 0.8780 0.8780 0.8780
3396.605183 0.8780 0.8780 0.8776 0.8766 0.8764
3402.988182 0.8774 0.8780 0.8780 0.8780 0.8780
3409.371180 0.8780 0.8780 0.8780 0.8780 0.8780
3415.754178 0.8780 0.8780 0.8780 0.8784 0.8794
3422.137177 0.8800 0.8800 0.8804 0.8814 0.8820
3428.520175 0.8820 0.8820 0.8820 0.8820 0.8820
3434.903173 0.8822 0.8827 0.8830 0.8830 0.8834
3441.286172 0.8844 0.8850 0.8850 0.8850 0.8850
3447.669170 0.8850 0.8850 0.8854 0.8864 0.8870
3454.052169 0.8870 0.8870 0.8870 0.8874 0.8884
3460.435167 0.8890 0.8890 0.8890 0.8890 0.8890
3466.818165 0.8890 0.8890 0.8890 0.8890 0.8890
3473.201164 0.8890 0.8890 0.8890 0.8890 0.8890
3479.584162 0.8890 0.8890 0.8890 0.8890 0.8890
3485.967160 0.8890 0.8890 0.8890 0.8890 0.8887
3492.350159 0.8877 0.8870 0.8870 0.8873 0.8883
3498.733157 0.8892 0.8897 0.8900 0.8900 0.8900
3505.116155 0.8900 0.8900 0.8900 0.8900 0.8900
3511.499154 0.8900 0.8900 0.8900 0.8900 0.8900
3517.882152 0.8900 0.8900 0.8900 0.8903 0.8913
3524.265150 0.8920 0.8920 0.8923 0.8933 0.8940
3530.648149 0.8940 0.8937 0.8927 0.8920 0.8920
3537.031147 0.8917 0.8907 0.8900 0.8900 0.8903
3543.414145 0.8913 0.8920 0.8920 0.8920 0.8920
3549.797144 0.8920 0.8920 0.8920 0.8920 0.8923
3556.180142 0.8933 0.8940 0.8940 0.8943 0.8953
3562.563140 0.8960 0.8960 0.8960 0.8960 0.8961
3568.946139 0.8966 0.8970 0.8970 0.8972 0.8982
3575.329137 0.8994 0.9009 0.9025 0.9045 0.9058
3581.712135 0.9048 0.9034 0.9009 0.8988 0.8978
3588.095134 0.8970 0.8970 0.8966 0.8952 0.8940
3594.478132 0.8940 0.8938 0.8928 0.8918 0.8908
3600.861131 0.8900 0.8900 0.8900 0.8900 0.8900
3607.244129 0.8900 0.8900 0.8900 0.8902 0.8912
3613.627127 0.8918 0.8908 0.8900 0.8900 0.8900
3620.010126 0.8900 0.8900 0.8900 0.8900 0.8900
3626.393124 0.8899 0.8894 0.8890 0.8890 0.8890
3632.776122 0.8890 0.8888 0.8878 0.8870 0.8870
3639.159121 0.8870 0.8870 0.8868 0.8858 0.8850
3645.542119 0.8850 0.8848 0.8838 0.8830 0.8830
3651.925117 0.8829 0.8824 0.8820 0.8820 0.8820
3658.308116 0.8820 0.8820 0.8820 0.8820 0.8820
3664.691114 0.8820 0.8820 0.8820 0.8820 0.8820
3671.074112 0.8820 0.8820 0.8820 0.8819 0.8809
3677.457111 0.8800 0.8800 0.8801 0.8811 0.8821
3683.840109 0.8826 0.8829 0.8824 0.8820 0.8820
3690.223107 0.8820 0.8820 0.8820 0.8820 0.8820
3696.606106 0.8820 0.8821 0.8826 0.8832 0.8852
3702.989104 0.8871 0.8881 0.8890 0.8890 0.8889
3709.372102 0.8879 0.8870 0.8870 0.8869 0.8859
3715.755101 0.8850 0.8850 0.8852 0.8872 0.8891
3722.138099 0.8906 0.8920 0.8920 0.8920 0.8920
3728.521097 0.8920 0.8920 0.8920 0.8920 0.8919
3734.904096 0.8909 0.8900 0.8895 0.8890 0.8890
3741.287094 0.8890 0.8890 0.8890 0.8890 0.8890
3747.670092 0.8890 0.8890 0.8890 0.8890 0.8890
3754.053091 0.8890 0.8890 0.8890 0.8880 0.8870
3760.436089 0.8870 0.8870 0.8880 0.8890 0.8890
3766.819088 0.8890 0.8890 0.8890 0.8890 0.8890
3773.202086 0.8890 0.8890 0.8890 0.8890 0.8895
3779.585084 0.8900 0.8895 0.8890 0.8895 0.8900
3785.968083 0.8900 0.8900 0.8900 0.8900 0.8910
##END=
