##TITLE=PROPANE, 1,2-DIBROMO-3-CHLORO-
##JCAMP-DX=4.24
##DATA TYPE=INFRARED SPECTRUM
##CLASS=COBLENTZ III
##ORIGIN=DOW CHEMICAL COMPANY
##OWNER=COBLENTZ SOCIETY
Collection (C) 2018 copyright by the U.S. Secretary of Commerce
on behalf of the United States of America. All rights reserved.
##DATE=1975/07/23
##NAMES=1,2-dibromo-3-chloropropane
##CAS REGISTRY NO=96-12-8
##MOLFORM=C3 H5 Br2 Cl
##SOURCE REFERENCE=COBLENTZ NO. 10673
##$NIST SOURCE=COBLENTZ
##$NIST IMAGE=cob10673
##SPECTROMETER/DATA SYSTEM=BECKMAN IR-9 (GRATING)
##INSTRUMENT PARAMETERS=ORDER CHANGES AT 670, 1200, 2000 CM^-^1
##STATE=NEAT
##PATH LENGTH=0.0012 CM
$$ SEE SPECTRUM NO. 10672 FOR "SOLUTION (10%)" STATE
##SAMPLING PROCEDURE=TRANSMISSION
##RESOLUTION=4
##DATA PROCESSING=DIGITIZED BY NIST FROM HARD COPY (FROM TWO SEGMENTS)
##XUNITS=1/CM
##YUNITS=TRANSMITTANCE
##XFACTOR=1.000000
##YFACTOR=1
##DELTAX=0.951776
##FIRSTX=381.98
##LASTX=3799.81
##FIRSTY=0.536
##MAXX=3799.81
##MINX=381.98
##MAXY=0.993825
##MINY=0.0790009
##NPOINTS=3592
##XYDATA=(X++(Y..Y))
381.980000 0.5360 0.5290 0.5270 0.5260 0.5230
386.738882 0.5200 0.5190 0.5140 0.5110 0.5100
391.497765 0.5080 0.5070 0.5050 0.5040 0.5040
396.256647 0.5020 0.5020 0.5010 0.5010 0.5000
401.015529 0.5000 0.5010 0.5040 0.5080 0.5170
405.774412 0.5300 0.5629 0.5710 0.5849 0.6049
410.533294 0.6090 0.6180 0.6260 0.6300 0.6370
415.292176 0.6420 0.6490 0.6560 0.6620 0.6749
420.051059 0.6780 0.6800 0.6870 0.6960 0.7000
424.809941 0.7030 0.7110 0.7180 0.7270 0.7310
429.568824 0.7440 0.7460 0.7500 0.7560 0.7620
434.327706 0.7650 0.7780 0.7820 0.7850 0.7940
439.086588 0.7990 0.8000 0.8020 0.8060 0.8070
443.845471 0.8130 0.8150 0.8180 0.8210 0.8220
448.604353 0.8280 0.8290 0.8320 0.8340 0.8340
453.363235 0.8320 0.8310 0.8290 0.8250 0.8150
458.122118 0.7970 0.7720 0.7470 0.7170 0.7090
462.881000 0.6960 0.6960 0.7179 0.7190 0.7628
467.639882 0.7820 0.8000 0.8340 0.8350 0.8400
472.398765 0.8530 0.8679 0.8730 0.8750 0.8790
477.157647 0.8820 0.8870 0.8880 0.8900 0.8910
481.916529 0.8920 0.8940 0.8940 0.8950 0.8950
486.675412 0.8950 0.8970 0.8970 0.8980 0.8980
491.434294 0.8980 0.8970 0.8950 0.8940 0.8850
496.193176 0.8760 0.8720 0.8470 0.8160 0.7990
500.952059 0.7960 0.7691 0.7411 0.7062 0.6801
505.710941 0.6800 0.6920 0.7030 0.7270 0.7719
510.469824 0.7969 0.8189 0.8409 0.8629 0.8849
515.228706 0.8940 0.9000 0.9040 0.9120 0.9140
519.987588 0.9170 0.9200 0.9200 0.9220 0.9220
524.746471 0.9220 0.9230 0.9230 0.9250 0.9250
529.505353 0.9230 0.9220 0.9200 0.9190 0.9140
534.264235 0.9130 0.9120 0.9120 0.9120 0.9120
539.023118 0.9120 0.9100 0.9100 0.9100 0.9100
543.782000 0.9100 0.9100 0.9100 0.9100 0.9070
548.540882 0.9040 0.9030 0.9000 0.8950 0.8940
553.299765 0.8920 0.8820 0.8720 0.8650 0.8510
558.058647 0.8221 0.7881 0.7721 0.7561 0.6455
562.817529 0.6080 0.5730 0.5270 0.4801 0.3782
567.576412 0.3321 0.3101 0.2871 0.1675 0.1053
572.335294 0.0930 0.0800 0.0790 0.0800 0.1040
577.094176 0.1429 0.2178 0.2439 0.2689 0.2770
581.853059 0.3310 0.4090 0.4130 0.4310 0.4569
586.611941 0.6175 0.6310 0.6370 0.6559 0.6779
591.370824 0.6960 0.7000 0.7060 0.7090 0.7110
596.129706 0.7150 0.7210 0.7300 0.7429 0.7589
600.888588 0.7880 0.8030 0.8180 0.8240 0.8370
605.647471 0.8629 0.8790 0.8850 0.8940 0.8980
610.406353 0.9010 0.9070 0.9090 0.9120 0.9140
615.165235 0.9160 0.9190 0.9200 0.9220 0.9230
619.924118 0.9230 0.9230 0.9230 0.9220 0.9220
624.683000 0.9200 0.9190 0.9160 0.9130 0.9100
629.441882 0.9060 0.9040 0.8970 0.8920 0.8810
634.200765 0.8720 0.8571 0.8401 0.8320 0.8240
638.959647 0.8060 0.7800 0.7630 0.7470 0.7180
643.718529 0.6931 0.6481 0.6181 0.5921 0.5651
648.477412 0.5550 0.5510 0.5450 0.5380 0.5260
653.236294 0.5240 0.5130 0.5000 0.4920 0.4920
657.995176 0.4970 0.5020 0.5539 0.6079 0.6310
662.754059 0.6490 0.6669 0.6929 0.7059 0.7329
667.512941 0.7430 0.7530 0.7590 0.7800 0.7850
672.271824 0.7880 0.7960 0.7970 0.7990 0.8030
677.030706 0.8040 0.8060 0.8130 0.8240 0.8410
681.789588 0.8540 0.8590 0.8700 0.8730 0.8780
686.548471 0.8810 0.8840 0.8870 0.8880 0.8900
691.307353 0.8910 0.8910 0.8920 0.8920 0.8920
696.066235 0.8920 0.8910 0.8900 0.8790 0.8720
700.825118 0.8650 0.8590 0.8510 0.8351 0.8250
705.584000 0.8100 0.7960 0.7810 0.7660 0.7490
710.342882 0.6832 0.6402 0.5982 0.5642 0.5202
715.101765 0.4750 0.4700 0.4360 0.4091 0.3721
719.860647 0.3481 0.3311 0.3131 0.3031 0.2960
724.619529 0.2820 0.2740 0.2710 0.2690 0.2690
729.378412 0.2720 0.2850 0.3278 0.3409 0.3898
734.137294 0.4120 0.4320 0.4560 0.4790 0.4950
738.896176 0.5628 0.5899 0.6199 0.6359 0.6460
743.655059 0.6480 0.6640 0.6770 0.6930 0.7030
748.413941 0.7050 0.7209 0.7369 0.7927 0.7990
753.172824 0.8070 0.8160 0.8220 0.8310 0.8350
757.931706 0.8410 0.8440 0.8470 0.8500 0.8510
762.690588 0.8510 0.8500 0.8480 0.8470 0.8460
767.449471 0.8440 0.8440 0.8460 0.8470 0.8510
772.208353 0.8560 0.8720 0.8750 0.8790 0.8920
776.967235 0.8940 0.8980 0.9010 0.9040 0.9070
781.726118 0.9100 0.9120 0.9130 0.9160 0.9170
786.485000 0.9200 0.9230 0.9250 0.9260 0.9290
791.243882 0.9320 0.9320 0.9340 0.9340 0.9350
796.002765 0.9360 0.9360 0.9360 0.9380 0.9380
800.761647 0.9410 0.9420 0.9420 0.9420 0.9420
805.520529 0.9440 0.9440 0.9450 0.9470 0.9470
810.279412 0.9480 0.9480 0.9500 0.9500 0.9500
815.038294 0.9500 0.9500 0.9500 0.9500 0.9500
819.797176 0.9500 0.9500 0.9480 0.9480 0.9480
824.556059 0.9470 0.9470 0.9450 0.9450 0.9450
829.314941 0.9420 0.9410 0.9390 0.9380 0.9360
834.073824 0.9350 0.9340 0.9310 0.9280 0.9230
838.832706 0.9200 0.9190 0.9140 0.9090 0.8970
843.591588 0.8920 0.8790 0.8531 0.8161 0.7991
848.350471 0.7770 0.7400 0.7030 0.6331 0.6170
853.109353 0.6050 0.6050 0.6110 0.6339 0.6639
857.868235 0.7220 0.7400 0.7770 0.7770 0.7740
862.627118 0.7690 0.7590 0.7301 0.6782 0.6372
867.386000 0.6050 0.5680 0.5540 0.5390 0.5639
872.144882 0.5959 0.6548 0.7108 0.7120 0.7408
876.903765 0.7880 0.8020 0.8070 0.8060 0.7940
881.662647 0.7850 0.7810 0.7780 0.7800 0.7840
886.421529 0.7910 0.7960 0.7970 0.7960 0.7780
891.180412 0.7630 0.7490 0.7301 0.7091 0.6841
895.939294 0.6730 0.6670 0.6650 0.6670 0.6959
900.698176 0.7120 0.7399 0.7938 0.8030 0.8149
905.457059 0.8190 0.8210 0.8220 0.8210 0.8130
910.215941 0.7851 0.7720 0.7591 0.7560 0.7769
914.974824 0.7960 0.8100 0.8210 0.8509 0.8630
919.733706 0.8780 0.8939 0.9119 0.9130 0.9140
924.492588 0.9200 0.9220 0.9230 0.9230 0.9220
929.251471 0.9220 0.9220 0.9230 0.9230 0.9250
934.010353 0.9320 0.9350 0.9380 0.9410 0.9420
938.769235 0.9440 0.9450 0.9450 0.9480 0.9500
943.528118 0.9500 0.9510 0.9510 0.9530 0.9530
948.287000 0.9530 0.9530 0.9530 0.9510 0.9510
953.045882 0.9500 0.9480 0.9420 0.9360 0.9350
957.804765 0.9280 0.9160 0.9060 0.8911 0.8512
962.563647 0.8150 0.7800 0.7630 0.7460 0.6971
967.322529 0.6770 0.6481 0.6480 0.6550 0.6779
972.081412 0.6930 0.7110 0.7270 0.7430 0.7620
976.840294 0.7810 0.7970 0.8129 0.8240 0.8509
981.599176 0.8630 0.8730 0.8820 0.8910 0.9030
986.358059 0.9090 0.9220 0.9230 0.9280 0.9290
991.116941 0.9320 0.9340 0.9360 0.9390 0.9410
995.875824 0.9420 0.9440 0.9440 0.9440 0.9420
1000.634706 0.9360 0.9310 0.9280 0.9250 0.9230
1005.393588 0.9220 0.9230 0.9290 0.9320 0.9350
1010.152471 0.9380 0.9410 0.9440 0.9450 0.9450
1014.911353 0.9450 0.9440 0.9390 0.9360 0.9320
1019.670235 0.9230 0.9200 0.9220 0.9250 0.9260
1024.429118 0.9340 0.9380 0.9420 0.9440 0.9450
1029.188000 0.9450 0.9470 0.9480 0.9500 0.9500
1033.946882 0.9500 0.9500 0.9510 0.9530 0.9530
1038.705765 0.9540 0.9540 0.9560 0.9570 0.9570
1043.464647 0.9570 0.9580 0.9580 0.9580 0.9580
1048.223529 0.9570 0.9570 0.9560 0.9560 0.9560
1052.982412 0.9560 0.9540 0.9540 0.9530 0.9530
1057.741294 0.9510 0.9500 0.9470 0.9420 0.9390
1062.500176 0.9360 0.9350 0.9340 0.9340 0.9320
1067.259059 0.9310 0.9310 0.9280 0.9250 0.9220
1072.017941 0.9200 0.9160 0.9130 0.9120 0.9011
1076.776824 0.8980 0.8950 0.8940 0.8920 0.8900
1081.535706 0.8900 0.8880 0.8880 0.8880 0.8870
1086.294588 0.8870 0.8870 0.8870 0.8870 0.8870
1091.053471 0.8880 0.8880 0.8880 0.8880 0.8900
1095.812353 0.8910 0.8940 0.9000 0.9030 0.9120
1100.571235 0.9170 0.9190 0.9200 0.9230 0.9250
1105.330118 0.9260 0.9260 0.9280 0.9290 0.9290
1110.089000 0.9280 0.9250 0.9230 0.9200 0.9140
1114.847882 0.9120 0.8970 0.8780 0.8411 0.8191
1119.606765 0.7931 0.7810 0.7681 0.7411 0.7410
1124.365647 0.7550 0.7680 0.8020 0.8190 0.8220
1129.124529 0.8250 0.8250 0.8260 0.8280 0.8310
1133.883412 0.8340 0.8400 0.8440 0.8470 0.8500
1138.642294 0.8500 0.8321 0.8190 0.7971 0.7801
1143.401176 0.7620 0.7440 0.7250 0.7090 0.6950
1148.160059 0.6930 0.7000 0.7110 0.7269 0.7330
1152.918941 0.7410 0.7410 0.7430 0.7430 0.7410
1157.677824 0.7410 0.7400 0.7360 0.7171 0.6245
1162.436706 0.6040 0.5650 0.5261 0.4502 0.4340
1167.195588 0.4041 0.4040 0.4169 0.4478 0.4908
1171.954471 0.5860 0.6170 0.6590 0.6830 0.7269
1176.713353 0.7799 0.7880 0.8059 0.8179 0.8220
1181.472235 0.8240 0.8260 0.8280 0.8290 0.8280
1186.231118 0.8250 0.8240 0.8180 0.8120 0.7871
1190.990000 0.7720 0.7580 0.7270 0.6112 0.4953
1195.748882 0.4471 0.4201 0.3403 0.3400 0.3460
1200.507765 0.3530 0.3820 0.4010 0.4798 0.5209
1205.266647 0.5549 0.5859 0.6179 0.6588 0.6620
1210.025529 0.6840 0.7080 0.7270 0.7340 0.7360
1214.784412 0.7360 0.7270 0.7091 0.6781 0.6481
1219.543294 0.6290 0.6090 0.6080 0.6260 0.6390
1224.302176 0.6510 0.6610 0.7517 0.7749 0.7969
1229.061059 0.8150 0.8190 0.8220 0.8220 0.8130
1233.819941 0.8020 0.7821 0.7631 0.7212 0.6961
1238.578824 0.6770 0.6530 0.6170 0.5891 0.5820
1243.337706 0.5670 0.5670 0.5770 0.5850 0.5860
1248.096588 0.5800 0.5640 0.4910 0.4161 0.3651
1252.855471 0.3650 0.4159 0.4160 0.5853 0.5930
1257.614353 0.6520 0.6960 0.6970 0.7120 0.7270
1262.373235 0.7410 0.7560 0.7819 0.7930 0.8039
1267.132118 0.8120 0.8150 0.8160 0.8120 0.7781
1271.891000 0.7690 0.7590 0.7251 0.6961 0.6711
1276.649882 0.6680 0.6560 0.6560 0.6730 0.6770
1281.408765 0.6900 0.6990 0.7090 0.7090 0.6334
1286.167647 0.6070 0.5890 0.5680 0.5680 0.6199
1290.926529 0.6429 0.7527 0.7849 0.8149 0.8399
1295.685412 0.8560 0.8720 0.8790 0.8900 0.8940
1300.444294 0.9010 0.9070 0.9120 0.9130 0.9140
1305.203176 0.9170 0.9200 0.9200 0.9220 0.9230
1309.962059 0.9230 0.9230 0.9230 0.9220 0.9200
1314.720941 0.9190 0.9170 0.9130 0.9120 0.9100
1319.479824 0.9000 0.8851 0.8730 0.8650 0.8600
1324.238706 0.8530 0.8310 0.8220 0.8120 0.7771
1328.997588 0.7521 0.7271 0.6932 0.6612 0.6292
1333.756471 0.5640 0.5640 0.5730 0.5990 0.6359
1338.515353 0.6729 0.7089 0.7429 0.7818 0.7959
1343.274235 0.8240 0.8410 0.8590 0.8790 0.8920
1348.033118 0.9030 0.9130 0.9200 0.9230 0.9260
1352.792000 0.9290 0.9320 0.9350 0.9360 0.9380
1357.550882 0.9380 0.9380 0.9390 0.9410 0.9420
1362.309765 0.9420 0.9440 0.9440 0.9450 0.9450
1367.068647 0.9470 0.9470 0.9480 0.9500 0.9510
1371.827529 0.9530 0.9530 0.9530 0.9540 0.9540
1376.586412 0.9530 0.9530 0.9510 0.9500 0.9480
1381.345294 0.9470 0.9440 0.9350 0.9290 0.9250
1386.104176 0.9250 0.9280 0.9320 0.9350 0.9420
1390.863059 0.9440 0.9440 0.9440 0.9440 0.9420
1395.621941 0.9420 0.9410 0.9390 0.9380 0.9350
1400.380824 0.9310 0.9290 0.9220 0.9200 0.9170
1405.139706 0.9130 0.9060 0.8950 0.8910 0.8751
1409.898588 0.8370 0.7990 0.7600 0.6801 0.6011
1414.657471 0.5611 0.5201 0.4134 0.4100 0.4090
1419.416353 0.3970 0.3590 0.3380 0.3180 0.2960
1424.175235 0.2401 0.2121 0.2120 0.2329 0.2519
1428.934118 0.2740 0.2880 0.3070 0.3100 0.3100
1433.693000 0.3060 0.3309 0.3718 0.4337 0.4350
1438.451882 0.4720 0.5429 0.5849 0.6239 0.6609
1443.210765 0.7208 0.7429 0.7988 0.8249 0.8349
1447.969647 0.8500 0.8690 0.8810 0.8910 0.8920
1452.728529 0.8940 0.8950 0.9010 0.9040 0.9120
1457.487412 0.9130 0.9190 0.9220 0.9230 0.9290
1462.246294 0.9310 0.9320 0.9340 0.9340 0.9350
1467.005176 0.9360 0.9360 0.9390 0.9410 0.9410
1471.764059 0.9420 0.9440 0.9440 0.9450 0.9470
1476.522941 0.9480 0.9480 0.9540 0.9570 0.9580
1481.281824 0.9580 0.9580 0.9600 0.9600 0.9610
1486.040706 0.9610 0.9630 0.9640 0.9640 0.9640
1490.799588 0.9670 0.9690 0.9690 0.9690 0.9690
1495.558471 0.9690 0.9690 0.9700 0.9720 0.9720
1500.317353 0.9730 0.9730 0.9730 0.9750 0.9750
1505.076235 0.9750 0.9760 0.9760 0.9760 0.9760
1509.835118 0.9760 0.9760 0.9780 0.9780 0.9780
1514.594000 0.9780 0.9780 0.9780 0.9780 0.9780
1519.352882 0.9780 0.9780 0.9780 0.9780 0.9780
1524.111765 0.9780 0.9790 0.9790 0.9790 0.9790
1528.870647 0.9790 0.9790 0.9790 0.9790 0.9790
1533.629529 0.9790 0.9800 0.9800 0.9800 0.9800
1538.388412 0.9800 0.9800 0.9800 0.9800 0.9800
1543.147294 0.9800 0.9800 0.9800 0.9800 0.9800
1547.906176 0.9800 0.9800 0.9820 0.9820 0.9820
1552.665059 0.9820 0.9820 0.9820 0.9820 0.9820
1557.423941 0.9820 0.9820 0.9820 0.9820 0.9820
1562.182824 0.9820 0.9830 0.9830 0.9830 0.9830
1566.941706 0.9830 0.9830 0.9830 0.9830 0.9820
1571.700588 0.9820 0.9820 0.9820 0.9820 0.9820
1576.459471 0.9820 0.9820 0.9820 0.9800 0.9800
1581.218353 0.9800 0.9800 0.9800 0.9790 0.9790
1585.977235 0.9790 0.9790 0.9790 0.9790 0.9790
1590.736118 0.9790 0.9790 0.9780 0.9780 0.9780
1595.495000 0.9780 0.9760 0.9760 0.9760 0.9750
1600.253882 0.9720 0.9690 0.9670 0.9660 0.9660
1605.012765 0.9640 0.9640 0.9640 0.9660 0.9660
1609.771647 0.9660 0.9670 0.9670 0.9670 0.9670
1614.530529 0.9690 0.9700 0.9700 0.9700 0.9700
1619.289412 0.9700 0.9700 0.9700 0.9700 0.9700
1624.048294 0.9700 0.9700 0.9700 0.9700 0.9720
1628.807176 0.9720 0.9730 0.9730 0.9730 0.9750
1633.566059 0.9750 0.9750 0.9760 0.9760 0.9780
1638.324941 0.9780 0.9780 0.9780 0.9780 0.9780
1643.083824 0.9780 0.9780 0.9780 0.9780 0.9790
1647.842706 0.9790 0.9790 0.9790 0.9790 0.9790
1652.601588 0.9790 0.9790 0.9790 0.9790 0.9790
1657.360471 0.9790 0.9790 0.9790 0.9790 0.9790
1662.119353 0.9790 0.9790 0.9790 0.9790 0.9790
1666.878235 0.9790 0.9790 0.9790 0.9790 0.9790
1671.637118 0.9790 0.9790 0.9790 0.9790 0.9790
1676.396000 0.9790 0.9790 0.9800 0.9800 0.9800
1681.154882 0.9800 0.9800 0.9800 0.9800 0.9800
1685.913765 0.9800 0.9820 0.9820 0.9820 0.9820
1690.672647 0.9820 0.9820 0.9820 0.9820 0.9820
1695.431529 0.9820 0.9830 0.9830 0.9830 0.9830
1700.190412 0.9830 0.9830 0.9830 0.9830 0.9830
1704.949294 0.9830 0.9850 0.9850 0.9850 0.9850
1709.708176 0.9850 0.9850 0.9850 0.9850 0.9850
1714.467059 0.9850 0.9850 0.9850 0.9850 0.9850
1719.225941 0.9850 0.9850 0.9850 0.9850 0.9850
1723.984824 0.9850 0.9850 0.9850 0.9850 0.9850
1728.743706 0.9850 0.9830 0.9830 0.9830 0.9830
1733.502588 0.9830 0.9820 0.9820 0.9820 0.9820
1738.261471 0.9820 0.9830 0.9830 0.9830 0.9830
1743.020353 0.9830 0.9830 0.9830 0.9830 0.9850
1747.779235 0.9850 0.9850 0.9850 0.9850 0.9850
1752.538118 0.9850 0.9850 0.9850 0.9850 0.9850
1757.297000 0.9850 0.9860 0.9860 0.9860 0.9860
1762.055882 0.9860 0.9860 0.9860 0.9860 0.9860
1766.814765 0.9860 0.9860 0.9860 0.9860 0.9860
1771.573647 0.9860 0.9860 0.9860 0.9860 0.9860
1776.332529 0.9860 0.9860 0.9860 0.9860 0.9860
1781.091412 0.9860 0.9860 0.9860 0.9860 0.9860
1785.850294 0.9860 0.9860 0.9860 0.9860 0.9860
1790.609176 0.9860 0.9860 0.9860 0.9860 0.9850
1795.368059 0.9850 0.9850 0.9850 0.9850 0.9850
1800.126941 0.9850 0.9850 0.9850 0.9850 0.9850
1804.885824 0.9850 0.9850 0.9850 0.9850 0.9850
1809.644706 0.9850 0.9850 0.9850 0.9850 0.9850
1814.403588 0.9850 0.9850 0.9850 0.9850 0.9850
1819.162471 0.9850 0.9850 0.9850 0.9850 0.9850
1823.921353 0.9850 0.9850 0.9850 0.9850 0.9850
1828.680235 0.9850 0.9850 0.9850 0.9850 0.9860
1833.439118 0.9860 0.9860 0.9860 0.9860 0.9860
1838.198000 0.9860 0.9860 0.9860 0.9860 0.9860
1842.956882 0.9860 0.9860 0.9860 0.9860 0.9860
1847.715765 0.9860 0.9860 0.9860 0.9860 0.9860
1852.474647 0.9860 0.9880 0.9860 0.9860 0.9860
1857.233529 0.9860 0.9860 0.9850 0.9850 0.9850
1861.992412 0.9850 0.9850 0.9850 0.9850 0.9850
1866.751294 0.9850 0.9850 0.9850 0.9860 0.9860
1871.510176 0.9860 0.9860 0.9860 0.9860 0.9880
1876.269059 0.9880 0.9880 0.9880 0.9880 0.9880
1881.027941 0.9880 0.9860 0.9860 0.9860 0.9860
1885.786824 0.9860 0.9860 0.9860 0.9860 0.9860
1890.545706 0.9860 0.9860 0.9860 0.9860 0.9850
1895.304588 0.9850 0.9850 0.9850 0.9850 0.9850
1900.063471 0.9850 0.9850 0.9850 0.9860 0.9860
1904.822353 0.9860 0.9860 0.9860 0.9860 0.9850
1909.581235 0.9850 0.9860 0.9860 0.9850 0.9850
1914.340118 0.9850 0.9850 0.9850 0.9850 0.9850
1919.099000 0.9850 0.9850 0.9850 0.9850 0.9850
1923.857882 0.9850 0.9850 0.9850 0.9850 0.9830
1928.616765 0.9830 0.9830 0.9830 0.9830 0.9830
1933.375647 0.9830 0.9830 0.9830 0.9830 0.9830
1938.134529 0.9830 0.9830 0.9830 0.9830 0.9830
1942.893412 0.9830 0.9830 0.9830 0.9830 0.9830
1947.652294 0.9830 0.9830 0.9830 0.9830 0.9830
1952.411176 0.9830 0.9830 0.9830 0.9850 0.9850
1957.170059 0.9850 0.9850 0.9850 0.9850 0.9860
1961.928941 0.9860 0.9860 0.9860 0.9860 0.9860
1966.687824 0.9860 0.9860 0.9850 0.9850 0.9850
1971.446706 0.9850 0.9850 0.9850 0.9850 0.9850
1976.205588 0.9850 0.9850 0.9850 0.9850 0.9850
1980.964471 0.9850 0.9850 0.9850 0.9850 0.9850
1985.723353 0.9850 0.9850 0.9850 0.9850 0.9850
1990.482235 0.9850 0.9850 0.9850 0.9850 0.9850
1995.241118 0.9850 0.9830 0.9830 0.9830 0.9830
2000.000000 0.9820 0.9820 0.9820 0.9820 0.9820
2004.758882 0.9820 0.9820 0.9820 0.9820 0.9820
2009.517765 0.9820 0.9820 0.9820 0.9826 0.9831
2014.276647 0.9841 0.9850 0.9850 0.9851 0.9856
2019.035529 0.9860 0.9860 0.9862 0.9872 0.9880
2023.794412 0.9880 0.9881 0.9886 0.9890 0.9890
2028.553294 0.9890 0.9890 0.9890 0.9890 0.9890
2033.312176 0.9890 0.9890 0.9890 0.9890 0.9890
2038.071059 0.9890 0.9890 0.9890 0.9890 0.9890
2042.829941 0.9890 0.9890 0.9890 0.9890 0.9890
2047.588824 0.9890 0.9890 0.9890 0.9890 0.9890
2052.347706 0.9890 0.9890 0.9890 0.9890 0.9890
2057.106588 0.9890 0.9890 0.9890 0.9890 0.9890
2061.865471 0.9890 0.9890 0.9890 0.9890 0.9890
2066.624353 0.9890 0.9890 0.9890 0.9890 0.9890
2071.383235 0.9890 0.9890 0.9890 0.9890 0.9890
2076.142118 0.9890 0.9890 0.9890 0.9890 0.9897
2080.901000 0.9907 0.9910 0.9910 0.9910 0.9910
2085.659882 0.9910 0.9910 0.9910 0.9910 0.9910
2090.418765 0.9910 0.9910 0.9910 0.9910 0.9910
2095.177647 0.9910 0.9910 0.9910 0.9910 0.9910
2099.936529 0.9910 0.9910 0.9910 0.9910 0.9910
2104.695412 0.9910 0.9910 0.9910 0.9910 0.9910
2109.454294 0.9910 0.9910 0.9910 0.9910 0.9910
2114.213176 0.9910 0.9910 0.9910 0.9910 0.9910
2118.972059 0.9910 0.9910 0.9910 0.9910 0.9910
2123.730941 0.9910 0.9911 0.9916 0.9920 0.9920
2128.489824 0.9920 0.9920 0.9920 0.9920 0.9920
2133.248706 0.9920 0.9920 0.9920 0.9920 0.9920
2138.007588 0.9920 0.9920 0.9920 0.9920 0.9920
2142.766471 0.9920 0.9920 0.9920 0.9920 0.9920
2147.525353 0.9920 0.9920 0.9920 0.9920 0.9920
2152.284235 0.9920 0.9920 0.9920 0.9920 0.9920
2157.043118 0.9920 0.9920 0.9920 0.9920 0.9920
2161.802000 0.9920 0.9920 0.9920 0.9920 0.9920
2166.560882 0.9920 0.9920 0.9920 0.9920 0.9920
2171.319765 0.9920 0.9920 0.9920 0.9920 0.9920
2176.078647 0.9920 0.9920 0.9920 0.9920 0.9920
2180.837529 0.9920 0.9920 0.9920 0.9920 0.9920
2185.596412 0.9920 0.9920 0.9920 0.9920 0.9920
2190.355294 0.9920 0.9920 0.9920 0.9920 0.9920
2195.114176 0.9920 0.9920 0.9920 0.9920 0.9920
2199.873059 0.9920 0.9920 0.9920 0.9920 0.9920
2204.631941 0.9920 0.9920 0.9920 0.9920 0.9920
2209.390824 0.9920 0.9920 0.9920 0.9920 0.9920
2214.149706 0.9920 0.9920 0.9920 0.9920 0.9920
2218.908588 0.9920 0.9920 0.9920 0.9920 0.9920
2223.667471 0.9920 0.9920 0.9920 0.9920 0.9920
2228.426353 0.9920 0.9920 0.9920 0.9920 0.9920
2233.185235 0.9920 0.9920 0.9920 0.9920 0.9920
2237.944118 0.9920 0.9920 0.9920 0.9920 0.9920
2242.703000 0.9920 0.9920 0.9920 0.9920 0.9920
2247.461882 0.9920 0.9920 0.9920 0.9920 0.9920
2252.220765 0.9920 0.9920 0.9920 0.9920 0.9920
2256.979647 0.9920 0.9920 0.9920 0.9920 0.9920
2261.738529 0.9920 0.9918 0.9913 0.9910 0.9910
2266.497412 0.9910 0.9910 0.9910 0.9910 0.9905
2271.256294 0.9895 0.9887 0.9882 0.9872 0.9857
2276.015176 0.9850 0.9850 0.9844 0.9834 0.9827
2280.774059 0.9822 0.9811 0.9795 0.9780 0.9765
2285.532941 0.9757 0.9752 0.9750 0.9750 0.9750
2290.291824 0.9750 0.9750 0.9750 0.9743 0.9733
2295.050706 0.9730 0.9730 0.9730 0.9730 0.9730
2299.809588 0.9730 0.9730 0.9730 0.9730 0.9730
2304.568471 0.9730 0.9730 0.9730 0.9730 0.9730
2309.327353 0.9730 0.9730 0.9730 0.9730 0.9730
2314.086235 0.9739 0.9749 0.9750 0.9750 0.9750
2318.845118 0.9750 0.9750 0.9750 0.9750 0.9750
2323.604000 0.9750 0.9750 0.9750 0.9750 0.9750
2328.362882 0.9750 0.9750 0.9750 0.9750 0.9750
2333.121765 0.9750 0.9750 0.9750 0.9750 0.9750
2337.880647 0.9750 0.9750 0.9750 0.9750 0.9750
2342.639529 0.9750 0.9750 0.9750 0.9750 0.9750
2347.398412 0.9751 0.9756 0.9760 0.9760 0.9764
2352.157294 0.9779 0.9791 0.9796 0.9800 0.9800
2356.916176 0.9808 0.9833 0.9850 0.9850 0.9850
2361.675059 0.9850 0.9852 0.9857 0.9860 0.9860
2366.433941 0.9860 0.9860 0.9860 0.9860 0.9864
2371.192824 0.9875 0.9880 0.9880 0.9880 0.9880
2375.951706 0.9880 0.9880 0.9880 0.9880 0.9880
2380.710588 0.9880 0.9880 0.9880 0.9880 0.9880
2385.469471 0.9880 0.9880 0.9880 0.9880 0.9880
2390.228353 0.9880 0.9880 0.9880 0.9880 0.9880
2394.987235 0.9880 0.9880 0.9873 0.9863 0.9860
2399.746118 0.9860 0.9856 0.9851 0.9850 0.9850
2404.505000 0.9842 0.9832 0.9830 0.9830 0.9826
2409.263882 0.9821 0.9820 0.9820 0.9812 0.9802
2414.022765 0.9800 0.9800 0.9809 0.9819 0.9820
2418.781647 0.9820 0.9825 0.9830 0.9839 0.9849
2423.540529 0.9850 0.9850 0.9850 0.9850 0.9855
2428.299412 0.9860 0.9860 0.9860 0.9860 0.9860
2433.058294 0.9860 0.9860 0.9860 0.9860 0.9860
2437.817176 0.9860 0.9860 0.9860 0.9860 0.9861
2442.576059 0.9871 0.9880 0.9880 0.9880 0.9880
2447.334941 0.9880 0.9880 0.9880 0.9880 0.9880
2452.093824 0.9880 0.9880 0.9880 0.9880 0.9880
2456.852706 0.9880 0.9880 0.9880 0.9880 0.9880
2461.611588 0.9880 0.9880 0.9880 0.9880 0.9880
2466.370471 0.9880 0.9880 0.9880 0.9880 0.9880
2471.129353 0.9880 0.9880 0.9880 0.9880 0.9880
2475.888235 0.9880 0.9880 0.9880 0.9880 0.9880
2480.647118 0.9880 0.9880 0.9880 0.9880 0.9880
2485.406000 0.9880 0.9880 0.9880 0.9880 0.9880
2490.164882 0.9880 0.9880 0.9880 0.9880 0.9880
2494.923765 0.9880 0.9880 0.9880 0.9880 0.9880
2499.682647 0.9880 0.9880 0.9880 0.9880 0.9880
2504.441529 0.9880 0.9880 0.9873 0.9863 0.9860
2509.200412 0.9860 0.9860 0.9860 0.9860 0.9860
2513.959294 0.9860 0.9860 0.9860 0.9860 0.9860
2518.718176 0.9860 0.9860 0.9860 0.9860 0.9860
2523.477059 0.9869 0.9879 0.9884 0.9889 0.9890
2528.235941 0.9890 0.9890 0.9890 0.9890 0.9890
2532.994824 0.9890 0.9890 0.9890 0.9890 0.9890
2537.753706 0.9890 0.9890 0.9890 0.9890 0.9890
2542.512588 0.9890 0.9890 0.9890 0.9890 0.9890
2547.271471 0.9890 0.9890 0.9890 0.9890 0.9890
2552.030353 0.9890 0.9890 0.9890 0.9890 0.9890
2556.789235 0.9890 0.9890 0.9890 0.9890 0.9892
2561.548118 0.9902 0.9910 0.9910 0.9910 0.9910
2566.307000 0.9910 0.9910 0.9910 0.9910 0.9910
2571.065882 0.9910 0.9910 0.9910 0.9910 0.9910
2575.824765 0.9910 0.9910 0.9910 0.9910 0.9910
2580.583647 0.9910 0.9912 0.9917 0.9918 0.9913
2585.342529 0.9910 0.9910 0.9910 0.9910 0.9912
2590.101412 0.9918 0.9920 0.9920 0.9920 0.9920
2594.860294 0.9920 0.9920 0.9920 0.9920 0.9920
2599.619176 0.9920 0.9920 0.9920 0.9920 0.9920
2604.378059 0.9920 0.9920 0.9920 0.9920 0.9920
2609.136941 0.9920 0.9920 0.9920 0.9920 0.9920
2613.895824 0.9920 0.9920 0.9920 0.9920 0.9920
2618.654706 0.9920 0.9920 0.9920 0.9920 0.9920
2623.413588 0.9928 0.9938 0.9932 0.9922 0.9920
2628.172471 0.9920 0.9920 0.9920 0.9920 0.9920
2632.931353 0.9920 0.9920 0.9920 0.9920 0.9920
2637.690235 0.9920 0.9920 0.9920 0.9920 0.9920
2642.449118 0.9920 0.9920 0.9915 0.9910 0.9910
2647.208000 0.9910 0.9910 0.9910 0.9910 0.9910
2651.966882 0.9910 0.9909 0.9899 0.9890 0.9884
2656.725765 0.9880 0.9880 0.9879 0.9869 0.9860
2661.484647 0.9860 0.9859 0.9854 0.9850 0.9850
2666.243529 0.9848 0.9838 0.9830 0.9830 0.9829
2671.002412 0.9824 0.9820 0.9820 0.9817 0.9807
2675.761294 0.9800 0.9800 0.9803 0.9813 0.9820
2680.520176 0.9820 0.9822 0.9827 0.9830 0.9830
2685.279059 0.9830 0.9830 0.9834 0.9844 0.9850
2690.037941 0.9850 0.9852 0.9857 0.9860 0.9860
2694.796824 0.9865 0.9875 0.9880 0.9880 0.9883
2699.555706 0.9888 0.9890 0.9890 0.9890 0.9890
2704.314588 0.9890 0.9890 0.9887 0.9882 0.9874
2709.073471 0.9864 0.9857 0.9852 0.9844 0.9834
2713.832353 0.9830 0.9830 0.9830 0.9830 0.9830
2718.591235 0.9830 0.9837 0.9847 0.9850 0.9850
2723.350118 0.9854 0.9859 0.9860 0.9860 0.9868
2728.109000 0.9878 0.9880 0.9880 0.9880 0.9880
2732.867882 0.9880 0.9880 0.9884 0.9889 0.9890
2737.626765 0.9890 0.9890 0.9890 0.9890 0.9890
2742.385647 0.9890 0.9890 0.9890 0.9890 0.9890
2747.144529 0.9890 0.9890 0.9890 0.9890 0.9890
2751.903412 0.9890 0.9890 0.9890 0.9890 0.9890
2756.662294 0.9890 0.9890 0.9890 0.9890 0.9890
2761.421176 0.9890 0.9890 0.9890 0.9890 0.9890
2766.180059 0.9890 0.9890 0.9890 0.9890 0.9890
2770.938941 0.9890 0.9890 0.9890 0.9890 0.9890
2775.697824 0.9890 0.9890 0.9890 0.9890 0.9890
2780.456706 0.9890 0.9890 0.9890 0.9890 0.9890
2785.215588 0.9890 0.9890 0.9890 0.9890 0.9890
2789.974471 0.9890 0.9890 0.9890 0.9890 0.9890
2794.733353 0.9890 0.9890 0.9890 0.9890 0.9890
2799.492235 0.9890 0.9890 0.9890 0.9888 0.9883
2804.251118 0.9880 0.9880 0.9880 0.9880 0.9880
2809.010000 0.9880 0.9880 0.9880 0.9880 0.9880
2813.768882 0.9874 0.9864 0.9860 0.9860 0.9857
2818.527765 0.9852 0.9850 0.9850 0.9843 0.9833
2823.286647 0.9820 0.9805 0.9797 0.9792 0.9786
2828.045529 0.9781 0.9780 0.9780 0.9769 0.9754
2832.804412 0.9727 0.9697 0.9682 0.9672 0.9666
2837.563294 0.9661 0.9623 0.9578 0.9553 0.9533
2842.322176 0.9522 0.9511 0.9510 0.9510 0.9506
2847.081059 0.9501 0.9500 0.9500 0.9500 0.9500
2851.839941 0.9505 0.9510 0.9510 0.9510 0.9510
2856.598824 0.9510 0.9520 0.9530 0.9535 0.9540
2861.357706 0.9540 0.9540 0.9550 0.9560 0.9560
2866.116588 0.9560 0.9565 0.9570 0.9576 0.9582
2870.875471 0.9597 0.9611 0.9621 0.9631 0.9636
2875.634353 0.9642 0.9652 0.9661 0.9666 0.9673
2880.393235 0.9688 0.9702 0.9712 0.9720 0.9720
2885.152118 0.9721 0.9726 0.9733 0.9743 0.9750
2889.911000 0.9750 0.9752 0.9757 0.9760 0.9760
2894.669882 0.9760 0.9760 0.9758 0.9753 0.9750
2899.428765 0.9750 0.9750 0.9750 0.9746 0.9736
2904.187647 0.9730 0.9730 0.9723 0.9708 0.9698
2908.946529 0.9693 0.9685 0.9675 0.9670 0.9670
2913.705412 0.9670 0.9670 0.9667 0.9662 0.9660
2918.464294 0.9660 0.9652 0.9636 0.9624 0.9614
2923.223176 0.9601 0.9586 0.9577 0.9572 0.9560
2927.982059 0.9545 0.9537 0.9532 0.9510 0.9479
2932.740941 0.9453 0.9427 0.9406 0.9386 0.9365
2937.499824 0.9345 0.9299 0.9244 0.9188 0.9133
2942.258706 0.9026 0.8904 0.8766 0.8625 0.8484
2947.017588 0.8343 0.8088 0.7811 0.7749 0.7723
2951.776471 0.7694 0.7664 0.7429 0.7167 0.7077
2956.535353 0.7006 0.7000 0.7000 0.7056 0.7117
2961.294235 0.7192 0.7269 0.7319 0.7370 0.7415
2966.053118 0.7460 0.7496 0.7531 0.7582 0.7631
2970.812000 0.7662 0.7694 0.7759 0.7824 0.7880
2975.570882 0.7933 0.7968 0.8005 0.8050 0.8094
2980.329765 0.8130 0.8162 0.8177 0.8193 0.8208
2985.088647 0.8229 0.8280 0.8338 0.8429 0.8511
2989.847529 0.8561 0.8618 0.8693 0.8758 0.8788
2994.606412 0.8818 0.8848 0.8876 0.8896 0.8912
2999.365294 0.8917 0.8920 0.8920 0.8920 0.8920
3004.124176 0.8918 0.8913 0.8910 0.8910 0.8908
3008.883059 0.8903 0.8896 0.8886 0.8878 0.8873
3013.641941 0.8866 0.8855 0.8843 0.8828 0.8806
3018.400824 0.8775 0.8750 0.8730 0.8709 0.8689
3023.159706 0.8672 0.8657 0.8642 0.8626 0.8614
3027.918588 0.8604 0.8597 0.8592 0.8590 0.8590
3032.677471 0.8590 0.8590 0.8584 0.8574 0.8560
3037.436353 0.8545 0.8526 0.8506 0.8493 0.8483
3042.195235 0.8487 0.8497 0.8533 0.8579 0.8613
3046.954118 0.8643 0.8688 0.8739 0.8817 0.8902
3051.713000 0.8932 0.8947 0.8970 0.8996 0.9017
3056.471882 0.9037 0.9083 0.9134 0.9153 0.9168
3061.230765 0.9197 0.9227 0.9239 0.9249 0.9255
3065.989647 0.9260 0.9284 0.9309 0.9315 0.9320
3070.748529 0.9349 0.9380 0.9385 0.9390 0.9400
3075.507412 0.9410 0.9415 0.9421 0.9431 0.9440
3080.266294 0.9445 0.9451 0.9461 0.9470 0.9476
3085.025176 0.9481 0.9491 0.9501 0.9506 0.9511
3089.784059 0.9522 0.9531 0.9536 0.9542 0.9552
3094.542941 0.9562 0.9572 0.9580 0.9580 0.9582
3099.301824 0.9593 0.9601 0.9606 0.9610 0.9610
3104.060706 0.9613 0.9623 0.9630 0.9630 0.9632
3108.819588 0.9637 0.9640 0.9640 0.9640 0.9640
3113.578471 0.9640 0.9640 0.9640 0.9640 0.9644
3118.337353 0.9654 0.9660 0.9660 0.9660 0.9660
3123.096235 0.9660 0.9660 0.9660 0.9660 0.9663
3127.855118 0.9668 0.9670 0.9670 0.9670 0.9670
3132.614000 0.9670 0.9670 0.9670 0.9670 0.9670
3137.372882 0.9670 0.9676 0.9686 0.9690 0.9690
3142.131765 0.9690 0.9690 0.9690 0.9690 0.9693
3146.890647 0.9698 0.9700 0.9700 0.9700 0.9700
3151.649529 0.9700 0.9700 0.9700 0.9700 0.9700
3156.408412 0.9700 0.9700 0.9700 0.9700 0.9700
3161.167294 0.9700 0.9700 0.9700 0.9700 0.9700
3165.926176 0.9700 0.9700 0.9700 0.9700 0.9700
3170.685059 0.9700 0.9700 0.9700 0.9700 0.9700
3175.443941 0.9700 0.9700 0.9700 0.9700 0.9700
3180.202824 0.9700 0.9700 0.9700 0.9700 0.9700
3184.961706 0.9700 0.9700 0.9700 0.9700 0.9700
3189.720588 0.9700 0.9700 0.9700 0.9700 0.9700
3194.479471 0.9700 0.9700 0.9700 0.9700 0.9700
3199.238353 0.9700 0.9700 0.9700 0.9700 0.9700
3203.997235 0.9700 0.9700 0.9699 0.9694 0.9690
3208.756118 0.9690 0.9690 0.9690 0.9690 0.9690
3213.515000 0.9690 0.9690 0.9690 0.9690 0.9686
3218.273882 0.9676 0.9670 0.9670 0.9670 0.9670
3223.032765 0.9670 0.9670 0.9670 0.9670 0.9675
3227.791647 0.9685 0.9690 0.9690 0.9690 0.9690
3232.550529 0.9690 0.9690 0.9690 0.9690 0.9690
3237.309412 0.9690 0.9690 0.9690 0.9690 0.9690
3242.068294 0.9690 0.9690 0.9690 0.9690 0.9690
3246.827176 0.9690 0.9690 0.9690 0.9690 0.9690
3251.586059 0.9690 0.9690 0.9690 0.9690 0.9690
3256.344941 0.9690 0.9690 0.9690 0.9690 0.9690
3261.103824 0.9690 0.9690 0.9690 0.9690 0.9690
3265.862706 0.9690 0.9690 0.9690 0.9690 0.9690
3270.621588 0.9681 0.9671 0.9670 0.9670 0.9670
3275.380471 0.9670 0.9670 0.9670 0.9670 0.9670
3280.139353 0.9670 0.9670 0.9670 0.9670 0.9670
3284.898235 0.9670 0.9665 0.9660 0.9660 0.9660
3289.657118 0.9660 0.9660 0.9660 0.9660 0.9660
3294.416000 0.9660 0.9660 0.9660 0.9660 0.9660
3299.174882 0.9660 0.9660 0.9660 0.9660 0.9660
3303.933765 0.9658 0.9648 0.9640 0.9640 0.9640
3308.692647 0.9640 0.9639 0.9634 0.9630 0.9630
3313.451529 0.9628 0.9617 0.9610 0.9610 0.9609
3318.210412 0.9604 0.9600 0.9600 0.9597 0.9587
3322.969294 0.9580 0.9580 0.9580 0.9580 0.9578
3327.728176 0.9573 0.9570 0.9570 0.9570 0.9570
3332.487059 0.9568 0.9563 0.9560 0.9560 0.9560
3337.245941 0.9560 0.9560 0.9560 0.9560 0.9560
3342.004824 0.9555 0.9545 0.9540 0.9540 0.9540
3346.763706 0.9540 0.9540 0.9540 0.9540 0.9540
3351.522588 0.9540 0.9540 0.9540 0.9540 0.9540
3356.281471 0.9540 0.9540 0.9540 0.9540 0.9540
3361.040353 0.9540 0.9540 0.9540 0.9540 0.9547
3365.799235 0.9557 0.9560 0.9560 0.9560 0.9560
3370.558118 0.9560 0.9560 0.9560 0.9560 0.9560
3375.317000 0.9560 0.9564 0.9569 0.9570 0.9570
3380.075882 0.9570 0.9570 0.9570 0.9570 0.9570
3384.834765 0.9570 0.9570 0.9570 0.9570 0.9570
3389.593647 0.9570 0.9570 0.9570 0.9570 0.9565
3394.352529 0.9560 0.9560 0.9560 0.9560 0.9560
3399.111412 0.9560 0.9560 0.9560 0.9560 0.9560
3403.870294 0.9559 0.9549 0.9540 0.9540 0.9540
3408.629176 0.9540 0.9540 0.9540 0.9540 0.9540
3413.388059 0.9540 0.9540 0.9540 0.9540 0.9540
3418.146941 0.9540 0.9540 0.9540 0.9539 0.9534
3422.905824 0.9530 0.9530 0.9530 0.9530 0.9530
3427.664706 0.9530 0.9530 0.9530 0.9530 0.9530
3432.423588 0.9530 0.9530 0.9530 0.9530 0.9530
3437.182471 0.9530 0.9530 0.9530 0.9530 0.9530
3441.941353 0.9530 0.9530 0.9530 0.9530 0.9532
3446.700235 0.9537 0.9545 0.9555 0.9560 0.9560
3451.459118 0.9560 0.9560 0.9560 0.9560 0.9563
3456.218000 0.9568 0.9570 0.9570 0.9570 0.9570
3460.976882 0.9570 0.9570 0.9570 0.9570 0.9570
3465.735765 0.9570 0.9570 0.9570 0.9570 0.9570
3470.494647 0.9566 0.9561 0.9553 0.9543 0.9540
3475.253529 0.9540 0.9536 0.9531 0.9530 0.9530
3480.012412 0.9530 0.9530 0.9530 0.9530 0.9534
3484.771294 0.9539 0.9549 0.9559 0.9560 0.9560
3489.530176 0.9564 0.9570 0.9570 0.9570 0.9575
3494.289059 0.9580 0.9580 0.9580 0.9580 0.9580
3499.047941 0.9580 0.9580 0.9580 0.9580 0.9580
3503.806824 0.9580 0.9580 0.9580 0.9590 0.9600
3508.565706 0.9600 0.9600 0.9600 0.9600 0.9600
3513.324588 0.9600 0.9600 0.9600 0.9600 0.9601
3518.083471 0.9606 0.9610 0.9610 0.9610 0.9610
3522.842353 0.9610 0.9610 0.9610 0.9610 0.9610
3527.601235 0.9610 0.9610 0.9610 0.9610 0.9610
3532.360118 0.9610 0.9610 0.9610 0.9610 0.9610
3537.119000 0.9610 0.9610 0.9610 0.9610 0.9610
3541.877882 0.9610 0.9610 0.9610 0.9610 0.9610
3546.636765 0.9610 0.9610 0.9610 0.9610 0.9610
3551.395647 0.9610 0.9610 0.9608 0.9603 0.9600
3556.154529 0.9600 0.9600 0.9600 0.9600 0.9600
3560.913412 0.9600 0.9600 0.9600 0.9600 0.9600
3565.672294 0.9600 0.9600 0.9600 0.9600 0.9600
3570.431176 0.9600 0.9600 0.9600 0.9600 0.9600
3575.190059 0.9600 0.9600 0.9600 0.9600 0.9600
3579.948941 0.9600 0.9600 0.9600 0.9600 0.9592
3584.707824 0.9582 0.9580 0.9580 0.9580 0.9580
3589.466706 0.9580 0.9580 0.9580 0.9580 0.9576
3594.225588 0.9571 0.9570 0.9570 0.9570 0.9570
3598.984471 0.9570 0.9570 0.9570 0.9570 0.9565
3603.743353 0.9560 0.9560 0.9560 0.9560 0.9560
3608.502235 0.9560 0.9560 0.9560 0.9560 0.9550
3613.261118 0.9540 0.9540 0.9540 0.9540 0.9540
3618.020000 0.9540 0.9540 0.9540 0.9540 0.9540
3622.778882 0.9540 0.9540 0.9540 0.9540 0.9540
3627.537765 0.9540 0.9540 0.9540 0.9540 0.9540
3632.296647 0.9540 0.9540 0.9540 0.9540 0.9540
3637.055529 0.9540 0.9543 0.9553 0.9560 0.9560
3641.814412 0.9562 0.9567 0.9570 0.9570 0.9572
3646.573294 0.9577 0.9580 0.9580 0.9580 0.9580
3651.332176 0.9580 0.9580 0.9584 0.9594 0.9600
3656.091059 0.9600 0.9600 0.9600 0.9600 0.9600
3660.849941 0.9600 0.9600 0.9595 0.9585 0.9580
3665.608824 0.9580 0.9575 0.9564 0.9560 0.9560
3670.367706 0.9560 0.9560 0.9554 0.9544 0.9540
3675.126588 0.9540 0.9540 0.9540 0.9537 0.9532
3679.885471 0.9530 0.9530 0.9530 0.9530 0.9530
3684.644353 0.9530 0.9530 0.9530 0.9534 0.9539
3689.403235 0.9540 0.9540 0.9540 0.9540 0.9548
3694.162118 0.9558 0.9560 0.9560 0.9560 0.9560
3698.921000 0.9560 0.9560 0.9564 0.9569 0.9570
3703.679882 0.9570 0.9570 0.9570 0.9570 0.9570
3708.438765 0.9570 0.9570 0.9570 0.9570 0.9575
3713.197647 0.9580 0.9580 0.9580 0.9580 0.9580
3717.956529 0.9580 0.9580 0.9580 0.9580 0.9580
3722.715412 0.9580 0.9580 0.9580 0.9580 0.9579
3727.474294 0.9574 0.9570 0.9570 0.9570 0.9570
3732.233176 0.9570 0.9570 0.9570 0.9570 0.9570
3736.992059 0.9570 0.9569 0.9564 0.9560 0.9560
3741.750941 0.9560 0.9560 0.9560 0.9560 0.9560
3746.509824 0.9560 0.9560 0.9560 0.9560 0.9560
3751.268706 0.9560 0.9560 0.9560 0.9560 0.9560
3756.027588 0.9560 0.9560 0.9560 0.9560 0.9560
3760.786471 0.9560 0.9560 0.9562 0.9567 0.9570
3765.545353 0.9570 0.9570 0.9570 0.9572 0.9577
3770.304235 0.9580 0.9580 0.9580 0.9580 0.9580
3775.063118 0.9580 0.9580 0.9580 0.9580 0.9580
3779.822000 0.9580 0.9580 0.9586 0.9596 0.9600
3784.580882 0.9600 0.9600 0.9600 0.9603 0.9608
3789.339765 0.9610 0.9610 0.9610 0.9610 0.9610
3794.098647 0.9610 0.9610 0.9610 0.9610 0.9610
3798.857529 0.9610 0.9610
##END=
