##TITLE=1,2,3-TRICHLOROPROPANE
##JCAMP-DX=4.24
##DATA TYPE=INFRARED SPECTRUM
##CLASS=COBLENTZ
##ORIGIN=W.T. BOLLETER
##OWNER=COBLENTZ SOCIETY
Collection (C) 2018 copyright by the U.S. Secretary of Commerce
on behalf of the United States of America. All rights reserved.
##DATE=Not specified, most likely prior to 1970
##CAS REGISTRY NO=96-18-4
##MOLFORM=C3 H5 Cl3
##SOURCE REFERENCE=COBLENTZ NO. 4483
##$NIST SOURCE=COBLENTZ
##$NIST IMAGE=cob4483
##SPECTROMETER/DATA SYSTEM=Not specified, most likely a prism, grating, or hybrid spectrometer.
##PATH LENGTH=0.0025 CM
##SAMPLING PROCEDURE=TRANSMISSION
##RESOLUTION=4
##DATA PROCESSING=DIGITIZED BY NIST FROM HARD COPY
##XUNITS=MICROMETERS
##YUNITS=TRANSMITTANCE
##XFACTOR=1.000000
##YFACTOR=1
##DELTAX=000.017480
##FIRSTX=14.507
##LASTX=37.9999
##FIRSTY=0.146
##MAXX=37.9999
##MINX=14.507
##MAXY=0.967
##MINY=0.016
##NPOINTS=1345
##XYDATA=(X++(Y..Y))
14.507000 0.1460 0.1460 0.1440 0.1420 0.1410
14.594465 0.1370 0.1190 0.1080 0.1010 0.0980
14.682000 0.0850 0.0620 0.0510 0.0500 0.0420
14.769465 0.0370 0.0320 0.0280 0.0250 0.0230
14.857000 0.0210 0.0190 0.0190 0.0170 0.0170
14.944465 0.0170 0.0170 0.0170 0.0160 0.0160
15.031000 0.0160 0.0160 0.0160 0.0160 0.0160
15.118465 0.0160 0.0160 0.0160 0.0160 0.0160
15.206000 0.0160 0.0160 0.0160 0.0160 0.0160
15.293465 0.0160 0.0170 0.0170 0.0190 0.0190
15.381000 0.0190 0.0190 0.0210 0.0210 0.0230
15.468465 0.0250 0.0260 0.0300 0.0330 0.0370
15.556000 0.0410 0.0420 0.0440 0.0460 0.0480
15.643465 0.0480 0.0500 0.0500 0.0500 0.0500
15.731000 0.0500 0.0500 0.0500 0.0510 0.0510
15.818465 0.0510 0.0530 0.0550 0.0570 0.0670
15.905000 0.0750 0.0870 0.1000 0.1050 0.1210
15.992465 0.1580 0.1830 0.2030 0.2170 0.2350
16.080000 0.2570 0.2960 0.3190 0.3500 0.3710
16.167465 0.4010 0.4320 0.4510 0.4760 0.5010
16.255000 0.5250 0.5500 0.5750 0.6010 0.6300
16.342465 0.6510 0.6670 0.6870 0.7030 0.7210
16.430000 0.7330 0.7500 0.7580 0.7670 0.7800
16.517465 0.7940 0.8050 0.8160 0.8250 0.8300
16.605000 0.8370 0.8410 0.8480 0.8500 0.8510
16.692465 0.8580 0.8600 0.8620 0.8670 0.8730
16.779000 0.8750 0.8780 0.8850 0.8890 0.8920
16.866465 0.8960 0.9000 0.9010 0.9050 0.9080
16.954000 0.9080 0.9120 0.9160 0.9170 0.9190
17.041465 0.9210 0.9230 0.9250 0.9250 0.9260
17.129000 0.9260 0.9250 0.9230 0.9230 0.9230
17.216465 0.9210 0.9190 0.9190 0.9170 0.9160
17.304000 0.9140 0.9140 0.9120 0.9120 0.9120
17.391465 0.9120 0.9120 0.9120 0.9120 0.9140
17.479000 0.9140 0.9140 0.9140 0.9120 0.9100
17.566465 0.9100 0.9100 0.9100 0.9080 0.9080
17.653000 0.9080 0.9080 0.9080 0.9080 0.9080
17.740465 0.9080 0.9080 0.9080 0.9080 0.9080
17.828000 0.9080 0.9080 0.9080 0.9080 0.9080
17.915465 0.9100 0.9100 0.9100 0.9100 0.9100
18.003000 0.9100 0.9100 0.9100 0.9070 0.9070
18.090465 0.9070 0.9050 0.9030 0.9010 0.9000
18.178000 0.9000 0.8980 0.8910 0.8870 0.8850
18.265465 0.8820 0.8760 0.8710 0.8690 0.8660
18.353000 0.8600 0.8570 0.8510 0.8480 0.8410
18.440465 0.8300 0.8230 0.8070 0.7980 0.7910
18.527000 0.7780 0.7640 0.7510 0.7460 0.7210
18.614465 0.7030 0.6800 0.6500 0.6320 0.6030
18.702000 0.5730 0.5370 0.5070 0.4890 0.4510
18.789465 0.4210 0.3960 0.3580 0.3250 0.2850
18.877000 0.2460 0.2190 0.1760 0.1550 0.1410
18.964465 0.1210 0.1070 0.0920 0.0760 0.0570
19.052000 0.0480 0.0460 0.0440 0.0390 0.0390
19.139465 0.0370 0.0370 0.0370 0.0370 0.0390
19.227000 0.0390 0.0420 0.0440 0.0500 0.0510
19.314465 0.0600 0.0730 0.0980 0.1160 0.1260
19.401000 0.1570 0.1830 0.2050 0.2260 0.2530
19.488465 0.2910 0.3070 0.3170 0.3620 0.4050
19.576000 0.4350 0.4690 0.4940 0.5190 0.5500
19.663465 0.5760 0.6000 0.6230 0.6370 0.6570
19.751000 0.6750 0.6910 0.7070 0.7280 0.7460
19.838465 0.7510 0.7620 0.7800 0.7980 0.8010
19.926000 0.8100 0.8210 0.8250 0.8300 0.8350
20.013465 0.8440 0.8480 0.8510 0.8550 0.8600
20.101000 0.8660 0.8710 0.8730 0.8750 0.8760
20.188465 0.8820 0.8850 0.8890 0.8910 0.8940
20.275000 0.8960 0.8980 0.8980 0.9010 0.9050
20.362465 0.9070 0.9080 0.9100 0.9120 0.9140
20.450000 0.9170 0.9190 0.9190 0.9250 0.9260
20.537465 0.9300 0.9330 0.9350 0.9350 0.9370
20.625000 0.9390 0.9390 0.9390 0.9390 0.9410
20.712465 0.9410 0.9420 0.9420 0.9460 0.9500
20.800000 0.9500 0.9510 0.9510 0.9510 0.9530
20.887465 0.9530 0.9550 0.9570 0.9570 0.9570
20.975000 0.9580 0.9600 0.9600 0.9600 0.9600
21.062465 0.9620 0.9620 0.9620 0.9640 0.9640
21.149000 0.9640 0.9660 0.9660 0.9660 0.9670
21.236465 0.9670 0.9670 0.9670 0.9670 0.9670
21.324000 0.9670 0.9670 0.9670 0.9670 0.9670
21.411465 0.9670 0.9670 0.9670 0.9670 0.9670
21.499000 0.9640 0.9640 0.9620 0.9620 0.9600
21.586465 0.9570 0.9550 0.9530 0.9510 0.9500
21.674000 0.9460 0.9440 0.9410 0.9350 0.9300
21.761465 0.9260 0.9140 0.9100 0.9010 0.8960
21.849000 0.8760 0.8670 0.8500 0.8260 0.8080
21.936465 0.7870 0.7640 0.7390 0.7120 0.6830
22.023000 0.6530 0.6210 0.6030 0.5760 0.5660
22.110465 0.5600 0.5570 0.5550 0.5570 0.5710
22.198000 0.5870 0.6050 0.6330 0.6530 0.6760
22.285465 0.7010 0.7250 0.7500 0.7640 0.7830
22.373000 0.8030 0.8260 0.8390 0.8510 0.8600
22.460465 0.8750 0.8820 0.8850 0.8920 0.9000
22.548000 0.9030 0.9080 0.9100 0.9120 0.9140
22.635465 0.9160 0.9190 0.9210 0.9230 0.9280
22.723000 0.9300 0.9300 0.9320 0.9320 0.9320
22.810465 0.9320 0.9320 0.9320 0.9300 0.9300
22.897000 0.9300 0.9300 0.9280 0.9260 0.9250
22.984465 0.9250 0.9230 0.9210 0.9190 0.9160
23.072000 0.9120 0.9080 0.9070 0.9030 0.9010
23.159465 0.9000 0.8960 0.8940 0.8910 0.8850
23.247000 0.8830 0.8800 0.8750 0.8730 0.8690
23.334465 0.8660 0.8600 0.8570 0.8510 0.8420
23.422000 0.8350 0.8300 0.8260 0.8140 0.8080
23.509465 0.8050 0.7940 0.7750 0.7690 0.7620
23.597000 0.7500 0.7320 0.7140 0.6980 0.6730
23.684465 0.6580 0.6370 0.6190 0.5960 0.5640
23.771000 0.5460 0.5160 0.4830 0.4550 0.4280
23.858465 0.4000 0.3670 0.3280 0.2980 0.2670
23.946000 0.2420 0.2140 0.1940 0.1730 0.1530
24.033465 0.1300 0.1100 0.0980 0.0870 0.0800
24.121000 0.0690 0.0620 0.0570 0.0510 0.0500
24.208465 0.0500 0.0480 0.0480 0.0500 0.0510
24.296000 0.0550 0.0620 0.0760 0.0980 0.1170
24.383465 0.1260 0.1460 0.1640 0.1820 0.2010
24.471000 0.2260 0.2500 0.2710 0.3050 0.3330
24.558465 0.3580 0.3960 0.4170 0.4480 0.4690
24.645000 0.4960 0.5120 0.5250 0.5500 0.5600
24.732465 0.5780 0.6030 0.6230 0.6390 0.6510
24.820000 0.6600 0.6760 0.7010 0.7080 0.7120
24.907465 0.7140 0.7210 0.7280 0.7330 0.7410
24.995000 0.7500 0.7500 0.7530 0.7570 0.7600
25.082465 0.7640 0.7640 0.7660 0.7670 0.7670
25.170000 0.7670 0.7660 0.7660 0.7640 0.7640
25.257465 0.7620 0.7580 0.7510 0.7480 0.7370
25.345000 0.7320 0.7280 0.7160 0.7010 0.7000
25.432465 0.6910 0.6800 0.6690 0.6550 0.6410
25.519000 0.6280 0.6120 0.5980 0.5800 0.5760
25.606465 0.5620 0.5510 0.5420 0.5350 0.5300
25.694000 0.5070 0.5010 0.5010 0.4960 0.4800
25.781465 0.4690 0.4620 0.4530 0.4420 0.4330
25.869000 0.4260 0.4190 0.4030 0.3960 0.3760
25.956465 0.3640 0.3550 0.3370 0.3140 0.2940
26.044000 0.2830 0.2670 0.2500 0.2370 0.2230
26.131465 0.2100 0.1960 0.1780 0.1690 0.1620
26.219000 0.1550 0.1500 0.1420 0.1390 0.1370
26.306465 0.1330 0.1320 0.1300 0.1320 0.1350
26.393000 0.1460 0.1600 0.1710 0.1830 0.1980
26.480465 0.2010 0.2190 0.2410 0.2760 0.2870
26.568000 0.2980 0.3080 0.3320 0.3510 0.3730
26.655465 0.4000 0.4230 0.4410 0.4620 0.4780
26.743000 0.4980 0.5050 0.5230 0.5330 0.5500
26.830465 0.5600 0.5660 0.5780 0.5890 0.6010
26.918000 0.6140 0.6250 0.6320 0.6370 0.6410
27.005465 0.6420 0.6460 0.6500 0.6500 0.6510
27.092000 0.6530 0.6530 0.6530 0.6530 0.6510
27.179465 0.6510 0.6500 0.6500 0.6480 0.6420
27.267000 0.6390 0.6320 0.6250 0.6190 0.6100
27.354465 0.6010 0.5890 0.5780 0.5600 0.5500
27.442000 0.5320 0.5250 0.5170 0.5100 0.5000
27.529465 0.4640 0.4530 0.4420 0.4230 0.4050
27.617000 0.4000 0.3750 0.3550 0.3370 0.3260
27.704465 0.3070 0.2850 0.2710 0.2550 0.2500
27.792000 0.2330 0.2120 0.1980 0.1820 0.1640
27.879465 0.1600 0.1530 0.1500 0.1410 0.1330
27.966000 0.1280 0.1260 0.1170 0.1070 0.1050
28.053465 0.1030 0.1030 0.1050 0.1080 0.1160
28.141000 0.1190 0.1230 0.1300 0.1390 0.1530
28.228465 0.1600 0.1690 0.1870 0.2030 0.2170
28.316000 0.2330 0.2550 0.2730 0.2870 0.3030
28.403465 0.3210 0.3420 0.3570 0.3750 0.3870
28.491000 0.4080 0.4280 0.4480 0.4670 0.4870
28.578465 0.5050 0.5260 0.5460 0.5620 0.5760
28.666000 0.5980 0.6120 0.6280 0.6420 0.6550
28.753465 0.6660 0.6730 0.6890 0.7030 0.7160
28.840000 0.7320 0.7370 0.7480 0.7530 0.7620
28.927465 0.7730 0.7780 0.7850 0.7920 0.8010
29.015000 0.8030 0.8100 0.8170 0.8250 0.8320
29.102465 0.8320 0.8370 0.8410 0.8420 0.8440
29.190000 0.8500 0.8510 0.8510 0.8530 0.8550
29.277465 0.8600 0.8690 0.8750 0.8780 0.8800
29.365000 0.8820 0.8820 0.8820 0.8830 0.8830
29.452465 0.8850 0.8850 0.8850 0.8890 0.8910
29.540000 0.8940 0.8980 0.9000 0.9000 0.9000
29.627465 0.9000 0.9000 0.9010 0.9010 0.9010
29.714000 0.9030 0.9030 0.9050 0.9070 0.9070
29.801465 0.9070 0.9070 0.9070 0.9070 0.9070
29.889000 0.9070 0.9050 0.9050 0.9050 0.9050
29.976465 0.9050 0.9050 0.9050 0.9050 0.9050
30.064000 0.9050 0.9050 0.9050 0.9050 0.9050
30.151465 0.9050 0.9050 0.9050 0.9050 0.9070
30.239000 0.9070 0.9070 0.9070 0.9080 0.9080
30.326465 0.9080 0.9070 0.9050 0.9050 0.9030
30.414000 0.9030 0.9010 0.9010 0.9010 0.9000
30.501465 0.9000 0.9000 0.8980 0.8980 0.8980
30.588000 0.8960 0.8940 0.8920 0.8910 0.8890
30.675465 0.8890 0.8890 0.8870 0.8870 0.8850
30.763000 0.8850 0.8850 0.8850 0.8830 0.8800
30.850465 0.8760 0.8750 0.8730 0.8730 0.8710
30.938000 0.8690 0.8690 0.8670 0.8670 0.8660
31.025465 0.8640 0.8600 0.8580 0.8570 0.8550
31.113000 0.8510 0.8500 0.8480 0.8440 0.8410
31.200465 0.8390 0.8350 0.8330 0.8330 0.8320
31.288000 0.8280 0.8260 0.8250 0.8210 0.8140
31.375465 0.8100 0.8070 0.8030 0.8010 0.8000
31.462000 0.7940 0.7920 0.7910 0.7890 0.7870
31.549465 0.7800 0.7780 0.7750 0.7710 0.7640
31.637000 0.7600 0.7530 0.7510 0.7440 0.7420
31.724465 0.7390 0.7390 0.7350 0.7330 0.7300
31.812000 0.7280 0.7260 0.7250 0.7250 0.7230
31.899465 0.7210 0.7190 0.7170 0.7170 0.7170
31.987000 0.7160 0.7160 0.7160 0.7160 0.7140
32.074465 0.7140 0.7140 0.7160 0.7170 0.7170
32.162000 0.7190 0.7190 0.7210 0.7230 0.7260
32.249465 0.7280 0.7300 0.7320 0.7330 0.7350
32.336000 0.7410 0.7420 0.7420 0.7460 0.7500
32.423465 0.7510 0.7530 0.7530 0.7550 0.7570
32.511000 0.7570 0.7580 0.7580 0.7600 0.7600
32.598465 0.7620 0.7620 0.7620 0.7620 0.7640
32.686000 0.7640 0.7660 0.7660 0.7670 0.7670
32.773465 0.7670 0.7670 0.7690 0.7690 0.7690
32.861000 0.7670 0.7660 0.7660 0.7640 0.7620
32.948465 0.7620 0.7580 0.7550 0.7550 0.7530
33.036000 0.7500 0.7460 0.7410 0.7370 0.7320
33.123465 0.7300 0.7260 0.7250 0.7230 0.7190
33.210000 0.7170 0.7160 0.7120 0.7080 0.7070
33.297465 0.7010 0.7000 0.6960 0.6940 0.6910
33.385000 0.6850 0.6830 0.6780 0.6750 0.6730
33.472465 0.6690 0.6670 0.6640 0.6570 0.6480
33.560000 0.6460 0.6410 0.6350 0.6280 0.6230
33.647465 0.6190 0.6170 0.6120 0.6080 0.6030
33.735000 0.6000 0.5870 0.5780 0.5690 0.5640
33.822465 0.5600 0.5530 0.5510 0.5500 0.5440
33.910000 0.5410 0.5350 0.5280 0.5210 0.5070
33.997465 0.5000 0.4920 0.4850 0.4760 0.4710
34.084000 0.4640 0.4570 0.4500 0.4410 0.4320
34.171465 0.4260 0.4190 0.4140 0.4070 0.4010
34.259000 0.4000 0.3850 0.3780 0.3670 0.3600
34.346465 0.3550 0.3500 0.3410 0.3280 0.3190
34.434000 0.3080 0.3010 0.3000 0.2960 0.2870
34.521465 0.2820 0.2780 0.2730 0.2730 0.2710
34.609000 0.2690 0.2690 0.2670 0.2640 0.2620
34.696465 0.2580 0.2580 0.2570 0.2570 0.2550
34.784000 0.2550 0.2550 0.2550 0.2570 0.2570
34.871465 0.2570 0.2580 0.2640 0.2690 0.2750
34.958000 0.2760 0.2800 0.2830 0.2920 0.3000
35.045465 0.3100 0.3160 0.3190 0.3210 0.3320
35.133000 0.3410 0.3480 0.3500 0.3570 0.3600
35.220465 0.3670 0.3710 0.3760 0.3780 0.3850
35.308000 0.3910 0.4000 0.4010 0.4030 0.4100
35.395465 0.4170 0.4230 0.4280 0.4300 0.4330
35.483000 0.4370 0.4390 0.4410 0.4440 0.4480
35.570465 0.4500 0.4510 0.4510 0.4530 0.4570
35.658000 0.4580 0.4580 0.4580 0.4600 0.4600
35.745465 0.4620 0.4640 0.4660 0.4660 0.4660
35.832000 0.4660 0.4670 0.4710 0.4730 0.4730
35.919465 0.4750 0.4750 0.4750 0.4750 0.4760
36.007000 0.4760 0.4760 0.4760 0.4760 0.4760
36.094465 0.4760 0.4780 0.4780 0.4780 0.4760
36.182000 0.4760 0.4760 0.4760 0.4760 0.4760
36.269465 0.4780 0.4780 0.4800 0.4800 0.4800
36.357000 0.4800 0.4800 0.4800 0.4800 0.4800
36.444465 0.4800 0.4800 0.4820 0.4820 0.4820
36.532000 0.4820 0.4820 0.4820 0.4800 0.4800
36.619465 0.4800 0.4800 0.4800 0.4800 0.4780
36.706000 0.4780 0.4780 0.4780 0.4780 0.4780
36.793465 0.4780 0.4780 0.4760 0.4760 0.4750
36.881000 0.4710 0.4690 0.4690 0.4670 0.4670
36.968465 0.4640 0.4640 0.4620 0.4580 0.4550
37.056000 0.4510 0.4500 0.4500 0.4480 0.4480
37.143465 0.4500 0.4510 0.4510 0.4510 0.4510
37.231000 0.4510 0.4500 0.4500 0.4500 0.4500
37.318465 0.4510 0.4510 0.4510 0.4510 0.4510
37.406000 0.4530 0.4530 0.4530 0.4530 0.4530
37.493465 0.4550 0.4550 0.4570 0.4570 0.4580
37.580000 0.4580 0.4580 0.4570 0.4570 0.4570
37.667465 0.4570 0.4570 0.4570 0.4580 0.4600
37.755000 0.4620 0.4620 0.4600 0.4580 0.4570
37.842465 0.4570 0.4570 0.4550 0.4550 0.4530
37.930000 0.4530 0.4530 0.4530 0.4510 0.4510
##END=
