##TITLE=2-Butanone oxime
##JCAMP-DX=4.24
$$ By DXEDIT 1.05 (RS McDonald)
##DATA TYPE=INFRARED SPECTRUM
##CLASS=COBLENTZ III
##ORIGIN=DOW CHEMICAL COMPANY
##OWNER=COPYRIGHT (C) 1988 by COBLENTZ SOCIETY INC.
Collection (C) 2018 copyright by the U.S. Secretary of Commerce
on behalf of the United States of America. All rights reserved.
##DATE=1964/05/05
##CAS REGISTRY NO=96-29-7
##MOLFORM=C4 H9 N O
##SOURCE REFERENCE=COBLENTZ NO. 5639
##$NIST SOURCE=COBLENTZ
##$NIST IMAGE=cob5639
##SPECTROMETER/DATA SYSTEM=DOW KBr FOREPRISM-GRATING
##INSTRUMENT PARAMETERS=BLAZED AT 3.5, 12.0, 20.0 AND CHANGED AT 5.0, 7.5, 14.9 MICRON
##STATE=SOLUTION SALTED (CCl4 FOR 3800-1350, CS2 FOR 1350-400)
##PATH LENGTH=0.0114 CM, 0.0108 CM
##SAMPLING PROCEDURE=TRANSMISSION
##RESOLUTION=2
##DATA PROCESSING=DIGITIZED BY COBLENTZ SOCIETY (BATCH I) FROM HARD COPY
##XUNITS=1/CM
##YUNITS=TRANSMITTANCE
##XFACTOR=1
##YFACTOR=1
##DELTAX=1
##FIRSTX=3800
##LASTX=383
##FIRSTY=0.9308
##MAXX=3800
##MINX=383
##MAXY=0.9313
##MINY=0.0251
##NPOINTS=3418
##XYDATA=(X++(Y..Y))
3800.000000 0.9308 0.9306 0.9305 0.9305 0.9313
3795.000000 0.9302 0.9313 0.9311 0.9310 0.9308
3790.000000 0.9307 0.9303 0.9303 0.9300 0.9300
3785.000000 0.9298 0.9287 0.9280 0.9279 0.9288
3780.000000 0.9291 0.9276 0.9285 0.9285 0.9284
3775.000000 0.9267 0.9280 0.9278 0.9277 0.9275
3770.000000 0.9274 0.9272 0.9271 0.9268 0.9267
3765.000000 0.9265 0.9264 0.9262 0.9261 0.9258
3760.000000 0.9266 0.9262 0.9255 0.9253 0.9250
3755.000000 0.9249 0.9247 0.9246 0.9245 0.9243
3750.000000 0.9242 0.9240 0.9239 0.9237 0.9236
3745.000000 0.9234 0.9232 0.9230 0.9229 0.9228
3740.000000 0.9228 0.9233 0.9243 0.9243 0.9243
3735.000000 0.9243 0.9237 0.9229 0.9238 0.9244
3730.000000 0.9243 0.9243 0.9242 0.9239 0.9237
3725.000000 0.9234 0.9232 0.9230 0.9227 0.9224
3720.000000 0.9222 0.9205 0.9203 0.9215 0.9213
3715.000000 0.9210 0.9207 0.9204 0.9205 0.9206
3710.000000 0.9197 0.9201 0.9197 0.9192 0.9188
3705.000000 0.9179 0.9174 0.9167 0.9159 0.9152
3700.000000 0.9146 0.9138 0.9132 0.9125 0.9104
3695.000000 0.9095 0.9088 0.9081 0.9074 0.9062
3690.000000 0.9054 0.9044 0.9035 0.9021 0.9000
3685.000000 0.8984 0.8971 0.8953 0.8935 0.8916
3680.000000 0.8898 0.8866 0.8833 0.8797 0.8763
3675.000000 0.8728 0.8695 0.8669 0.8647 0.8624
3670.000000 0.8616 0.8597 0.8585 0.8581 0.8557
3665.000000 0.8575 0.8575 0.8575 0.8577 0.8587
3660.000000 0.8598 0.8614 0.8630 0.8642 0.8653
3655.000000 0.8664 0.8674 0.8687 0.8700 0.8712
3650.000000 0.8725 0.8736 0.8748 0.8755 0.8763
3645.000000 0.8770 0.8776 0.8777 0.8777 0.8781
3640.000000 0.8781 0.8781 0.8777 0.8774 0.8771
3635.000000 0.8761 0.8753 0.8745 0.8746 0.8733
3630.000000 0.8715 0.8681 0.8664 0.8643 0.8615
3625.000000 0.8395 0.8176 0.8095 0.8017 0.7970
3620.000000 0.7924 0.7876 0.7829 0.7782 0.7735
3615.000000 0.7686 0.7640 0.7587 0.7532 0.7475
3610.000000 0.7420 0.7242 0.7057 0.6865 0.6663
3605.000000 0.6461 0.6259 0.6053 0.5592 0.5730
3600.000000 0.5601 0.5624 0.5658 0.5746 0.5830
3595.000000 0.5913 0.5996 0.6080 0.6164 0.6248
3590.000000 0.6332 0.6415 0.6499 0.6583 0.6667
3585.000000 0.6750 0.6834 0.6917 0.7001 0.7085
3580.000000 0.7168 0.7252 0.7336 0.7423 0.7510
3575.000000 0.7519 0.7542 0.7551 0.7555 0.7554
3570.000000 0.7559 0.7564 0.7568 0.7575 0.7581
3565.000000 0.7586 0.7594 0.7591 0.7591 0.7586
3560.000000 0.7582 0.7571 0.7564 0.7555 0.7545
3555.000000 0.7542 0.7516 0.7497 0.7488 0.7459
3550.000000 0.7426 0.7390 0.7368 0.7336 0.7303
3545.000000 0.7263 0.7231 0.7205 0.7172 0.7133
3540.000000 0.7087 0.7049 0.7004 0.6968 0.6931
3535.000000 0.6900 0.6871 0.6840 0.6811 0.6780
3530.000000 0.6750 0.6708 0.6679 0.6647 0.6615
3525.000000 0.6583 0.6551 0.6517 0.6485 0.6452
3520.000000 0.6420 0.6382 0.6345 0.6294 0.6243
3515.000000 0.6191 0.6140 0.6088 0.6038 0.5991
3510.000000 0.5944 0.5896 0.5848 0.5801 0.5754
3505.000000 0.5708 0.5663 0.5617 0.5571 0.5524
3500.000000 0.5478 0.5430 0.5382 0.5334 0.5285
3495.000000 0.5237 0.5189 0.5147 0.5105 0.5077
3490.000000 0.5048 0.5020 0.4992 0.4962 0.4934
3485.000000 0.4906 0.4877 0.4849 0.4821 0.4782
3480.000000 0.4744 0.4701 0.4659 0.4617 0.4576
3475.000000 0.4539 0.4503 0.4465 0.4431 0.4394
3470.000000 0.4357 0.4321 0.4285 0.4252 0.4219
3465.000000 0.4189 0.4159 0.4129 0.4097 0.4067
3460.000000 0.4038 0.4007 0.3977 0.3945 0.3917
3455.000000 0.3887 0.3856 0.3823 0.3788 0.3743
3450.000000 0.3697 0.3650 0.3606 0.3560 0.3515
3445.000000 0.3468 0.3423 0.3377 0.3332 0.3285
3440.000000 0.3241 0.3196 0.3151 0.3105 0.3060
3435.000000 0.3023 0.2989 0.2958 0.2926 0.2894
3430.000000 0.2863 0.2831 0.2800 0.2767 0.2736
3425.000000 0.2698 0.2669 0.2635 0.2600 0.2566
3420.000000 0.2531 0.2497 0.2463 0.2431 0.2399
3415.000000 0.2370 0.2342 0.2312 0.2283 0.2253
3410.000000 0.2224 0.2195 0.2166 0.2140 0.2111
3405.000000 0.2081 0.2053 0.2022 0.1990 0.1949
3400.000000 0.1909 0.1888 0.1867 0.1845 0.1824
3395.000000 0.1802 0.1781 0.1759 0.1738 0.1716
3390.000000 0.1696 0.1673 0.1653 0.1631 0.1610
3385.000000 0.1589 0.1568 0.1546 0.1525 0.1503
3380.000000 0.1482 0.1459 0.1439 0.1418 0.1397
3375.000000 0.1375 0.1354 0.1329 0.1305 0.1280
3370.000000 0.1255 0.1230 0.1205 0.1178 0.1152
3365.000000 0.1125 0.1098 0.1071 0.1044 0.1018
3360.000000 0.0991 0.0975 0.0958 0.0940 0.0924
3355.000000 0.0908 0.0891 0.0874 0.0857 0.0841
3350.000000 0.0824 0.0810 0.0798 0.0785 0.0773
3345.000000 0.0762 0.0751 0.0737 0.0726 0.0713
3340.000000 0.0701 0.0690 0.0680 0.0672 0.0663
3335.000000 0.0654 0.0647 0.0638 0.0630 0.0621
3330.000000 0.0614 0.0606 0.0597 0.0589 0.0582
3325.000000 0.0573 0.0566 0.0559 0.0551 0.0544
3320.000000 0.0537 0.0529 0.0523 0.0516 0.0508
3315.000000 0.0500 0.0494 0.0486 0.0481 0.0476
3310.000000 0.0471 0.0467 0.0463 0.0457 0.0453
3305.000000 0.0448 0.0444 0.0439 0.0435 0.0430
3300.000000 0.0425 0.0421 0.0418 0.0414 0.0411
3295.000000 0.0407 0.0403 0.0400 0.0397 0.0393
3290.000000 0.0390 0.0385 0.0382 0.0379 0.0376
3285.000000 0.0375 0.0374 0.0374 0.0374 0.0372
3280.000000 0.0372 0.0372 0.0370 0.0369 0.0369
3275.000000 0.0368 0.0368 0.0367 0.0367 0.0366
3270.000000 0.0375 0.0364 0.0364 0.0363 0.0363
3265.000000 0.0362 0.0362 0.0361 0.0361 0.0361
3260.000000 0.0361 0.0360 0.0360 0.0359 0.0358
3255.000000 0.0359 0.0359 0.0358 0.0358 0.0357
3250.000000 0.0357 0.0357 0.0357 0.0358 0.0360
3245.000000 0.0361 0.0363 0.0364 0.0366 0.0367
3240.000000 0.0369 0.0370 0.0373 0.0374 0.0376
3235.000000 0.0378 0.0380 0.0384 0.0391 0.0397
3230.000000 0.0402 0.0407 0.0412 0.0418 0.0423
3225.000000 0.0429 0.0435 0.0440 0.0444 0.0450
3220.000000 0.0456 0.0461 0.0467 0.0473 0.0480
3215.000000 0.0489 0.0499 0.0509 0.0520 0.0529
3210.000000 0.0538 0.0548 0.0558 0.0567 0.0577
3205.000000 0.0587 0.0596 0.0606 0.0616 0.0626
3200.000000 0.0636 0.0649 0.0661 0.0675 0.0688
3195.000000 0.0701 0.0714 0.0726 0.0740 0.0752
3190.000000 0.0764 0.0777 0.0791 0.0803 0.0815
3185.000000 0.0826 0.0837 0.0849 0.0861 0.0873
3180.000000 0.0883 0.0896 0.0907 0.0918 0.0930
3175.000000 0.0942 0.0954 0.0965 0.0976 0.0987
3170.000000 0.1000 0.1011 0.1023 0.1033 0.1044
3165.000000 0.1056 0.1068 0.1081 0.1092 0.1103
3160.000000 0.1117 0.1128 0.1138 0.1150 0.1161
3155.000000 0.1172 0.1187 0.1197 0.1208 0.1212
3150.000000 0.1217 0.1218 0.1218 0.1220 0.1222
3145.000000 0.1224 0.1226 0.1227 0.1229 0.1232
3140.000000 0.1236 0.1238 0.1240 0.1242 0.1246
3135.000000 0.1248 0.1251 0.1253 0.1255 0.1258
3130.000000 0.1260 0.1263 0.1267 0.1271 0.1276
3125.000000 0.1280 0.1284 0.1289 0.1294 0.1298
3120.000000 0.1303 0.1308 0.1312 0.1316 0.1321
3115.000000 0.1325 0.1330 0.1335 0.1340 0.1348
3110.000000 0.1358 0.1366 0.1376 0.1386 0.1397
3105.000000 0.1405 0.1415 0.1426 0.1439 0.1453
3100.000000 0.1469 0.1484 0.1499 0.1516 0.1534
3095.000000 0.1550 0.1565 0.1579 0.1594 0.1606
3090.000000 0.1620 0.1632 0.1644 0.1659 0.1675
3085.000000 0.1686 0.1699 0.1712 0.1726 0.1738
3080.000000 0.1754 0.1768 0.1783 0.1801 0.1817
3075.000000 0.1830 0.1847 0.1861 0.1873 0.1887
3070.000000 0.1901 0.1915 0.1934 0.1955 0.1978
3065.000000 0.2002 0.2026 0.2045 0.2069 0.2093
3060.000000 0.2118 0.2141 0.2164 0.2184 0.2203
3055.000000 0.2226 0.2246 0.2266 0.2288 0.2311
3050.000000 0.2334 0.2357 0.2380 0.2403 0.2430
3045.000000 0.2454 0.2481 0.2501 0.2521 0.2541
3040.000000 0.2561 0.2576 0.2592 0.2607 0.2619
3035.000000 0.2632 0.2648 0.2668 0.2690 0.2712
3030.000000 0.2733 0.2748 0.2766 0.2780 0.2796
3025.000000 0.2812 0.2826 0.2830 0.2833 0.2834
3020.000000 0.2834 0.2839 0.2848 0.2833 0.2825
3015.000000 0.2817 0.2811 0.2802 0.2794 0.2779
3010.000000 0.2765 0.2751 0.2735 0.2706 0.2683
3005.000000 0.2661 0.2636 0.2585 0.2534 0.2469
3000.000000 0.2407 0.2313 0.2218 0.2118 0.2017
2995.000000 0.1934 0.1852 0.1771 0.1688 0.1606
2990.000000 0.1524 0.1441 0.1359 0.1276 0.1194
2985.000000 0.1111 0.1027 0.0946 0.0864 0.0781
2980.000000 0.0699 0.0617 0.0534 0.0450 0.0369
2975.000000 0.0317 0.0267 0.0260 0.0282 0.0253
2970.000000 0.0251 0.0279 0.0305 0.0391 0.0477
2965.000000 0.0567 0.0657 0.0747 0.0836 0.0925
2960.000000 0.1017 0.1109 0.1198 0.1227 0.1258
2955.000000 0.1274 0.1291 0.1302 0.1360 0.1316
2950.000000 0.1321 0.1301 0.1282 0.1223 0.1165
2945.000000 0.1107 0.1049 0.0992 0.0936 0.0877
2940.000000 0.0820 0.0770 0.0719 0.0717 0.0708
2935.000000 0.0729 0.0743 0.0776 0.0809 0.0842
2930.000000 0.0875 0.0897 0.0919 0.0925 0.0961
2925.000000 0.0936 0.0939 0.0934 0.0929 0.0912
2920.000000 0.0897 0.0864 0.0832 0.0828 0.0824
2915.000000 0.0824 0.0832 0.0837 0.0851 0.0882
2910.000000 0.0915 0.0949 0.0985 0.1017 0.1047
2905.000000 0.1070 0.1092 0.1107 0.1123 0.1133
2900.000000 0.1145 0.1155 0.1167 0.1171 0.1175
2895.000000 0.1178 0.1180 0.1182 0.1214 0.1185
2890.000000 0.1186 0.1186 0.1185 0.1185 0.1184
2885.000000 0.1175 0.1168 0.1155 0.1143 0.1111
2880.000000 0.1081 0.1038 0.1004 0.0996 0.0997
2875.000000 0.1001 0.1005 0.1135 0.1267 0.1370
2870.000000 0.1474 0.1581 0.1690 0.1749 0.1808
2865.000000 0.1863 0.1918 0.1967 0.2018 0.2064
2860.000000 0.2111 0.2146 0.2184 0.2217 0.2250
2855.000000 0.2285 0.2319 0.2368 0.2417 0.2567
2850.000000 0.2716 0.2747 0.2778 0.2810 0.2845
2845.000000 0.2879 0.2912 0.2946 0.2985 0.3021
2840.000000 0.3055 0.3123 0.3194 0.3285 0.3373
2835.000000 0.3459 0.3548 0.3586 0.3625 0.3660
2830.000000 0.3696 0.3736 0.3767 0.3807 0.3843
2825.000000 0.3872 0.3906 0.3947 0.3976 0.4013
2820.000000 0.4045 0.4074 0.4099 0.4129 0.4161
2815.000000 0.4196 0.4231 0.4273 0.4317 0.4360
2810.000000 0.4404 0.4456 0.4511 0.4566 0.4618
2805.000000 0.4667 0.4717 0.4763 0.4811 0.4857
2800.000000 0.4903 0.4949 0.4995 0.5040 0.5087
2795.000000 0.5132 0.5177 0.5224 0.5269 0.5300
2790.000000 0.5342 0.5369 0.5403 0.5436 0.5470
2785.000000 0.5507 0.5546 0.5567 0.5588 0.5612
2780.000000 0.5635 0.5652 0.5672 0.5690 0.5709
2775.000000 0.5726 0.5744 0.5762 0.5781 0.5799
2770.000000 0.5818 0.5833 0.5849 0.5862 0.5878
2765.000000 0.5893 0.5908 0.5922 0.5938 0.5953
2760.000000 0.5968 0.5982 0.5997 0.6015 0.6033
2755.000000 0.6051 0.6069 0.6087 0.6105 0.6123
2750.000000 0.6142 0.6159 0.6176 0.6195 0.6214
2745.000000 0.6231 0.6250 0.6267 0.6284 0.6301
2740.000000 0.6318 0.6334 0.6352 0.6369 0.6386
2735.000000 0.6403 0.6420 0.6442 0.6465 0.6488
2730.000000 0.6512 0.6535 0.6560 0.6584 0.6609
2725.000000 0.6636 0.6662 0.6687 0.6714 0.6739
2720.000000 0.6764 0.6791 0.6817 0.6843 0.6869
2715.000000 0.6890 0.6912 0.6933 0.6954 0.6975
2710.000000 0.6996 0.7017 0.7038 0.7059 0.7080
2705.000000 0.7101 0.7122 0.7143 0.7164 0.7181
2700.000000 0.7199 0.7214 0.7230 0.7244 0.7259
2695.000000 0.7273 0.7290 0.7304 0.7320 0.7335
2690.000000 0.7351 0.7366 0.7381 0.7396 0.7411
2685.000000 0.7426 0.7441 0.7456 0.7472 0.7487
2680.000000 0.7501 0.7517 0.7533 0.7547 0.7562
2675.000000 0.7579 0.7595 0.7610 0.7626 0.7641
2670.000000 0.7659 0.7680 0.7701 0.7720 0.7743
2665.000000 0.7758 0.7775 0.7790 0.7805 0.7809
2660.000000 0.7814 0.7818 0.7826 0.7841 0.7847
2655.000000 0.7851 0.7856 0.7859 0.7862 0.7859
2650.000000 0.7854 0.7856 0.7865 0.7874 0.7876
2645.000000 0.7874 0.7873 0.7877 0.7891 0.7890
2640.000000 0.7892 0.7901 0.7911 0.7922 0.7935
2635.000000 0.7947 0.7970 0.7985 0.7998 0.8006
2630.000000 0.8026 0.8059 0.8079 0.8094 0.8111
2625.000000 0.8120 0.8131 0.8139 0.8150 0.8159
2620.000000 0.8170 0.8178 0.8186 0.8192 0.8198
2615.000000 0.8203 0.8210 0.8217 0.8223 0.8230
2610.000000 0.8236 0.8241 0.8249 0.8253 0.8259
2605.000000 0.8265 0.8272 0.8277 0.8282 0.8286
2600.000000 0.8294 0.8298 0.8304 0.8309 0.8315
2595.000000 0.8320 0.8326 0.8332 0.8337 0.8342
2590.000000 0.8349 0.8354 0.8358 0.8364 0.8371
2585.000000 0.8376 0.8381 0.8386 0.8392 0.8398
2580.000000 0.8402 0.8409 0.8414 0.8420 0.8425
2575.000000 0.8431 0.8436 0.8441 0.8448 0.8452
2570.000000 0.8458 0.8462 0.8470 0.8475 0.8481
2565.000000 0.8487 0.8492 0.8497 0.8503 0.8508
2560.000000 0.8514 0.8518 0.8525 0.8531 0.8537
2555.000000 0.8542 0.8548 0.8552 0.8557 0.8560
2550.000000 0.8564 0.8568 0.8571 0.8575 0.8578
2545.000000 0.8582 0.8587 0.8590 0.8594 0.8597
2540.000000 0.8601 0.8604 0.8609 0.8612 0.8616
2535.000000 0.8619 0.8623 0.8628 0.8633 0.8637
2530.000000 0.8641 0.8645 0.8651 0.8655 0.8660
2525.000000 0.8664 0.8705 0.8673 0.8679 0.8683
2520.000000 0.8689 0.8693 0.8698 0.8702 0.8707
2515.000000 0.8712 0.8717 0.8721 0.8725 0.8731
2510.000000 0.8736 0.8740 0.8745 0.8750 0.8755
2505.000000 0.8759 0.8764 0.8769 0.8774 0.8778
2500.000000 0.8783 0.8787 0.8793 0.8797 0.8802
2495.000000 0.8806 0.8812 0.8816 0.8821 0.8826
2490.000000 0.8831 0.8837 0.8841 0.8847 0.8853
2485.000000 0.8858 0.8864 0.8865 0.8865 0.8875
2480.000000 0.8880 0.8879 0.8878 0.8877 0.8876
2475.000000 0.8875 0.8873 0.8872 0.8871 0.8868
2470.000000 0.8865 0.8861 0.8858 0.8852 0.8850
2465.000000 0.8847 0.8845 0.8844 0.8844 0.8843
2460.000000 0.8842 0.8841 0.8833 0.8832 0.8830
2455.000000 0.8825 0.8827 0.8839 0.8847 0.8848
2450.000000 0.8840 0.8849 0.8855 0.8858 0.8861
2445.000000 0.8864 0.8867 0.8869 0.8871 0.8873
2440.000000 0.8876 0.8878 0.8881 0.8884 0.8886
2435.000000 0.8888 0.8891 0.8893 0.8896 0.8897
2430.000000 0.8900 0.8902 0.8905 0.8908 0.8910
2425.000000 0.8912 0.8915 0.8917 0.8919 0.8921
2420.000000 0.8925 0.8927 0.8929 0.8931 0.8933
2415.000000 0.8934 0.8936 0.8937 0.8939 0.8940
2410.000000 0.8942 0.8947 0.8956 0.8952 0.8963
2405.000000 0.8964 0.8967 0.8968 0.8970 0.8971
2400.000000 0.8972 0.8974 0.8975 0.8977 0.8979
2395.000000 0.8980 0.8982 0.8983 0.8985 0.8986
2390.000000 0.8989 0.9003 0.9004 0.9004 0.9005
2385.000000 0.9008 0.9021 0.9021 0.9025 0.9036
2380.000000 0.9037 0.9043 0.9053 0.9060 0.9069
2375.000000 0.9069 0.9079 0.9085 0.9085 0.9085
2370.000000 0.9084 0.9070 0.9063 0.9060 0.9056
2365.000000 0.9053 0.9051 0.9048 0.9046 0.9044
2360.000000 0.9056 0.9055 0.9066 0.9066 0.9079
2355.000000 0.9088 0.9086 0.9085 0.9084 0.9078
2350.000000 0.9070 0.9071 0.9080 0.9097 0.9104
2345.000000 0.9104 0.9095 0.9091 0.9093 0.9094
2340.000000 0.9096 0.9085 0.9098 0.9101 0.9091
2335.000000 0.9092 0.9109 0.9112 0.9115 0.9119
2330.000000 0.9135 0.9134 0.9133 0.9133 0.9139
2325.000000 0.9140 0.9145 0.9141 0.9137 0.9131
2320.000000 0.9127 0.9122 0.9118 0.9112 0.9106
2315.000000 0.9100 0.9095 0.9089 0.9083 0.9077
2310.000000 0.9072 0.9066 0.9061 0.9055 0.9050
2305.000000 0.9044 0.9038 0.9034 0.9028 0.9025
2300.000000 0.9022 0.9024 0.9033 0.9031 0.9030
2295.000000 0.9028 0.9027 0.9026 0.9025 0.9023
2290.000000 0.9021 0.9019 0.9007 0.9001 0.9000
2285.000000 0.9000 0.9001 0.8994 0.8999 0.9004
2280.000000 0.9011 0.9016 0.9008 0.9014 0.9018
2275.000000 0.9010 0.9015 0.9020 0.9020 0.9014
2270.000000 0.9020 0.9017 0.9013 0.9019 0.9024
2265.000000 0.9020 0.9018 0.9022 0.9027 0.9021
2260.000000 0.9022 0.9026 0.9019 0.9021 0.9025
2255.000000 0.9029 0.9018 0.9022 0.9025 0.9027
2250.000000 0.9017 0.9021 0.9025 0.9028 0.9031
2245.000000 0.9030 0.9024 0.9027 0.9030 0.9033
2240.000000 0.9037 0.9040 0.9045 0.9048 0.9052
2235.000000 0.9045 0.9044 0.9047 0.9051 0.9054
2230.000000 0.9058 0.9060 0.9064 0.9065 0.9067
2225.000000 0.9068 0.9070 0.9071 0.9071 0.9059
2220.000000 0.9060 0.9062 0.9063 0.9065 0.9067
2215.000000 0.9068 0.9071 0.9072 0.9074 0.9076
2210.000000 0.9078 0.9080 0.9082 0.9084 0.9087
2205.000000 0.9089 0.9092 0.9094 0.9096 0.9098
2200.000000 0.9101 0.9103 0.9105 0.9105 0.9107
2195.000000 0.9096 0.9108 0.9105 0.9095 0.9095
2190.000000 0.9096 0.9096 0.9096 0.9096 0.9097
2185.000000 0.9097 0.9106 0.9103 0.9097 0.9096
2180.000000 0.9096 0.9088 0.9092 0.9089 0.9083
2175.000000 0.9078 0.9074 0.9069 0.9065 0.9062
2170.000000 0.9063 0.9061 0.9051 0.9053 0.9056
2165.000000 0.9058 0.9060 0.9061 0.9063 0.9064
2160.000000 0.9066 0.9068 0.9070 0.9071 0.9073
2155.000000 0.9075 0.9077 0.9078 0.9080 0.9081
2150.000000 0.9083 0.9084 0.9086 0.9086 0.9086
2145.000000 0.9085 0.9085 0.9085 0.9085 0.9085
2140.000000 0.9085 0.9085 0.9085 0.9085 0.9085
2135.000000 0.9084 0.9084 0.9084 0.9084 0.9083
2130.000000 0.9083 0.9083 0.9083 0.9082 0.9082
2125.000000 0.9082 0.9082 0.9081 0.9068 0.9078
2120.000000 0.9080 0.9080 0.9080 0.9079 0.9079
2115.000000 0.9079 0.9078 0.9077 0.9077 0.9075
2110.000000 0.9074 0.9072 0.9071 0.9069 0.9068
2105.000000 0.9066 0.9065 0.9064 0.9063 0.9060
2100.000000 0.9059 0.9057 0.9045 0.9039 0.9050
2095.000000 0.9051 0.9037 0.9045 0.9047 0.9043
2090.000000 0.9043 0.9041 0.9039 0.9039 0.9038
2085.000000 0.9036 0.9035 0.9035 0.9035 0.9034
2080.000000 0.9034 0.9034 0.9034 0.9033 0.9033
2075.000000 0.9033 0.9033 0.9032 0.9031 0.9031
2070.000000 0.9031 0.9030 0.9030 0.9029 0.9029
2065.000000 0.9029 0.9029 0.9028 0.9028 0.9028
2060.000000 0.9028 0.9027 0.9027 0.9030 0.9041
2055.000000 0.9041 0.9041 0.9040 0.9033 0.9032
2050.000000 0.9040 0.9031 0.9024 0.9023 0.9023
2045.000000 0.9023 0.9023 0.9022 0.9022 0.9021
2040.000000 0.9019 0.9018 0.9018 0.9017 0.9017
2035.000000 0.9016 0.9016 0.9015 0.9015 0.9014
2030.000000 0.9013 0.9012 0.9016 0.9021 0.9011
2025.000000 0.9016 0.9025 0.9024 0.9022 0.9021
2020.000000 0.9021 0.9020 0.9020 0.9019 0.9018
2015.000000 0.9017 0.9017 0.9016 0.9016 0.9015
2010.000000 0.9015 0.9014 0.9014 0.9013 0.9012
2005.000000 0.9011 0.9010 0.9007 0.9006 0.9003
2000.000000 0.9000 0.8994 0.8979 0.8962 0.8952
1995.000000 0.8942 0.8919 0.8898 0.8706 0.8546
1990.000000 0.8548 0.8563 0.8713 0.8865 0.8888
1985.000000 0.8889 0.8892 0.8895 0.8897 0.8901
1980.000000 0.8904 0.8905 0.8894 0.8897 0.8900
1975.000000 0.8903 0.8906 0.8909 0.8912 0.8914
1970.000000 0.8917 0.8919 0.8920 0.8923 0.8933
1965.000000 0.8931 0.8928 0.8939 0.8946 0.8947
1960.000000 0.8949 0.8951 0.8952 0.8954 0.8956
1955.000000 0.8958 0.8946 0.8948 0.8950 0.8952
1950.000000 0.8951 0.8940 0.8943 0.8944 0.8947
1945.000000 0.8950 0.8951 0.8952 0.8954 0.8955
1940.000000 0.8956 0.8957 0.8958 0.8959 0.8961
1935.000000 0.8962 0.8962 0.8960 0.8958 0.8955
1930.000000 0.8951 0.8946 0.8940 0.8936 0.8930
1925.000000 0.8934 0.8937 0.8943 0.8947 0.8947
1920.000000 0.8947 0.8946 0.8943 0.8940 0.8939
1915.000000 0.8936 0.8933 0.8930 0.8925 0.8920
1910.000000 0.8913 0.8908 0.8903 0.8909 0.8906
1905.000000 0.8902 0.8896 0.8893 0.8889 0.8886
1900.000000 0.8883 0.8879 0.8875 0.8872 0.8869
1895.000000 0.8867 0.8866 0.8865 0.8864 0.8858
1890.000000 0.8847 0.8846 0.8845 0.8844 0.8842
1885.000000 0.8842 0.8851 0.8855 0.8853 0.8853
1880.000000 0.8849 0.8839 0.8830 0.8819 0.8810
1875.000000 0.8813 0.8805 0.8799 0.8793 0.8786
1870.000000 0.8780 0.8774 0.8767 0.8761 0.8757
1865.000000 0.8757 0.8757 0.8757 0.8755 0.8755
1860.000000 0.8755 0.8755 0.8755 0.8763 0.8759
1855.000000 0.8753 0.8751 0.8750 0.8749 0.8748
1850.000000 0.8747 0.8747 0.8747 0.8753 0.8760
1845.000000 0.8767 0.8773 0.8780 0.8790 0.8809
1840.000000 0.8827 0.8831 0.8835 0.8840 0.8822
1835.000000 0.8793 0.8799 0.8805 0.8803 0.8803
1830.000000 0.8799 0.8799 0.8799 0.8803 0.8807
1825.000000 0.8811 0.8811 0.8809 0.8808 0.8807
1820.000000 0.8806 0.8820 0.8819 0.8819 0.8817
1815.000000 0.8817 0.8817 0.8816 0.8816 0.8817
1810.000000 0.8819 0.8815 0.8808 0.8810 0.8812
1805.000000 0.8813 0.8807 0.8803 0.8803 0.8803
1800.000000 0.8802 0.8802 0.8801 0.8800 0.8800
1795.000000 0.8799 0.8799 0.8797 0.8797 0.8796
1790.000000 0.8793 0.8788 0.8785 0.8781 0.8777
1785.000000 0.8773 0.8769 0.8765 0.8761 0.8756
1780.000000 0.8752 0.8748 0.8745 0.8742 0.8729
1775.000000 0.8721 0.8721 0.8723 0.8723 0.8724
1770.000000 0.8724 0.8723 0.8723 0.8723 0.8723
1765.000000 0.8724 0.8725 0.8726 0.8728 0.8729
1760.000000 0.8731 0.8735 0.8753 0.8759 0.8765
1755.000000 0.8772 0.8777 0.8775 0.8769 0.8762
1750.000000 0.8756 0.8750 0.8743 0.8737 0.8732
1745.000000 0.8725 0.8722 0.8718 0.8713 0.8709
1740.000000 0.8706 0.8701 0.8697 0.8693 0.8688
1735.000000 0.8683 0.8680 0.8676 0.8671 0.8667
1730.000000 0.8662 0.8658 0.8654 0.8650 0.8646
1725.000000 0.8643 0.8637 0.8631 0.8628 0.8623
1720.000000 0.8618 0.8606 0.8596 0.8585 0.8575
1715.000000 0.8564 0.8554 0.8545 0.8534 0.8527
1710.000000 0.8519 0.8510 0.8502 0.8494 0.8484
1705.000000 0.8476 0.8467 0.8457 0.8448 0.8439
1700.000000 0.8427 0.8419 0.8409 0.8400 0.8390
1695.000000 0.8379 0.8369 0.8361 0.8350 0.8338
1690.000000 0.8321 0.8304 0.8287 0.8269 0.8245
1685.000000 0.8211 0.8180 0.8099 0.7835 0.7716
1680.000000 0.7599 0.7292 0.6891 0.6712 0.6517
1675.000000 0.6332 0.6164 0.5999 0.5836 0.5667
1670.000000 0.5498 0.5329 0.5160 0.4992 0.4805
1665.000000 0.4752 0.4755 0.4767 0.4893 0.5110
1660.000000 0.5341 0.5557 0.5779 0.5949 0.6027
1655.000000 0.6103 0.6246 0.6538 0.6764 0.6951
1650.000000 0.7131 0.7324 0.7449 0.7550 0.7655
1645.000000 0.7743 0.7840 0.7888 0.7917 0.7942
1640.000000 0.7956 0.7970 0.7987 0.7999 0.8018
1635.000000 0.8024 0.7987 0.8041 0.8032 0.8033
1630.000000 0.8023 0.8026 0.8016 0.8013 0.7998
1625.000000 0.7980 0.7983 0.7977 0.7984 0.7977
1620.000000 0.7962 0.7962 0.7956 0.7954 0.7961
1615.000000 0.7972 0.7958 0.7937 0.7922 0.7914
1610.000000 0.7882 0.7861 0.7840 0.7790 0.7760
1605.000000 0.7709 0.7713 0.7689 0.7685 0.7568
1600.000000 0.7493 0.7473 0.7467 0.7458 0.7451
1595.000000 0.7432 0.7416 0.7408 0.7433 0.7463
1590.000000 0.7459 0.7476 0.7476 0.7463 0.7479
1585.000000 0.7486 0.7499 0.7517 0.7506 0.7505
1580.000000 0.7496 0.7491 0.7460 0.7444 0.7416
1575.000000 0.7399 0.7389 0.7368 0.7341 0.7332
1570.000000 0.7277 0.7240 0.7128 0.7009 0.6902
1565.000000 0.6830 0.6817 0.6801 0.6757 0.6715
1560.000000 0.6667 0.6618 0.6566 0.6602 0.6657
1555.000000 0.6741 0.6817 0.6856 0.6977 0.7045
1550.000000 0.7081 0.7070 0.7040 0.7003 0.6979
1545.000000 0.6959 0.6938 0.6911 0.6953 0.7006
1540.000000 0.7084 0.7080 0.7039 0.6967 0.6940
1535.000000 0.6942 0.6918 0.6893 0.6847 0.6801
1530.000000 0.6765 0.6743 0.6701 0.6657 0.6624
1525.000000 0.6589 0.6562 0.6527 0.6501 0.6464
1520.000000 0.6437 0.6403 0.6358 0.6324 0.6347
1515.000000 0.6237 0.6192 0.6142 0.6096 0.6040
1510.000000 0.5985 0.5933 0.5875 0.5818 0.5744
1505.000000 0.5667 0.5596 0.5522 0.5432 0.5347
1500.000000 0.5261 0.5159 0.5060 0.4978 0.4896
1495.000000 0.4821 0.4713 0.4620 0.4536 0.4453
1490.000000 0.4353 0.4270 0.4188 0.4109 0.4035
1485.000000 0.3960 0.3888 0.3826 0.3765 0.3702
1480.000000 0.3630 0.3593 0.3557 0.3513 0.3468
1475.000000 0.3424 0.3378 0.3223 0.3106 0.2944
1470.000000 0.2757 0.1868 0.1733 0.1600 0.1467
1465.000000 0.1334 0.1202 0.1070 0.0974 0.0940
1460.000000 0.0956 0.1102 0.1246 0.1376 0.1477
1455.000000 0.1577 0.1656 0.1727 0.1797 0.1864
1450.000000 0.1929 0.1969 0.2008 0.2046 0.2093
1445.000000 0.2141 0.2188 0.2240 0.2291 0.2332
1440.000000 0.2335 0.2341 0.2350 0.2364 0.2380
1435.000000 0.2402 0.2424 0.2447 0.2475 0.2508
1430.000000 0.2630 0.2673 0.2690 0.2746 0.2820
1425.000000 0.2891 0.2960 0.3030 0.3103 0.3181
1420.000000 0.3258 0.3336 0.3410 0.3482 0.3551
1415.000000 0.3623 0.3761 0.3872 0.3940 0.4007
1410.000000 0.4075 0.4143 0.4210 0.4276 0.4340
1405.000000 0.4404 0.4469 0.4537 0.4586 0.4628
1400.000000 0.4670 0.4703 0.4723 0.4728 0.4742
1395.000000 0.4744 0.4744 0.4716 0.4670 0.4570
1390.000000 0.4439 0.4296 0.4100 0.3873 0.3599
1385.000000 0.3325 0.3036 0.2739 0.2442 0.2094
1380.000000 0.2089 0.2085 0.2171 0.2356 0.2447
1375.000000 0.2448 0.2262 0.2002 0.1744 0.1485
1370.000000 0.1364 0.1435 0.1914 0.2396 0.2875
1365.000000 0.3355 0.3835 0.4315 0.4716 0.4874
1360.000000 0.4998 0.5102 0.5202 0.5301 0.5379
1355.000000 0.5463 0.5547 0.5637 0.5736 0.5836
1350.000000 0.5918 0.5994 0.6049 0.6094 0.6135
1345.000000 0.6177 0.6220 0.6259 0.6292 0.6335
1340.000000 0.6346 0.6368 0.6361 0.6364 0.6356
1335.000000 0.6308 0.6111 0.5883 0.5654 0.5426
1330.000000 0.5217 0.5161 0.5172 0.5177 0.5250
1325.000000 0.5316 0.5506 0.5693 0.5876 0.6066
1320.000000 0.6247 0.6321 0.6390 0.6457 0.6506
1315.000000 0.6547 0.6587 0.6633 0.6688 0.6774
1310.000000 0.6895 0.7270 0.7323 0.7376 0.7418
1305.000000 0.7458 0.7486 0.7516 0.7548 0.7572
1300.000000 0.7592 0.7611 0.7632 0.7652 0.7664
1295.000000 0.7683 0.7681 0.7698 0.7700 0.7695
1290.000000 0.7674 0.7652 0.7628 0.7582 0.7529
1285.000000 0.7443 0.7295 0.7152 0.7022 0.6705
1280.000000 0.6563 0.6420 0.6277 0.6135 0.6064
1275.000000 0.6020 0.6020 0.6020 0.6043 0.6114
1270.000000 0.6417 0.6520 0.6607 0.6690 0.6785
1265.000000 0.6881 0.6994 0.7092 0.7180 0.7271
1260.000000 0.7360 0.7450 0.7509 0.7543 0.7543
1255.000000 0.7543 0.7521 0.7436 0.7114 0.6649
1250.000000 0.6184 0.5718 0.5253 0.4788 0.4421
1245.000000 0.4395 0.4518 0.4759 0.5000 0.5242
1240.000000 0.5484 0.5728 0.5825 0.5917 0.6012
1235.000000 0.6114 0.6214 0.6297 0.6365 0.6382
1230.000000 0.6405 0.6393 0.6309 0.6085 0.5861
1225.000000 0.5636 0.5412 0.5226 0.5201 0.5223
1220.000000 0.5487 0.5772 0.6059 0.6304 0.6480
1215.000000 0.6682 0.6913 0.7157 0.7400 0.7593
1210.000000 0.7813 0.7998 0.8100 0.8198 0.8286
1205.000000 0.8365 0.8440 0.8503 0.8542 0.8560
1200.000000 0.8581 0.8620 0.8649 0.8689 0.8733
1195.000000 0.8776 0.8798 0.8834 0.8856 0.8874
1190.000000 0.8888 0.8902 0.8917 0.8930 0.8945
1185.000000 0.8958 0.8966 0.8968 0.8961 0.8961
1180.000000 0.8976 0.8994 0.9013 0.9029 0.9039
1175.000000 0.9050 0.9060 0.9071 0.9081 0.9092
1170.000000 0.9100 0.9110 0.9119 0.9144 0.9152
1165.000000 0.9160 0.9167 0.9175 0.9183 0.9185
1160.000000 0.9187 0.9189 0.9189 0.9189 0.9189
1155.000000 0.9188 0.9188 0.9186 0.9183 0.9170
1150.000000 0.9171 0.9173 0.9159 0.9151 0.9149
1145.000000 0.9146 0.9141 0.9122 0.9130 0.9126
1140.000000 0.9120 0.9132 0.9143 0.9152 0.9146
1135.000000 0.9151 0.9139 0.9118 0.9110 0.9097
1130.000000 0.9083 0.9064 0.9038 0.9018 0.8998
1125.000000 0.8978 0.8957 0.8936 0.8922 0.8890
1120.000000 0.8853 0.8812 0.8771 0.8729 0.8696
1115.000000 0.8648 0.8601 0.8488 0.8314 0.8108
1110.000000 0.7919 0.6899 0.6783 0.6490 0.6048
1105.000000 0.5613 0.5179 0.4745 0.3775 0.3877
1100.000000 0.3772 0.3819 0.4040 0.4264 0.4487
1095.000000 0.4710 0.4933 0.5156 0.5379 0.5602
1090.000000 0.5825 0.5918 0.5985 0.6050 0.6117
1085.000000 0.6184 0.6247 0.6268 0.6270 0.5847
1080.000000 0.5348 0.4847 0.4343 0.3843 0.3429
1075.000000 0.3429 0.3441 0.3585 0.3728 0.4100
1070.000000 0.4627 0.5151 0.5677 0.6203 0.6619
1065.000000 0.6862 0.7022 0.7220 0.7460 0.7629
1060.000000 0.7770 0.7902 0.8051 0.8133 0.8194
1055.000000 0.8255 0.8301 0.8347 0.8386 0.8425
1050.000000 0.8470 0.8506 0.8527 0.8541 0.8549
1045.000000 0.8549 0.8554 0.8555 0.8548 0.8537
1040.000000 0.8529 0.8514 0.8498 0.8483 0.8465
1035.000000 0.8428 0.8393 0.8342 0.8288 0.8234
1030.000000 0.8159 0.8091 0.8024 0.7955 0.7874
1025.000000 0.7789 0.7713 0.7629 0.7544 0.7457
1020.000000 0.7332 0.7140 0.6228 0.5940 0.5776
1015.000000 0.5605 0.5393 0.5137 0.4873 0.4732
1010.000000 0.4626 0.4537 0.4457 0.4421 0.4419
1005.000000 0.4417 0.4410 0.4410 0.4411 0.4405
1000.000000 0.4387 0.4281 0.4120 0.3931 0.3748
995.000000 0.3564 0.3381 0.3198 0.3016 0.2835
990.000000 0.2652 0.2468 0.2330 0.2265 0.2194
985.000000 0.2114 0.1980 0.1884 0.1805 0.1696
980.000000 0.1652 0.1628 0.1634 0.1635 0.1642
975.000000 0.1786 0.1924 0.2240 0.2474 0.2712
970.000000 0.2948 0.3183 0.3419 0.3654 0.3889
965.000000 0.4125 0.4360 0.4595 0.4662 0.4709
960.000000 0.4773 0.4732 0.4728 0.4684 0.4634
955.000000 0.4529 0.4436 0.4372 0.4309 0.4246
950.000000 0.3926 0.3669 0.3401 0.3134 0.2867
945.000000 0.2600 0.2334 0.2066 0.1799 0.1532
940.000000 0.1265 0.0997 0.0766 0.0720 0.0689
935.000000 0.0690 0.0673 0.0680 0.0696 0.0728
930.000000 0.0747 0.0752 0.0762 0.0778 0.0807
925.000000 0.0863 0.0960 0.1136 0.1350 0.1623
920.000000 0.1970 0.2124 0.2288 0.2452 0.2643
915.000000 0.2831 0.3023 0.3187 0.3303 0.3419
910.000000 0.3534 0.3652 0.3775 0.3931 0.4121
905.000000 0.4365 0.4572 0.4777 0.4988 0.5195
900.000000 0.5408 0.5614 0.5829 0.6045 0.6263
895.000000 0.6480 0.6592 0.6664 0.6746 0.6850
890.000000 0.7164 0.7256 0.7322 0.7379 0.7434
885.000000 0.7480 0.7558 0.7572 0.7610 0.7641
880.000000 0.7673 0.7689 0.7701 0.7711 0.7722
875.000000 0.7717 0.7712 0.7709 0.7704 0.7699
870.000000 0.7680 0.7661 0.7642 0.7634 0.7611
865.000000 0.7591 0.7583 0.7572 0.7553 0.7546
860.000000 0.7554 0.7560 0.7579 0.7574 0.7574
855.000000 0.7630 0.7708 0.7774 0.7819 0.7839
850.000000 0.7854 0.7847 0.7841 0.7825 0.7790
845.000000 0.7748 0.7695 0.7654 0.7594 0.7534
840.000000 0.7481 0.7441 0.7392 0.7363 0.7319
835.000000 0.7285 0.7257 0.7225 0.7184 0.7142
830.000000 0.7106 0.7064 0.7010 0.6966 0.6919
825.000000 0.6874 0.6834 0.6789 0.6748 0.6697
820.000000 0.6652 0.6609 0.6555 0.6482 0.6419
815.000000 0.6347 0.6256 0.6151 0.5976 0.5653
810.000000 0.5292 0.4937 0.4574 0.4206 0.3846
805.000000 0.3482 0.3488 0.3485 0.3701 0.3927
800.000000 0.4154 0.4380 0.4516 0.4511 0.4525
795.000000 0.4528 0.4452 0.4356 0.4263 0.4046
790.000000 0.4077 0.4061 0.4147 0.4236 0.4323
785.000000 0.4411 0.4464 0.4475 0.4464 0.4373
780.000000 0.4256 0.4145 0.4032 0.3916 0.3806
775.000000 0.3806 0.3799 0.3869 0.3935 0.4005
770.000000 0.4074 0.4138 0.4161 0.4163 0.4156
765.000000 0.4146 0.4124 0.4098 0.4070 0.4040
760.000000 0.4011 0.3980 0.3950 0.3921 0.3903
755.000000 0.3884 0.3867 0.3851 0.3829 0.3807
750.000000 0.3788 0.3779 0.3769 0.3763 0.3763
745.000000 0.3771 0.3785 0.3797 0.3819 0.3849
740.000000 0.3880 0.3912 0.3943 0.3975 0.4006
735.000000 0.4038 0.4070 0.4103 0.4132 0.4162
730.000000 0.4205 0.4242 0.4278 0.4316 0.4354
725.000000 0.4397 0.4433 0.4473 0.4515 0.4555
720.000000 0.4592 0.4625 0.4657 0.4695 0.4730
715.000000 0.4764 0.4806 0.4846 0.4883 0.4918
710.000000 0.4956 0.4993 0.5030 0.5067 0.5104
705.000000 0.5141 0.5178 0.5223 0.5260 0.5298
700.000000 0.5343 0.5380 0.5417 0.5454 0.5491
695.000000 0.5532 0.5573 0.5611 0.5648 0.5685
690.000000 0.5722 0.5759 0.5802 0.5843 0.5879
685.000000 0.5898 0.5917 0.5944 0.5965 0.5985
680.000000 0.6018 0.6042 0.6085 0.6120 0.6163
675.000000 0.6189 0.6197 0.6213 0.6223 0.6245
670.000000 0.6280 0.6364 0.6424 0.6366 0.6319
665.000000 0.6329 0.6351 0.6367 0.6384 0.6406
660.000000 0.6428 0.6443 0.6451 0.6454 0.6416
655.000000 0.6325 0.6231 0.6174 0.6237 0.6300
650.000000 0.6359 0.6407 0.6439 0.6463 0.6466
645.000000 0.6473 0.6478 0.6491 0.6512 0.6529
640.000000 0.6536 0.6550 0.6555 0.6556 0.6568
635.000000 0.6579 0.6577 0.6573 0.6573 0.6561
630.000000 0.6548 0.6522 0.6480 0.6434 0.6379
625.000000 0.6334 0.6293 0.6241 0.6180 0.6111
620.000000 0.5890 0.5661 0.5438 0.5203 0.4967
615.000000 0.4736 0.4503 0.4291 0.4272 0.4286
610.000000 0.4302 0.4484 0.4669 0.4848 0.5029
605.000000 0.5213 0.5396 0.5538 0.5723 0.5906
600.000000 0.6009 0.6111 0.6210 0.6292 0.6374
595.000000 0.6457 0.6547 0.6638 0.6729 0.6800
590.000000 0.6855 0.6910 0.6965 0.7016 0.7065
585.000000 0.7117 0.7161 0.7212 0.7256 0.7301
580.000000 0.7344 0.7387 0.7432 0.7465 0.7504
575.000000 0.7545 0.7597 0.7640 0.7679 0.7715
570.000000 0.7750 0.7784 0.7819 0.7833 0.7860
565.000000 0.7894 0.7917 0.7930 0.7956 0.7981
560.000000 0.7997 0.8015 0.8032 0.8050 0.8063
555.000000 0.8069 0.8074 0.8089 0.8093 0.8110
550.000000 0.8128 0.8140 0.8153 0.8166 0.8175
545.000000 0.8180 0.8184 0.8187 0.8218 0.8191
540.000000 0.8189 0.8190 0.8191 0.8178 0.8146
535.000000 0.8083 0.8025 0.7980 0.7887 0.7795
530.000000 0.7703 0.7609 0.7516 0.7425 0.7340
525.000000 0.7251 0.7131 0.7152 0.7177 0.7229
520.000000 0.7332 0.7434 0.7537 0.7638 0.7741
515.000000 0.7843 0.7912 0.7974 0.8028 0.8080
510.000000 0.8111 0.8140 0.8162 0.8177 0.8192
505.000000 0.8206 0.8218 0.8222 0.8225 0.8217
500.000000 0.8231 0.8229 0.8227 0.8221 0.8210
495.000000 0.8194 0.8177 0.8155 0.8136 0.8113
490.000000 0.8088 0.8063 0.8040 0.8019 0.8011
485.000000 0.8009 0.7980 0.8011 0.8014 0.8040
480.000000 0.8068 0.8088 0.8109 0.8119 0.8124
475.000000 0.8152 0.8120 0.8115 0.8111 0.8106
470.000000 0.8102 0.8098 0.8095 0.8091 0.8071
465.000000 0.8050 0.8001 0.7945 0.7890 0.7836
460.000000 0.7782 0.7728 0.7675 0.7620 0.7564
455.000000 0.7511 0.7457 0.7403 0.7349 0.7333
450.000000 0.7321 0.7322 0.7322 0.7341 0.7361
445.000000 0.7383 0.7402 0.7420 0.7421 0.7396
440.000000 0.7379 0.7338 0.7286 0.7236 0.7183
435.000000 0.7127 0.7072 0.7016 0.6959 0.6903
430.000000 0.6845 0.6781 0.6717 0.6652 0.6578
425.000000 0.6486 0.6394 0.6301 0.6122 0.5916
420.000000 0.5715 0.5515 0.5338 0.5211 0.5026
415.000000 0.4818 0.4610 0.4402 0.4193 0.3986
410.000000 0.3776 0.3569 0.3361 0.3153 0.2944
405.000000 0.2736 0.2528 0.2320 0.2110 0.1890
400.000000 0.1726 0.1633 0.1555 0.1477 0.1412
395.000000 0.1348 0.1303 0.1267 0.1232 0.1197
390.000000 0.1163 0.1129 0.1100 0.1072 0.1042
385.000000 0.1007 0.0962 0.0913
##END=
