##TITLE=2-PROPENOIC ACID, METHYL ESTER
##JCAMP-DX=4.24
##DATA TYPE=INFRARED SPECTRUM
##CLASS=COBLENTZ III
##ORIGIN=DOW CORNING CORP.
##OWNER=COBLENTZ SOCIETY
Collection (C) 2018 copyright by the U.S. Secretary of Commerce
on behalf of the United States of America. All rights reserved.
##DATE=1966
##NAMES=methyl acrylate
ACRYLIC ACID, METHYL ESTER
##CAS REGISTRY NO=96-33-3
##MOLFORM=C4 H6 O2
##SOURCE REFERENCE=COBLENTZ NO. 4304
##$NIST SOURCE=COBLENTZ
##$NIST IMAGE=cob4304
##SPECTROMETER/DATA SYSTEM=PERKIN-ELMER 521 (GRATING)
##INSTRUMENT PARAMETERS=FILTERS AT 3150, 2500, 2000, 1150, 700, 410; GRATING CHANGES AT 2000, 630 CM^-^1
##STATE=SOLUTION (5% IN CCl4 FOR 3800-1300, 5% IN CS2 FOR 1300-600, AND 5% IN CCl4 FOR 600-240 CM^-^1) VERSUS SOLVENT
##PATH LENGTH=0.010, 0.010, AND 0.020 CM (CsBr CELL)
##SAMPLING PROCEDURE=TRANSMISSION
##RESOLUTION=4
##DATA PROCESSING=DIGITIZED BY NIST FROM HARD COPY (FROM TWO SEGMENTS)
##XUNITS=1/CM
##YUNITS=TRANSMITTANCE
##XFACTOR=1.000000
##YFACTOR=1
##DELTAX=1.281025
##FIRSTX=230.905
##LASTX=3793.44
##FIRSTY=0.828
##MAXX=3793.44
##MINX=230.905
##MAXY=0.899
##MINY=0.001
##NPOINTS=2782
##XYDATA=(X++(Y..Y))
230.905000 0.8280 0.8280 0.8280 0.8280 0.8280
237.310127 0.8280 0.8290 0.8290 0.8310 0.8310
243.715253 0.8310 0.8310 0.8290 0.8280 0.8260
250.120380 0.8240 0.8240 0.8240 0.8240 0.8240
256.525506 0.8260 0.8260 0.8240 0.8220 0.8220
262.930633 0.8210 0.8190 0.8170 0.8170 0.8150
269.335759 0.8150 0.8140 0.8120 0.8120 0.8120
275.740886 0.8120 0.8120 0.8100 0.8090 0.8090
282.146012 0.8050 0.8020 0.8000 0.8000 0.8020
288.551139 0.8030 0.8050 0.8070 0.8090 0.8100
294.956265 0.8120 0.8140 0.8150 0.8150 0.8170
301.361392 0.8170 0.8170 0.8170 0.8170 0.8150
307.766519 0.8150 0.8140 0.8120 0.8100 0.8090
314.171645 0.8070 0.8050 0.8050 0.8030 0.8020
320.576772 0.8000 0.7980 0.7960 0.7950 0.7890
326.981898 0.7880 0.7810 0.7691 0.7581 0.7510
333.387025 0.7440 0.7360 0.7200 0.7110 0.6970
339.792151 0.6920 0.6472 0.6331 0.6161 0.5484
346.197278 0.5200 0.4890 0.4560 0.4251 0.4140
352.602404 0.3871 0.3870 0.3970 0.4069 0.4368
359.007531 0.4790 0.5170 0.5360 0.5530 0.5919
365.412658 0.6179 0.6369 0.6569 0.6799 0.6969
371.817784 0.7180 0.7290 0.7370 0.7510 0.7580
378.222911 0.7620 0.7690 0.7720 0.7720 0.7879
384.628037 0.7910 0.7950 0.7960 0.8000 0.8000
391.033164 0.8030 0.8050 0.8070 0.8100 0.8120
397.438290 0.8140 0.8140 0.8150 0.8170 0.8190
403.843417 0.8240 0.8260 0.8260 0.8280 0.8280
410.248543 0.8280 0.8280 0.8280 0.8280 0.8260
416.653670 0.8240 0.8240 0.8220 0.8210 0.8210
423.058796 0.8190 0.8170 0.8170 0.8170 0.8170
429.463923 0.8170 0.8150 0.8150 0.8140 0.8120
435.869050 0.8090 0.8090 0.8090 0.8090 0.8100
442.274176 0.8100 0.8120 0.8120 0.8120 0.8090
448.679303 0.8050 0.8000 0.7960 0.7950 0.7890
455.084429 0.7880 0.7860 0.7840 0.7820 0.7820
461.489556 0.7810 0.7810 0.7790 0.7790 0.7790
467.894682 0.7790 0.7810 0.7820 0.7840 0.7880
474.299809 0.7910 0.7950 0.7960 0.7980 0.8020
480.704935 0.8050 0.8070 0.8090 0.8100 0.8120
487.110062 0.8140 0.8140 0.8150 0.8170 0.8170
493.515189 0.8170 0.8170 0.8170 0.8170 0.8150
499.920315 0.8150 0.8140 0.8140 0.8140 0.8120
506.325442 0.8120 0.8100 0.8090 0.8090 0.8070
512.730568 0.8070 0.8050 0.8030 0.8030 0.8020
519.135695 0.8020 0.8000 0.8000 0.8000 0.8000
525.540821 0.8020 0.8020 0.8030 0.8050 0.8050
531.945948 0.8050 0.8090 0.8090 0.8090 0.8090
538.351074 0.8100 0.8140 0.8150 0.8170 0.8170
544.756201 0.8190 0.8210 0.8190 0.8220 0.8240
551.161327 0.8240 0.8240 0.8240 0.8260 0.8260
557.566454 0.8260 0.8260 0.8260 0.8280 0.8280
563.971581 0.8280 0.8280 0.8280 0.8280 0.8280
570.376707 0.8280 0.8280 0.8280 0.8280 0.8280
576.781834 0.8280 0.8280 0.8280 0.8280 0.8280
583.186960 0.8280 0.8280 0.8280 0.8260 0.8260
589.592087 0.8260 0.8260 0.8260 0.8260 0.8260
595.997213 0.8260 0.8240 0.8240 0.8240 0.8240
602.402340 0.8220 0.8220 0.8220 0.8220 0.8240
608.807466 0.8260 0.8280 0.8290 0.8310 0.8310
615.212593 0.8330 0.8330 0.8310 0.8260 0.8170
621.617720 0.8150 0.8140 0.7602 0.7600 0.8137
628.022846 0.8470 0.8480 0.8500 0.8500 0.8500
634.427973 0.8500 0.8480 0.8480 0.8470 0.8430
640.833099 0.8360 0.8330 0.8330 0.8290 0.8290
647.238226 0.8280 0.8260 0.8220 0.8190 0.8150
653.643352 0.7960 0.7820 0.7740 0.7600 0.7251
660.048479 0.6782 0.6750 0.6183 0.6160 0.6915
666.453605 0.7700 0.8030 0.8260 0.8290 0.8350
672.858732 0.8380 0.8420 0.8450 0.8470 0.8480
679.263858 0.8500 0.8540 0.8550 0.8570 0.8590
685.668985 0.8590 0.8570 0.8570 0.8570 0.8590
692.074112 0.8590 0.8590 0.8610 0.8620 0.8620
698.479238 0.8620 0.8620 0.8610 0.8620 0.8640
704.884365 0.8660 0.8680 0.8680 0.8680 0.8660
711.289491 0.8660 0.8640 0.8640 0.8620 0.8620
717.694618 0.8610 0.8610 0.8610 0.8610 0.8620
724.099744 0.8620 0.8640 0.8640 0.8640 0.8660
730.504871 0.8660 0.8660 0.8680 0.8680 0.8680
736.909997 0.8690 0.8690 0.8690 0.8690 0.8710
743.315124 0.8710 0.8710 0.8710 0.8690 0.8690
749.720251 0.8680 0.8690 0.8710 0.8730 0.8730
756.125377 0.8730 0.8710 0.8690 0.8660 0.8660
762.530504 0.8660 0.8640 0.8620 0.8610 0.8590
768.935630 0.8590 0.8570 0.8570 0.8570 0.8570
775.340757 0.8550 0.8540 0.8540 0.8431 0.8420
781.745883 0.8380 0.8350 0.8330 0.8220 0.8140
788.151010 0.8090 0.7960 0.7860 0.7770 0.7651
794.556136 0.7550 0.7430 0.7080 0.6731 0.6381
800.961263 0.6021 0.5194 0.4613 0.3904 0.3383
807.366389 0.3070 0.2170 0.2170 0.2390 0.2859
813.771516 0.3448 0.4197 0.5384 0.5738 0.6088
820.176643 0.6470 0.6900 0.7320 0.7390 0.7430
826.581769 0.7440 0.7460 0.7460 0.7460 0.7430
832.986896 0.7390 0.7360 0.7250 0.7060 0.6940
839.392022 0.6800 0.6710 0.6371 0.5455 0.5380
845.797149 0.5340 0.5320 0.5260 0.5130 0.5010
852.202275 0.5010 0.5239 0.5449 0.5897 0.6327
858.607402 0.6920 0.7270 0.7769 0.7860 0.8030
865.012528 0.8140 0.8220 0.8280 0.8330 0.8360
871.417655 0.8400 0.8430 0.8450 0.8470 0.8480
877.822782 0.8500 0.8520 0.8520 0.8540 0.8540
884.227908 0.8540 0.8540 0.8540 0.8540 0.8540
890.633035 0.8540 0.8540 0.8540 0.8540 0.8540
897.038161 0.8540 0.8540 0.8540 0.8540 0.8540
903.443288 0.8540 0.8540 0.8540 0.8540 0.8540
909.848414 0.8540 0.8540 0.8540 0.8540 0.8540
916.253541 0.8520 0.8520 0.8520 0.8520 0.8520
922.658667 0.8520 0.8500 0.8500 0.8480 0.8470
929.063794 0.8450 0.8450 0.8420 0.8350 0.8310
935.468920 0.8290 0.8220 0.8190 0.8140 0.8050
941.874047 0.7980 0.7841 0.7770 0.7621 0.7600
948.279174 0.7460 0.7410 0.7250 0.7030 0.6821
954.684300 0.6491 0.5952 0.5651 0.4775 0.3488
961.089427 0.3120 0.2720 0.2320 0.1921 0.1920
967.494553 0.3565 0.3729 0.3869 0.4059 0.4199
973.899680 0.4340 0.4270 0.3990 0.3800 0.3142
980.304806 0.2761 0.2441 0.1962 0.1512 0.1510
986.709933 0.1900 0.2300 0.2980 0.3499 0.4268
993.115059 0.4599 0.4600 0.4471 0.4440 0.4281
999.520186 0.4200 0.4200 0.4490 0.4769 0.5009
1005.925313 0.5259 0.5449 0.5639 0.6087 0.6418
1012.330439 0.6840 0.7100 0.7250 0.7430 0.7530
1018.735566 0.7630 0.7720 0.7770 0.7820 0.7840
1025.140692 0.7860 0.7880 0.7910 0.7950 0.7950
1031.545819 0.7910 0.7910 0.7890 0.7880 0.7840
1037.950945 0.7810 0.7790 0.7770 0.7690 0.7670
1044.356072 0.7560 0.7440 0.7430 0.7271 0.7061
1050.761198 0.7030 0.6940 0.6700 0.6490 0.6181
1057.166325 0.5951 0.5382 0.4793 0.4323 0.3833
1063.571451 0.3470 0.2930 0.2431 0.0983 0.0980
1069.976578 0.1229 0.1449 0.2037 0.3233 0.4174
1076.381705 0.4860 0.5520 0.6050 0.6489 0.6989
1082.786831 0.7179 0.7270 0.7439 0.7549 0.7649
1089.191958 0.7740 0.7840 0.7960 0.7980 0.8030
1095.597084 0.8090 0.8140 0.8140 0.8150 0.8150
1102.002211 0.8170 0.8170 0.8170 0.8170 0.8170
1108.407337 0.8150 0.8150 0.8140 0.8140 0.8120
1114.812464 0.8120 0.8100 0.8090 0.8070 0.8070
1121.217590 0.8050 0.8050 0.8030 0.8030 0.8000
1127.622717 0.7840 0.7770 0.7770 0.7700 0.7670
1134.027844 0.7630 0.7580 0.7530 0.7500 0.7500
1140.432970 0.7430 0.7430 0.7370 0.7300 0.7180
1146.838097 0.7110 0.7080 0.7010 0.6920 0.6821
1153.243223 0.6780 0.6350 0.6120 0.5970 0.5900
1159.648350 0.5412 0.5241 0.5031 0.4722 0.4491
1166.053476 0.4180 0.4010 0.3850 0.3241 0.2881
1172.458603 0.2431 0.2012 0.0905 0.0741 0.0551
1178.863729 0.0340 0.0320 0.0360 0.0430 0.0520
1185.268856 0.0650 0.0809 0.0860 0.0860 0.0790
1191.673982 0.0640 0.0520 0.0310 0.0200 0.0170
1198.079109 0.0130 0.0120 0.0120 0.0130 0.0170
1204.484236 0.0200 0.0220 0.0260 0.0290 0.0410
1210.889362 0.0779 0.1039 0.1299 0.1658 0.2246
1217.294489 0.2930 0.3350 0.3690 0.4019 0.4389
1223.699615 0.4649 0.4720 0.4909 0.5119 0.5269
1230.104742 0.5430 0.5460 0.5500 0.5550 0.5590
1236.509868 0.5710 0.5720 0.5740 0.5740 0.5720
1242.914995 0.5690 0.5640 0.5600 0.5520 0.5390
1249.320121 0.5270 0.5260 0.5260 0.5260 0.5240
1255.725248 0.5170 0.5030 0.4940 0.4461 0.4071
1262.130375 0.3731 0.3312 0.2932 0.2622 0.2113
1268.535501 0.0980 0.0410 0.0340 0.0290 0.0290
1274.940628 0.0360 0.0499 0.0600 0.0809 0.1019
1281.345754 0.1490 0.2010 0.2230 0.2390 0.2390
1287.750881 0.2340 0.2270 0.2270 0.2360 0.2529
1294.156007 0.2690 0.2960 0.3220 0.3420 0.3520
1300.561134 0.3620 0.3730 0.3969 0.4010 0.4060
1306.966260 0.4140 0.4180 0.4470 0.4839 0.5379
1313.371387 0.5520 0.5640 0.5968 0.6248 0.6538
1319.776513 0.6800 0.6960 0.7200 0.7250 0.7340
1326.181640 0.7440 0.7599 0.7670 0.7769 0.7820
1332.586767 0.7950 0.7960 0.7980 0.8000 0.8050
1338.991893 0.8070 0.8070 0.8090 0.8090 0.8100
1345.397020 0.8100 0.8100 0.8090 0.8090 0.8070
1351.802146 0.8070 0.8090 0.8090 0.8100 0.8100
1358.207273 0.8100 0.8120 0.8120 0.8120 0.8120
1364.612399 0.8120 0.8100 0.8100 0.8090 0.8090
1371.017526 0.8070 0.8070 0.8030 0.8000 0.8000
1377.422652 0.7960 0.7890 0.7880 0.7840 0.7810
1383.827779 0.7790 0.7760 0.7630 0.7550 0.7430
1390.232906 0.7251 0.7101 0.6752 0.6352 0.5903
1396.638032 0.5239 0.4460 0.3661 0.2861 0.2062
1403.043159 0.0315 0.0310 0.0788 0.1258 0.3209
1409.448285 0.4930 0.5430 0.5929 0.6329 0.6609
1415.853412 0.7029 0.7040 0.7179 0.7230 0.7230
1422.258538 0.7200 0.7110 0.7030 0.6940 0.6840
1428.663665 0.6521 0.6311 0.5832 0.5134 0.4355
1435.068791 0.3710 0.3190 0.2600 0.1961 0.0713
1441.473918 0.0710 0.1188 0.1678 0.2595 0.4191
1447.879044 0.4540 0.5010 0.5360 0.5670 0.5979
1454.284171 0.6020 0.6020 0.6020 0.6020 0.6040
1460.689298 0.6040 0.6050 0.6180 0.6190 0.6469
1467.094424 0.6709 0.6919 0.6990 0.7358 0.7529
1473.499551 0.7560 0.7600 0.7670 0.7700 0.7770
1479.904677 0.7840 0.7890 0.7960 0.7960 0.7980
1486.309804 0.8020 0.8070 0.8090 0.8100 0.8100
1492.714930 0.8100 0.8100 0.8100 0.8120 0.8140
1499.120057 0.8150 0.8170 0.8190 0.8190 0.8210
1505.525183 0.8210 0.8190 0.8150 0.8150 0.8120
1511.930310 0.8100 0.8090 0.8070 0.8050 0.8070
1518.335437 0.8140 0.8190 0.8260 0.8379 0.8420
1524.740563 0.8470 0.8480 0.8480 0.8500 0.8520
1531.145690 0.8520 0.8520 0.8540 0.8540 0.8540
1537.550816 0.8550 0.8570 0.8590 0.8590 0.8590
1543.955943 0.8590 0.8610 0.8610 0.8590 0.8590
1550.361069 0.8570 0.8570 0.8570 0.8550 0.8550
1556.766196 0.8540 0.8520 0.8520 0.8520 0.8520
1563.171322 0.8520 0.8520 0.8500 0.8480 0.8480
1569.576449 0.8480 0.8480 0.8480 0.8480 0.8470
1575.981575 0.8470 0.8470 0.8470 0.8470 0.8450
1582.386702 0.8450 0.8450 0.8450 0.8450 0.8430
1588.791829 0.8400 0.8350 0.8330 0.8280 0.8260
1595.196955 0.8210 0.8170 0.8150 0.8120 0.8070
1601.602082 0.8020 0.7960 0.7860 0.7820 0.7810
1608.007208 0.7770 0.7700 0.7511 0.7371 0.7251
1614.412335 0.7100 0.6940 0.6470 0.6260 0.6050
1620.817461 0.5851 0.5641 0.5640 0.5720 0.5790
1627.222588 0.5980 0.5980 0.5920 0.5850 0.5341
1633.627714 0.4961 0.4701 0.3625 0.3620 0.4246
1640.032841 0.5240 0.5650 0.6050 0.6849 0.7628
1646.437968 0.7650 0.7760 0.7840 0.7860 0.7890
1652.843094 0.7930 0.7930 0.7930 0.7910 0.7910
1659.248221 0.7880 0.7820 0.7820 0.7790 0.7790
1665.653347 0.7770 0.7770 0.7760 0.7760 0.7760
1672.058474 0.7760 0.7740 0.7740 0.7720 0.7700
1678.463600 0.7670 0.7630 0.7510 0.7430 0.7370
1684.868727 0.7270 0.7220 0.7180 0.7031 0.7030
1691.273853 0.6610 0.6510 0.6420 0.6350 0.6330
1697.678980 0.6310 0.6310 0.6310 0.6300 0.6191
1704.084106 0.6090 0.5900 0.5880 0.5780 0.5650
1710.489233 0.5361 0.5220 0.5031 0.4891 0.4562
1716.894360 0.4270 0.4010 0.3940 0.3311 0.2951
1723.299486 0.2551 0.2182 0.0906 0.0502 0.0361
1729.704613 0.0200 0.0050 0.0010 0.0010 0.0010
1736.109739 0.0010 0.0010 0.0010 0.0010 0.0030
1742.514866 0.0190 0.0310 0.0640 0.0650 0.0999
1748.919992 0.1329 0.2008 0.2687 0.3307 0.3986
1755.325119 0.4370 0.4790 0.5130 0.5390 0.5590
1761.730245 0.5760 0.6189 0.6310 0.6350 0.6509
1768.135372 0.6660 0.6770 0.6920 0.6990 0.7180
1774.540499 0.7200 0.7339 0.7390 0.7430 0.7460
1780.945625 0.7510 0.7600 0.7650 0.7690 0.7740
1787.350752 0.7760 0.7770 0.7840 0.7959 0.8000
1793.755878 0.8020 0.8050 0.8090 0.8100 0.8140
1800.161005 0.8140 0.8170 0.8220 0.8240 0.8260
1806.566131 0.8280 0.8290 0.8310 0.8330 0.8350
1812.971258 0.8400 0.8420 0.8430 0.8450 0.8480
1819.376384 0.8480 0.8500 0.8500 0.8500 0.8520
1825.781511 0.8520 0.8520 0.8540 0.8540 0.8540
1832.186637 0.8550 0.8550 0.8550 0.8570 0.8570
1838.591764 0.8570 0.8590 0.8590 0.8590 0.8570
1844.996891 0.8570 0.8550 0.8550 0.8550 0.8550
1851.402017 0.8550 0.8550 0.8540 0.8540 0.8540
1857.807144 0.8540 0.8550 0.8550 0.8550 0.8550
1864.212270 0.8550 0.8550 0.8550 0.8550 0.8550
1870.617397 0.8550 0.8570 0.8590 0.8610 0.8640
1877.022523 0.8660 0.8660 0.8640 0.8640 0.8620
1883.427650 0.8620 0.8620 0.8620 0.8640 0.8640
1889.832776 0.8620 0.8620 0.8620 0.8620 0.8610
1896.237903 0.8550 0.8550 0.8540 0.8540 0.8520
1902.643030 0.8520 0.8500 0.8450 0.8450 0.8430
1909.048156 0.8430 0.8430 0.8420 0.8380 0.8380
1915.453283 0.8360 0.8360 0.8360 0.8350 0.8310
1921.858409 0.8310 0.8290 0.8280 0.8260 0.8260
1928.263536 0.8240 0.8220 0.8220 0.8210 0.8190
1934.668662 0.8170 0.8170 0.8170 0.8170 0.8190
1941.073789 0.8190 0.8210 0.8210 0.8240 0.8260
1947.478915 0.8280 0.8290 0.8330 0.8350 0.8400
1953.884042 0.8430 0.8450 0.8470 0.8480 0.8500
1960.289168 0.8520 0.8520 0.8520 0.8540 0.8540
1966.694295 0.8540 0.8550 0.8550 0.8550 0.8540
1973.099422 0.8540 0.8540 0.8540 0.8540 0.8540
1979.504548 0.8540 0.8540 0.8520 0.8520 0.8520
1985.909675 0.8520 0.8500 0.8500 0.8500 0.8520
1992.314801 0.8540 0.8550 0.8550 0.8590 0.8620
1998.719928 0.8660 0.8660 0.8660 0.8660 0.8650
2005.125054 0.8640 0.8615 0.8590 0.8580 0.8570
2011.530181 0.8570 0.8570 0.8560 0.8550 0.8550
2017.935307 0.8550 0.8545 0.8540 0.8530 0.8520
2024.340434 0.8510 0.8500 0.8475 0.8450 0.8440
2030.745561 0.8430 0.8415 0.8400 0.8380 0.8360
2037.150687 0.8355 0.8350 0.8350 0.8350 0.8355
2043.555814 0.8360 0.8380 0.8400 0.8390 0.8380
2049.960940 0.8344 0.8309 0.8284 0.8260 0.8260
2056.366067 0.8260 0.8270 0.8280 0.8280 0.8280
2062.771193 0.8295 0.8310 0.8320 0.8331 0.8381
2069.176320 0.8431 0.8456 0.8480 0.8500 0.8520
2075.581446 0.8536 0.8551 0.8571 0.8590 0.8590
2081.986573 0.8590 0.8590 0.8590 0.8600 0.8610
2088.391699 0.8610 0.8610 0.8600 0.8590 0.8580
2094.796826 0.8570 0.8580 0.8590 0.8600 0.8610
2101.201953 0.8610 0.8609 0.8589 0.8570 0.8570
2107.607079 0.8569 0.8559 0.8550 0.8545 0.8540
2114.012206 0.8540 0.8540 0.8540 0.8540 0.8540
2120.417332 0.8540 0.8540 0.8540 0.8540 0.8540
2126.822459 0.8540 0.8540 0.8540 0.8540 0.8545
2133.227585 0.8553 0.8588 0.8621 0.8631 0.8640
2139.632712 0.8640 0.8641 0.8651 0.8660 0.8660
2146.037838 0.8660 0.8660 0.8661 0.8671 0.8680
2152.442965 0.8680 0.8680 0.8685 0.8690 0.8690
2158.848092 0.8690 0.8690 0.8690 0.8690 0.8690
2165.253218 0.8690 0.8690 0.8690 0.8690 0.8690
2171.658345 0.8690 0.8690 0.8690 0.8690 0.8690
2178.063471 0.8690 0.8690 0.8690 0.8691 0.8701
2184.468598 0.8710 0.8710 0.8710 0.8710 0.8709
2190.873724 0.8699 0.8690 0.8690 0.8690 0.8690
2197.278851 0.8690 0.8690 0.8691 0.8701 0.8709
2203.683977 0.8699 0.8690 0.8690 0.8690 0.8690
2210.089104 0.8690 0.8690 0.8690 0.8690 0.8690
2216.494230 0.8690 0.8690 0.8690 0.8690 0.8690
2222.899357 0.8690 0.8690 0.8690 0.8690 0.8690
2229.304484 0.8690 0.8690 0.8690 0.8689 0.8684
2235.709610 0.8679 0.8669 0.8659 0.8649 0.8639
2242.114737 0.8629 0.8620 0.8620 0.8620 0.8620
2248.519863 0.8620 0.8620 0.8621 0.8631 0.8640
2254.924990 0.8640 0.8640 0.8640 0.8640 0.8640
2261.330116 0.8642 0.8652 0.8662 0.8672 0.8680
2267.735243 0.8680 0.8678 0.8668 0.8658 0.8648
2274.140369 0.8638 0.8628 0.8619 0.8614 0.8610
2280.545496 0.8610 0.8608 0.8598 0.8590 0.8590
2286.950623 0.8590 0.8590 0.8593 0.8608 0.8622
2293.355749 0.8632 0.8642 0.8652 0.8662 0.8672
2299.760876 0.8680 0.8680 0.8680 0.8680 0.8681
2306.166002 0.8686 0.8690 0.8690 0.8690 0.8690
2312.571129 0.8690 0.8690 0.8690 0.8690 0.8690
2318.976255 0.8690 0.8690 0.8690 0.8690 0.8690
2325.381382 0.8689 0.8684 0.8680 0.8680 0.8678
2331.786508 0.8668 0.8660 0.8660 0.8660 0.8660
2338.191635 0.8658 0.8648 0.8638 0.8628 0.8620
2344.596761 0.8620 0.8619 0.8614 0.8608 0.8598
2351.001888 0.8588 0.8578 0.8570 0.8570 0.8568
2357.407015 0.8558 0.8550 0.8550 0.8550 0.8550
2363.812141 0.8549 0.8544 0.8540 0.8540 0.8540
2370.217268 0.8540 0.8540 0.8540 0.8540 0.8540
2376.622394 0.8540 0.8540 0.8540 0.8540 0.8540
2383.027521 0.8540 0.8540 0.8540 0.8540 0.8540
2389.432647 0.8540 0.8540 0.8540 0.8540 0.8538
2395.837774 0.8528 0.8520 0.8520 0.8520 0.8520
2402.242900 0.8520 0.8520 0.8520 0.8520 0.8520
2408.648027 0.8520 0.8523 0.8533 0.8540 0.8540
2415.053154 0.8540 0.8540 0.8541 0.8546 0.8555
2421.458280 0.8575 0.8590 0.8590 0.8590 0.8590
2427.863407 0.8592 0.8602 0.8611 0.8616 0.8622
2434.268533 0.8633 0.8643 0.8653 0.8663 0.8673
2440.673660 0.8680 0.8680 0.8680 0.8680 0.8677
2447.078786 0.8667 0.8660 0.8660 0.8657 0.8647
2453.483913 0.8640 0.8640 0.8637 0.8627 0.8616
2459.889039 0.8601 0.8587 0.8577 0.8567 0.8557
2466.294166 0.8550 0.8550 0.8550 0.8550 0.8556
2472.699292 0.8576 0.8593 0.8603 0.8611 0.8616
2479.104419 0.8620 0.8620 0.8620 0.8620 0.8619
2485.509546 0.8614 0.8604 0.8584 0.8567 0.8557
2491.914672 0.8550 0.8550 0.8553 0.8563 0.8573
2498.319799 0.8583 0.8590 0.8590 0.8590 0.8590
2504.724925 0.8590 0.8590 0.8590 0.8590 0.8590
2511.130052 0.8590 0.8587 0.8577 0.8570 0.8570
2517.535178 0.8567 0.8557 0.8550 0.8550 0.8553
2523.940305 0.8563 0.8570 0.8570 0.8570 0.8570
2530.345431 0.8570 0.8570 0.8570 0.8570 0.8570
2536.750558 0.8570 0.8567 0.8557 0.8548 0.8543
2543.155685 0.8540 0.8540 0.8542 0.8547 0.8550
2549.560811 0.8550 0.8550 0.8550 0.8550 0.8550
2555.965938 0.8550 0.8550 0.8550 0.8550 0.8550
2562.371064 0.8550 0.8548 0.8543 0.8540 0.8540
2568.776191 0.8540 0.8540 0.8537 0.8527 0.8520
2575.181317 0.8520 0.8520 0.8520 0.8513 0.8493
2581.586444 0.8478 0.8473 0.8467 0.8457 0.8450
2587.991570 0.8450 0.8450 0.8450 0.8454 0.8464
2594.396697 0.8470 0.8470 0.8472 0.8477 0.8487
2600.801823 0.8507 0.8524 0.8534 0.8540 0.8540
2607.206950 0.8542 0.8547 0.8550 0.8550 0.8550
2613.612077 0.8550 0.8550 0.8550 0.8550 0.8550
2620.017203 0.8554 0.8564 0.8570 0.8570 0.8570
2626.422330 0.8570 0.8574 0.8584 0.8590 0.8590
2632.827456 0.8586 0.8576 0.8570 0.8570 0.8570
2639.232583 0.8570 0.8566 0.8556 0.8550 0.8550
2645.637709 0.8550 0.8550 0.8550 0.8550 0.8550
2652.042836 0.8550 0.8548 0.8543 0.8540 0.8540
2658.447962 0.8540 0.8540 0.8542 0.8547 0.8550
2664.853089 0.8550 0.8550 0.8550 0.8548 0.8543
2671.258216 0.8540 0.8540 0.8542 0.8547 0.8550
2677.663342 0.8550 0.8548 0.8543 0.8540 0.8540
2684.068469 0.8540 0.8540 0.8540 0.8540 0.8536
2690.473595 0.8526 0.8520 0.8520 0.8520 0.8520
2696.878722 0.8520 0.8520 0.8524 0.8534 0.8542
2703.283848 0.8547 0.8550 0.8550 0.8550 0.8550
2709.688975 0.8550 0.8550 0.8550 0.8550 0.8554
2716.094101 0.8564 0.8570 0.8570 0.8570 0.8570
2722.499228 0.8574 0.8584 0.8590 0.8590 0.8590
2728.904354 0.8590 0.8594 0.8604 0.8610 0.8610
2735.309481 0.8610 0.8610 0.8610 0.8610 0.8610
2741.714608 0.8610 0.8605 0.8595 0.8590 0.8590
2748.119734 0.8590 0.8590 0.8590 0.8590 0.8585
2754.524861 0.8575 0.8570 0.8570 0.8570 0.8570
2760.929987 0.8565 0.8555 0.8550 0.8550 0.8550
2767.335114 0.8550 0.8548 0.8543 0.8540 0.8540
2773.740240 0.8540 0.8540 0.8535 0.8525 0.8520
2780.145367 0.8520 0.8520 0.8520 0.8520 0.8520
2786.550493 0.8520 0.8520 0.8520 0.8520 0.8520
2792.955620 0.8520 0.8520 0.8520 0.8520 0.8520
2799.360747 0.8520 0.8520 0.8520 0.8520 0.8520
2805.765873 0.8520 0.8520 0.8520 0.8515 0.8505
2812.171000 0.8500 0.8500 0.8493 0.8478 0.8460
2818.576126 0.8440 0.8422 0.8407 0.8395 0.8385
2824.981253 0.8354 0.8305 0.8262 0.8227 0.8182
2831.386379 0.8127 0.8080 0.8040 0.8020 0.8020
2837.791506 0.8038 0.8073 0.8110 0.8150 0.8170
2844.196632 0.8170 0.8144 0.8094 0.8041 0.7986
2850.601759 0.7934 0.7884 0.7829 0.7769 0.7730
2857.006885 0.7710 0.7710 0.7730 0.7831 0.8006
2863.412012 0.8139 0.8234 0.8283 0.8288 0.8290
2869.817139 0.8290 0.8287 0.8282 0.8275 0.8265
2876.222265 0.8255 0.8245 0.8221 0.8186 0.8151
2882.627392 0.8116 0.8081 0.8046 0.8022 0.8007
2889.032518 0.7995 0.7985 0.7975 0.7965 0.7957
2895.437645 0.7952 0.7930 0.7895 0.7855 0.7810
2901.842771 0.7731 0.7626 0.7580 0.7580 0.7633
2908.247898 0.7728 0.7776 0.7786 0.7798 0.7813
2914.653024 0.7820 0.7820 0.7826 0.7835 0.7840
2921.058151 0.7840 0.7840 0.7840 0.7840 0.7840
2927.463278 0.7831 0.7816 0.7799 0.7779 0.7750
2933.868404 0.7715 0.7691 0.7676 0.7644 0.7599
2940.273531 0.7512 0.7392 0.7247 0.7082 0.6829
2946.678657 0.6510 0.5965 0.5266 0.4918 0.4813
2953.083784 0.4493 0.4023 0.3830 0.3830 0.4141
2959.488910 0.4671 0.5195 0.5715 0.6261 0.6825
2965.894037 0.7127 0.7242 0.7351 0.7456 0.7515
2972.299163 0.7540 0.7553 0.7558 0.7560 0.7560
2978.704290 0.7557 0.7552 0.7517 0.7462 0.7377
2985.109416 0.7272 0.7158 0.7038 0.6897 0.6742
2991.514543 0.6638 0.6568 0.6372 0.6093 0.5980
2997.919670 0.5980 0.6080 0.6240 0.6347 0.6422
3004.324796 0.6500 0.6580 0.6653 0.6723 0.6781
3010.729923 0.6831 0.6878 0.6923 0.6977 0.7037
3017.135049 0.7060 0.7060 0.7032 0.6987 0.6948
3023.540176 0.6913 0.6900 0.6900 0.6913 0.6933
3029.945302 0.6946 0.6956 0.6970 0.6985 0.6990
3036.350429 0.6990 0.6974 0.6949 0.7038 0.7193
3042.755555 0.7376 0.7576 0.7688 0.7748 0.7831
3049.160682 0.7927 0.7996 0.8051 0.8080 0.8095
3055.565809 0.8107 0.8117 0.8127 0.8137 0.8140
3061.970935 0.8140 0.8143 0.8148 0.8156 0.8166
3068.376062 0.8170 0.8170 0.8176 0.8186 0.8197
3074.781188 0.8207 0.8213 0.8218 0.8227 0.8237
3081.186315 0.8253 0.8273 0.8283 0.8288 0.8297
3087.591441 0.8307 0.8310 0.8310 0.8310 0.8310
3093.996568 0.8310 0.8310 0.8310 0.8310 0.8300
3100.401694 0.8285 0.8249 0.8204 0.8173 0.8148
3106.806821 0.8140 0.8140 0.8143 0.8148 0.8181
3113.211947 0.8226 0.8271 0.8316 0.8354 0.8389
3119.617074 0.8407 0.8417 0.8430 0.8445 0.8460
3126.022201 0.8476 0.8494 0.8514 0.8520 0.8520
3132.427327 0.8520 0.8520 0.8527 0.8537 0.8540
3138.832454 0.8540 0.8540 0.8540 0.8540 0.8540
3145.237580 0.8540 0.8540 0.8540 0.8540 0.8540
3151.642707 0.8540 0.8540 0.8540 0.8540 0.8540
3158.047833 0.8540 0.8540 0.8544 0.8549 0.8550
3164.452960 0.8550 0.8550 0.8550 0.8557 0.8567
3170.858086 0.8570 0.8570 0.8570 0.8570 0.8570
3177.263213 0.8570 0.8577 0.8587 0.8590 0.8590
3183.668340 0.8590 0.8590 0.8590 0.8590 0.8590
3190.073466 0.8590 0.8597 0.8607 0.8610 0.8610
3196.478593 0.8610 0.8610 0.8614 0.8619 0.8620
3202.883719 0.8620 0.8620 0.8620 0.8628 0.8638
3209.288846 0.8633 0.8623 0.8620 0.8620 0.8620
3215.693972 0.8620 0.8620 0.8620 0.8627 0.8637
3222.099099 0.8640 0.8640 0.8647 0.8657 0.8652
3228.504225 0.8642 0.8640 0.8640 0.8640 0.8640
3234.909352 0.8648 0.8658 0.8660 0.8660 0.8660
3241.314478 0.8660 0.8668 0.8678 0.8680 0.8680
3247.719605 0.8680 0.8680 0.8680 0.8680 0.8684
3254.124732 0.8689 0.8690 0.8690 0.8690 0.8690
3260.529858 0.8690 0.8690 0.8686 0.8681 0.8680
3266.934985 0.8680 0.8680 0.8680 0.8680 0.8680
3273.340111 0.8684 0.8689 0.8698 0.8708 0.8710
3279.745238 0.8710 0.8710 0.8710 0.8710 0.8710
3286.150364 0.8702 0.8692 0.8690 0.8690 0.8690
3292.555491 0.8690 0.8690 0.8690 0.8690 0.8690
3298.960617 0.8698 0.8708 0.8710 0.8710 0.8710
3305.365744 0.8710 0.8710 0.8710 0.8710 0.8710
3311.770871 0.8710 0.8710 0.8710 0.8710 0.8710
3318.175997 0.8710 0.8710 0.8710 0.8702 0.8692
3324.581124 0.8690 0.8690 0.8690 0.8690 0.8690
3330.986250 0.8690 0.8690 0.8690 0.8690 0.8690
3337.391377 0.8686 0.8681 0.8680 0.8680 0.8680
3343.796503 0.8680 0.8680 0.8680 0.8672 0.8662
3350.201630 0.8660 0.8660 0.8668 0.8678 0.8680
3356.606756 0.8680 0.8680 0.8680 0.8680 0.8680
3363.011883 0.8680 0.8680 0.8680 0.8680 0.8680
3369.417009 0.8680 0.8680 0.8680 0.8680 0.8680
3375.822136 0.8684 0.8689 0.8690 0.8690 0.8698
3382.227263 0.8709 0.8719 0.8729 0.8730 0.8730
3388.632389 0.8730 0.8730 0.8730 0.8730 0.8730
3395.037516 0.8730 0.8730 0.8730 0.8730 0.8730
3401.442642 0.8721 0.8711 0.8710 0.8710 0.8710
3407.847769 0.8710 0.8710 0.8710 0.8701 0.8691
3414.252895 0.8690 0.8690 0.8677 0.8662 0.8651
3420.658022 0.8641 0.8640 0.8640 0.8631 0.8621
3427.063148 0.8620 0.8620 0.8607 0.8592 0.8568
3433.468275 0.8543 0.8531 0.8521 0.8489 0.8454
3439.873402 0.8428 0.8403 0.8369 0.8334 0.8299
3446.278528 0.8264 0.8251 0.8241 0.8249 0.8259
3452.683655 0.8282 0.8307 0.8332 0.8357 0.8387
3459.088781 0.8417 0.8443 0.8468 0.8484 0.8499
3465.493908 0.8523 0.8548 0.8577 0.8607 0.8615
3471.899034 0.8620 0.8647 0.8677 0.8685 0.8690
3478.304161 0.8699 0.8709 0.8719 0.8729 0.8730
3484.709287 0.8730 0.8730 0.8730 0.8730 0.8730
3491.114414 0.8730 0.8730 0.8739 0.8749 0.8750
3497.519540 0.8750 0.8750 0.8750 0.8750 0.8750
3503.924667 0.8750 0.8750 0.8750 0.8750 0.8750
3510.329794 0.8750 0.8750 0.8750 0.8750 0.8750
3516.734920 0.8750 0.8750 0.8750 0.8750 0.8750
3523.140047 0.8750 0.8750 0.8750 0.8750 0.8750
3529.545173 0.8750 0.8750 0.8750 0.8750 0.8750
3535.950300 0.8750 0.8750 0.8750 0.8750 0.8750
3542.355426 0.8750 0.8750 0.8750 0.8750 0.8750
3548.760553 0.8750 0.8750 0.8750 0.8750 0.8750
3555.165679 0.8750 0.8750 0.8750 0.8750 0.8750
3561.570806 0.8750 0.8750 0.8750 0.8755 0.8760
3567.975933 0.8760 0.8760 0.8760 0.8760 0.8760
3574.381059 0.8760 0.8760 0.8760 0.8779 0.8799
3580.786186 0.8824 0.8849 0.8850 0.8850 0.8830
3587.191312 0.8810 0.8795 0.8780 0.8780 0.8780
3593.596439 0.8780 0.8780 0.8780 0.8780 0.8770
3600.001565 0.8760 0.8760 0.8760 0.8755 0.8750
3606.406692 0.8755 0.8760 0.8760 0.8760 0.8770
3612.811818 0.8780 0.8780 0.8780 0.8780 0.8780
3619.216945 0.8780 0.8780 0.8790 0.8800 0.8805
3625.622071 0.8810 0.8810 0.8810 0.8805 0.8800
3632.027198 0.8790 0.8780 0.8780 0.8780 0.8770
3638.432325 0.8760 0.8755 0.8750 0.8750 0.8751
3644.837451 0.8776 0.8800 0.8815 0.8830 0.8815
3651.242578 0.8800 0.8800 0.8800 0.8790 0.8780
3657.647704 0.8765 0.8750 0.8750 0.8750 0.8755
3664.052831 0.8760 0.8770 0.8781 0.8796 0.8810
3670.457957 0.8810 0.8810 0.8805 0.8800 0.8790
3676.863084 0.8780 0.8770 0.8760 0.8760 0.8760
3683.268210 0.8770 0.8780 0.8780 0.8780 0.8770
3689.673337 0.8760 0.8760 0.8760 0.8760 0.8761
3696.078464 0.8771 0.8781 0.8791 0.8800 0.8800
3702.483590 0.8800 0.8805 0.8810 0.8810 0.8810
3708.888717 0.8810 0.8810 0.8820 0.8830 0.8830
3715.293843 0.8831 0.8841 0.8850 0.8850 0.8850
3721.698970 0.8850 0.8851 0.8861 0.8870 0.8870
3728.104096 0.8870 0.8870 0.8870 0.8875 0.8880
3734.509223 0.8880 0.8880 0.8880 0.8881 0.8902
3740.914349 0.8921 0.8931 0.8942 0.8967 0.8990
3747.319476 0.8990 0.8989 0.8979 0.8966 0.8921
3753.724602 0.8878 0.8853 0.8830 0.8830 0.8830
3760.129729 0.8830 0.8830 0.8830 0.8830 0.8830
3766.534856 0.8829 0.8819 0.8810 0.8810 0.8810
3772.939982 0.8810 0.8810 0.8810 0.8810 0.8805
3779.345109 0.8800 0.8800 0.8800 0.8800 0.8800
3785.750235 0.8805 0.8810 0.8810 0.8811 0.8821
3792.155362 0.8831 0.8841
##END=
