##TITLE=BUTYROLACTONE
##JCAMP-DX=4.24
##DATA TYPE=INFRARED SPECTRUM
##CLASS=COBLENTZ III
##ORIGIN=DOW CHEMICAL COMPANY
##OWNER=COBLENTZ SOCIETY
Collection (C) 2018 copyright by the U.S. Secretary of Commerce
on behalf of the United States of America. All rights reserved.
##DATE=1964/09/24
##NAMES=dihydro-2(3H)-furanone
##CAS REGISTRY NO=96-48-0
##MOLFORM=C4 H6 O2
##SOURCE REFERENCE=COBLENTZ NO. 10201
##$NIST SOURCE=COBLENTZ
##$NIST IMAGE=cob10201
##SPECTROMETER/DATA SYSTEM=DOW KBr FOREPRISM-GRATING
##INSTRUMENT PARAMETERS=BLAZED AT 3.5, 12.0, 20.0 MICRON, CHANGED AT 5.0, 7.5, 14.9 MICRON
##STATE=SOLUTION (10% IN CCl4 FOR 3800-1330, 10% IN CS2 FOR 1330-460 CM^-^1)
##PATH LENGTH=0.011, 0.011 CM
$$SPECTRAL CONTAMINATION DUE TO CCl4 AROUND 1550 CM^-^1
$$ SEE SPECTRUM NO. 7555 FOR "LIQUID (NEAT)" STATE
##SAMPLING PROCEDURE=TRANSMISSION
##RESOLUTION=4
##DATA PROCESSING=DIGITIZED BY NIST FROM HARD COPY (FROM TWO SEGMENTS)
##XUNITS=1/CM
##YUNITS=TRANSMITTANCE
##XFACTOR=1.000000
##YFACTOR=1
##DELTAX=0.853728
##FIRSTX=454.752
##LASTX=3802.22
##FIRSTY=0.838
##MAXX=3802.22
##MINX=454.752
##MAXY=0.991
##MINY=0
##NPOINTS=3922
##XYDATA=(X++(Y..Y))
454.752000 0.8380 0.8380 0.8380 0.8380 0.8390
459.020641 0.8420 0.8430 0.8440 0.8440 0.8440
463.289282 0.8480 0.8480 0.8500 0.8510 0.8510
467.557923 0.8510 0.8510 0.8510 0.8510 0.8510
471.826564 0.8510 0.8510 0.8510 0.8510 0.8510
476.095204 0.8510 0.8510 0.8510 0.8500 0.8480
480.363845 0.8470 0.8440 0.8430 0.8420 0.8360
484.632486 0.8320 0.8270 0.8160 0.8031 0.7881
488.901127 0.7700 0.7171 0.6891 0.6611 0.5862
493.169768 0.4704 0.4700 0.5327 0.5579 0.5779
497.438409 0.6000 0.7438 0.7819 0.8039 0.8180
501.707050 0.8240 0.8310 0.8350 0.8390 0.8430
505.975691 0.8500 0.8510 0.8520 0.8540 0.8580
510.244331 0.8590 0.8590 0.8590 0.8590 0.8590
514.512972 0.8580 0.8580 0.8560 0.8550 0.8550
518.781613 0.8550 0.8540 0.8520 0.8510 0.8500
523.050254 0.8440 0.8390 0.8340 0.8300 0.8220
527.318895 0.8140 0.7961 0.7761 0.7601 0.7451
531.587536 0.7360 0.7210 0.7120 0.7090 0.7090
535.856177 0.7200 0.7290 0.7439 0.7559 0.7749
540.124818 0.7920 0.8080 0.8150 0.8260 0.8350
544.393459 0.8420 0.8510 0.8580 0.8640 0.8680
548.662099 0.8720 0.8830 0.8870 0.8900 0.8910
552.930740 0.8930 0.8950 0.8990 0.9030 0.9060
557.199381 0.9070 0.9110 0.9140 0.9170 0.9210
561.468022 0.9210 0.9220 0.9230 0.9230 0.9250
565.736663 0.9270 0.9310 0.9330 0.9330 0.9330
570.005304 0.9340 0.9350 0.9350 0.9340 0.9340
574.273945 0.9370 0.9380 0.9410 0.9410 0.9410
578.542586 0.9390 0.9390 0.9410 0.9410 0.9420
582.811227 0.9450 0.9450 0.9450 0.9430 0.9410
587.079867 0.9390 0.9390 0.9410 0.9420 0.9430
591.348508 0.9430 0.9430 0.9420 0.9420 0.9420
595.617149 0.9420 0.9420 0.9420 0.9420 0.9410
599.885790 0.9380 0.9380 0.9380 0.9370 0.9350
604.154431 0.9340 0.9330 0.9310 0.9300 0.9300
608.423072 0.9270 0.9220 0.9210 0.9190 0.9150
612.691713 0.9140 0.9130 0.9110 0.9070 0.9050
616.960354 0.9010 0.8950 0.8930 0.8820 0.8720
621.228994 0.8700 0.8620 0.8511 0.8391 0.8281
625.497635 0.8140 0.7980 0.7860 0.7601 0.7251
629.766276 0.7031 0.6930 0.6840 0.6532 0.6311
634.034917 0.6290 0.6310 0.6440 0.6490 0.6630
638.303558 0.6800 0.7199 0.7469 0.7540 0.7679
642.572199 0.7750 0.7780 0.7800 0.7830 0.7860
646.840840 0.7880 0.7920 0.7940 0.7940 0.7920
651.109481 0.7870 0.7840 0.7820 0.7760 0.7700
655.378122 0.7760 0.7880 0.7980 0.8080 0.8150
659.646762 0.8190 0.8220 0.8200 0.8190 0.8160
663.915403 0.8120 0.8000 0.7940 0.7840 0.7750
668.184044 0.7480 0.7120 0.7070 0.7000 0.6930
672.452685 0.6800 0.6491 0.6410 0.6310 0.6310
676.721326 0.6360 0.6430 0.6590 0.6750 0.7248
680.989967 0.7390 0.7659 0.7919 0.8000 0.8119
685.258608 0.8180 0.8310 0.8350 0.8420 0.8510
689.527249 0.8580 0.8640 0.8700 0.8710 0.8720
693.795890 0.8770 0.8790 0.8820 0.8820 0.8830
698.064530 0.8850 0.8900 0.8930 0.8940 0.8940
702.333171 0.8970 0.8970 0.9010 0.9020 0.9050
706.601812 0.9060 0.9110 0.9110 0.9130 0.9150
710.870453 0.9170 0.9180 0.9190 0.9220 0.9230
715.139094 0.9250 0.9250 0.9250 0.9260 0.9260
719.407735 0.9270 0.9300 0.9330 0.9330 0.9340
723.676376 0.9370 0.9390 0.9410 0.9420 0.9420
727.945017 0.9420 0.9430 0.9460 0.9490 0.9500
732.213657 0.9530 0.9540 0.9540 0.9550 0.9550
736.482298 0.9540 0.9540 0.9540 0.9530 0.9540
740.750939 0.9550 0.9550 0.9570 0.9580 0.9580
745.019580 0.9580 0.9580 0.9580 0.9580 0.9590
749.288221 0.9590 0.9580 0.9580 0.9570 0.9570
753.556862 0.9570 0.9570 0.9570 0.9570 0.9570
757.825503 0.9580 0.9580 0.9580 0.9570 0.9570
762.094144 0.9570 0.9550 0.9550 0.9540 0.9540
766.362785 0.9540 0.9540 0.9530 0.9510 0.9500
770.631425 0.9490 0.9460 0.9450 0.9430 0.9410
774.900066 0.9380 0.9340 0.9330 0.9310 0.9270
779.168707 0.9220 0.9180 0.9130 0.9110 0.9030
783.437348 0.8980 0.8940 0.8910 0.8830 0.8780
787.705989 0.8680 0.8580 0.8470 0.8310 0.8180
791.974630 0.8120 0.7951 0.7741 0.7411 0.7161
796.243271 0.6870 0.6570 0.6490 0.6161 0.6140
800.511912 0.6160 0.6200 0.6309 0.6469 0.7037
804.780552 0.7250 0.7470 0.7760 0.7910 0.8020
809.049193 0.8120 0.8240 0.8340 0.8390 0.8470
813.317834 0.8500 0.8560 0.8600 0.8640 0.8660
817.586475 0.8680 0.8700 0.8700 0.8710 0.8710
821.855116 0.8710 0.8710 0.8710 0.8710 0.8710
826.123757 0.8710 0.8710 0.8700 0.8700 0.8660
830.392398 0.8630 0.8600 0.8580 0.8540 0.8500
834.661039 0.8430 0.8380 0.8340 0.8310 0.8240
838.929680 0.8150 0.8040 0.7940 0.7870 0.7780
843.198320 0.7720 0.7561 0.7431 0.7271 0.7151
847.466961 0.7070 0.6970 0.6790 0.6590 0.6371
851.735602 0.6181 0.6011 0.5881 0.5761 0.5611
856.004243 0.5400 0.5001 0.4850 0.4670 0.4491
860.272884 0.4311 0.4131 0.4050 0.3951 0.3503
864.541525 0.3280 0.3060 0.2900 0.2800 0.2760
868.810166 0.2800 0.2840 0.2950 0.3338 0.3788
873.078807 0.4210 0.4550 0.4710 0.4999 0.5239
877.347448 0.5360 0.5460 0.5609 0.5660 0.5660
881.616088 0.5640 0.5610 0.5610 0.5600 0.5600
885.884729 0.5610 0.5720 0.5780 0.5880 0.6049
890.153370 0.6180 0.6330 0.6530 0.6730 0.6850
894.422011 0.7129 0.7289 0.7449 0.7619 0.7779
898.690652 0.7910 0.8040 0.8150 0.8270 0.8320
902.959293 0.8390 0.8440 0.8500 0.8520 0.8540
907.227934 0.8550 0.8560 0.8590 0.8600 0.8620
911.496575 0.8620 0.8600 0.8590 0.8560 0.8520
915.765215 0.8500 0.8480 0.8400 0.8300 0.8190
920.033856 0.8100 0.7941 0.7751 0.7352 0.7161
924.302497 0.7000 0.6830 0.6371 0.5901 0.5042
928.571138 0.4432 0.3992 0.3990 0.4736 0.5496
932.839779 0.5620 0.6130 0.7438 0.7939 0.8060
937.108420 0.8060 0.8030 0.7950 0.7940 0.7950
941.377061 0.8020 0.8070 0.8110 0.8429 0.8550
945.645702 0.8680 0.8720 0.8780 0.8820 0.8830
949.914343 0.8890 0.8890 0.8900 0.8900 0.8870
954.182983 0.8850 0.8830 0.8810 0.8810 0.8810
958.451624 0.8790 0.8780 0.8770 0.8750 0.8740
962.720265 0.8720 0.8710 0.8700 0.8660 0.8630
966.988906 0.8600 0.8600 0.8540 0.8510 0.8430
971.257547 0.8340 0.8240 0.8160 0.8120 0.8001
975.526188 0.7920 0.7750 0.7590 0.7370 0.7130
979.794829 0.6931 0.6731 0.6321 0.6091 0.5861
984.063470 0.5170 0.4661 0.4271 0.3871 0.3461
988.332110 0.2085 0.1632 0.1172 0.1051 0.0931
992.600751 0.0700 0.0600 0.0480 0.0460 0.0490
996.869392 0.0650 0.0799 0.1119 0.1648 0.2356
1001.138033 0.2590 0.3070 0.4149 0.4579 0.4889
1005.406674 0.5339 0.5609 0.5999 0.6139 0.6319
1009.675315 0.6470 0.6610 0.6730 0.6760 0.6810
1013.943956 0.6830 0.6830 0.6810 0.6790 0.6750
1018.212597 0.6630 0.6570 0.6480 0.6350 0.6141
1022.481238 0.5981 0.5741 0.5501 0.5172 0.4822
1026.749878 0.4460 0.4150 0.3870 0.3581 0.3001
1031.018519 0.2312 0.1513 0.1132 0.0961 0.0771
1035.287160 0.0380 0.0290 0.0180 0.0100 0.0080
1039.555801 0.0050 0.0040 0.0020 0.0050 0.0169
1043.824442 0.0320 0.0610 0.1169 0.1759 0.2438
1048.093083 0.2938 0.3458 0.4107 0.4607 0.5077
1052.361724 0.5410 0.5620 0.5850 0.6040 0.6180
1056.630365 0.6310 0.6430 0.6490 0.6550 0.6600
1060.899006 0.6640 0.6690 0.6730 0.6760 0.6800
1065.167646 0.6840 0.6910 0.6930 0.6960 0.6960
1069.436287 0.6950 0.6910 0.6840 0.6770 0.6750
1073.704928 0.6601 0.6411 0.6310 0.6211 0.6130
1077.973569 0.5850 0.5620 0.5600 0.5600 0.5690
1082.242210 0.5740 0.5899 0.6059 0.6199 0.6449
1086.510851 0.6730 0.6880 0.7030 0.7090 0.7200
1090.779492 0.7280 0.7320 0.7390 0.7430 0.7470
1095.048133 0.7510 0.7580 0.7590 0.7600 0.7620
1099.316773 0.7620 0.7620 0.7590 0.7560 0.7510
1103.585414 0.7480 0.7470 0.7410 0.7400 0.7350
1107.854055 0.7330 0.7270 0.7240 0.7200 0.7111
1112.122696 0.7070 0.7010 0.6960 0.6890 0.6790
1116.391337 0.6720 0.6600 0.6510 0.6401 0.6281
1120.659978 0.6240 0.6180 0.6140 0.6080 0.6020
1124.928619 0.5980 0.5900 0.5880 0.5780 0.5690
1129.197260 0.5570 0.5380 0.5180 0.4971 0.4791
1133.465901 0.4591 0.4451 0.4251 0.4011 0.3911
1137.734541 0.3820 0.3620 0.3480 0.3221 0.2941
1142.003182 0.2661 0.2391 0.2121 0.1871 0.1611
1146.271823 0.1370 0.1160 0.1050 0.0940 0.0760
1150.540464 0.0581 0.0440 0.0301 0.0131 0.0090
1154.809105 0.0060 0.0050 0.0020 0.0010 0.0000
1159.077746 0.0000 0.0000 0.0000 0.0000 0.0000
1163.346387 0.0000 0.0000 0.0000 0.0000 0.0010
1167.615028 0.0010 0.0010 0.0010 0.0010 0.0000
1171.883669 0.0000 0.0000 0.0010 0.0040 0.0060
1176.152309 0.0090 0.0140 0.0200 0.0280 0.0330
1180.420950 0.0460 0.0600 0.0680 0.0999 0.1120
1184.689591 0.1309 0.1479 0.1759 0.1989 0.2070
1188.958232 0.2230 0.2450 0.2670 0.2860 0.2920
1193.226873 0.2960 0.3030 0.3070 0.3180 0.3260
1197.495514 0.3340 0.3390 0.3620 0.3989 0.4130
1201.764155 0.4309 0.4449 0.4669 0.4889 0.5009
1206.032796 0.5180 0.5280 0.5380 0.5460 0.5600
1210.301436 0.5690 0.5770 0.5860 0.5900 0.5960
1214.570077 0.6010 0.6040 0.6050 0.6060 0.6090
1218.838718 0.6130 0.6160 0.6170 0.6200 0.6200
1223.107359 0.6200 0.6200 0.6170 0.6160 0.6060
1227.376000 0.6010 0.5980 0.5890 0.5771 0.5581
1231.644641 0.5380 0.5260 0.5140 0.4940 0.4790
1235.913282 0.4670 0.4660 0.4670 0.4730 0.4820
1240.181923 0.4980 0.5180 0.5440 0.5640 0.5889
1244.450564 0.6139 0.6309 0.6509 0.6759 0.6850
1248.719204 0.7040 0.7210 0.7350 0.7440 0.7470
1252.987845 0.7500 0.7540 0.7590 0.7630 0.7670
1257.256486 0.7680 0.7680 0.7670 0.7660 0.7640
1261.525127 0.7630 0.7630 0.7600 0.7590 0.7580
1265.793768 0.7510 0.7430 0.7370 0.7290 0.7210
1270.062409 0.7110 0.6990 0.6811 0.6641 0.6491
1274.331050 0.6220 0.6040 0.5920 0.5900 0.5900
1278.599691 0.5960 0.6040 0.6179 0.6319 0.6449
1282.868331 0.6600 0.6710 0.6800 0.6920 0.6950
1287.136972 0.6950 0.6950 0.6960 0.6960 0.6990
1291.405613 0.7000 0.7070 0.7110 0.7240 0.7410
1295.674254 0.7510 0.7620 0.7739 0.7830 0.7939
1299.942895 0.8030 0.8110 0.8160 0.8190 0.8230
1304.211536 0.8270 0.8270 0.8280 0.8270 0.8260
1308.480177 0.8260 0.8190 0.8140 0.7990 0.7950
1312.748818 0.7870 0.7701 0.7551 0.7550 0.7590
1317.017459 0.7660 0.7750 0.7910 0.7990 0.8100
1321.286099 0.8180 0.8220 0.8260 0.8320 0.8360
1325.554740 0.8390 0.8430 0.8500 0.8500 0.8520
1329.823381 0.8520 0.8510 0.8500 0.8500 0.8480
1334.092022 0.8480 0.8480 0.8480 0.8470 0.8440
1338.360663 0.8440 0.8420 0.8340 0.8240 0.8220
1342.629304 0.8200 0.8200 0.8220 0.8220 0.8230
1346.897945 0.8240 0.8260 0.8270 0.8280 0.8280
1351.166586 0.8270 0.8230 0.8190 0.8150 0.8120
1355.435227 0.8060 0.7990 0.7950 0.7841 0.7721
1359.703867 0.7590 0.7430 0.7250 0.7120 0.7010
1363.972508 0.6910 0.6521 0.6171 0.5961 0.5522
1368.241149 0.5130 0.4510 0.3781 0.3041 0.2481
1372.509790 0.2151 0.1652 0.1291 0.1001 0.0980
1376.778431 0.1000 0.1080 0.1200 0.1280 0.1649
1381.047072 0.2188 0.2658 0.2750 0.3058 0.4144
1385.315713 0.4550 0.4850 0.5170 0.5479 0.5610
1389.584354 0.5959 0.6309 0.6569 0.6879 0.7089
1393.852994 0.7190 0.7270 0.7360 0.7410 0.7480
1398.121635 0.7510 0.7580 0.7600 0.7620 0.7620
1402.390276 0.7630 0.7630 0.7630 0.7600 0.7590
1406.658917 0.7580 0.7580 0.7560 0.7480 0.7430
1410.927558 0.7370 0.7290 0.7230 0.7080 0.7030
1415.196199 0.6960 0.6641 0.6451 0.6201 0.5981
1419.464840 0.5620 0.5160 0.4771 0.4510 0.4211
1423.733481 0.3891 0.3631 0.3391 0.3390 0.3539
1428.002122 0.3660 0.4550 0.4910 0.5289 0.5929
1432.270762 0.6528 0.6640 0.7108 0.7269 0.7409
1436.539403 0.7520 0.7600 0.7710 0.7780 0.7830
1440.808044 0.7880 0.7940 0.7940 0.7880 0.7870
1445.076685 0.7840 0.7830 0.7800 0.7790 0.7750
1449.345326 0.7700 0.7640 0.7521 0.7411 0.7271
1453.613967 0.7110 0.6930 0.6760 0.6451 0.6051
1457.882608 0.5541 0.5012 0.4432 0.3723 0.3024
1462.151249 0.3020 0.3080 0.3440 0.4489 0.5039
1466.419890 0.5658 0.6158 0.6469 0.6629 0.7078
1470.688530 0.7230 0.7370 0.7400 0.7440 0.7500
1474.957171 0.7520 0.7550 0.7540 0.7510 0.7470
1479.225812 0.7390 0.7350 0.7280 0.7110 0.7050
1483.494453 0.6950 0.6840 0.6651 0.6172 0.6170
1487.763094 0.6290 0.6330 0.6510 0.7209 0.7450
1492.031735 0.7550 0.7600 0.7630 0.7640 0.7670
1496.300376 0.7670 0.7670 0.7670 0.7660 0.7640
1500.569017 0.7620 0.7590 0.7580 0.7540 0.7500
1504.837657 0.7450 0.7410 0.7400 0.7360 0.7350
1509.106298 0.7310 0.7250 0.7230 0.7200 0.7150
1513.374939 0.7120 0.7080 0.7050 0.7030 0.6990
1517.643580 0.6950 0.6920 0.6920 0.6810 0.6760
1521.912221 0.6720 0.6650 0.6610 0.6590 0.6510
1526.180862 0.6480 0.6440 0.6360 0.6310 0.6250
1530.449503 0.6160 0.6090 0.6020 0.6010 0.5960
1534.718144 0.5930 0.5890 0.5820 0.5770 0.5730
1538.986785 0.5650 0.5620 0.5490 0.5380 0.5360
1543.255425 0.5260 0.5240 0.5140 0.5100 0.5010
1547.524066 0.4950 0.4910 0.4890 0.4870 0.4870
1551.792707 0.4890 0.4900 0.4930 0.4940 0.4970
1556.061348 0.5010 0.5040 0.5100 0.5130 0.5210
1560.329989 0.5250 0.5340 0.5420 0.5480 0.5540
1564.598630 0.5620 0.5730 0.5770 0.5880 0.5900
1568.867271 0.5960 0.6050 0.6100 0.6160 0.6180
1573.135912 0.6210 0.6220 0.6290 0.6310 0.6320
1577.404552 0.6330 0.6350 0.6360 0.6370 0.6390
1581.673193 0.6400 0.6410 0.6430 0.6440 0.6440
1585.941834 0.6450 0.6470 0.6480 0.6480 0.6510
1590.210475 0.6530 0.6590 0.6640 0.6670 0.6690
1594.479116 0.6750 0.6760 0.6810 0.6890 0.6910
1598.747757 0.7010 0.7090 0.7190 0.7270 0.7360
1603.016398 0.7400 0.7500 0.7580 0.7620 0.7660
1607.285039 0.7710 0.7750 0.7760 0.7790 0.7800
1611.553680 0.7820 0.7820 0.7830 0.7860 0.7870
1615.822320 0.7900 0.7940 0.7960 0.7980 0.8000
1620.090961 0.8040 0.8100 0.8140 0.8150 0.8180
1624.359602 0.8220 0.8260 0.8310 0.8340 0.8360
1628.628243 0.8400 0.8430 0.8440 0.8470 0.8500
1632.896884 0.8510 0.8540 0.8550 0.8580 0.8590
1637.165525 0.8590 0.8590 0.8590 0.8580 0.8560
1641.434166 0.8550 0.8540 0.8520 0.8510 0.8500
1645.702807 0.8430 0.8390 0.8350 0.8340 0.8280
1649.971448 0.8230 0.8180 0.8150 0.8140 0.8140
1654.240088 0.8120 0.8100 0.8100 0.8080 0.8080
1658.508729 0.8070 0.8040 0.8040 0.8030 0.8030
1662.777370 0.8030 0.8030 0.8030 0.8030 0.8030
1667.046011 0.8040 0.8060 0.8080 0.8120 0.8150
1671.314652 0.8180 0.8220 0.8230 0.8240 0.8270
1675.583293 0.8310 0.8320 0.8350 0.8350 0.8380
1679.851934 0.8380 0.8390 0.8390 0.8390 0.8390
1684.120575 0.8380 0.8360 0.8350 0.8340 0.8320
1688.389215 0.8310 0.8300 0.8270 0.8270 0.8240
1692.657856 0.8230 0.8190 0.8140 0.8120 0.8060
1696.926497 0.8020 0.7980 0.7920 0.7860 0.7780
1701.195138 0.7720 0.7620 0.7580 0.7480 0.7410
1705.463779 0.7270 0.7130 0.7070 0.7010 0.6950
1709.732420 0.6830 0.6680 0.6530 0.6390 0.6320
1714.001061 0.6240 0.6170 0.6130 0.6050 0.6010
1718.269702 0.5960 0.5920 0.5860 0.5740 0.5620
1722.538343 0.5600 0.5490 0.5380 0.5290 0.5161
1726.806983 0.5020 0.4870 0.4750 0.4650 0.4510
1731.075624 0.4420 0.4310 0.4250 0.4150 0.4070
1735.344265 0.4020 0.3970 0.3810 0.3710 0.3620
1739.612906 0.3550 0.3500 0.3400 0.3320 0.3240
1743.881547 0.3180 0.3110 0.3030 0.2950 0.2840
1748.150188 0.2720 0.2581 0.2401 0.2191 0.1931
1752.418829 0.1630 0.1530 0.1370 0.1170 0.1080
1756.687470 0.0960 0.0820 0.0700 0.0640 0.0501
1760.956110 0.0380 0.0280 0.0140 0.0090 0.0020
1765.224751 0.0010 0.0000 0.0000 0.0000 0.0000
1769.493392 0.0000 0.0000 0.0000 0.0000 0.0000
1773.762033 0.0000 0.0000 0.0000 0.0000 0.0000
1778.030674 0.0000 0.0000 0.0000 0.0000 0.0000
1782.299315 0.0000 0.0000 0.0000 0.0000 0.0000
1786.567956 0.0000 0.0000 0.0000 0.0000 0.0000
1790.836597 0.0000 0.0000 0.0000 0.0000 0.0000
1795.105238 0.0000 0.0000 0.0000 0.0010 0.0010
1799.373878 0.0080 0.0100 0.0140 0.0220 0.0290
1803.642519 0.0300 0.0410 0.0520 0.0620 0.0770
1807.911160 0.0820 0.1099 0.1329 0.1529 0.1669
1812.179801 0.1810 0.1990 0.2150 0.2320 0.2470
1816.448442 0.2630 0.2939 0.3119 0.3160 0.3349
1820.717083 0.3540 0.3700 0.3830 0.3890 0.4050
1824.985724 0.4090 0.4140 0.4180 0.4250 0.4300
1829.254365 0.4330 0.4370 0.4420 0.4450 0.4470
1833.523006 0.4550 0.4630 0.4700 0.4859 0.5009
1837.791646 0.5120 0.5200 0.5420 0.5610 0.5889
1842.060287 0.6079 0.6140 0.6309 0.6439 0.6520
1846.328928 0.6650 0.6800 0.6910 0.7070 0.7170
1850.597569 0.7290 0.7350 0.7430 0.7510 0.7580
1854.866210 0.7590 0.7640 0.7710 0.7760 0.7780
1859.134851 0.7800 0.7820 0.7840 0.7860 0.7860
1863.403492 0.7880 0.7940 0.7940 0.7960 0.8000
1867.672133 0.8030 0.8040 0.8070 0.8110 0.8120
1871.940773 0.8140 0.8140 0.8150 0.8180 0.8200
1876.209414 0.8200 0.8220 0.8240 0.8300 0.8310
1880.478055 0.8350 0.8390 0.8430 0.8440 0.8510
1884.746696 0.8550 0.8590 0.8620 0.8630 0.8660
1889.015337 0.8680 0.8700 0.8710 0.8720 0.8720
1893.283978 0.8740 0.8750 0.8750 0.8770 0.8780
1897.552619 0.8780 0.8770 0.8770 0.8740 0.8710
1901.821260 0.8700 0.8680 0.8680 0.8700 0.8710
1906.089901 0.8710 0.8720 0.8750 0.8780 0.8820
1910.358541 0.8850 0.8900 0.8940 0.8940 0.8950
1914.627182 0.8970 0.8980 0.8990 0.9010 0.9020
1918.895823 0.9030 0.9030 0.9050 0.9070 0.9090
1923.164464 0.9090 0.9090 0.9090 0.9090 0.9070
1927.433105 0.9070 0.9070 0.9070 0.9060 0.9060
1931.701746 0.9060 0.9060 0.9060 0.9050 0.9030
1935.970387 0.9010 0.8990 0.8990 0.8980 0.8970
1940.239028 0.8940 0.8940 0.8930 0.8910 0.8910
1944.507669 0.8910 0.8870 0.8860 0.8850 0.8830
1948.776309 0.8830 0.8820 0.8810 0.8790 0.8790
1953.044950 0.8790 0.8790 0.8810 0.8810 0.8820
1957.313591 0.8830 0.8830 0.8830 0.8850 0.8850
1961.582232 0.8890 0.8910 0.8930 0.8940 0.8950
1965.850873 0.8980 0.9010 0.9030 0.9050 0.9060
1970.119514 0.9070 0.9100 0.9110 0.9110 0.9130
1974.388155 0.9130 0.9130 0.9130 0.9130 0.9130
1978.656796 0.9110 0.9110 0.9130 0.9130 0.9110
1982.925436 0.9110 0.9130 0.9130 0.9140 0.9140
1987.194077 0.9130 0.9130 0.9110 0.9110 0.9130
1991.462718 0.9130 0.9110 0.9110 0.9110 0.9110
1995.731359 0.9110 0.9110 0.9110 0.9110 0.9110
2000.000000 0.9110 0.9110 0.9110 0.9110 0.9110
2004.268641 0.9105 0.9100 0.9095 0.9090 0.9090
2008.537282 0.9090 0.9070 0.9050 0.9015 0.8980
2012.805923 0.8960 0.8940 0.8925 0.8910 0.8905
2017.074564 0.8900 0.8880 0.8860 0.8835 0.8810
2021.343204 0.8780 0.8750 0.8715 0.8680 0.8655
2025.611845 0.8630 0.8615 0.8600 0.8600 0.8600
2029.880486 0.8610 0.8620 0.8640 0.8660 0.8670
2034.149127 0.8680 0.8690 0.8700 0.8705 0.8710
2038.417768 0.8725 0.8740 0.8765 0.8790 0.8830
2042.686409 0.8870 0.8900 0.8930 0.8935 0.8940
2046.955050 0.8945 0.8950 0.8980 0.9010 0.9030
2051.223691 0.9050 0.9070 0.9090 0.9110 0.9130
2055.492331 0.9135 0.9140 0.9145 0.9150 0.9170
2059.760972 0.9190 0.9205 0.9220 0.9220 0.9220
2064.029613 0.9215 0.9210 0.9200 0.9190 0.9185
2068.298254 0.9180 0.9180 0.9180 0.9175 0.9170
2072.566895 0.9160 0.9150 0.9150 0.9150 0.9160
2076.835536 0.9170 0.9170 0.9170 0.9180 0.9190
2081.104177 0.9205 0.9220 0.9245 0.9270 0.9290
2085.372818 0.9310 0.9325 0.9340 0.9355 0.9370
2089.641459 0.9370 0.9370 0.9375 0.9380 0.9365
2093.910099 0.9350 0.9350 0.9350 0.9360 0.9370
2098.178740 0.9375 0.9380 0.9385 0.9390 0.9400
2102.447381 0.9410 0.9415 0.9420 0.9420 0.9420
2106.716022 0.9420 0.9420 0.9420 0.9420 0.9425
2110.984663 0.9430 0.9430 0.9430 0.9430 0.9430
2115.253304 0.9430 0.9430 0.9440 0.9450 0.9450
2119.521945 0.9450 0.9455 0.9460 0.9460 0.9460
2123.790586 0.9460 0.9460 0.9460 0.9460 0.9460
2128.059227 0.9460 0.9475 0.9490 0.9500 0.9510
2132.327867 0.9510 0.9510 0.9510 0.9510 0.9510
2136.596508 0.9510 0.9510 0.9510 0.9520 0.9530
2140.865149 0.9530 0.9530 0.9520 0.9510 0.9510
2145.133790 0.9510 0.9510 0.9510 0.9510 0.9510
2149.402431 0.9520 0.9530 0.9530 0.9530 0.9530
2153.671072 0.9530 0.9530 0.9530 0.9530 0.9530
2157.939713 0.9520 0.9510 0.9520 0.9530 0.9530
2162.208354 0.9529 0.9514 0.9500 0.9500 0.9500
2166.476994 0.9500 0.9500 0.9500 0.9500 0.9500
2170.745635 0.9500 0.9500 0.9500 0.9500 0.9500
2175.014276 0.9500 0.9500 0.9500 0.9500 0.9500
2179.282917 0.9500 0.9500 0.9500 0.9500 0.9500
2183.551558 0.9500 0.9500 0.9495 0.9490 0.9490
2187.820199 0.9489 0.9479 0.9470 0.9465 0.9460
2192.088840 0.9455 0.9449 0.9439 0.9430 0.9430
2196.357481 0.9430 0.9425 0.9420 0.9420 0.9420
2200.626122 0.9420 0.9420 0.9420 0.9420 0.9420
2204.894762 0.9420 0.9425 0.9430 0.9430 0.9430
2209.163403 0.9430 0.9431 0.9441 0.9450 0.9450
2213.432044 0.9450 0.9450 0.9450 0.9450 0.9450
2217.700685 0.9450 0.9449 0.9439 0.9429 0.9419
2221.969326 0.9409 0.9399 0.9390 0.9390 0.9390
2226.237967 0.9385 0.9380 0.9375 0.9369 0.9359
2230.506608 0.9349 0.9339 0.9329 0.9309 0.9289
2234.775249 0.9269 0.9248 0.9218 0.9189 0.9169
2239.043890 0.9150 0.9145 0.9140 0.9140 0.9140
2243.312530 0.9145 0.9151 0.9161 0.9170 0.9175
2247.581171 0.9180 0.9185 0.9191 0.9201 0.9210
2251.849812 0.9210 0.9210 0.9215 0.9220 0.9220
2256.118453 0.9220 0.9220 0.9220 0.9220 0.9220
2260.387094 0.9220 0.9220 0.9220 0.9220 0.9220
2264.655735 0.9220 0.9220 0.9220 0.9220 0.9220
2268.924376 0.9220 0.9220 0.9215 0.9210 0.9210
2273.193017 0.9209 0.9199 0.9190 0.9190 0.9190
2277.461657 0.9190 0.9189 0.9179 0.9169 0.9159
2281.730298 0.9150 0.9145 0.9140 0.9140 0.9140
2285.998939 0.9135 0.9129 0.9114 0.9099 0.9084
2290.267580 0.9068 0.9043 0.9019 0.9004 0.8989
2294.536221 0.8979 0.8969 0.8959 0.8949 0.8939
2298.804862 0.8929 0.8919 0.8908 0.8883 0.8858
2303.073503 0.8833 0.8809 0.8799 0.8790 0.8785
2307.342144 0.8778 0.8763 0.8750 0.8745 0.8740
2311.610785 0.8740 0.8740 0.8740 0.8740 0.8740
2315.879425 0.8740 0.8745 0.8751 0.8761 0.8770
2320.148066 0.8775 0.8781 0.8796 0.8812 0.8832
2324.416707 0.8851 0.8861 0.8872 0.8887 0.8902
2328.685348 0.8917 0.8933 0.8963 0.8993 0.9023
2332.953989 0.9052 0.9072 0.9091 0.9101 0.9111
2337.222630 0.9121 0.9132 0.9152 0.9174 0.9214
2341.491271 0.9251 0.9256 0.9261 0.9266 0.9270
2345.759912 0.9270 0.9272 0.9287 0.9302 0.9317
2350.028552 0.9331 0.9341 0.9352 0.9367 0.9383
2354.297193 0.9408 0.9432 0.9447 0.9462 0.9477
2358.565834 0.9492 0.9512 0.9531 0.9536 0.9540
2362.834475 0.9540 0.9540 0.9540 0.9540 0.9540
2367.103116 0.9540 0.9540 0.9539 0.9534 0.9530
2371.371757 0.9530 0.9529 0.9519 0.9510 0.9510
2375.640398 0.9510 0.9510 0.9510 0.9510 0.9510
2379.909039 0.9510 0.9509 0.9504 0.9500 0.9500
2384.177680 0.9499 0.9494 0.9490 0.9490 0.9489
2388.446320 0.9479 0.9470 0.9470 0.9469 0.9464
2392.714961 0.9460 0.9460 0.9460 0.9460 0.9460
2396.983602 0.9460 0.9460 0.9460 0.9460 0.9460
2401.252243 0.9460 0.9460 0.9460 0.9460 0.9460
2405.520884 0.9460 0.9460 0.9460 0.9460 0.9460
2409.789525 0.9460 0.9460 0.9461 0.9466 0.9470
2414.058166 0.9470 0.9472 0.9487 0.9502 0.9517
2418.326807 0.9531 0.9536 0.9540 0.9540 0.9539
2422.595448 0.9534 0.9530 0.9530 0.9530 0.9530
2426.864088 0.9530 0.9530 0.9530 0.9530 0.9530
2431.132729 0.9530 0.9528 0.9513 0.9500 0.9500
2435.401370 0.9500 0.9500 0.9499 0.9494 0.9489
2439.670011 0.9479 0.9469 0.9464 0.9458 0.9443
2443.938652 0.9429 0.9419 0.9409 0.9399 0.9390
2448.207293 0.9390 0.9390 0.9390 0.9390 0.9390
2452.475934 0.9391 0.9401 0.9410 0.9410 0.9411
2456.744575 0.9421 0.9430 0.9430 0.9431 0.9441
2461.013215 0.9451 0.9456 0.9460 0.9460 0.9461
2465.281856 0.9466 0.9472 0.9481 0.9490 0.9490
2469.550497 0.9491 0.9501 0.9512 0.9527 0.9541
2473.819138 0.9546 0.9550 0.9550 0.9550 0.9550
2478.087779 0.9550 0.9550 0.9550 0.9550 0.9550
2482.356420 0.9550 0.9550 0.9550 0.9550 0.9550
2486.625061 0.9550 0.9550 0.9550 0.9550 0.9550
2490.893702 0.9550 0.9550 0.9550 0.9550 0.9550
2495.162343 0.9550 0.9550 0.9550 0.9550 0.9550
2499.430983 0.9550 0.9550 0.9550 0.9550 0.9550
2503.699624 0.9550 0.9550 0.9550 0.9550 0.9549
2507.968265 0.9544 0.9540 0.9540 0.9540 0.9540
2512.236906 0.9540 0.9540 0.9539 0.9534 0.9528
2516.505547 0.9518 0.9510 0.9510 0.9508 0.9498
2520.774188 0.9488 0.9473 0.9459 0.9454 0.9448
2525.042829 0.9438 0.9429 0.9424 0.9419 0.9414
2529.311470 0.9408 0.9398 0.9390 0.9390 0.9390
2533.580110 0.9390 0.9390 0.9390 0.9392 0.9402
2537.848751 0.9410 0.9410 0.9412 0.9422 0.9433
2542.117392 0.9447 0.9462 0.9477 0.9491 0.9496
2546.386033 0.9503 0.9518 0.9531 0.9536 0.9540
2550.654674 0.9540 0.9540 0.9540 0.9540 0.9540
2554.923315 0.9540 0.9540 0.9540 0.9540 0.9540
2559.191956 0.9540 0.9540 0.9540 0.9540 0.9540
2563.460597 0.9540 0.9540 0.9539 0.9534 0.9530
2567.729238 0.9530 0.9530 0.9530 0.9530 0.9530
2571.997878 0.9531 0.9536 0.9540 0.9540 0.9540
2576.266519 0.9540 0.9539 0.9534 0.9531 0.9536
2580.535160 0.9540 0.9540 0.9540 0.9540 0.9540
2584.803801 0.9540 0.9540 0.9540 0.9540 0.9540
2589.072442 0.9541 0.9546 0.9550 0.9550 0.9549
2593.341083 0.9544 0.9540 0.9540 0.9541 0.9546
2597.609724 0.9552 0.9562 0.9570 0.9570 0.9570
2601.878365 0.9570 0.9570 0.9570 0.9570 0.9570
2606.147006 0.9571 0.9576 0.9580 0.9580 0.9580
2610.415646 0.9580 0.9581 0.9586 0.9590 0.9590
2614.684287 0.9590 0.9590 0.9590 0.9590 0.9590
2618.952928 0.9590 0.9590 0.9590 0.9590 0.9590
2623.221569 0.9590 0.9590 0.9590 0.9590 0.9590
2627.490210 0.9590 0.9590 0.9590 0.9588 0.9578
2631.758851 0.9568 0.9558 0.9550 0.9550 0.9550
2636.027492 0.9550 0.9550 0.9550 0.9550 0.9550
2640.296133 0.9552 0.9562 0.9570 0.9570 0.9570
2644.564773 0.9570 0.9570 0.9570 0.9570 0.9570
2648.833414 0.9568 0.9558 0.9550 0.9550 0.9552
2653.102055 0.9562 0.9570 0.9570 0.9570 0.9570
2657.370696 0.9570 0.9570 0.9570 0.9570 0.9570
2661.639337 0.9570 0.9570 0.9570 0.9570 0.9570
2665.907978 0.9570 0.9570 0.9571 0.9576 0.9581
2670.176619 0.9586 0.9592 0.9602 0.9610 0.9610
2674.445260 0.9610 0.9610 0.9610 0.9610 0.9610
2678.713901 0.9610 0.9610 0.9610 0.9610 0.9610
2682.982541 0.9610 0.9610 0.9608 0.9598 0.9590
2687.251182 0.9590 0.9589 0.9584 0.9580 0.9580
2691.519823 0.9580 0.9580 0.9580 0.9580 0.9580
2695.788464 0.9580 0.9580 0.9580 0.9580 0.9580
2700.057105 0.9580 0.9580 0.9579 0.9574 0.9568
2704.325746 0.9558 0.9550 0.9550 0.9550 0.9550
2708.594387 0.9550 0.9550 0.9549 0.9544 0.9534
2712.863028 0.9509 0.9487 0.9472 0.9454 0.9429
2717.131669 0.9405 0.9385 0.9365 0.9345 0.9325
2721.400309 0.9305 0.9288 0.9278 0.9270 0.9270
2725.668950 0.9270 0.9270 0.9270 0.9270 0.9272
2729.937591 0.9282 0.9291 0.9296 0.9300 0.9300
2734.206232 0.9301 0.9306 0.9312 0.9322 0.9331
2738.474873 0.9336 0.9344 0.9359 0.9372 0.9382
2742.743514 0.9395 0.9415 0.9430 0.9430 0.9434
2747.012155 0.9449 0.9461 0.9466 0.9474 0.9489
2751.280796 0.9504 0.9519 0.9531 0.9536 0.9540
2755.549436 0.9540 0.9540 0.9540 0.9540 0.9540
2759.818077 0.9540 0.9540 0.9540 0.9540 0.9540
2764.086718 0.9540 0.9540 0.9540 0.9540 0.9540
2768.355359 0.9536 0.9521 0.9510 0.9510 0.9513
2772.624000 0.9523 0.9531 0.9536 0.9540 0.9540
2776.892641 0.9541 0.9546 0.9552 0.9562 0.9570
2781.161282 0.9570 0.9570 0.9570 0.9568 0.9557
2785.429923 0.9550 0.9550 0.9549 0.9544 0.9539
2789.698564 0.9534 0.9530 0.9530 0.9527 0.9517
2793.967204 0.9509 0.9504 0.9499 0.9494 0.9487
2798.235845 0.9477 0.9470 0.9470 0.9470 0.9470
2802.504486 0.9469 0.9464 0.9460 0.9460 0.9459
2806.773127 0.9454 0.9450 0.9450 0.9447 0.9437
2811.041768 0.9429 0.9424 0.9416 0.9401 0.9389
2815.310409 0.9384 0.9376 0.9361 0.9345 0.9325
2819.579050 0.9305 0.9285 0.9263 0.9238 0.9211
2823.847691 0.9176 0.9142 0.9112 0.9087 0.9077
2828.116331 0.9069 0.9064 0.9061 0.9066 0.9074
2832.384972 0.9089 0.9100 0.9100 0.9101 0.9106
2836.653613 0.9110 0.9110 0.9109 0.9104 0.9096
2840.922254 0.9081 0.9063 0.9038 0.9013 0.8988
2845.190895 0.8966 0.8951 0.8939 0.8934 0.8925
2849.459536 0.8905 0.8877 0.8827 0.8781 0.8745
2853.728177 0.8717 0.8707 0.8697 0.8687 0.8679
2857.996818 0.8674 0.8666 0.8651 0.8637 0.8627
2862.265459 0.8614 0.8594 0.8574 0.8554 0.8532
2866.534099 0.8502 0.8462 0.8397 0.8338 0.8292
2870.802740 0.8222 0.8092 0.7957 0.7807 0.7683
2875.071381 0.7623 0.7556 0.7471 0.7390 0.7320
2879.340022 0.7249 0.7174 0.7107 0.7062 0.7027
2883.608663 0.7017 0.7007 0.6997 0.6976 0.6926
2887.877304 0.6853 0.6728 0.6599 0.6459 0.6278
2892.145945 0.5998 0.5732 0.5497 0.5275 0.5085
2896.414586 0.4904 0.4744 0.4593 0.4463 0.4336
2900.683227 0.4216 0.4114 0.4059 0.4004 0.3949
2904.951867 0.3878 0.3773 0.3664 0.3544 0.3439
2909.220508 0.3369 0.3319 0.3314 0.3311 0.3316
2913.489149 0.3324 0.3339 0.3381 0.3486 0.3626
2917.757790 0.3851 0.4062 0.4242 0.4420 0.4591
2922.026431 0.4755 0.4899 0.5018 0.5078 0.5140
2926.295072 0.5205 0.5270 0.5335 0.5404 0.5484
2930.563713 0.5561 0.5631 0.5687 0.5712 0.5730
2934.832354 0.5730 0.5718 0.5678 0.5598 0.5421
2939.100994 0.5261 0.5136 0.5050 0.5050 0.5062
2943.369635 0.5102 0.5138 0.5163 0.5185 0.5200
2947.638276 0.5212 0.5217 0.5217 0.5207 0.5194
2951.906917 0.5174 0.5151 0.5121 0.5094 0.5074
2956.175558 0.5050 0.5020 0.4989 0.4954 0.4919
2960.444199 0.4884 0.4847 0.4807 0.4766 0.4721
2964.712840 0.4678 0.4638 0.4594 0.4544 0.4484
2968.981481 0.4399 0.4315 0.4235 0.4161 0.4101
2973.250122 0.4052 0.4027 0.3999 0.3964 0.3926
2977.518762 0.3881 0.3834 0.3784 0.3723 0.3638
2981.787403 0.3550 0.3455 0.3358 0.3258 0.3163
2986.056044 0.3078 0.2982 0.2862 0.2775 0.2760
2990.324685 0.2752 0.2757 0.2776 0.2826 0.2863
2994.593326 0.2873 0.2906 0.2986 0.3071 0.3166
2998.861967 0.3274 0.3409 0.3584 0.3843 0.4063
3003.130608 0.4198 0.4331 0.4461 0.4605 0.4776
3007.399249 0.4952 0.5137 0.5340 0.5580 0.5780
3011.667890 0.5900 0.6028 0.6173 0.6323 0.6483
3015.936530 0.6623 0.6723 0.6890 0.7195 0.7457
3020.205171 0.7632 0.7784 0.7889 0.7986 0.8067
3024.473812 0.8137 0.8187 0.8237 0.8287 0.8344
3028.742453 0.8414 0.8474 0.8513 0.8560 0.8620
3033.011094 0.8673 0.8713 0.8747 0.8767 0.8785
3037.279735 0.8800 0.8818 0.8843 0.8867 0.8887
3041.548376 0.8905 0.8920 0.8933 0.8943 0.8955
3045.817017 0.8970 0.8985 0.9000 0.9017 0.9037
3050.085657 0.9053 0.9063 0.9075 0.9090 0.9105
3054.354298 0.9120 0.9130 0.9130 0.9132 0.9137
3058.622939 0.9142 0.9147 0.9154 0.9164 0.9174
3062.891580 0.9183 0.9195 0.9210 0.9222 0.9227
3067.160221 0.9233 0.9243 0.9252 0.9257 0.9262
3071.428862 0.9267 0.9275 0.9290 0.9302 0.9307
3075.697503 0.9310 0.9310 0.9314 0.9324 0.9330
3079.966144 0.9330 0.9332 0.9337 0.9342 0.9347
3084.234785 0.9350 0.9350 0.9354 0.9364 0.9370
3088.503425 0.9370 0.9370 0.9370 0.9370 0.9370
3092.772066 0.9372 0.9377 0.9380 0.9380 0.9380
3097.040707 0.9380 0.9380 0.9380 0.9382 0.9387
3101.309348 0.9390 0.9390 0.9394 0.9404 0.9410
3105.577989 0.9410 0.9410 0.9410 0.9412 0.9417
3109.846630 0.9422 0.9427 0.9430 0.9430 0.9428
3114.115271 0.9423 0.9420 0.9420 0.9422 0.9427
3118.383912 0.9430 0.9430 0.9430 0.9430 0.9434
3122.652552 0.9444 0.9452 0.9457 0.9460 0.9460
3126.921193 0.9462 0.9467 0.9470 0.9470 0.9474
3131.189834 0.9484 0.9490 0.9490 0.9490 0.9490
3135.458475 0.9490 0.9490 0.9490 0.9490 0.9490
3139.727116 0.9490 0.9486 0.9476 0.9470 0.9470
3143.995757 0.9468 0.9463 0.9460 0.9460 0.9458
3148.264398 0.9453 0.9450 0.9450 0.9452 0.9457
3152.533039 0.9460 0.9460 0.9460 0.9460 0.9462
3156.801680 0.9467 0.9470 0.9470 0.9470 0.9470
3161.070320 0.9476 0.9491 0.9500 0.9500 0.9500
3165.338961 0.9500 0.9500 0.9500 0.9500 0.9500
3169.607602 0.9502 0.9507 0.9510 0.9510 0.9508
3173.876243 0.9503 0.9500 0.9500 0.9500 0.9500
3178.144884 0.9500 0.9500 0.9502 0.9507 0.9510
3182.413525 0.9510 0.9508 0.9503 0.9500 0.9500
3186.682166 0.9500 0.9500 0.9500 0.9500 0.9500
3190.950807 0.9500 0.9502 0.9507 0.9514 0.9524
3195.219448 0.9530 0.9530 0.9532 0.9537 0.9542
3199.488088 0.9547 0.9554 0.9564 0.9566 0.9556
3203.756729 0.9550 0.9550 0.9550 0.9550 0.9550
3208.025370 0.9550 0.9550 0.9550 0.9554 0.9564
3212.294011 0.9570 0.9570 0.9572 0.9577 0.9580
3216.562652 0.9580 0.9580 0.9580 0.9580 0.9580
3220.831293 0.9580 0.9580 0.9580 0.9580 0.9574
3225.099934 0.9559 0.9550 0.9550 0.9550 0.9550
3229.368575 0.9550 0.9550 0.9554 0.9564 0.9572
3233.637215 0.9577 0.9580 0.9580 0.9580 0.9580
3237.905856 0.9580 0.9580 0.9582 0.9587 0.9590
3242.174497 0.9590 0.9590 0.9590 0.9590 0.9590
3246.443138 0.9590 0.9590 0.9594 0.9604 0.9610
3250.711779 0.9610 0.9610 0.9610 0.9612 0.9617
3254.980420 0.9620 0.9620 0.9620 0.9620 0.9620
3259.249061 0.9620 0.9622 0.9627 0.9630 0.9630
3263.517702 0.9628 0.9623 0.9620 0.9620 0.9622
3267.786343 0.9627 0.9630 0.9630 0.9634 0.9644
3272.054983 0.9650 0.9650 0.9646 0.9636 0.9630
3276.323624 0.9630 0.9630 0.9630 0.9630 0.9630
3280.592265 0.9634 0.9644 0.9652 0.9657 0.9662
3284.860906 0.9667 0.9670 0.9670 0.9670 0.9670
3289.129547 0.9670 0.9670 0.9670 0.9670 0.9670
3293.398188 0.9670 0.9670 0.9670 0.9670 0.9670
3297.666829 0.9670 0.9670 0.9674 0.9684 0.9690
3301.935470 0.9690 0.9690 0.9690 0.9690 0.9690
3306.204110 0.9690 0.9690 0.9690 0.9690 0.9692
3310.472751 0.9697 0.9700 0.9700 0.9698 0.9693
3314.741392 0.9690 0.9690 0.9690 0.9690 0.9690
3319.010033 0.9690 0.9692 0.9697 0.9700 0.9700
3323.278674 0.9698 0.9693 0.9690 0.9690 0.9690
3327.547315 0.9690 0.9690 0.9690 0.9690 0.9690
3331.815956 0.9686 0.9676 0.9670 0.9670 0.9670
3336.084597 0.9670 0.9670 0.9670 0.9670 0.9670
3340.353238 0.9670 0.9670 0.9670 0.9670 0.9670
3344.621878 0.9670 0.9670 0.9670 0.9670 0.9670
3348.890519 0.9670 0.9670 0.9670 0.9670 0.9670
3353.159160 0.9670 0.9670 0.9670 0.9670 0.9670
3357.427801 0.9670 0.9670 0.9670 0.9670 0.9670
3361.696442 0.9670 0.9670 0.9670 0.9674 0.9685
3365.965083 0.9690 0.9690 0.9692 0.9697 0.9702
3370.233724 0.9707 0.9710 0.9710 0.9708 0.9703
3374.502365 0.9700 0.9700 0.9700 0.9700 0.9700
3378.771006 0.9700 0.9702 0.9707 0.9710 0.9710
3383.039646 0.9708 0.9703 0.9700 0.9700 0.9700
3387.308287 0.9700 0.9700 0.9700 0.9702 0.9707
3391.576928 0.9710 0.9710 0.9705 0.9695 0.9690
3395.845569 0.9690 0.9690 0.9690 0.9690 0.9690
3400.114210 0.9690 0.9690 0.9685 0.9675 0.9670
3404.382851 0.9670 0.9670 0.9670 0.9670 0.9670
3408.651492 0.9670 0.9670 0.9670 0.9670 0.9670
3412.920133 0.9670 0.9670 0.9670 0.9668 0.9663
3417.188773 0.9660 0.9660 0.9660 0.9660 0.9658
3421.457414 0.9653 0.9645 0.9635 0.9630 0.9630
3425.726055 0.9628 0.9623 0.9620 0.9620 0.9618
3429.994696 0.9613 0.9605 0.9595 0.9588 0.9583
3434.263337 0.9580 0.9580 0.9580 0.9580 0.9578
3438.531978 0.9573 0.9570 0.9570 0.9570 0.9570
3442.800619 0.9565 0.9555 0.9550 0.9550 0.9550
3447.069260 0.9550 0.9550 0.9550 0.9548 0.9543
3451.337901 0.9538 0.9533 0.9525 0.9515 0.9510
3455.606541 0.9510 0.9508 0.9503 0.9498 0.9493
3459.875182 0.9485 0.9475 0.9468 0.9463 0.9453
3464.143823 0.9438 0.9428 0.9423 0.9420 0.9420
3468.412464 0.9413 0.9398 0.9385 0.9375 0.9365
3472.681105 0.9355 0.9345 0.9335 0.9330 0.9330
3476.949746 0.9325 0.9315 0.9305 0.9295 0.9283
3481.218387 0.9268 0.9253 0.9238 0.9225 0.9215
3485.487028 0.9203 0.9188 0.9173 0.9158 0.9145
3489.755669 0.9135 0.9123 0.9108 0.9093 0.9078
3494.024309 0.9065 0.9055 0.9043 0.9028 0.9010
3498.292950 0.8990 0.8970 0.8950 0.8930 0.8910
3502.561591 0.8890 0.8870 0.8848 0.8823 0.8805
3506.830232 0.8795 0.8788 0.8783 0.8763 0.8728
3511.098873 0.8698 0.8673 0.8650 0.8630 0.8603
3515.367514 0.8568 0.8533 0.8498 0.8465 0.8435
3519.636155 0.8402 0.8367 0.8337 0.8312 0.8290
3523.904796 0.8270 0.8252 0.8237 0.8227 0.8222
3528.173436 0.8220 0.8220 0.8220 0.8220 0.8222
3532.442077 0.8227 0.8240 0.8260 0.8273 0.8278
3536.710718 0.8280 0.8280 0.8290 0.8310 0.8325
3540.979359 0.8335 0.8360 0.8400 0.8433 0.8458
3545.248000 0.8473 0.8478 0.8490 0.8510 0.8528
3549.516641 0.8543 0.8570 0.8610 0.8640 0.8660
3553.785282 0.8680 0.8700 0.8713 0.8718 0.8733
3558.053923 0.8758 0.8785 0.8815 0.8856 0.8906
3562.322564 0.8945 0.8975 0.9005 0.9035 0.9050
3566.591204 0.9050 0.9045 0.9035 0.9025 0.9015
3570.859845 0.9002 0.8987 0.8980 0.8980 0.8988
3575.128486 0.9003 0.9036 0.9086 0.9138 0.9193
3579.397127 0.9233 0.9258 0.9280 0.9300 0.9320
3583.665768 0.9340 0.9368 0.9403 0.9423 0.9428
3587.934409 0.9435 0.9445 0.9450 0.9450 0.9445
3592.203050 0.9435 0.9427 0.9422 0.9420 0.9420
3596.471691 0.9420 0.9420 0.9423 0.9428 0.9438
3600.740331 0.9453 0.9463 0.9468 0.9475 0.9485
3605.008972 0.9493 0.9498 0.9503 0.9508 0.9515
3609.277613 0.9525 0.9530 0.9530 0.9530 0.9530
3613.546254 0.9530 0.9530 0.9533 0.9538 0.9540
3617.814895 0.9540 0.9540 0.9540 0.9540 0.9540
3622.083536 0.9543 0.9548 0.9550 0.9550 0.9555
3626.352177 0.9565 0.9570 0.9570 0.9573 0.9578
3630.620818 0.9580 0.9580 0.9580 0.9580 0.9580
3634.889459 0.9580 0.9580 0.9580 0.9580 0.9580
3639.158099 0.9580 0.9580 0.9580 0.9580 0.9580
3643.426740 0.9580 0.9580 0.9580 0.9580 0.9580
3647.695381 0.9580 0.9580 0.9580 0.9580 0.9577
3651.964022 0.9572 0.9570 0.9570 0.9570 0.9570
3656.232663 0.9564 0.9554 0.9547 0.9542 0.9532
3660.501304 0.9517 0.9499 0.9479 0.9465 0.9455
3664.769945 0.9445 0.9435 0.9425 0.9415 0.9402
3669.038586 0.9387 0.9377 0.9372 0.9365 0.9354
3673.307227 0.9350 0.9350 0.9356 0.9366 0.9373
3677.575867 0.9378 0.9388 0.9403 0.9416 0.9426
3681.844508 0.9441 0.9461 0.9486 0.9516 0.9535
3686.113149 0.9545 0.9555 0.9565 0.9587 0.9617
3690.381790 0.9647 0.9677 0.9701 0.9721 0.9741
3694.650431 0.9761 0.9770 0.9770 0.9773 0.9778
3698.919072 0.9783 0.9788 0.9790 0.9790 0.9796
3703.187713 0.9806 0.9810 0.9810 0.9810 0.9810
3707.456354 0.9816 0.9826 0.9830 0.9830 0.9836
3711.724994 0.9846 0.9853 0.9858 0.9863 0.9868
3715.993635 0.9870 0.9870 0.9870 0.9870 0.9876
3720.262276 0.9886 0.9893 0.9898 0.9903 0.9908
3724.530917 0.9910 0.9910 0.9910 0.9910 0.9910
3728.799558 0.9910 0.9910 0.9910 0.9907 0.9902
3733.068199 0.9897 0.9892 0.9890 0.9890 0.9890
3737.336840 0.9890 0.9890 0.9890 0.9890 0.9890
3741.605481 0.9890 0.9890 0.9893 0.9898 0.9900
3745.874122 0.9900 0.9903 0.9908 0.9910 0.9910
3750.142762 0.9910 0.9910 0.9910 0.9910 0.9910
3754.411403 0.9910 0.9910 0.9910 0.9910 0.9910
3758.680044 0.9907 0.9902 0.9900 0.9900 0.9900
3762.948685 0.9900 0.9900 0.9900 0.9897 0.9892
3767.217326 0.9890 0.9890 0.9884 0.9874 0.9870
3771.485967 0.9870 0.9870 0.9870 0.9867 0.9862
3775.754608 0.9860 0.9860 0.9860 0.9860 0.9860
3780.023249 0.9860 0.9860 0.9860 0.9863 0.9868
3784.291890 0.9879 0.9894 0.9900 0.9900 0.9900
3788.560530 0.9900 0.9900 0.9900 0.9900 0.9900
3792.829171 0.9900 0.9900 0.9900 0.9900 0.9897
3797.097812 0.9892 0.9890 0.9890 0.9890 0.9890
3801.366453 0.9890 0.9890
##END=
