##TITLE=TERT-BUTYL BENZENE
##JCAMP-DX=4.24
##DATA TYPE=INFRARED SPECTRUM
##CLASS=COBLENTZ
##ORIGIN=DOW CORNING CORP.
##OWNER=COBLENTZ SOCIETY
Collection (C) 2018 copyright by the U.S. Secretary of Commerce
on behalf of the United States of America. All rights reserved.
##DATE=Not specified, most likely prior to 1970
##NAMES=tert-butylbenzene
##CAS REGISTRY NO=98-06-6
##MOLFORM=C10 H14
##SOURCE REFERENCE=COBLENTZ NO. 4321
##$NIST SOURCE=COBLENTZ
##$NIST IMAGE=cob4321
##SPECTROMETER/DATA SYSTEM=Not specified, most likely a grating or hybrid spectrometer.
##STATE=SOLUTION (6.4% IN CCl4 FOR 3800-1300, 3.5% IN CS2 FOR 1300-650, AND 6.4% IN CCl4 FOR 650-250 CM^-^1) VERSUS SOLVENT
##PATH LENGTH=0.010, 0.010, AND 0.0189 CM (CsBr CELL)
##SAMPLING PROCEDURE=TRANSMISSION
##RESOLUTION=4
##DATA PROCESSING=DIGITIZED BY NIST FROM HARD COPY (FROM TWO SEGMENTS)
##XUNITS=1/CM
##YUNITS=TRANSMITTANCE
##XFACTOR=1.000000
##YFACTOR=1
##DELTAX=1.283080
##FIRSTX=228.067
##LASTX=3792.46
##FIRSTY=0.894
##MAXX=3792.46
##MINX=228.067
##MAXY=0.945
##MINY=0.033
##NPOINTS=2779
##XYDATA=(X++(Y..Y))
228.067000 0.8940 0.8940 0.8950 0.8970 0.8980
234.482402 0.9020 0.9030 0.9030 0.9060 0.9100
240.897804 0.9140 0.9140 0.9160 0.9180 0.9180
247.313206 0.9190 0.9190 0.9210 0.9220 0.9240
253.728608 0.9260 0.9270 0.9270 0.9290 0.9300
260.144010 0.9320 0.9320 0.9340 0.9340 0.9350
266.559411 0.9350 0.9370 0.9370 0.9370 0.9370
272.974813 0.9370 0.9350 0.9350 0.9340 0.9340
279.390215 0.9340 0.9320 0.9320 0.9320 0.9300
285.805617 0.9300 0.9300 0.9290 0.9290 0.9300
292.221019 0.9320 0.9350 0.9350 0.9340 0.9320
298.636421 0.9290 0.9290 0.9270 0.9270 0.9270
305.051823 0.9270 0.9270 0.9270 0.9270 0.9270
311.467225 0.9270 0.9290 0.9290 0.9300 0.9320
317.882627 0.9320 0.9340 0.9350 0.9350 0.9350
324.298029 0.9350 0.9340 0.9340 0.9350 0.9370
330.713431 0.9370 0.9370 0.9390 0.9390 0.9390
337.128833 0.9390 0.9400 0.9400 0.9400 0.9400
343.544234 0.9400 0.9400 0.9400 0.9400 0.9400
349.959636 0.9400 0.9400 0.9400 0.9400 0.9390
356.375038 0.9390 0.9400 0.9400 0.9420 0.9430
362.790440 0.9430 0.9430 0.9450 0.9450 0.9430
369.205842 0.9420 0.9420 0.9400 0.9390 0.9390
375.621244 0.9370 0.9370 0.9370 0.9350 0.9340
382.036646 0.9320 0.9300 0.9300 0.9300 0.9290
388.452048 0.9290 0.9290 0.9290 0.9300 0.9320
394.867450 0.9300 0.9270 0.9270 0.9290 0.9300
401.282852 0.9300 0.9290 0.9270 0.9270 0.9260
407.698254 0.9260 0.9260 0.9260 0.9260 0.9260
414.113656 0.9270 0.9300 0.9300 0.9300 0.9270
420.529057 0.9270 0.9270 0.9260 0.9240 0.9240
426.944459 0.9240 0.9240 0.9240 0.9240 0.9260
433.359861 0.9290 0.9300 0.9300 0.9290 0.9270
439.775263 0.9260 0.9260 0.9260 0.9220 0.9160
446.190665 0.9160 0.9130 0.9100 0.9060 0.9020
452.606067 0.9000 0.8980 0.8970 0.8950 0.8940
459.021469 0.8940 0.8950 0.8950 0.8950 0.8970
465.436871 0.8970 0.9000 0.9000 0.9020 0.9020
471.852273 0.9020 0.9020 0.9000 0.9000 0.8980
478.267675 0.8980 0.8970 0.8970 0.8970 0.8970
484.683077 0.8970 0.8950 0.8940 0.8890 0.8870
491.098479 0.8860 0.8860 0.8840 0.8820 0.8820
497.513880 0.8810 0.8810 0.8790 0.8790 0.8790
503.929282 0.8780 0.8780 0.8780 0.8760 0.8730
510.344684 0.8680 0.8680 0.8680 0.8660 0.8650
516.760086 0.8610 0.8580 0.8550 0.8530 0.8490
523.175488 0.8370 0.8340 0.8230 0.8150 0.8050
529.590890 0.7881 0.7780 0.7641 0.7441 0.7311
536.006292 0.6830 0.6260 0.6190 0.5422 0.4203
542.421694 0.3732 0.3033 0.1269 0.1260 0.2751
548.837096 0.4200 0.5739 0.7188 0.7559 0.7799
555.252498 0.7969 0.8080 0.8309 0.8439 0.8519
561.667900 0.8530 0.8580 0.8630 0.8680 0.8730
568.083302 0.8730 0.8780 0.8810 0.8820 0.8860
574.498703 0.8870 0.8900 0.8920 0.8940 0.8950
580.914105 0.8950 0.8970 0.8970 0.8970 0.8980
587.329507 0.9000 0.9030 0.9060 0.9100 0.9100
593.744909 0.9110 0.9110 0.9110 0.9110 0.9110
600.160311 0.9110 0.9110 0.9100 0.9100 0.9100
606.575713 0.9080 0.9080 0.9100 0.9100 0.9100
612.991115 0.9110 0.9110 0.9100 0.9100 0.9110
619.406517 0.9190 0.9369 0.9390 0.9390 0.9390
625.821919 0.9390 0.9390 0.9390 0.9370 0.9350
632.237321 0.9300 0.9300 0.9290 0.9290 0.9260
638.652723 0.9260 0.9240 0.9220 0.9220 0.9210
645.068125 0.9190 0.9180 0.9180 0.9180 0.9180
651.483526 0.9180 0.9180 0.9160 0.9160 0.9160
657.898928 0.9140 0.9140 0.9100 0.9100 0.9100
664.314330 0.9080 0.9080 0.9050 0.8980 0.8940
670.729732 0.8900 0.8870 0.8860 0.8810 0.8810
677.145134 0.8780 0.8730 0.8660 0.8600 0.8570
683.560536 0.8440 0.8251 0.8121 0.7643 0.7123
689.975938 0.6540 0.5871 0.4911 0.4012 0.2853
696.391340 0.2272 0.1712 0.1710 0.4394 0.5751
702.806742 0.7280 0.7800 0.8229 0.8370 0.8629
709.222144 0.8839 0.8920 0.8950 0.8980 0.9020
715.637546 0.9030 0.9050 0.9050 0.9050 0.9020
722.052948 0.9000 0.9020 0.9020 0.9020 0.9030
728.468349 0.9030 0.9050 0.9050 0.9050 0.9050
734.883751 0.9050 0.9050 0.9030 0.9020 0.9000
741.299153 0.8970 0.8940 0.8940 0.8810 0.8650
747.714555 0.8520 0.8361 0.8151 0.7961 0.7781
754.129957 0.7010 0.6370 0.5851 0.4703 0.3623
760.545359 0.2036 0.2030 0.3025 0.7991 0.8388
766.960761 0.8630 0.8790 0.8870 0.8940 0.8970
773.376163 0.8970 0.8980 0.9000 0.9000 0.9020
779.791565 0.9020 0.9020 0.9030 0.9030 0.9030
786.206967 0.9030 0.9050 0.9060 0.9080 0.9080
792.622369 0.9100 0.9110 0.9130 0.9140 0.9140
799.037771 0.9140 0.9160 0.9160 0.9160 0.9160
805.453172 0.9160 0.9160 0.9160 0.9140 0.9140
811.868574 0.9140 0.9140 0.9140 0.9140 0.9140
818.283976 0.9140 0.9140 0.9130 0.9110 0.9100
824.699378 0.9080 0.9000 0.8970 0.8950 0.8950
831.114780 0.8940 0.8940 0.8870 0.8760 0.8760
837.530182 0.8899 0.9019 0.9060 0.9100 0.9100
843.945584 0.9110 0.9110 0.9110 0.9110 0.9110
850.360986 0.9100 0.9100 0.9100 0.9100 0.9100
856.776388 0.9100 0.9110 0.9110 0.9110 0.9110
863.191790 0.9110 0.9130 0.9130 0.9110 0.9110
869.607192 0.9110 0.9100 0.9080 0.9080 0.9080
876.022593 0.9080 0.9060 0.9060 0.9060 0.9050
882.437995 0.9030 0.9020 0.9020 0.9000 0.9000
888.853397 0.9000 0.8970 0.8970 0.8970 0.8950
895.268799 0.8940 0.8890 0.8840 0.8790 0.8710
901.684201 0.8710 0.8790 0.8860 0.8920 0.8940
908.099603 0.8950 0.8950 0.8950 0.8950 0.8940
914.515005 0.8940 0.8920 0.8900 0.8890 0.8870
920.930407 0.8870 0.8890 0.8900 0.8940 0.8950
927.345809 0.8970 0.8970 0.8970 0.8980 0.9000
933.761211 0.9020 0.9020 0.9020 0.9020 0.9020
940.176613 0.9020 0.9020 0.9020 0.9000 0.9000
946.592015 0.9000 0.9000 0.9000 0.9000 0.9000
953.007416 0.9000 0.9020 0.9020 0.9020 0.9020
959.422818 0.9000 0.9000 0.9000 0.9000 0.9000
965.838220 0.8980 0.8970 0.8970 0.8970 0.8970
972.253622 0.8970 0.8980 0.9000 0.9000 0.9000
978.669024 0.9000 0.8980 0.8950 0.8940 0.8940
985.084426 0.8940 0.8940 0.8940 0.8920 0.8920
991.499828 0.8920 0.8920 0.8920 0.8900 0.8890
997.915230 0.8870 0.8860 0.8860 0.8840 0.8820
1004.330632 0.8810 0.8810 0.8780 0.8740 0.8730
1010.746034 0.8650 0.8600 0.8600 0.8580 0.8570
1017.161436 0.8520 0.8391 0.8340 0.8280 0.8230
1023.576838 0.8100 0.7840 0.7521 0.6582 0.6211
1029.992239 0.6210 0.7952 0.8358 0.8529 0.8649
1036.407641 0.8730 0.8740 0.8760 0.8760 0.8780
1042.823043 0.8780 0.8780 0.8780 0.8780 0.8780
1049.238445 0.8780 0.8760 0.8760 0.8760 0.8760
1055.653847 0.8760 0.8740 0.8710 0.8690 0.8680
1062.069249 0.8660 0.8650 0.8610 0.8580 0.8520
1068.484651 0.8470 0.8440 0.8360 0.8211 0.8101
1074.900053 0.8000 0.8000 0.8120 0.8230 0.8340
1081.315455 0.8499 0.8659 0.8690 0.8730 0.8730
1087.730857 0.8710 0.8690 0.8680 0.8650 0.8630
1094.146259 0.8610 0.8600 0.8600 0.8580 0.8570
1100.561661 0.8550 0.8520 0.8490 0.8360 0.8170
1106.977062 0.8120 0.7761 0.7760 0.8516 0.8580
1113.392464 0.8630 0.8680 0.8760 0.8780 0.8790
1119.807866 0.8820 0.8820 0.8840 0.8840 0.8860
1126.223268 0.8860 0.8860 0.8860 0.8820 0.8820
1132.638670 0.8820 0.8820 0.8840 0.8860 0.8860
1139.054072 0.8840 0.8820 0.8820 0.8820 0.8820
1145.469474 0.8820 0.8840 0.8860 0.8860 0.8870
1151.884876 0.8870 0.8870 0.8870 0.8890 0.8890
1158.300278 0.8890 0.8890 0.8890 0.8890 0.8890
1164.715680 0.8890 0.8890 0.8890 0.8890 0.8890
1171.131082 0.8890 0.8890 0.8890 0.8870 0.8870
1177.546484 0.8870 0.8840 0.8790 0.8780 0.8740
1183.961885 0.8660 0.8630 0.8600 0.8580 0.8550
1190.377287 0.8490 0.8440 0.8340 0.8280 0.8200
1196.792689 0.8170 0.8170 0.8200 0.8339 0.8529
1203.208091 0.8730 0.8790 0.8860 0.8870 0.8890
1209.623493 0.8900 0.8920 0.8940 0.8950 0.8950
1216.038895 0.8970 0.8970 0.8980 0.8980 0.8970
1222.454297 0.8970 0.8950 0.8940 0.8940 0.8920
1228.869699 0.8900 0.8890 0.8870 0.8860 0.8840
1235.285101 0.8840 0.8840 0.8860 0.8870 0.8890
1241.700503 0.8890 0.8870 0.8860 0.8840 0.8820
1248.115905 0.8760 0.8740 0.8710 0.8680 0.8650
1254.531307 0.8570 0.8410 0.8360 0.8120 0.7831
1260.946708 0.7411 0.6753 0.6342 0.6340 0.7065
1267.362110 0.7270 0.7540 0.8049 0.8529 0.8729
1273.777512 0.8740 0.8780 0.8790 0.8820 0.8840
1280.192914 0.8860 0.8860 0.8870 0.8900 0.8920
1286.608316 0.8940 0.8950 0.8950 0.8950 0.8950
1293.023718 0.8950 0.8950 0.8970 0.9000 0.9030
1299.439120 0.9080 0.9130 0.9140 0.9140 0.9140
1305.854522 0.9160 0.9160 0.9180 0.9190 0.9190
1312.269924 0.9180 0.9180 0.9160 0.9140 0.9140
1318.685326 0.9140 0.9130 0.9130 0.9100 0.9100
1325.100728 0.9100 0.9100 0.9100 0.9080 0.9080
1331.516130 0.9060 0.9060 0.9050 0.9050 0.9030
1337.931531 0.9030 0.8970 0.8940 0.8920 0.8900
1344.346933 0.8860 0.8820 0.8790 0.8690 0.8610
1350.762335 0.8530 0.8361 0.8151 0.7961 0.7592
1357.177737 0.7110 0.6720 0.4922 0.4471 0.3991
1363.593139 0.3531 0.3530 0.4197 0.4837 0.5516
1370.008541 0.6640 0.7830 0.8050 0.8130 0.8150
1376.423943 0.8170 0.8170 0.8180 0.8200 0.8210
1382.839345 0.8210 0.8200 0.8150 0.8080 0.7641
1389.254747 0.7301 0.6613 0.6610 0.7087 0.7517
1395.670149 0.7890 0.8440 0.8580 0.8650 0.8810
1402.085551 0.8840 0.8840 0.8860 0.8860 0.8860
1408.500953 0.8860 0.8860 0.8860 0.8860 0.8860
1414.916354 0.8860 0.8860 0.8860 0.8860 0.8820
1421.331756 0.8730 0.8660 0.8550 0.8490 0.8470
1427.747158 0.8420 0.8281 0.8051 0.7881 0.7810
1434.162560 0.7620 0.7300 0.7010 0.6701 0.6241
1440.577962 0.5732 0.5531 0.5291 0.5051 0.4811
1446.993364 0.4590 0.4590 0.5099 0.6657 0.6660
1453.408766 0.6560 0.6371 0.6191 0.6051 0.5951
1459.824168 0.5870 0.5820 0.5810 0.5790 0.5790
1466.239570 0.5790 0.5810 0.5820 0.5840 0.5850
1472.654972 0.5900 0.5930 0.6010 0.6080 0.6190
1479.070374 0.6399 0.6540 0.6659 0.6779 0.6830
1485.485776 0.6830 0.6780 0.6640 0.6430 0.6061
1491.901177 0.5452 0.4623 0.3834 0.3014 0.2980
1498.316579 0.1380 0.1380 0.7054 0.8288 0.8519
1504.731981 0.8729 0.8760 0.8820 0.8860 0.8890
1511.147383 0.8890 0.8920 0.8940 0.8940 0.8940
1517.562785 0.8920 0.8900 0.8870 0.8860 0.8840
1523.978187 0.8820 0.8810 0.8790 0.8780 0.8780
1530.393589 0.8760 0.8760 0.8780 0.8780 0.8810
1536.808991 0.8890 0.8950 0.9030 0.9060 0.9080
1543.224393 0.9100 0.9130 0.9130 0.9140 0.9140
1549.639795 0.9140 0.9140 0.9140 0.9140 0.9140
1556.055197 0.9140 0.9140 0.9140 0.9130 0.9130
1562.470598 0.9100 0.9060 0.9030 0.9020 0.8980
1568.886000 0.8950 0.8940 0.8870 0.8840 0.8790
1575.301402 0.8730 0.8660 0.8610 0.8550 0.8520
1581.716804 0.8520 0.8580 0.8610 0.8610 0.8600
1588.132206 0.8570 0.8530 0.8370 0.8200 0.8020
1594.547608 0.7781 0.7332 0.6703 0.6272 0.6270
1600.963010 0.6501 0.7330 0.7570 0.7830 0.8129
1607.378412 0.8260 0.8439 0.8609 0.8739 0.8760
1613.793814 0.8820 0.8920 0.8940 0.8950 0.8980
1620.209216 0.9020 0.9030 0.9030 0.9050 0.9050
1626.624618 0.9060 0.9080 0.9080 0.9100 0.9110
1633.040020 0.9110 0.9110 0.9110 0.9110 0.9130
1639.455421 0.9130 0.9110 0.9110 0.9110 0.9110
1645.870823 0.9100 0.9100 0.9100 0.9100 0.9080
1652.286225 0.9080 0.9080 0.9060 0.9060 0.9030
1658.701627 0.9000 0.8980 0.8970 0.8970 0.8950
1665.117029 0.8940 0.8900 0.8900 0.8920 0.8970
1671.532431 0.9000 0.9030 0.9050 0.9080 0.9080
1677.947833 0.9100 0.9100 0.9100 0.9100 0.9100
1684.363235 0.9100 0.9100 0.9100 0.9100 0.9100
1690.778637 0.9110 0.9110 0.9110 0.9110 0.9110
1697.194039 0.9130 0.9130 0.9140 0.9140 0.9140
1703.609441 0.9140 0.9140 0.9140 0.9140 0.9140
1710.024843 0.9130 0.9130 0.9130 0.9110 0.9100
1716.440244 0.9100 0.9080 0.9080 0.9080 0.9080
1722.855646 0.9080 0.9060 0.9050 0.9050 0.9050
1729.271048 0.9030 0.9000 0.8970 0.8940 0.8860
1735.686450 0.8840 0.8820 0.8810 0.8780 0.8760
1742.101852 0.8760 0.8780 0.8810 0.8940 0.8970
1748.517254 0.9020 0.9030 0.9050 0.9060 0.9080
1754.932656 0.9080 0.9080 0.9100 0.9110 0.9110
1761.348058 0.9110 0.9110 0.9100 0.9100 0.9100
1767.763460 0.9100 0.9100 0.9100 0.9080 0.9080
1774.178862 0.9060 0.9060 0.9060 0.9050 0.9050
1780.594264 0.9030 0.9030 0.9020 0.9020 0.9000
1787.009666 0.9000 0.8970 0.8940 0.8890 0.8860
1793.425067 0.8820 0.8710 0.8570 0.8570 0.8630
1799.840469 0.8730 0.8820 0.8860 0.8920 0.8940
1806.255871 0.8950 0.8950 0.8950 0.8940 0.8940
1812.671273 0.8940 0.8940 0.8950 0.9000 0.9030
1819.086675 0.9060 0.9100 0.9110 0.9130 0.9140
1825.502077 0.9140 0.9140 0.9140 0.9140 0.9140
1831.917479 0.9140 0.9140 0.9130 0.9130 0.9130
1838.332881 0.9130 0.9130 0.9130 0.9130 0.9110
1844.748283 0.9110 0.9100 0.9100 0.9100 0.9080
1851.163685 0.9060 0.9050 0.9050 0.9030 0.9020
1857.579087 0.9020 0.8980 0.8940 0.8870 0.8760
1863.994489 0.8730 0.8710 0.8730 0.8740 0.8780
1870.409890 0.8840 0.8890 0.8920 0.8940 0.8940
1876.825292 0.8920 0.8870 0.8810 0.8790 0.8760
1883.240694 0.8790 0.8820 0.8940 0.8950 0.8980
1889.656096 0.9060 0.9100 0.9110 0.9110 0.9110
1896.071498 0.9110 0.9110 0.9110 0.9110 0.9110
1902.486900 0.9100 0.9100 0.9100 0.9080 0.9080
1908.902302 0.9080 0.9110 0.9130 0.9130 0.9130
1915.317704 0.9130 0.9130 0.9110 0.9110 0.9100
1921.733106 0.9050 0.9030 0.9020 0.9000 0.8980
1928.148508 0.8970 0.8950 0.8940 0.8900 0.8870
1934.563910 0.8820 0.8610 0.8570 0.8520 0.8490
1940.979312 0.8520 0.8610 0.8729 0.8760 0.8820
1947.394713 0.8860 0.8870 0.8870 0.8870 0.8870
1953.810115 0.8860 0.8840 0.8840 0.8860 0.8900
1960.225517 0.8950 0.9030 0.9060 0.9110 0.9140
1966.640919 0.9140 0.9140 0.9140 0.9130 0.9130
1973.056321 0.9130 0.9130 0.9130 0.9130 0.9130
1979.471723 0.9140 0.9140 0.9160 0.9160 0.9160
1985.887125 0.9160 0.9180 0.9180 0.9190 0.9210
1992.302527 0.9210 0.9240 0.9240 0.9220 0.9220
1998.717929 0.9210 0.9210 0.9195 0.9180 0.9170
2005.133331 0.9160 0.9160 0.9160 0.9160 0.9160
2011.548733 0.9160 0.9160 0.9160 0.9160 0.9160
2017.964135 0.9160 0.9170 0.9180 0.9170 0.9160
2024.379536 0.9160 0.9160 0.9160 0.9160 0.9160
2030.794938 0.9160 0.9160 0.9160 0.9160 0.9160
2037.210340 0.9160 0.9160 0.9160 0.9160 0.9160
2043.625742 0.9160 0.9160 0.9160 0.9160 0.9160
2050.041144 0.9160 0.9160 0.9160 0.9160 0.9160
2056.456546 0.9160 0.9160 0.9160 0.9160 0.9160
2062.871948 0.9160 0.9160 0.9160 0.9160 0.9160
2069.287350 0.9160 0.9160 0.9160 0.9160 0.9160
2075.702752 0.9160 0.9160 0.9160 0.9160 0.9151
2082.118154 0.9141 0.9140 0.9140 0.9135 0.9130
2088.533556 0.9130 0.9130 0.9130 0.9130 0.9130
2094.948958 0.9130 0.9130 0.9130 0.9130 0.9130
2101.364359 0.9130 0.9130 0.9130 0.9130 0.9130
2107.779761 0.9130 0.9130 0.9130 0.9130 0.9130
2114.195163 0.9130 0.9130 0.9130 0.9130 0.9130
2120.610565 0.9130 0.9130 0.9130 0.9130 0.9130
2127.025967 0.9130 0.9130 0.9130 0.9130 0.9130
2133.441369 0.9130 0.9130 0.9130 0.9130 0.9130
2139.856771 0.9130 0.9130 0.9130 0.9130 0.9130
2146.272173 0.9130 0.9134 0.9139 0.9136 0.9131
2152.687575 0.9130 0.9130 0.9130 0.9130 0.9130
2159.102977 0.9130 0.9130 0.9130 0.9130 0.9130
2165.518379 0.9130 0.9130 0.9130 0.9130 0.9130
2171.933780 0.9130 0.9130 0.9130 0.9121 0.9111
2178.349182 0.9110 0.9110 0.9110 0.9110 0.9106
2184.764584 0.9101 0.9100 0.9100 0.9100 0.9100
2191.179986 0.9100 0.9100 0.9100 0.9100 0.9100
2197.595388 0.9100 0.9100 0.9100 0.9100 0.9100
2204.010790 0.9100 0.9100 0.9100 0.9100 0.9100
2210.426192 0.9100 0.9100 0.9100 0.9091 0.9081
2216.841594 0.9080 0.9080 0.9080 0.9080 0.9080
2223.256996 0.9080 0.9080 0.9080 0.9072 0.9062
2229.672398 0.9068 0.9079 0.9080 0.9080 0.9089
2236.087800 0.9098 0.9100 0.9100 0.9092 0.9082
2242.503202 0.9080 0.9080 0.9080 0.9080 0.9080
2248.918603 0.9080 0.9080 0.9080 0.9080 0.9080
2255.334005 0.9072 0.9062 0.9060 0.9060 0.9060
2261.749407 0.9060 0.9060 0.9060 0.9060 0.9060
2268.164809 0.9060 0.9060 0.9060 0.9060 0.9060
2274.580211 0.9060 0.9056 0.9051 0.9050 0.9050
2280.995613 0.9050 0.9050 0.9050 0.9050 0.9050
2287.411015 0.9050 0.9042 0.9032 0.9030 0.9030
2293.826417 0.9030 0.9030 0.9030 0.9030 0.9038
2300.241819 0.9048 0.9050 0.9050 0.9050 0.9050
2306.657221 0.9050 0.9050 0.9042 0.9032 0.9030
2313.072623 0.9030 0.9030 0.9030 0.9030 0.9030
2319.488025 0.9038 0.9048 0.9050 0.9050 0.9050
2325.903426 0.9050 0.9050 0.9050 0.9050 0.9050
2332.318828 0.9050 0.9050 0.9042 0.9032 0.9026
2338.734230 0.9021 0.9020 0.9020 0.9020 0.9020
2345.149632 0.9024 0.9029 0.9030 0.9030 0.9038
2351.565034 0.9048 0.9050 0.9050 0.9050 0.9050
2357.980436 0.9042 0.9032 0.9026 0.9021 0.9020
2364.395838 0.9020 0.9012 0.9002 0.8992 0.8982
2370.811240 0.8980 0.8980 0.8980 0.8980 0.8980
2377.226642 0.8980 0.8987 0.8997 0.9007 0.9017
2383.642044 0.9020 0.9020 0.9020 0.9020 0.9020
2390.057446 0.9020 0.9024 0.9029 0.9030 0.9030
2396.472848 0.9026 0.9021 0.9020 0.9020 0.9020
2402.888249 0.9020 0.9020 0.9020 0.9020 0.9020
2409.303651 0.9020 0.9020 0.9020 0.9020 0.9020
2415.719053 0.9020 0.9020 0.9020 0.9020 0.9020
2422.134455 0.9020 0.9020 0.9024 0.9029 0.9030
2428.549857 0.9030 0.9026 0.9021 0.9020 0.9020
2434.965259 0.9013 0.9003 0.9000 0.9000 0.9007
2441.380661 0.9017 0.9020 0.9020 0.9024 0.9029
2447.796063 0.9030 0.9030 0.9026 0.9021 0.9013
2454.211465 0.9003 0.8993 0.8983 0.8977 0.8972
2460.626867 0.8963 0.8953 0.8950 0.8950 0.8961
2467.042269 0.8976 0.8987 0.8997 0.9007 0.9017
2473.457671 0.9023 0.9028 0.9030 0.9030 0.9030
2479.873072 0.9030 0.9027 0.9022 0.9013 0.9003
2486.288474 0.9000 0.9000 0.8993 0.8983 0.8980
2492.703876 0.8980 0.8980 0.8980 0.8980 0.8980
2499.119278 0.8987 0.8997 0.9007 0.9017 0.9020
2505.534680 0.9020 0.9020 0.9020 0.9020 0.9020
2511.950082 0.9013 0.9003 0.9000 0.9000 0.9000
2518.365484 0.9000 0.9007 0.9017 0.9020 0.9020
2524.780886 0.9020 0.9020 0.9020 0.9020 0.9013
2531.196288 0.9004 0.9000 0.9000 0.8994 0.8984
2537.611690 0.8977 0.8972 0.8970 0.8970 0.8963
2544.027092 0.8953 0.8950 0.8950 0.8947 0.8942
2550.442494 0.8940 0.8940 0.8940 0.8940 0.8940
2556.857895 0.8940 0.8940 0.8940 0.8940 0.8940
2563.273297 0.8940 0.8940 0.8940 0.8940 0.8940
2569.688699 0.8940 0.8940 0.8940 0.8940 0.8940
2576.104101 0.8940 0.8940 0.8940 0.8940 0.8940
2582.519503 0.8940 0.8940 0.8940 0.8943 0.8948
2588.934905 0.8950 0.8950 0.8950 0.8950 0.8956
2595.350307 0.8966 0.8964 0.8954 0.8950 0.8950
2601.765709 0.8956 0.8966 0.8970 0.8970 0.8970
2608.181111 0.8970 0.8973 0.8978 0.8980 0.8980
2614.596513 0.8980 0.8980 0.8977 0.8972 0.8970
2621.011915 0.8970 0.8970 0.8970 0.8964 0.8954
2627.427317 0.8950 0.8950 0.8947 0.8942 0.8934
2633.842718 0.8924 0.8926 0.8936 0.8940 0.8940
2640.258120 0.8943 0.8948 0.8950 0.8950 0.8947
2646.673522 0.8942 0.8940 0.8940 0.8940 0.8940
2653.088924 0.8940 0.8940 0.8940 0.8940 0.8934
2659.504326 0.8924 0.8920 0.8920 0.8920 0.8920
2665.919728 0.8920 0.8920 0.8920 0.8920 0.8926
2672.335130 0.8936 0.8940 0.8940 0.8940 0.8940
2678.750532 0.8943 0.8948 0.8950 0.8950 0.8950
2685.165934 0.8950 0.8947 0.8942 0.8940 0.8940
2691.581336 0.8935 0.8924 0.8920 0.8920 0.8920
2697.996738 0.8920 0.8906 0.8881 0.8867 0.8862
2704.412140 0.8860 0.8860 0.8855 0.8845 0.8840
2710.827541 0.8840 0.8840 0.8840 0.8845 0.8855
2717.242943 0.8863 0.8868 0.8870 0.8870 0.8875
2723.658345 0.8885 0.8893 0.8898 0.8897 0.8892
2730.073747 0.8890 0.8890 0.8885 0.8875 0.8870
2736.489149 0.8870 0.8870 0.8870 0.8870 0.8870
2742.904551 0.8870 0.8870 0.8870 0.8870 0.8875
2749.319953 0.8885 0.8893 0.8898 0.8900 0.8900
2755.735355 0.8897 0.8892 0.8890 0.8890 0.8885
2762.150757 0.8875 0.8870 0.8870 0.8870 0.8870
2768.566159 0.8867 0.8862 0.8860 0.8860 0.8863
2774.981561 0.8868 0.8870 0.8870 0.8870 0.8870
2781.396963 0.8868 0.8863 0.8860 0.8860 0.8855
2787.812364 0.8845 0.8835 0.8825 0.8818 0.8813
2794.227766 0.8803 0.8788 0.8767 0.8742 0.8720
2800.643168 0.8700 0.8688 0.8683 0.8680 0.8680
2807.058570 0.8680 0.8680 0.8673 0.8658 0.8640
2813.473972 0.8621 0.8608 0.8603 0.8584 0.8549
2819.889374 0.8516 0.8486 0.8465 0.8455 0.8450
2826.304776 0.8450 0.8448 0.8443 0.8433 0.8418
2832.720178 0.8401 0.8381 0.8370 0.8370 0.8345
2839.135580 0.8290 0.8246 0.8216 0.8182 0.8142
2845.550982 0.8061 0.7930 0.7827 0.7757 0.7659
2851.966384 0.7530 0.7190 0.6606 0.6194 0.5984
2858.381785 0.5779 0.5580 0.5459 0.5434 0.5271
2864.797187 0.4937 0.4583 0.4204 0.3990 0.3990
2871.212589 0.4060 0.4222 0.4374 0.4513 0.4691
2877.627991 0.4916 0.5065 0.5119 0.5188 0.5272
2884.043393 0.5364 0.5463 0.5533 0.5563 0.5580
2890.458795 0.5580 0.5540 0.5445 0.5359 0.5284
2896.874197 0.5139 0.4896 0.4650 0.4401 0.4184
2903.289599 0.4009 0.3910 0.3910 0.3989 0.4173
2909.705001 0.4328 0.4443 0.4535 0.4595 0.4644
2916.120403 0.4679 0.4700 0.4700 0.4684 0.4644
2922.535805 0.4594 0.4528 0.4473 0.4433 0.4383
2928.951207 0.4318 0.4220 0.4075 0.3951 0.3856
2935.366608 0.3774 0.3709 0.3658 0.3628 0.3568
2941.782010 0.3464 0.3343 0.3199 0.3048 0.2889
2948.197412 0.2705 0.2482 0.2263 0.2048 0.1814
2954.612814 0.1549 0.1307 0.1097 0.0915 0.0775
2961.028216 0.0620 0.0440 0.0330 0.0330 0.0349
2967.443618 0.0399 0.0454 0.0519 0.0614 0.0758
2973.859020 0.0921 0.1113 0.1306 0.1501 0.1863
2980.274422 0.2492 0.3168 0.3921 0.4624 0.5242
2986.689824 0.5731 0.6000 0.6257 0.6491 0.6693
2993.105226 0.6837 0.6984 0.7134 0.7251 0.7311
2999.520628 0.7366 0.7412 0.7477 0.7577 0.7640
3005.936030 0.7640 0.7618 0.7558 0.7515 0.7500
3012.351431 0.7424 0.7239 0.7053 0.6863 0.6676
3018.766833 0.6491 0.6320 0.6176 0.6000 0.5766
3025.182235 0.5610 0.5610 0.5689 0.5908 0.6050
3031.597637 0.6050 0.6041 0.6016 0.6000 0.6000
3038.013039 0.6114 0.6448 0.6705 0.6810 0.6880
3044.428441 0.6880 0.6872 0.6847 0.6807 0.6738
3050.843843 0.6669 0.6603 0.6505 0.6345 0.6210
3057.259245 0.6120 0.5971 0.5707 0.5530 0.5530
3063.674647 0.5632 0.5947 0.6211 0.6371 0.6559
3070.090049 0.6808 0.7031 0.7196 0.7328 0.7388
3076.505451 0.7432 0.7437 0.7386 0.7222 0.7034
3082.920853 0.6800 0.6523 0.6153 0.5900 0.5900
3089.336254 0.6014 0.6383 0.6760 0.7154 0.7494
3095.751656 0.7709 0.7891 0.7996 0.8079 0.8109
3102.167058 0.8140 0.8176 0.8202 0.8207 0.8228
3108.582460 0.8288 0.8360 0.8460 0.8560 0.8659
3114.997862 0.8734 0.8749 0.8767 0.8792 0.8821
3121.413264 0.8861 0.8897 0.8922 0.8944 0.8959
3127.828666 0.8971 0.8976 0.8983 0.8993 0.9003
3134.244068 0.9013 0.9017 0.9007 0.8997 0.8987
3140.659470 0.8979 0.8974 0.8967 0.8957 0.8950
3147.074872 0.8950 0.8949 0.8944 0.8940 0.8940
3153.490274 0.8940 0.8940 0.8941 0.8946 0.8953
3159.905676 0.8963 0.8970 0.8970 0.8971 0.8976
3166.321077 0.8985 0.9005 0.9020 0.9020 0.9017
3172.736479 0.9008 0.9000 0.9000 0.9000 0.9000
3179.151881 0.9000 0.9000 0.8997 0.8987 0.8980
3185.567283 0.8980 0.8980 0.8980 0.8980 0.8980
3191.982685 0.8980 0.8980 0.8980 0.8980 0.8982
3198.398087 0.8992 0.9002 0.9012 0.9020 0.9020
3204.813489 0.9020 0.9020 0.9020 0.9020 0.9021
3211.228891 0.9026 0.9030 0.9030 0.9030 0.9030
3217.644293 0.9029 0.9024 0.9020 0.9020 0.9021
3224.059695 0.9026 0.9032 0.9042 0.9050 0.9050
3230.475097 0.9051 0.9056 0.9060 0.9060 0.9060
3236.890499 0.9060 0.9060 0.9060 0.9060 0.9060
3243.305900 0.9060 0.9060 0.9062 0.9072 0.9080
3249.721302 0.9080 0.9080 0.9080 0.9078 0.9068
3256.136704 0.9060 0.9060 0.9060 0.9060 0.9060
3262.552106 0.9060 0.9060 0.9060 0.9060 0.9060
3268.967508 0.9060 0.9060 0.9060 0.9060 0.9060
3275.382910 0.9060 0.9060 0.9060 0.9060 0.9060
3281.798312 0.9060 0.9060 0.9062 0.9072 0.9080
3288.213714 0.9080 0.9082 0.9092 0.9100 0.9100
3294.629116 0.9100 0.9100 0.9103 0.9118 0.9130
3301.044518 0.9130 0.9130 0.9130 0.9130 0.9130
3307.459920 0.9130 0.9130 0.9130 0.9130 0.9130
3313.875322 0.9130 0.9130 0.9130 0.9130 0.9130
3320.290723 0.9131 0.9136 0.9140 0.9140 0.9140
3326.706125 0.9140 0.9140 0.9140 0.9140 0.9140
3333.121527 0.9140 0.9140 0.9140 0.9140 0.9140
3339.536929 0.9140 0.9139 0.9134 0.9130 0.9130
3345.952331 0.9130 0.9130 0.9130 0.9130 0.9131
3352.367733 0.9136 0.9140 0.9140 0.9139 0.9134
3358.783135 0.9131 0.9136 0.9140 0.9140 0.9140
3365.198537 0.9140 0.9140 0.9140 0.9140 0.9140
3371.613939 0.9140 0.9140 0.9140 0.9140 0.9140
3378.029341 0.9140 0.9140 0.9140 0.9140 0.9140
3384.444743 0.9140 0.9140 0.9141 0.9151 0.9160
3390.860145 0.9160 0.9160 0.9160 0.9160 0.9160
3397.275546 0.9160 0.9160 0.9160 0.9160 0.9160
3403.690948 0.9160 0.9160 0.9160 0.9160 0.9160
3410.106350 0.9160 0.9160 0.9160 0.9160 0.9160
3416.521752 0.9160 0.9160 0.9160 0.9160 0.9160
3422.937154 0.9160 0.9160 0.9160 0.9160 0.9160
3429.352556 0.9160 0.9160 0.9160 0.9161 0.9171
3435.767958 0.9180 0.9180 0.9180 0.9180 0.9180
3442.183360 0.9180 0.9180 0.9180 0.9180 0.9180
3448.598762 0.9180 0.9180 0.9179 0.9169 0.9160
3455.014164 0.9160 0.9160 0.9160 0.9160 0.9160
3461.429566 0.9160 0.9160 0.9160 0.9160 0.9160
3467.844967 0.9160 0.9160 0.9160 0.9160 0.9160
3474.260369 0.9160 0.9160 0.9160 0.9160 0.9161
3480.675771 0.9171 0.9180 0.9180 0.9180 0.9180
3487.091173 0.9180 0.9180 0.9180 0.9180 0.9180
3493.506575 0.9180 0.9180 0.9185 0.9190 0.9190
3499.921977 0.9190 0.9190 0.9190 0.9200 0.9210
3506.337379 0.9210 0.9210 0.9210 0.9210 0.9210
3512.752781 0.9210 0.9210 0.9210 0.9210 0.9210
3519.168183 0.9215 0.9220 0.9220 0.9220 0.9220
3525.583585 0.9220 0.9220 0.9220 0.9220 0.9220
3531.998987 0.9220 0.9220 0.9220 0.9220 0.9220
3538.414389 0.9220 0.9230 0.9240 0.9240 0.9240
3544.829790 0.9240 0.9240 0.9240 0.9240 0.9240
3551.245192 0.9240 0.9240 0.9240 0.9240 0.9240
3557.660594 0.9250 0.9260 0.9260 0.9260 0.9250
3564.075996 0.9240 0.9240 0.9240 0.9240 0.9240
3570.491398 0.9250 0.9260 0.9265 0.9270 0.9280
3576.906800 0.9290 0.9315 0.9340 0.9355 0.9370
3583.322202 0.9395 0.9420 0.9420 0.9420 0.9331
3589.737604 0.9242 0.9240 0.9240 0.9230 0.9220
3596.153006 0.9220 0.9220 0.9215 0.9210 0.9195
3602.568408 0.9180 0.9180 0.9180 0.9185 0.9190
3608.983810 0.9214 0.9239 0.9250 0.9260 0.9265
3615.399212 0.9270 0.9265 0.9260 0.9250 0.9240
3621.814613 0.9294 0.9349 0.9389 0.9429 0.9430
3628.230015 0.9430 0.9338 0.9243 0.9226 0.9211
3634.645417 0.9200 0.9190 0.9190 0.9190 0.9204
3641.060819 0.9219 0.9239 0.9259 0.9265 0.9270
3647.476221 0.9255 0.9241 0.9240 0.9240 0.9216
3653.891623 0.9191 0.9185 0.9180 0.9185 0.9190
3660.307025 0.9204 0.9219 0.9229 0.9239 0.9268
3666.722427 0.9298 0.9309 0.9320 0.9330 0.9340
3673.137829 0.9330 0.9320 0.9306 0.9291 0.9266
3679.553231 0.9241 0.9240 0.9240 0.9254 0.9269
3685.968633 0.9270 0.9270 0.9265 0.9260 0.9251
3692.384035 0.9241 0.9240 0.9240 0.9240 0.9240
3698.799436 0.9249 0.9259 0.9260 0.9260 0.9260
3705.214838 0.9260 0.9278 0.9298 0.9286 0.9271
3711.630240 0.9265 0.9260 0.9265 0.9270 0.9270
3718.045642 0.9270 0.9270 0.9270 0.9279 0.9289
3724.461044 0.9304 0.9319 0.9329 0.9339 0.9345
3730.876446 0.9350 0.9359 0.9369 0.9370 0.9370
3737.291848 0.9379 0.9389 0.9390 0.9390 0.9381
3743.707250 0.9371 0.9361 0.9351 0.9336 0.9321
3750.122652 0.9311 0.9301 0.9295 0.9291 0.9281
3756.538054 0.9271 0.9266 0.9261 0.9251 0.9241
3762.953456 0.9240 0.9240 0.9231 0.9221 0.9220
3769.368858 0.9220 0.9216 0.9211 0.9210 0.9210
3775.784259 0.9210 0.9210 0.9210 0.9210 0.9201
3782.199661 0.9191 0.9190 0.9190 0.9199 0.9209
3788.615063 0.9214 0.9219 0.9220 0.9220
##END=
