##TITLE=2-FURALDEHYDE
##JCAMP-DX=4.24
##DATA TYPE=INFRARED SPECTRUM
##CLASS=COBLENTZ III
##ORIGIN=STANDARD OIL OF OHIO
##OWNER=COBLENTZ SOCIETY
Collection (C) 2018 copyright by the U.S. Secretary of Commerce
on behalf of the United States of America. All rights reserved.
##DATE=1964/10/13
##NAMES=FURFURAL
##CAS REGISTRY NO=98-01-1
##MOLFORM=C5 H4 O2
##SOURCE REFERENCE=COBLENTZ NO. 10196
##$NIST SOURCE=COBLENTZ
##$NIST IMAGE=cob10196
##SPECTROMETER/DATA SYSTEM=PERKIN-ELMER 521 (GRATING)
##INSTRUMENT PARAMETERS=FILTERS AT 3150, 2500, 2000, 1150, 700, 410 AND GRATING CHANGES AT 2000, 630 CM^-^1
##STATE=LIQUID (NEAT)
##PATH LENGTH=CAPILLARY
$$ SEE SPECTRUM NO. 6172 FOR "SOLUTION" STATE
##SAMPLING PROCEDURE=TRANSMISSION
##RESOLUTION=4
##DATA PROCESSING=DIGITIZED BY NIST FROM HARD COPY (FROM TWO SEGMENTS)
##XUNITS=1/CM
##YUNITS=TRANSMITTANCE
##XFACTOR=1.000000
##YFACTOR=1
##DELTAX=0.954330
##FIRSTX=633.401
##LASTX=4002.18
##FIRSTY=0.799
##MAXX=4002.18
##MINX=633.401
##MAXY=0.94
##MINY=0.022
##NPOINTS=3531
##XYDATA=(X++(Y..Y))
633.401000 0.7990 0.8080 0.8120 0.8130 0.8130
638.172648 0.8160 0.8200 0.8240 0.8250 0.8280
642.944296 0.8320 0.8330 0.8340 0.8380 0.8400
647.715944 0.8410 0.8430 0.8450 0.8460 0.8470
652.487592 0.8480 0.8480 0.8500 0.8510 0.8530
657.259240 0.8560 0.8560 0.8570 0.8570 0.8580
662.030888 0.8580 0.8580 0.8590 0.8590 0.8580
666.802536 0.8590 0.8590 0.8590 0.8590 0.8590
671.574184 0.8590 0.8590 0.8590 0.8590 0.8590
676.345832 0.8590 0.8590 0.8580 0.8580 0.8580
681.117480 0.8580 0.8580 0.8580 0.8580 0.8580
685.889128 0.8580 0.8580 0.8570 0.8570 0.8560
690.660776 0.8560 0.8540 0.8530 0.8510 0.8480
695.432424 0.8460 0.8460 0.8450 0.8430 0.8400
700.204072 0.8400 0.8390 0.8380 0.8370 0.8370
704.975720 0.8350 0.8340 0.8310 0.8290 0.8270
709.747368 0.8250 0.8240 0.8210 0.8190 0.8160
714.519016 0.8150 0.8130 0.8120 0.8120 0.8090
719.290664 0.8070 0.8020 0.8000 0.7990 0.7940
724.062312 0.7890 0.7820 0.7760 0.7690 0.7601
728.833960 0.7470 0.7330 0.7170 0.7020 0.6870
733.605608 0.6681 0.6451 0.6122 0.5692 0.5382
738.377256 0.4970 0.4441 0.3751 0.3102 0.2442
743.148904 0.2042 0.1732 0.1541 0.1490 0.1430
747.920552 0.1230 0.1050 0.0870 0.0760 0.0670
752.692200 0.0670 0.0730 0.0839 0.0979 0.1079
757.463848 0.1160 0.1240 0.1460 0.1470 0.1480
762.235496 0.1480 0.1480 0.1480 0.1490 0.1510
767.007144 0.1550 0.1590 0.1620 0.1650 0.1750
771.778792 0.1840 0.1890 0.1970 0.2059 0.2179
776.550440 0.2330 0.2480 0.2650 0.2839 0.3029
781.322088 0.3239 0.3459 0.3679 0.3909 0.4138
786.093736 0.4380 0.4630 0.4870 0.5119 0.5359
790.865384 0.5599 0.5829 0.6049 0.6259 0.6459
795.637032 0.6670 0.6830 0.6990 0.7080 0.7210
800.408680 0.7340 0.7469 0.7579 0.7679 0.7710
805.180328 0.7800 0.7850 0.7880 0.7910 0.7990
809.951976 0.8020 0.8040 0.8090 0.8100 0.8120
814.723624 0.8130 0.8140 0.8150 0.8160 0.8160
819.495273 0.8160 0.8140 0.8130 0.8130 0.8120
824.266921 0.8100 0.8080 0.8030 0.7990 0.7940
829.038569 0.7830 0.7780 0.7700 0.7630 0.7521
833.810217 0.7440 0.7400 0.7300 0.7260 0.7260
838.581865 0.7260 0.7270 0.7280 0.7310 0.7340
843.353513 0.7410 0.7490 0.7530 0.7590 0.7640
848.125161 0.7700 0.7760 0.7879 0.7989 0.8040
852.896809 0.8130 0.8180 0.8240 0.8290 0.8330
857.668457 0.8380 0.8410 0.8440 0.8450 0.8450
862.440105 0.8460 0.8450 0.8450 0.8440 0.8410
867.211753 0.8340 0.8240 0.8150 0.8140 0.8130
871.983401 0.8120 0.8010 0.7880 0.7621 0.7241
876.755049 0.6523 0.5266 0.3599 0.2865 0.2860
881.526697 0.3340 0.4429 0.5308 0.6038 0.6558
886.298345 0.6939 0.7169 0.7279 0.7459 0.7530
891.069993 0.7580 0.7680 0.7750 0.7800 0.7900
895.841641 0.7930 0.7970 0.8040 0.8090 0.8100
900.613289 0.8130 0.8150 0.8150 0.8180 0.8190
905.384937 0.8210 0.8210 0.8210 0.8200 0.8200
910.156585 0.8180 0.8150 0.8100 0.8060 0.7990
914.928233 0.7890 0.7751 0.7591 0.7411 0.7182
919.699881 0.6880 0.6500 0.6021 0.5431 0.4682
924.471529 0.3913 0.3323 0.2852 0.2840 0.2959
929.243177 0.3490 0.4040 0.4619 0.5229 0.5769
934.014825 0.6189 0.6549 0.6839 0.7079 0.7239
938.786473 0.7250 0.7240 0.7170 0.7030 0.6801
943.558121 0.6740 0.6740 0.6810 0.7108 0.7448
948.329769 0.7620 0.7710 0.7960 0.8209 0.8320
953.101417 0.8380 0.8440 0.8500 0.8510 0.8530
957.873065 0.8570 0.8580 0.8590 0.8590 0.8590
962.644713 0.8590 0.8600 0.8600 0.8600 0.8600
967.416361 0.8600 0.8620 0.8620 0.8600 0.8600
972.188009 0.8600 0.8600 0.8600 0.8590 0.8580
976.959657 0.8570 0.8560 0.8530 0.8520 0.8510
981.731305 0.8500 0.8430 0.8380 0.8350 0.8330
986.502953 0.8270 0.8190 0.8130 0.8090 0.8030
991.274601 0.8010 0.7930 0.7870 0.7800 0.7740
996.046249 0.7640 0.7590 0.7520 0.7440 0.7320
1000.817897 0.7170 0.6991 0.6801 0.6621 0.6401
1005.589545 0.6080 0.5700 0.5251 0.4761 0.4172
1010.361193 0.3602 0.3092 0.2613 0.2282 0.1962
1015.132841 0.1700 0.1490 0.1390 0.1370 0.1390
1019.904489 0.1649 0.1998 0.2408 0.2897 0.3466
1024.676137 0.4090 0.4700 0.5299 0.5849 0.6309
1029.447785 0.6639 0.7009 0.7279 0.7489 0.7659
1034.219433 0.7840 0.7990 0.8030 0.8120 0.8190
1038.991081 0.8280 0.8330 0.8380 0.8410 0.8440
1043.762729 0.8500 0.8520 0.8530 0.8530 0.8570
1048.534377 0.8570 0.8580 0.8580 0.8570 0.8570
1053.306025 0.8570 0.8560 0.8560 0.8540 0.8520
1058.077673 0.8460 0.8450 0.8440 0.8430 0.8390
1062.849321 0.8340 0.8290 0.8240 0.8140 0.8020
1067.620969 0.7890 0.7751 0.7571 0.7272 0.6932
1072.392617 0.6550 0.6210 0.5960 0.5751 0.5610
1077.164265 0.5510 0.5361 0.5251 0.5250 0.5369
1081.935913 0.5890 0.6400 0.7019 0.7529 0.7849
1086.707561 0.8129 0.8289 0.8439 0.8529 0.8580
1091.479209 0.8600 0.8680 0.8720 0.8770 0.8790
1096.250857 0.8810 0.8820 0.8840 0.8850 0.8870
1101.022505 0.8880 0.8890 0.8900 0.8910 0.8920
1105.794153 0.8920 0.8920 0.8920 0.8940 0.8940
1110.565801 0.8940 0.8920 0.8920 0.8920 0.8910
1115.337449 0.8910 0.8910 0.8900 0.8900 0.8900
1120.109097 0.8890 0.8880 0.8880 0.8870 0.8850
1124.880745 0.8830 0.8820 0.8810 0.8790 0.8770
1129.652393 0.8760 0.8720 0.8660 0.8620 0.8580
1134.424041 0.8520 0.8480 0.8400 0.8291 0.8161
1139.195689 0.8040 0.7870 0.7650 0.7450 0.7121
1143.967337 0.6572 0.6341 0.5992 0.5732 0.5551
1148.738985 0.5430 0.5210 0.4950 0.4511 0.3942
1153.510633 0.3661 0.3590 0.3590 0.3898 0.4049
1158.282281 0.4810 0.5610 0.6189 0.6809 0.7239
1163.053929 0.7559 0.7819 0.7999 0.8149 0.8259
1167.825577 0.8340 0.8410 0.8500 0.8540 0.8580
1172.597225 0.8590 0.8620 0.8630 0.8630 0.8640
1177.368873 0.8640 0.8640 0.8640 0.8630 0.8630
1182.140521 0.8630 0.8620 0.8620 0.8600 0.8600
1186.912170 0.8600 0.8590 0.8590 0.8600 0.8600
1191.683818 0.8600 0.8590 0.8590 0.8580 0.8570
1196.455466 0.8530 0.8520 0.8480 0.8440 0.8370
1201.227114 0.8290 0.8200 0.8100 0.8020 0.8020
1205.998762 0.8040 0.8090 0.8160 0.8240 0.8260
1210.770410 0.8260 0.8210 0.8160 0.8061 0.7911
1215.542058 0.7740 0.7550 0.7260 0.7090 0.7090
1220.313706 0.7120 0.7190 0.7260 0.7359 0.7410
1225.085354 0.7490 0.7550 0.7600 0.7700 0.7760
1229.857002 0.7760 0.7750 0.7700 0.7591 0.7461
1234.628650 0.7180 0.6920 0.6610 0.6450 0.6260
1239.400298 0.6150 0.6130 0.6130 0.6120 0.6120
1244.171946 0.6130 0.6180 0.6290 0.6420 0.6570
1248.943594 0.6739 0.6859 0.6900 0.6960 0.6960
1253.715242 0.6940 0.6930 0.6900 0.6880 0.6810
1258.486890 0.6750 0.6710 0.6610 0.6501 0.6361
1263.258538 0.6140 0.5980 0.5760 0.5450 0.5191
1268.030186 0.4921 0.4432 0.4012 0.3622 0.3282
1272.801834 0.2990 0.2680 0.2660 0.2670 0.2720
1277.573482 0.2939 0.3229 0.3598 0.4067 0.4507
1282.345130 0.5020 0.5500 0.6019 0.6479 0.6839
1287.116778 0.7179 0.7439 0.7659 0.7869 0.8019
1291.888426 0.8160 0.8280 0.8350 0.8440 0.8530
1296.660074 0.8590 0.8640 0.8660 0.8720 0.8760
1301.431722 0.8810 0.8830 0.8840 0.8840 0.8850
1306.203370 0.8890 0.8900 0.8910 0.8920 0.8940
1310.975018 0.8940 0.8950 0.8950 0.8950 0.8950
1315.746666 0.8950 0.8940 0.8940 0.8940 0.8940
1320.518314 0.8940 0.8940 0.8940 0.8940 0.8940
1325.289962 0.8940 0.8940 0.8940 0.8940 0.8940
1330.061610 0.8920 0.8920 0.8910 0.8910 0.8900
1334.833258 0.8900 0.8890 0.8870 0.8840 0.8820
1339.604906 0.8810 0.8790 0.8780 0.8770 0.8730
1344.376554 0.8720 0.8710 0.8660 0.8620 0.8570
1349.148202 0.8520 0.8470 0.8440 0.8380 0.8310
1353.919850 0.8260 0.8140 0.7971 0.7781 0.7492
1358.691498 0.7050 0.6490 0.5701 0.5111 0.4312
1363.463146 0.3921 0.3920 0.4099 0.4687 0.5098
1368.234794 0.5570 0.6040 0.6420 0.6760 0.7000
1373.006442 0.7120 0.7130 0.7110 0.7030 0.6931
1377.778090 0.6820 0.6740 0.6620 0.6380 0.6061
1382.549738 0.5691 0.5112 0.4324 0.3783 0.3124
1387.321386 0.2360 0.1490 0.0971 0.0970 0.1509
1392.093034 0.1590 0.1729 0.2526 0.3525 0.4385
1396.864682 0.5110 0.5570 0.5900 0.6190 0.6559
1401.636330 0.7108 0.7379 0.7519 0.7590 0.7699
1406.407978 0.7740 0.7810 0.7910 0.7950 0.8000
1411.179626 0.8060 0.8100 0.8150 0.8160 0.8210
1415.951274 0.8220 0.8240 0.8240 0.8240 0.8240
1420.722922 0.8240 0.8250 0.8260 0.8260 0.8250
1425.494570 0.8250 0.8240 0.8190 0.8140 0.8100
1430.266218 0.8080 0.8010 0.7910 0.7820 0.7651
1435.037866 0.7600 0.7440 0.7430 0.7410 0.7410
1439.809514 0.7410 0.7400 0.7370 0.7300 0.7240
1444.581162 0.7190 0.7090 0.7070 0.7000 0.6890
1449.352810 0.6740 0.6551 0.6192 0.5772 0.5124
1454.124458 0.4430 0.4050 0.3570 0.3061 0.2461
1458.896106 0.1792 0.1162 0.1150 0.1160 0.1240
1463.667754 0.1390 0.1640 0.2140 0.2140 0.1920
1468.439402 0.1790 0.1511 0.1211 0.1180 0.1210
1473.211050 0.1910 0.2180 0.2500 0.3049 0.3509
1477.982698 0.4038 0.4408 0.4699 0.4929 0.5169
1482.754346 0.5430 0.5630 0.5850 0.6020 0.6180
1487.525994 0.6459 0.6580 0.6670 0.6710 0.6869
1492.297642 0.7090 0.7310 0.7500 0.7590 0.7740
1497.069290 0.7850 0.7890 0.7940 0.7950 0.7990
1501.840938 0.8030 0.8070 0.8100 0.8140 0.8180
1506.612586 0.8190 0.8190 0.8210 0.8210 0.8220
1511.384234 0.8250 0.8280 0.8290 0.8290 0.8310
1516.155882 0.8310 0.8320 0.8350 0.8370 0.8380
1520.927530 0.8400 0.8410 0.8430 0.8450 0.8450
1525.699178 0.8460 0.8460 0.8470 0.8470 0.8480
1530.470826 0.8480 0.8460 0.8460 0.8450 0.8450
1535.242474 0.8450 0.8440 0.8440 0.8440 0.8440
1540.014122 0.8440 0.8440 0.8430 0.8410 0.8400
1544.785770 0.8350 0.8310 0.8280 0.8250 0.8220
1549.557419 0.8190 0.8140 0.8040 0.7930 0.7830
1554.329067 0.7252 0.6692 0.6511 0.6430 0.6400
1559.100715 0.6190 0.5580 0.4761 0.3801 0.3321
1563.872363 0.2811 0.2302 0.2300 0.2429 0.2728
1568.644011 0.3261 0.4300 0.5250 0.6129 0.6919
1573.415659 0.7449 0.7629 0.7740 0.7800 0.7909
1578.187307 0.7990 0.8020 0.8030 0.8080 0.8090
1582.958955 0.8100 0.8120 0.8120 0.8130 0.8130
1587.730603 0.8130 0.8130 0.8130 0.8130 0.8120
1592.502251 0.8120 0.8100 0.8090 0.8060 0.8020
1597.273899 0.8010 0.8000 0.7960 0.7900 0.7850
1602.045547 0.7800 0.7780 0.7760 0.7740 0.7690
1606.817195 0.7650 0.7630 0.7580 0.7570 0.7500
1611.588843 0.7440 0.7370 0.7261 0.7240 0.7210
1616.360491 0.7130 0.7080 0.7030 0.7000 0.6930
1621.132139 0.6900 0.6880 0.6870 0.6860 0.6830
1625.903787 0.6830 0.6820 0.6780 0.6740 0.6700
1630.675435 0.6680 0.6511 0.6390 0.6370 0.6290
1635.447083 0.6190 0.6120 0.6010 0.5980 0.5890
1640.218731 0.5880 0.5880 0.5880 0.5880 0.5870
1644.990379 0.5870 0.5860 0.5770 0.5610 0.5391
1649.762027 0.5071 0.4871 0.4760 0.4661 0.4511
1654.533675 0.4230 0.3920 0.3540 0.3111 0.2661
1659.305323 0.2211 0.1782 0.1372 0.1042 0.0791
1664.076971 0.0580 0.0420 0.0320 0.0270 0.0240
1668.848619 0.0230 0.0230 0.0220 0.0220 0.0220
1673.620267 0.0230 0.0240 0.0270 0.0280 0.0280
1678.391915 0.0340 0.0360 0.0350 0.0330 0.0300
1683.163563 0.0290 0.0280 0.0280 0.0270 0.0270
1687.935211 0.0270 0.0280 0.0290 0.0399 0.0450
1692.706859 0.0480 0.0510 0.0530 0.0650 0.0969
1697.478507 0.1020 0.1030 0.1110 0.1389 0.2335
1702.250155 0.3040 0.3380 0.3570 0.3810 0.4239
1707.021803 0.4609 0.4949 0.5259 0.5578 0.5898
1711.793451 0.6130 0.6360 0.6480 0.6700 0.6800
1716.565099 0.6820 0.6840 0.6890 0.6989 0.7030
1721.336747 0.7080 0.7110 0.7170 0.7240 0.7300
1726.108395 0.7360 0.7430 0.7490 0.7520 0.7590
1730.880043 0.7600 0.7630 0.7630 0.7640 0.7700
1735.651691 0.7760 0.7770 0.7780 0.7800 0.7810
1740.423339 0.7870 0.7890 0.7930 0.7990 0.8010
1745.194987 0.8030 0.8070 0.8080 0.8090 0.8100
1749.966635 0.8100 0.8120 0.8130 0.8130 0.8130
1754.738283 0.8130 0.8130 0.8130 0.8130 0.8130
1759.509931 0.8130 0.8120 0.8120 0.8120 0.8120
1764.281579 0.8090 0.8080 0.8040 0.8000 0.7930
1769.053227 0.7910 0.7890 0.7840 0.7780 0.7750
1773.824875 0.7710 0.7690 0.7680 0.7690 0.7720
1778.596523 0.7770 0.7820 0.7880 0.7960 0.8020
1783.368171 0.8090 0.8140 0.8240 0.8290 0.8379
1788.139819 0.8500 0.8520 0.8580 0.8600 0.8650
1792.911467 0.8710 0.8730 0.8770 0.8780 0.8820
1797.683115 0.8830 0.8870 0.8880 0.8900 0.8910
1802.454763 0.8920 0.8940 0.8950 0.8960 0.8970
1807.226411 0.8970 0.9000 0.9000 0.9000 0.9010
1811.998059 0.9010 0.9010 0.9010 0.9020 0.9020
1816.769707 0.9020 0.9020 0.9020 0.9020 0.9020
1821.541355 0.9030 0.9030 0.9030 0.9030 0.9030
1826.313003 0.9030 0.9040 0.9060 0.9060 0.9060
1831.084651 0.9070 0.9090 0.9100 0.9100 0.9100
1835.856299 0.9100 0.9100 0.9100 0.9120 0.9120
1840.627947 0.9130 0.9140 0.9140 0.9140 0.9140
1845.399595 0.9140 0.9140 0.9140 0.9140 0.9140
1850.171243 0.9150 0.9150 0.9140 0.9150 0.9150
1854.942891 0.9150 0.9150 0.9150 0.9150 0.9150
1859.714539 0.9160 0.9160 0.9160 0.9160 0.9160
1864.486187 0.9160 0.9150 0.9150 0.9140 0.9140
1869.257835 0.9140 0.9140 0.9130 0.9130 0.9130
1874.029483 0.9130 0.9100 0.9070 0.9060 0.9030
1878.801131 0.9020 0.9010 0.9010 0.9000 0.9000
1883.572779 0.8980 0.8950 0.8950 0.8940 0.8940
1888.344427 0.8920 0.8920 0.8920 0.8910 0.8910
1893.116075 0.8910 0.8920 0.8940 0.8950 0.8950
1897.887723 0.8970 0.8980 0.8980 0.9010 0.9060
1902.659371 0.9070 0.9090 0.9090 0.9100 0.9120
1907.431019 0.9130 0.9140 0.9150 0.9160 0.9160
1912.202667 0.9190 0.9200 0.9200 0.9210 0.9210
1916.974316 0.9220 0.9220 0.9220 0.9230 0.9230
1921.745964 0.9230 0.9230 0.9230 0.9230 0.9230
1926.517612 0.9230 0.9230 0.9230 0.9230 0.9230
1931.289260 0.9230 0.9220 0.9220 0.9220 0.9220
1936.060908 0.9220 0.9220 0.9210 0.9210 0.9200
1940.832556 0.9190 0.9190 0.9190 0.9190 0.9190
1945.604204 0.9190 0.9170 0.9190 0.9170 0.9170
1950.375852 0.9160 0.9160 0.9160 0.9160 0.9160
1955.147500 0.9160 0.9160 0.9160 0.9160 0.9170
1959.919148 0.9170 0.9190 0.9190 0.9190 0.9170
1964.690796 0.9160 0.9160 0.9160 0.9150 0.9150
1969.462444 0.9150 0.9150 0.9150 0.9150 0.9160
1974.234092 0.9160 0.9150 0.9150 0.9150 0.9150
1979.005740 0.9150 0.9150 0.9150 0.9150 0.9150
1983.777388 0.9150 0.9150 0.9160 0.9170 0.9190
1988.549036 0.9190 0.9190 0.9190 0.9170 0.9170
1993.320684 0.9170 0.9170 0.9160 0.9160 0.9160
1998.092332 0.9160 0.9160 0.9150 0.9150 0.9150
2002.863980 0.9150 0.9150 0.9150 0.9150 0.9145
2007.635628 0.9140 0.9140 0.9140 0.9135 0.9130
2012.407276 0.9125 0.9120 0.9105 0.9090 0.9080
2017.178924 0.9070 0.9070 0.9070 0.9055 0.9040
2021.950572 0.9025 0.9010 0.8981 0.8951 0.8945
2026.722220 0.8940 0.8940 0.8940 0.8940 0.8940
2031.493868 0.8945 0.8950 0.8974 0.8999 0.9009
2036.265516 0.9019 0.9025 0.9030 0.9054 0.9079
2041.037164 0.9099 0.9119 0.9125 0.9130 0.9139
2045.808812 0.9149 0.9159 0.9169 0.9179 0.9189
2050.580460 0.9190 0.9190 0.9190 0.9190 0.9190
2055.352108 0.9190 0.9181 0.9171 0.9170 0.9170
2060.123756 0.9170 0.9170 0.9170 0.9170 0.9179
2064.895404 0.9189 0.9181 0.9171 0.9170 0.9170
2069.667052 0.9170 0.9170 0.9170 0.9170 0.9166
2074.438700 0.9161 0.9155 0.9150 0.9145 0.9140
2079.210348 0.9135 0.9130 0.9116 0.9102 0.9087
2083.981996 0.9072 0.9043 0.9013 0.8983 0.8953
2088.753644 0.8932 0.8912 0.8901 0.8891 0.8890
2093.525292 0.8890 0.8894 0.8899 0.8927 0.8956
2098.296940 0.8969 0.8979 0.9002 0.9027 0.9047
2103.068588 0.9067 0.9092 0.9117 0.9137 0.9157
2107.840236 0.9177 0.9197 0.9204 0.9209 0.9210
2112.611884 0.9210 0.9214 0.9219 0.9220 0.9220
2117.383532 0.9220 0.9220 0.9220 0.9220 0.9220
2122.155180 0.9220 0.9220 0.9220 0.9220 0.9220
2126.926828 0.9220 0.9220 0.9220 0.9220 0.9216
2131.698476 0.9211 0.9210 0.9210 0.9206 0.9201
2136.470124 0.9187 0.9172 0.9162 0.9152 0.9146
2141.241772 0.9141 0.9136 0.9131 0.9130 0.9130
2146.013420 0.9130 0.9130 0.9130 0.9130 0.9130
2150.785068 0.9130 0.9134 0.9139 0.9140 0.9140
2155.556716 0.9140 0.9140 0.9140 0.9140 0.9136
2160.328364 0.9131 0.9130 0.9130 0.9130 0.9130
2165.100012 0.9126 0.9121 0.9120 0.9120 0.9120
2169.871660 0.9120 0.9120 0.9120 0.9120 0.9120
2174.643308 0.9128 0.9138 0.9140 0.9140 0.9144
2179.414956 0.9149 0.9150 0.9150 0.9150 0.9150
2184.186604 0.9150 0.9150 0.9150 0.9150 0.9150
2188.958252 0.9150 0.9150 0.9150 0.9150 0.9150
2193.729900 0.9146 0.9141 0.9140 0.9140 0.9140
2198.501548 0.9140 0.9140 0.9140 0.9140 0.9140
2203.273196 0.9140 0.9140 0.9136 0.9131 0.9130
2208.044844 0.9130 0.9130 0.9130 0.9130 0.9130
2212.816492 0.9130 0.9130 0.9126 0.9121 0.9113
2217.588140 0.9103 0.9100 0.9100 0.9096 0.9091
2222.359788 0.9086 0.9081 0.9080 0.9080 0.9080
2227.131436 0.9080 0.9084 0.9089 0.9094 0.9099
2231.903084 0.9118 0.9143 0.9154 0.9159 0.9164
2236.674732 0.9169 0.9177 0.9187 0.9194 0.9199
2241.446380 0.9204 0.9209 0.9210 0.9210 0.9210
2246.218028 0.9210 0.9213 0.9219 0.9220 0.9220
2250.989676 0.9224 0.9228 0.9230 0.9230 0.9230
2255.761324 0.9230 0.9230 0.9230 0.9230 0.9230
2260.532972 0.9237 0.9247 0.9250 0.9250 0.9250
2265.304620 0.9250 0.9243 0.9233 0.9230 0.9230
2270.076268 0.9230 0.9230 0.9230 0.9230 0.9237
2274.847916 0.9247 0.9250 0.9250 0.9243 0.9233
2279.619564 0.9230 0.9230 0.9230 0.9230 0.9230
2284.391213 0.9230 0.9230 0.9230 0.9227 0.9222
2289.162861 0.9220 0.9220 0.9220 0.9220 0.9220
2293.934509 0.9220 0.9220 0.9220 0.9220 0.9220
2298.706157 0.9220 0.9220 0.9217 0.9212 0.9207
2303.477805 0.9202 0.9197 0.9192 0.9190 0.9190
2308.249453 0.9190 0.9190 0.9190 0.9190 0.9193
2313.021101 0.9198 0.9203 0.9208 0.9213 0.9218
2317.792749 0.9220 0.9220 0.9229 0.9244 0.9250
2322.564397 0.9250 0.9253 0.9258 0.9260 0.9260
2327.336045 0.9260 0.9260 0.9260 0.9260 0.9260
2332.107693 0.9260 0.9260 0.9260 0.9260 0.9260
2336.879341 0.9257 0.9252 0.9250 0.9250 0.9250
2341.650989 0.9250 0.9250 0.9250 0.9250 0.9250
2346.422637 0.9250 0.9250 0.9250 0.9250 0.9244
2351.194285 0.9234 0.9227 0.9222 0.9220 0.9220
2355.965933 0.9220 0.9220 0.9220 0.9220 0.9217
2360.737581 0.9212 0.9210 0.9210 0.9207 0.9202
2365.509229 0.9197 0.9192 0.9184 0.9174 0.9167
2370.280877 0.9162 0.9157 0.9152 0.9147 0.9142
2375.052525 0.9140 0.9140 0.9140 0.9140 0.9140
2379.824173 0.9140 0.9140 0.9140 0.9140 0.9140
2384.595821 0.9140 0.9140 0.9140 0.9140 0.9140
2389.367469 0.9140 0.9137 0.9132 0.9130 0.9130
2394.139117 0.9130 0.9130 0.9127 0.9122 0.9112
2398.910765 0.9097 0.9085 0.9075 0.9067 0.9062
2403.682413 0.9052 0.9037 0.9027 0.9022 0.9017
2408.454061 0.9012 0.9013 0.9018 0.9025 0.9035
2413.225709 0.9045 0.9055 0.9065 0.9075 0.9082
2417.997357 0.9087 0.9092 0.9097 0.9100 0.9100
2422.769005 0.9100 0.9100 0.9100 0.9100 0.9100
2427.540653 0.9100 0.9100 0.9100 0.9100 0.9100
2432.312301 0.9100 0.9100 0.9100 0.9100 0.9100
2437.083949 0.9100 0.9100 0.9100 0.9100 0.9100
2441.855597 0.9100 0.9100 0.9100 0.9100 0.9105
2446.627245 0.9115 0.9120 0.9120 0.9122 0.9127
2451.398893 0.9130 0.9130 0.9130 0.9130 0.9128
2456.170541 0.9123 0.9116 0.9105 0.9098 0.9093
2460.942189 0.9085 0.9076 0.9072 0.9077 0.9082
2465.713837 0.9087 0.9097 0.9112 0.9122 0.9127
2470.485485 0.9134 0.9144 0.9152 0.9157 0.9162
2475.257133 0.9167 0.9168 0.9163 0.9160 0.9160
2480.028781 0.9158 0.9153 0.9150 0.9150 0.9150
2484.800429 0.9150 0.9148 0.9143 0.9140 0.9140
2489.572077 0.9138 0.9133 0.9130 0.9130 0.9130
2494.343725 0.9130 0.9130 0.9130 0.9130 0.9130
2499.115373 0.9128 0.9123 0.9120 0.9120 0.9116
2503.887021 0.9106 0.9100 0.9100 0.9100 0.9100
2508.658669 0.9104 0.9114 0.9122 0.9127 0.9134
2513.430317 0.9144 0.9152 0.9157 0.9160 0.9160
2518.201965 0.9162 0.9167 0.9170 0.9170 0.9170
2522.973613 0.9170 0.9170 0.9170 0.9168 0.9163
2527.745261 0.9158 0.9153 0.9150 0.9150 0.9150
2532.516909 0.9150 0.9148 0.9143 0.9136 0.9126
2537.288557 0.9111 0.9086 0.9061 0.9036 0.9016
2542.060205 0.9007 0.8997 0.8987 0.8980 0.8980
2546.831853 0.8983 0.8993 0.9007 0.9027 0.9048
2551.603501 0.9073 0.9095 0.9110 0.9125 0.9140
2556.375149 0.9152 0.9157 0.9162 0.9167 0.9170
2561.146797 0.9170 0.9170 0.9170 0.9170 0.9170
2565.918445 0.9170 0.9170 0.9170 0.9170 0.9170
2570.690093 0.9170 0.9170 0.9170 0.9170 0.9170
2575.461741 0.9170 0.9170 0.9170 0.9170 0.9170
2580.233389 0.9170 0.9170 0.9170 0.9170 0.9170
2585.005037 0.9170 0.9170 0.9170 0.9170 0.9170
2589.776685 0.9170 0.9169 0.9164 0.9160 0.9160
2594.548333 0.9160 0.9160 0.9160 0.9160 0.9160
2599.319981 0.9160 0.9159 0.9154 0.9149 0.9144
2604.091629 0.9139 0.9134 0.9129 0.9124 0.9117
2608.863277 0.9107 0.9099 0.9094 0.9090 0.9090
2613.634925 0.9090 0.9090 0.9089 0.9084 0.9080
2618.406573 0.9080 0.9079 0.9074 0.9070 0.9070
2623.178221 0.9070 0.9070 0.9069 0.9064 0.9060
2627.949869 0.9060 0.9058 0.9048 0.9039 0.9034
2632.721517 0.9029 0.9024 0.9019 0.9014 0.9009
2637.493165 0.9004 0.9000 0.9000 0.8998 0.8988
2642.264813 0.8980 0.8980 0.8980 0.8980 0.8980
2647.036461 0.8980 0.8980 0.8980 0.8980 0.8980
2651.808110 0.8979 0.8974 0.8969 0.8964 0.8959
2656.579758 0.8954 0.8949 0.8944 0.8937 0.8922
2661.351406 0.8908 0.8898 0.8889 0.8884 0.8880
2666.123054 0.8880 0.8880 0.8880 0.8883 0.8898
2670.894702 0.8919 0.8964 0.9001 0.9006 0.9011
2675.666350 0.9016 0.9020 0.9020 0.9021 0.9026
2680.437998 0.9030 0.9030 0.9030 0.9030 0.9029
2685.209646 0.9024 0.9020 0.9020 0.9019 0.9014
2689.981294 0.9007 0.8992 0.8980 0.8980 0.8977
2694.752942 0.8957 0.8937 0.8917 0.8898 0.8888
2699.524590 0.8872 0.8822 0.8775 0.8740 0.8701
2704.296238 0.8641 0.8581 0.8521 0.8465 0.8435
2709.067886 0.8398 0.8318 0.8242 0.8187 0.8139
2713.839534 0.8134 0.8131 0.8136 0.8141 0.8151
2718.611182 0.8166 0.8211 0.8255 0.8290 0.8326
2723.382830 0.8371 0.8417 0.8472 0.8528 0.8588
2728.154478 0.8647 0.8702 0.8751 0.8761 0.8770
2732.926126 0.8770 0.8770 0.8770 0.8769 0.8764
2737.697774 0.8759 0.8754 0.8747 0.8722 0.8696
2742.469422 0.8661 0.8625 0.8575 0.8527 0.8497
2747.241070 0.8465 0.8420 0.8375 0.8325 0.8277
2752.012718 0.8247 0.8220 0.8220 0.8221 0.8236
2756.784366 0.8251 0.8266 0.8281 0.8296 0.8313
2761.556014 0.8348 0.8380 0.8385 0.8390 0.8385
2766.327662 0.8379 0.8364 0.8348 0.8328 0.8308
2771.099310 0.8283 0.8256 0.8201 0.8149 0.8134
2775.870958 0.8117 0.8072 0.8029 0.8019 0.8009
2780.642606 0.7999 0.7988 0.7958 0.7929 0.7914
2785.414254 0.7897 0.7857 0.7818 0.7778 0.7735
2790.185902 0.7645 0.7556 0.7481 0.7405 0.7295
2794.957550 0.7186 0.7096 0.7006 0.6901 0.6796
2799.729198 0.6691 0.6588 0.6522 0.6455 0.6340
2804.500846 0.6230 0.6220 0.6210 0.6210 0.6210
2809.272494 0.6220 0.6230 0.6230 0.6230 0.6240
2814.044142 0.6251 0.6275 0.6301 0.6341 0.6381
2818.815790 0.6431 0.6480 0.6505 0.6531 0.6591
2823.587438 0.6652 0.6731 0.6811 0.6881 0.6950
2828.359086 0.6980 0.7010 0.7020 0.7030 0.7020
2833.130734 0.7010 0.6980 0.6950 0.6851 0.6751
2837.902382 0.6651 0.6551 0.6466 0.6380 0.6305
2842.674030 0.6230 0.6200 0.6170 0.6170 0.6170
2847.445678 0.6175 0.6180 0.6185 0.6190 0.6219
2852.217326 0.6249 0.6294 0.6339 0.6364 0.6389
2856.988974 0.6438 0.6488 0.6548 0.6609 0.6673
2861.760622 0.6738 0.6813 0.6888 0.6958 0.7028
2866.532270 0.7102 0.7177 0.7252 0.7327 0.7392
2871.303918 0.7457 0.7503 0.7548 0.7621 0.7696
2876.075566 0.7766 0.7836 0.7911 0.7987 0.8023
2880.847214 0.8058 0.8098 0.8138 0.8178 0.8218
2885.618862 0.8262 0.8307 0.8324 0.8339 0.8359
2890.390510 0.8379 0.8389 0.8399 0.8405 0.8410
2895.162158 0.8419 0.8429 0.8435 0.8440 0.8449
2899.933806 0.8459 0.8465 0.8470 0.8470 0.8470
2904.705454 0.8470 0.8470 0.8470 0.8470 0.8470
2909.477102 0.8470 0.8461 0.8451 0.8445 0.8440
2914.248750 0.8436 0.8431 0.8430 0.8430 0.8430
2919.020398 0.8430 0.8430 0.8430 0.8435 0.8439
2923.792046 0.8440 0.8440 0.8444 0.8449 0.8472
2928.563694 0.8497 0.8509 0.8519 0.8538 0.8558
2933.335342 0.8564 0.8569 0.8574 0.8579 0.8584
2938.106990 0.8589 0.8590 0.8590 0.8594 0.8599
2942.878638 0.8600 0.8600 0.8596 0.8591 0.8586
2947.650286 0.8581 0.8580 0.8580 0.8580 0.8580
2952.421934 0.8580 0.8580 0.8580 0.8580 0.8584
2957.193582 0.8589 0.8594 0.8599 0.8613 0.8628
2961.965230 0.8639 0.8648 0.8671 0.8696 0.8713
2966.736878 0.8728 0.8743 0.8758 0.8768 0.8778
2971.508526 0.8805 0.8835 0.8852 0.8868 0.8874
2976.280174 0.8879 0.8893 0.8908 0.8927 0.8947
2981.051822 0.8962 0.8977 0.8988 0.8998 0.9000
2985.823470 0.9000 0.9000 0.9000 0.8992 0.8982
2990.595118 0.8980 0.8980 0.8980 0.8980 0.8980
2995.366766 0.8980 0.8976 0.8971 0.8970 0.8970
3000.138414 0.8966 0.8961 0.8960 0.8960 0.8956
3004.910062 0.8951 0.8950 0.8950 0.8950 0.8950
3009.681710 0.8938 0.8923 0.8912 0.8902 0.8880
3014.453359 0.8855 0.8846 0.8841 0.8828 0.8813
3019.225007 0.8798 0.8783 0.8776 0.8771 0.8770
3023.996655 0.8770 0.8770 0.8770 0.8770 0.8770
3028.768303 0.8770 0.8770 0.8770 0.8770 0.8770
3033.539951 0.8770 0.8770 0.8770 0.8770 0.8770
3038.311599 0.8770 0.8770 0.8770 0.8770 0.8770
3043.083247 0.8770 0.8770 0.8770 0.8766 0.8761
3047.854895 0.8760 0.8760 0.8760 0.8760 0.8756
3052.626543 0.8751 0.8750 0.8750 0.8743 0.8733
3057.398191 0.8730 0.8730 0.8726 0.8721 0.8720
3062.169839 0.8720 0.8720 0.8720 0.8716 0.8711
3066.941487 0.8706 0.8701 0.8693 0.8683 0.8662
3071.713135 0.8637 0.8619 0.8604 0.8593 0.8583
3076.484783 0.8562 0.8537 0.8519 0.8504 0.8489
3081.256431 0.8474 0.8459 0.8445 0.8426 0.8406
3086.028079 0.8379 0.8349 0.8305 0.8255 0.8205
3090.799727 0.8155 0.8105 0.8055 0.8009 0.7964
3095.571375 0.7898 0.7823 0.7748 0.7674 0.7561
3100.343023 0.7431 0.7315 0.7206 0.7160 0.7145
3105.114671 0.7137 0.7132 0.7130 0.7130 0.7123
3109.886319 0.7113 0.7083 0.7043 0.6993 0.6938
3114.657967 0.6866 0.6787 0.6700 0.6610 0.6517
3119.429615 0.6422 0.6324 0.6225 0.6115 0.6000
3124.201263 0.5889 0.5779 0.5662 0.5541 0.5418
3128.972911 0.5293 0.5224 0.5184 0.5170 0.5170
3133.744559 0.5196 0.5236 0.5350 0.5504 0.5653
3138.516207 0.5797 0.5910 0.6005 0.6081 0.6146
3143.287855 0.6189 0.6219 0.6236 0.6246 0.6253
3148.059503 0.6258 0.6269 0.6284 0.6337 0.6412
3152.831151 0.6496 0.6586 0.6716 0.6871 0.7035
3157.602799 0.7204 0.7343 0.7463 0.7592 0.7727
3162.374447 0.7834 0.7924 0.7990 0.8041 0.8085
3167.146095 0.8124 0.8174 0.8228 0.8271 0.8306
3171.917743 0.8338 0.8368 0.8395 0.8420 0.8442
3176.689391 0.8462 0.8479 0.8494 0.8506 0.8516
3181.461039 0.8537 0.8567 0.8583 0.8588 0.8599
3186.232687 0.8614 0.8626 0.8636 0.8652 0.8672
3191.004335 0.8683 0.8688 0.8696 0.8706 0.8716
3195.775983 0.8726 0.8736 0.8746 0.8756 0.8766
3200.547631 0.8773 0.8778 0.8788 0.8803 0.8810
3205.319279 0.8810 0.8813 0.8818 0.8823 0.8828
3210.090927 0.8833 0.8838 0.8840 0.8840 0.8840
3214.862575 0.8840 0.8843 0.8848 0.8850 0.8850
3219.634223 0.8850 0.8850 0.8847 0.8842 0.8840
3224.405871 0.8840 0.8837 0.8832 0.8830 0.8830
3229.177519 0.8830 0.8830 0.8833 0.8838 0.8840
3233.949167 0.8840 0.8843 0.8848 0.8860 0.8880
3238.720815 0.8895 0.8905 0.8918 0.8933 0.8940
3243.492463 0.8940 0.8943 0.8948 0.8953 0.8958
3248.264111 0.8963 0.8968 0.8970 0.8970 0.8978
3253.035759 0.8992 0.9002 0.9007 0.9012 0.9017
3257.807407 0.9035 0.9065 0.9082 0.9087 0.9093
3262.579055 0.9097 0.9100 0.9100 0.9105 0.9115
3267.350703 0.9122 0.9127 0.9130 0.9130 0.9132
3272.122351 0.9137 0.9142 0.9147 0.9150 0.9150
3276.893999 0.9150 0.9150 0.9150 0.9150 0.9152
3281.665647 0.9157 0.9160 0.9160 0.9160 0.9160
3286.437295 0.9158 0.9153 0.9150 0.9150 0.9150
3291.208943 0.9150 0.9150 0.9150 0.9150 0.9150
3295.980591 0.9150 0.9150 0.9150 0.9150 0.9150
3300.752239 0.9150 0.9148 0.9143 0.9138 0.9133
3305.523887 0.9130 0.9130 0.9128 0.9123 0.9120
3310.295535 0.9120 0.9116 0.9106 0.9094 0.9079
3315.067183 0.9059 0.9035 0.9018 0.9013 0.9004
3319.838831 0.8989 0.8978 0.8973 0.8964 0.8949
3324.610479 0.8917 0.8862 0.8820 0.8795 0.8770
3329.382127 0.8745 0.8712 0.8667 0.8636 0.8626
3334.153775 0.8614 0.8599 0.8590 0.8590 0.8590
3338.925423 0.8590 0.8592 0.8597 0.8600 0.8600
3343.697071 0.8604 0.8614 0.8622 0.8627 0.8634
3348.468719 0.8644 0.8652 0.8657 0.8664 0.8674
3353.240367 0.8684 0.8694 0.8713 0.8748 0.8772
3358.012015 0.8777 0.8788 0.8808 0.8829 0.8854
3362.783663 0.8876 0.8891 0.8907 0.8927 0.8947
3367.555311 0.8967 0.8985 0.9000 0.9012 0.9017
3372.326959 0.9029 0.9054 0.9072 0.9077 0.9082
3377.098607 0.9087 0.9092 0.9097 0.9104 0.9114
3381.870256 0.9125 0.9140 0.9152 0.9157 0.9162
3386.641904 0.9167 0.9175 0.9190 0.9200 0.9200
3391.413552 0.9202 0.9207 0.9212 0.9217 0.9220
3396.185200 0.9220 0.9222 0.9227 0.9230 0.9230
3400.956848 0.9230 0.9230 0.9233 0.9243 0.9250
3405.728496 0.9250 0.9250 0.9250 0.9250 0.9250
3410.500144 0.9250 0.9250 0.9250 0.9250 0.9247
3415.271792 0.9237 0.9230 0.9230 0.9230 0.9230
3420.043440 0.9230 0.9230 0.9233 0.9243 0.9250
3424.815088 0.9250 0.9250 0.9250 0.9250 0.9250
3429.586736 0.9250 0.9250 0.9250 0.9250 0.9247
3434.358384 0.9237 0.9230 0.9230 0.9230 0.9230
3439.130032 0.9230 0.9230 0.9230 0.9230 0.9230
3443.901680 0.9230 0.9230 0.9230 0.9230 0.9230
3448.673328 0.9230 0.9230 0.9230 0.9230 0.9230
3453.444976 0.9230 0.9229 0.9224 0.9220 0.9220
3458.216624 0.9220 0.9220 0.9219 0.9214 0.9210
3462.988272 0.9210 0.9209 0.9204 0.9200 0.9200
3467.759920 0.9200 0.9200 0.9199 0.9194 0.9190
3472.531568 0.9190 0.9190 0.9190 0.9188 0.9178
3477.303216 0.9169 0.9164 0.9160 0.9160 0.9159
3482.074864 0.9154 0.9150 0.9150 0.9150 0.9150
3486.846512 0.9150 0.9150 0.9149 0.9144 0.9140
3491.618160 0.9140 0.9138 0.9128 0.9120 0.9120
3496.389808 0.9118 0.9108 0.9099 0.9094 0.9089
3501.161456 0.9084 0.9080 0.9080 0.9079 0.9074
3505.933104 0.9069 0.9064 0.9060 0.9060 0.9060
3510.704752 0.9060 0.9060 0.9060 0.9060 0.9060
3515.476400 0.9060 0.9060 0.9060 0.9060 0.9061
3520.248048 0.9066 0.9070 0.9070 0.9070 0.9070
3525.019696 0.9070 0.9070 0.9070 0.9070 0.9070
3529.791344 0.9070 0.9070 0.9070 0.9070 0.9070
3534.562992 0.9070 0.9070 0.9069 0.9064 0.9060
3539.334640 0.9060 0.9060 0.9060 0.9060 0.9060
3544.106288 0.9060 0.9060 0.9060 0.9060 0.9060
3548.877936 0.9060 0.9060 0.9060 0.9060 0.9060
3553.649584 0.9061 0.9066 0.9070 0.9070 0.9070
3558.421232 0.9070 0.9070 0.9070 0.9070 0.9070
3563.192880 0.9070 0.9070 0.9070 0.9070 0.9070
3567.964528 0.9070 0.9069 0.9064 0.9060 0.9060
3572.736176 0.9060 0.9060 0.9060 0.9060 0.9060
3577.507824 0.9060 0.9060 0.9060 0.9060 0.9060
3582.279472 0.9059 0.9049 0.9040 0.9040 0.9040
3587.051120 0.9040 0.9041 0.9051 0.9061 0.9066
3591.822768 0.9070 0.9070 0.9070 0.9070 0.9070
3596.594416 0.9070 0.9070 0.9065 0.9060 0.9060
3601.366064 0.9060 0.9060 0.9060 0.9060 0.9060
3606.137712 0.9060 0.9060 0.9060 0.9060 0.9065
3610.909360 0.9070 0.9070 0.9070 0.9065 0.9060
3615.681008 0.9060 0.9060 0.9060 0.9060 0.9060
3620.452656 0.9060 0.9065 0.9070 0.9070 0.9070
3625.224304 0.9070 0.9070 0.9070 0.9070 0.9070
3629.995952 0.9070 0.9070 0.9070 0.9070 0.9070
3634.767600 0.9075 0.9080 0.9080 0.9080 0.9085
3639.539248 0.9090 0.9095 0.9100 0.9110 0.9120
3644.310896 0.9120 0.9120 0.9120 0.9120 0.9125
3649.082544 0.9130 0.9135 0.9140 0.9145 0.9150
3653.854192 0.9150 0.9150 0.9150 0.9150 0.9155
3658.625840 0.9160 0.9160 0.9160 0.9165 0.9170
3663.397488 0.9180 0.9190 0.9205 0.9220 0.9235
3668.169136 0.9250 0.9260 0.9270 0.9270 0.9270
3672.940784 0.9275 0.9280 0.9280 0.9280 0.9285
3677.712432 0.9290 0.9300 0.9310 0.9315 0.9320
3682.484080 0.9325 0.9330 0.9335 0.9340 0.9345
3687.255728 0.9350 0.9350 0.9350 0.9355 0.9360
3692.027376 0.9370 0.9380 0.9380 0.9380 0.9380
3696.799024 0.9380 0.9380 0.9380 0.9380 0.9380
3701.570672 0.9380 0.9380 0.9380 0.9380 0.9380
3706.342320 0.9380 0.9385 0.9390 0.9390 0.9390
3711.113968 0.9390 0.9390 0.9390 0.9390 0.9390
3715.885616 0.9390 0.9390 0.9390 0.9390 0.9390
3720.657264 0.9395 0.9400 0.9400 0.9400 0.9400
3725.428912 0.9400 0.9400 0.9400 0.9395 0.9390
3730.200560 0.9390 0.9390 0.9390 0.9390 0.9390
3734.972208 0.9390 0.9390 0.9390 0.9390 0.9390
3739.743856 0.9390 0.9390 0.9385 0.9380 0.9380
3744.515504 0.9380 0.9380 0.9380 0.9385 0.9390
3749.287153 0.9390 0.9390 0.9390 0.9390 0.9390
3754.058801 0.9390 0.9390 0.9390 0.9390 0.9390
3758.830449 0.9390 0.9390 0.9390 0.9390 0.9395
3763.602097 0.9399 0.9400 0.9400 0.9400 0.9400
3768.373745 0.9400 0.9400 0.9400 0.9400 0.9400
3773.145393 0.9400 0.9400 0.9400 0.9400 0.9400
3777.917041 0.9400 0.9400 0.9400 0.9400 0.9400
3782.688689 0.9400 0.9400 0.9400 0.9400 0.9400
3787.460337 0.9400 0.9400 0.9400 0.9400 0.9400
3792.231985 0.9400 0.9400 0.9400 0.9400 0.9400
3797.003633 0.9400 0.9400 0.9400 0.9400 0.9400
3801.775281 0.9400 0.9400 0.9400 0.9400 0.9400
3806.546929 0.9400 0.9400 0.9400 0.9400 0.9400
3811.318577 0.9400 0.9400 0.9400 0.9396 0.9391
3816.090225 0.9390 0.9390 0.9390 0.9390 0.9390
3820.861873 0.9390 0.9390 0.9390 0.9390 0.9390
3825.633521 0.9390 0.9390 0.9386 0.9381 0.9380
3830.405169 0.9380 0.9384 0.9389 0.9390 0.9390
3835.176817 0.9390 0.9390 0.9390 0.9390 0.9390
3839.948465 0.9390 0.9390 0.9390 0.9386 0.9381
3844.720113 0.9380 0.9380 0.9380 0.9380 0.9380
3849.491761 0.9380 0.9372 0.9362 0.9360 0.9360
3854.263409 0.9360 0.9360 0.9360 0.9360 0.9360
3859.035057 0.9360 0.9360 0.9360 0.9360 0.9360
3863.806705 0.9360 0.9360 0.9360 0.9360 0.9356
3868.578353 0.9351 0.9354 0.9359 0.9360 0.9360
3873.350001 0.9360 0.9360 0.9356 0.9351 0.9350
3878.121649 0.9350 0.9350 0.9350 0.9350 0.9350
3882.893297 0.9350 0.9350 0.9346 0.9341 0.9344
3887.664945 0.9349 0.9350 0.9350 0.9350 0.9350
3892.436593 0.9346 0.9341 0.9340 0.9340 0.9340
3897.208241 0.9340 0.9336 0.9331 0.9330 0.9330
3901.979889 0.9330 0.9330 0.9330 0.9330 0.9330
3906.751537 0.9330 0.9330 0.9330 0.9330 0.9330
3911.523185 0.9330 0.9330 0.9330 0.9330 0.9330
3916.294833 0.9330 0.9334 0.9339 0.9344 0.9349
3921.066481 0.9350 0.9350 0.9346 0.9342 0.9340
3925.838129 0.9340 0.9340 0.9340 0.9340 0.9340
3930.609777 0.9340 0.9340 0.9340 0.9340 0.9340
3935.381425 0.9340 0.9343 0.9348 0.9350 0.9350
3940.153073 0.9350 0.9350 0.9350 0.9350 0.9350
3944.924721 0.9350 0.9350 0.9350 0.9350 0.9350
3949.696369 0.9350 0.9350 0.9350 0.9350 0.9347
3954.468017 0.9342 0.9340 0.9340 0.9337 0.9332
3959.239665 0.9330 0.9330 0.9330 0.9330 0.9330
3964.011313 0.9330 0.9327 0.9322 0.9320 0.9320
3968.782961 0.9320 0.9320 0.9320 0.9320 0.9317
3973.554609 0.9312 0.9310 0.9310 0.9310 0.9310
3978.326257 0.9310 0.9310 0.9310 0.9310 0.9301
3983.097905 0.9286 0.9277 0.9272 0.9267 0.9262
3987.869553 0.9250 0.9235 0.9227 0.9222 0.9198
3992.641201 0.9163 0.9141 0.9126 0.9111 0.9096
3997.412849 0.9087 0.9082 0.9077 0.9072 0.9067
4002.184497 0.9062
##END=
