##TITLE=FURFURAL
##JCAMP-DX=4.24
##DATA TYPE=INFRARED SPECTRUM
##CLASS=COBLENTZ III
##ORIGIN=WESTERN REGIONAL RES. USDA
##OWNER=COBLENTZ SOCIETY
Collection (C) 2018 copyright by the U.S. Secretary of Commerce
on behalf of the United States of America. All rights reserved.
##DATE=1964/05/20
##NAMES=2-furaldehyde
##CAS REGISTRY NO=98-01-1
##MOLFORM=C5 H4 O2
##SOURCE REFERENCE=COBLENTZ NO. 6172
##$NIST SOURCE=COBLENTZ
##$NIST IMAGE=cob6172
##SPECTROMETER/DATA SYSTEM=BECKMAN IR-7 (GRATING)
##INSTRUMENT PARAMETERS=GRATING CHANGES AT 3000, 2200, 1150 CM^-^1
##STATE=SOLUTION (10% IN CCl4 FOR 4000-1330 CM^-^1, 10% IN CS2 FOR 1330-600 CM^-^1)
##PATH LENGTH=0.011 CM, 0.010 CM
##SAMPLING PROCEDURE=TRANSMISSION
##RESOLUTION=4
##DATA PROCESSING=DIGITIZED BY NIST FROM HARD COPY (FROM TWO SEGMENTS)
##XUNITS=1/CM
##YUNITS=TRANSMITTANCE
##XFACTOR=1.000000
##YFACTOR=1
##DELTAX=0.661914
##FIRSTX=602.699
##LASTX=4004.28
##FIRSTY=0.809
##MAXX=4004.28
##MINX=602.699
##MAXY=0.898
##MINY=0
##NPOINTS=5140
##XYDATA=(X++(Y..Y))
602.699000 0.8090 0.8120 0.8150 0.8180 0.8210
606.008572 0.8250 0.8260 0.8290 0.8340 0.8380
609.318144 0.8420 0.8460 0.8490 0.8510 0.8530
612.627716 0.8550 0.8570 0.8590 0.8590 0.8610
615.937287 0.8610 0.8620 0.8630 0.8610 0.8590
619.246859 0.8560 0.8510 0.8460 0.8430 0.8410
622.556431 0.8400 0.8390 0.8390 0.8400 0.8400
625.866003 0.8400 0.8420 0.8430 0.8440 0.8450
629.175575 0.8460 0.8460 0.8460 0.8460 0.8460
632.485147 0.8470 0.8470 0.8460 0.8460 0.8450
635.794718 0.8450 0.8440 0.8420 0.8400 0.8390
639.104290 0.8380 0.8360 0.8350 0.8340 0.8320
642.413862 0.8310 0.8300 0.8280 0.8260 0.8250
645.723434 0.8230 0.8210 0.8180 0.8150 0.8130
649.033006 0.8090 0.8060 0.8020 0.7980 0.7930
652.342578 0.7880 0.7850 0.7840 0.7850 0.7920
655.652149 0.7970 0.8010 0.8050 0.8090 0.8140
658.961721 0.8190 0.8240 0.8300 0.8320 0.8340
662.271293 0.8380 0.8420 0.8450 0.8480 0.8510
665.580865 0.8530 0.8530 0.8550 0.8550 0.8550
668.890437 0.8540 0.8530 0.8500 0.8500 0.8480
672.200009 0.8470 0.8460 0.8440 0.8440 0.8430
675.509580 0.8430 0.8430 0.8440 0.8480 0.8500
678.819152 0.8520 0.8530 0.8550 0.8560 0.8570
682.128724 0.8580 0.8580 0.8590 0.8590 0.8590
685.438296 0.8590 0.8590 0.8590 0.8580 0.8580
688.747868 0.8580 0.8570 0.8550 0.8540 0.8520
692.057440 0.8510 0.8510 0.8500 0.8490 0.8480
695.367011 0.8470 0.8460 0.8460 0.8440 0.8430
698.676583 0.8420 0.8400 0.8390 0.8380 0.8370
701.986155 0.8360 0.8340 0.8330 0.8320 0.8300
705.295727 0.8290 0.8250 0.8220 0.8190 0.8160
708.605299 0.8130 0.8110 0.8090 0.8080 0.8070
711.914871 0.8050 0.8040 0.8030 0.8010 0.8000
715.224442 0.7990 0.7970 0.7950 0.7930 0.7900
718.534014 0.7880 0.7840 0.7800 0.7760 0.7710
721.843586 0.7690 0.7660 0.7600 0.7530 0.7460
725.153158 0.7370 0.7280 0.7170 0.7060 0.6940
728.462730 0.6810 0.6670 0.6510 0.6430 0.6340
731.772302 0.6170 0.5980 0.5770 0.5551 0.5530
735.081873 0.5500 0.5210 0.5170 0.5120 0.4800
738.391445 0.4730 0.4391 0.3512 0.2632 0.2251
741.701017 0.1860 0.1240 0.0611 0.0480 0.0350
745.010589 0.0220 0.0150 0.0090 0.0090 0.0090
748.320161 0.0130 0.0170 0.0170 0.0170 0.0150
751.629733 0.0130 0.0100 0.0070 0.0030 0.0010
754.939304 0.0000 0.0000 0.0000 0.0000 0.0000
758.248876 0.0000 0.0000 0.0000 0.0000 0.0000
761.558448 0.0010 0.0020 0.0050 0.0120 0.0200
764.868020 0.0280 0.0370 0.0430 0.0470 0.0500
768.177592 0.0590 0.0650 0.0800 0.0960 0.1110
771.487164 0.1250 0.1430 0.1590 0.1750 0.1919
774.796735 0.2101 0.2630 0.3130 0.3320 0.3450
778.106307 0.3590 0.3889 0.4000 0.4070 0.4858
781.415879 0.5190 0.5340 0.5500 0.5640 0.5770
784.725451 0.5900 0.6030 0.6150 0.6260 0.6479
788.035023 0.6580 0.6670 0.6760 0.6840 0.6930
791.344595 0.7000 0.7070 0.7130 0.7200 0.7250
794.654166 0.7300 0.7350 0.7400 0.7440 0.7490
797.963738 0.7530 0.7570 0.7610 0.7650 0.7730
801.273310 0.7760 0.7790 0.7820 0.7850 0.7870
804.582882 0.7900 0.7910 0.7930 0.7940 0.7940
807.892454 0.7950 0.7950 0.7960 0.7980 0.7980
811.202026 0.7980 0.7990 0.7990 0.7980 0.7960
814.511597 0.7950 0.7930 0.7920 0.7900 0.7870
817.821169 0.7820 0.7760 0.7710 0.7650 0.7510
821.130741 0.7320 0.7110 0.6870 0.6610 0.6480
824.440313 0.6340 0.6060 0.5781 0.5501 0.5221
827.749885 0.5090 0.4950 0.4800 0.4660 0.4650
831.059457 0.4660 0.5149 0.5319 0.5400 0.5629
834.369028 0.5710 0.5800 0.5890 0.5980 0.6090
837.678600 0.6190 0.6300 0.6529 0.6650 0.6769
840.988172 0.6880 0.6910 0.6940 0.6980 0.7010
844.297744 0.7030 0.7050 0.7070 0.7080 0.7090
847.607316 0.7090 0.7090 0.7080 0.7050 0.7030
850.916888 0.7020 0.7010 0.7010 0.7000 0.6990
854.226459 0.6980 0.6980 0.6970 0.6970 0.6970
857.536031 0.6970 0.6980 0.7000 0.7020 0.7040
860.845603 0.7060 0.7070 0.7090 0.7090 0.7110
864.155175 0.7150 0.7150 0.7170 0.7170 0.7170
867.464747 0.7170 0.7170 0.7110 0.7060 0.7020
870.774319 0.6980 0.6940 0.6890 0.6840 0.6780
874.083890 0.6710 0.6630 0.6540 0.6440 0.6380
877.393462 0.6310 0.6160 0.5980 0.5192 0.4392
880.703034 0.3940 0.3480 0.3010 0.2541 0.1941
884.012606 0.1900 0.1940 0.3076 0.4066 0.4498
887.322178 0.5260 0.5600 0.5900 0.6170 0.6629
890.631750 0.6830 0.7000 0.7150 0.7270 0.7380
893.941321 0.7470 0.7540 0.7600 0.7640 0.7750
897.250893 0.7800 0.7860 0.7900 0.7940 0.7980
900.560465 0.8010 0.8030 0.8050 0.8070 0.8090
903.870037 0.8100 0.8110 0.8120 0.8120 0.8130
907.179609 0.8130 0.8130 0.8130 0.8130 0.8110
910.489181 0.8090 0.8090 0.8070 0.8040 0.8010
913.798752 0.7860 0.7800 0.7770 0.7760 0.7710
917.108324 0.7660 0.7610 0.7400 0.7071 0.6552
920.417896 0.6200 0.5840 0.5790 0.5520 0.5151
923.727468 0.4960 0.4771 0.4501 0.3972 0.3821
927.037040 0.3670 0.3250 0.2820 0.2620 0.2410
930.346612 0.2799 0.3189 0.3778 0.4198 0.4608
933.656183 0.5420 0.5630 0.5630 0.6179 0.6180
936.965755 0.6469 0.6510 0.6520 0.6510 0.6122
940.275327 0.5730 0.5490 0.5260 0.5130 0.5000
943.584899 0.4740 0.4481 0.4470 0.4480 0.5377
946.894471 0.5760 0.6440 0.6730 0.6990 0.7220
950.204043 0.7420 0.7719 0.7820 0.7900 0.7940
953.513614 0.8010 0.8070 0.8120 0.8150 0.8190
956.823186 0.8210 0.8230 0.8250 0.8280 0.8300
960.132758 0.8320 0.8350 0.8360 0.8370 0.8380
963.442330 0.8380 0.8390 0.8390 0.8400 0.8400
966.751902 0.8400 0.8400 0.8400 0.8400 0.8400
970.061474 0.8400 0.8400 0.8400 0.8400 0.8390
973.371045 0.8390 0.8380 0.8370 0.8360 0.8340
976.680617 0.8330 0.8310 0.8290 0.8260 0.8250
979.990189 0.8220 0.8190 0.8160 0.8130 0.8090
983.299761 0.8060 0.8030 0.7990 0.7950 0.7910
986.609333 0.7870 0.7830 0.7790 0.7750 0.7730
989.918905 0.7700 0.7610 0.7540 0.7480 0.7430
993.228476 0.7380 0.7330 0.7280 0.7220 0.7150
996.538048 0.7060 0.6960 0.6820 0.6670 0.6491
999.847620 0.6300 0.6160 0.6000 0.5840 0.5690
1003.157192 0.5530 0.5370 0.5210 0.5110 0.5000
1006.466764 0.4439 0.3970 0.3730 0.3500 0.3340
1009.776336 0.2751 0.2151 0.1382 0.0612 0.0600
1013.085907 0.0580 0.0570 0.0500 0.0430 0.0360
1016.395479 0.0300 0.0280 0.0290 0.0400 0.0619
1019.705051 0.1510 0.1760 0.2779 0.3140 0.3429
1023.014623 0.3919 0.4189 0.4499 0.5586 0.5700
1026.324195 0.6010 0.6220 0.6640 0.7050 0.7050
1029.633767 0.7170 0.7300 0.7420 0.7550 0.7729
1032.943338 0.7780 0.7880 0.7950 0.8000 0.8030
1036.252910 0.8060 0.8090 0.8130 0.8190 0.8230
1039.562482 0.8250 0.8270 0.8280 0.8290 0.8300
1042.872054 0.8310 0.8320 0.8340 0.8350 0.8360
1046.181626 0.8360 0.8370 0.8380 0.8380 0.8380
1049.491198 0.8400 0.8400 0.8400 0.8400 0.8410
1052.800769 0.8410 0.8420 0.8420 0.8420 0.8420
1056.110341 0.8420 0.8420 0.8420 0.8420 0.8420
1059.419913 0.8420 0.8420 0.8400 0.8380 0.8360
1062.729485 0.8340 0.8300 0.8280 0.8250 0.8150
1066.039057 0.8080 0.8030 0.7990 0.7960 0.7910
1069.348629 0.7840 0.7750 0.7690 0.7620 0.7451
1072.658200 0.7210 0.6910 0.6530 0.6300 0.6060
1075.967772 0.5491 0.5171 0.4841 0.4451 0.4121
1079.277344 0.3790 0.3550 0.3230 0.2960 0.2690
1082.586916 0.2421 0.2400 0.2968 0.4056 0.4508
1085.896488 0.5210 0.5750 0.6610 0.6940 0.7220
1089.206060 0.7450 0.7789 0.7900 0.8000 0.8060
1092.515631 0.8110 0.8150 0.8190 0.8220 0.8260
1095.825203 0.8310 0.8380 0.8440 0.8500 0.8540
1099.134775 0.8570 0.8600 0.8630 0.8640 0.8650
1102.444347 0.8670 0.8670 0.8670 0.8680 0.8680
1105.753919 0.8690 0.8690 0.8690 0.8700 0.8710
1109.063491 0.8710 0.8710 0.8710 0.8710 0.8730
1112.373062 0.8730 0.8730 0.8740 0.8740 0.8750
1115.682634 0.8750 0.8750 0.8750 0.8740 0.8740
1118.992206 0.8740 0.8730 0.8720 0.8710 0.8700
1122.301778 0.8690 0.8670 0.8660 0.8650 0.8630
1125.611350 0.8620 0.8610 0.8600 0.8590 0.8570
1128.920922 0.8560 0.8540 0.8510 0.8490 0.8460
1132.230493 0.8420 0.8380 0.8330 0.8270 0.8210
1135.540065 0.8130 0.8050 0.7960 0.7850 0.7740
1138.849637 0.7680 0.7610 0.7480 0.7320 0.7150
1142.159209 0.6761 0.6361 0.6160 0.6030 0.5552
1145.468781 0.5070 0.4990 0.4660 0.4340 0.4300
1148.778353 0.4250 0.4210 0.4160 0.3921 0.3671
1152.087924 0.3420 0.3190 0.2960 0.2740 0.2630
1155.397496 0.2510 0.2061 0.2050 0.2070 0.2249
1158.707068 0.4040 0.4050 0.6918 0.7040 0.7160
1162.016640 0.7270 0.7380 0.7480 0.7570 0.7749
1165.326212 0.7820 0.7890 0.7960 0.8020 0.8080
1168.635784 0.8130 0.8180 0.8220 0.8260 0.8290
1171.945355 0.8320 0.8350 0.8380 0.8400 0.8410
1175.254927 0.8420 0.8440 0.8440 0.8440 0.8440
1178.564499 0.8450 0.8440 0.8400 0.8350 0.8320
1181.874071 0.8280 0.8260 0.8230 0.8210 0.8190
1185.183643 0.8170 0.8150 0.8150 0.8150 0.8170
1188.493215 0.8210 0.8210 0.8230 0.8250 0.8250
1191.802786 0.8240 0.8190 0.8130 0.8090 0.8040
1195.112358 0.8000 0.7950 0.7900 0.7860 0.7740
1198.421930 0.7700 0.7660 0.7570 0.7360 0.7130
1201.731502 0.6980 0.6751 0.6740 0.6740 0.6780
1205.041074 0.6880 0.7040 0.7180 0.7320 0.7400
1208.350646 0.7410 0.7400 0.7320 0.7240 0.7111
1211.660217 0.6970 0.6820 0.6700 0.6610 0.6570
1214.969789 0.6460 0.6410 0.6360 0.6350 0.6559
1218.279361 0.6690 0.6780 0.6850 0.6900 0.6930
1221.588933 0.6980 0.7030 0.7120 0.7180 0.7190
1224.898505 0.7190 0.7170 0.7150 0.6780 0.6460
1228.208077 0.6320 0.6170 0.5861 0.5491 0.5251
1231.517648 0.5009 0.4380 0.3970 0.3900 0.3840
1234.827220 0.3570 0.3560 0.3550 0.3560 0.3570
1238.136792 0.3890 0.3920 0.3940 0.3940 0.3960
1241.446364 0.4000 0.4200 0.4529 0.4819 0.5259
1244.755936 0.5450 0.5620 0.5780 0.5930 0.6090
1248.065508 0.6479 0.6709 0.6869 0.6900 0.6900
1251.375079 0.6910 0.6920 0.6920 0.6920 0.6910
1254.684651 0.6900 0.6880 0.6840 0.6730 0.6601
1257.994223 0.6480 0.6410 0.6340 0.6200 0.6050
1261.303795 0.5900 0.5750 0.5581 0.5401 0.5221
1264.613367 0.5130 0.5030 0.4830 0.4610 0.4390
1267.922939 0.4150 0.3901 0.3760 0.3630 0.3361
1271.232510 0.3060 0.2760 0.2590 0.2430 0.2280
1274.542082 0.2140 0.2130 0.2140 0.2329 0.2709
1277.851654 0.2900 0.3090 0.3840 0.4190 0.4530
1281.161226 0.5169 0.5689 0.6478 0.6769 0.6999
1284.470798 0.7190 0.7330 0.7450 0.7550 0.7730
1287.780370 0.7840 0.7980 0.8130 0.8190 0.8230
1291.089941 0.8270 0.8310 0.8350 0.8380 0.8420
1294.399513 0.8450 0.8480 0.8500 0.8530 0.8550
1297.709085 0.8570 0.8590 0.8610 0.8620 0.8640
1301.018657 0.8650 0.8670 0.8670 0.8690 0.8700
1304.328229 0.8710 0.8710 0.8730 0.8730 0.8740
1307.637801 0.8750 0.8760 0.8760 0.8770 0.8780
1310.947372 0.8780 0.8780 0.8780 0.8780 0.8780
1314.256944 0.8780 0.8770 0.8770 0.8770 0.8760
1317.566516 0.8750 0.8750 0.8750 0.8750 0.8740
1320.876088 0.8730 0.8730 0.8730 0.8720 0.8720
1324.185660 0.8710 0.8710 0.8710 0.8710 0.8710
1327.495232 0.8710 0.8710 0.8700 0.8700 0.8700
1330.804803 0.8700 0.8690 0.8690 0.8690 0.8690
1334.114375 0.8690 0.8690 0.8690 0.8680 0.8680
1337.423947 0.8680 0.8680 0.8670 0.8670 0.8670
1340.733519 0.8650 0.8630 0.8620 0.8590 0.8570
1344.043091 0.8550 0.8530 0.8500 0.8460 0.8420
1347.352663 0.8310 0.8220 0.8130 0.8050 0.7960
1350.662234 0.7880 0.7810 0.7780 0.7740 0.7680
1353.971806 0.7610 0.7371 0.7111 0.6970 0.6442
1357.281378 0.6070 0.5700 0.5300 0.4890 0.4151
1360.590950 0.3880 0.3601 0.2992 0.2382 0.2370
1363.900522 0.2820 0.3260 0.4120 0.4580 0.5589
1367.210094 0.6648 0.6760 0.6770 0.6939 0.7109
1370.519665 0.7280 0.7430 0.7440 0.7450 0.7460
1373.829237 0.7460 0.7460 0.7420 0.7280 0.6971
1377.138809 0.6900 0.6800 0.6770 0.6750 0.6560
1380.448381 0.6440 0.6320 0.6121 0.5831 0.5462
1383.757953 0.5090 0.4570 0.4190 0.3900 0.3760
1387.067525 0.3620 0.3291 0.2832 0.2511 0.2191
1390.377096 0.1280 0.1030 0.0780 0.0770 0.0780
1393.686668 0.0980 0.1389 0.1589 0.1789 0.3981
1396.996240 0.4560 0.5480 0.5820 0.6120 0.6559
1400.305812 0.6730 0.6860 0.6980 0.7110 0.7130
1403.615384 0.7140 0.7170 0.7220 0.7290 0.7360
1406.924956 0.7410 0.7460 0.7500 0.7540 0.7570
1410.234527 0.7610 0.7630 0.7650 0.7670 0.7680
1413.544099 0.7690 0.7710 0.7710 0.7710 0.7720
1416.853671 0.7730 0.7750 0.7780 0.7800 0.7820
1420.163243 0.7840 0.7850 0.7860 0.7860 0.7860
1423.472815 0.7860 0.7860 0.7860 0.7840 0.7840
1426.782387 0.7760 0.7730 0.7700 0.7640 0.7580
1430.091958 0.7530 0.7480 0.7440 0.7390 0.7340
1433.401530 0.7280 0.7230 0.7170 0.7110 0.7040
1436.711102 0.6960 0.6900 0.6900 0.6900 0.6930
1440.020674 0.6950 0.6980 0.7030 0.7050 0.7070
1443.330246 0.7070 0.7070 0.7070 0.6990 0.6880
1446.639818 0.6780 0.6590 0.6500 0.6400 0.6211
1449.949389 0.6030 0.5870 0.5720 0.5560 0.5390
1453.258961 0.5180 0.5060 0.4940 0.4631 0.4271
1456.568533 0.4050 0.3830 0.3300 0.2670 0.2260
1459.878105 0.1861 0.1241 0.0612 0.0421 0.0231
1463.187677 0.0030 0.0030 0.0020 0.0010 0.0020
1466.497249 0.0030 0.0160 0.0280 0.0400 0.0520
1469.806820 0.0640 0.0730 0.0820 0.0910 0.1020
1473.116392 0.1299 0.1380 0.1440 0.1480 0.1520
1476.425964 0.1580 0.1660 0.1780 0.1960 0.2190
1479.735536 0.2918 0.3419 0.3440 0.3500 0.3610
1483.045108 0.3920 0.4080 0.4230 0.4360 0.4590
1486.354680 0.4810 0.5209 0.5399 0.5559 0.5719
1489.664251 0.5860 0.6000 0.6110 0.6230 0.6320
1492.973823 0.6470 0.6520 0.6560 0.6630 0.6680
1496.283395 0.6690 0.6680 0.6670 0.6650 0.6610
1499.592967 0.6580 0.6540 0.6510 0.6490 0.6470
1502.902539 0.6450 0.6420 0.6380 0.6340 0.6300
1506.212111 0.6260 0.6230 0.6190 0.6160 0.6130
1509.521682 0.6100 0.6070 0.6040 0.6010 0.5990
1512.831254 0.5970 0.5940 0.5920 0.5900 0.5880
1516.140826 0.5860 0.5840 0.5820 0.5800 0.5780
1519.450398 0.5760 0.5760 0.5750 0.5750 0.5750
1522.759970 0.5750 0.5750 0.5740 0.5740 0.5730
1526.069542 0.5710 0.5690 0.5690 0.5630 0.5600
1529.379113 0.5570 0.5530 0.5500 0.5470 0.5430
1532.688685 0.5360 0.5310 0.5250 0.5190 0.5180
1535.998257 0.5160 0.5130 0.5100 0.5080 0.5000
1539.307829 0.4920 0.4850 0.4780 0.4730 0.4670
1542.617401 0.4620 0.4570 0.4530 0.4500 0.4460
1545.926973 0.4430 0.4400 0.4370 0.4340 0.4320
1549.236544 0.4290 0.4270 0.4250 0.4220 0.4210
1552.546116 0.4200 0.4190 0.4190 0.4180 0.4150
1555.855688 0.4090 0.4040 0.3990 0.3960 0.3820
1559.165260 0.3670 0.3341 0.2991 0.2611 0.2431
1562.474832 0.2240 0.1870 0.1510 0.1340 0.1180
1565.784404 0.0891 0.0651 0.0471 0.0350 0.0231
1569.093975 0.0110 0.0110 0.0120 0.0410 0.0789
1572.403547 0.2167 0.2619 0.2999 0.3329 0.3400
1575.713119 0.3410 0.3570 0.3880 0.4040 0.4190
1579.022691 0.4240 0.4340 0.4420 0.4460 0.4490
1582.332263 0.4490 0.4500 0.4500 0.4500 0.4510
1585.641835 0.4530 0.4560 0.4600 0.4650 0.4710
1588.951406 0.4770 0.4840 0.4910 0.4990 0.5150
1592.260978 0.5230 0.5310 0.5390 0.5470 0.5540
1595.570550 0.5610 0.5690 0.5750 0.5800 0.5920
1598.880122 0.6030 0.6130 0.6210 0.6290 0.6360
1602.189694 0.6470 0.6510 0.6550 0.6590 0.6630
1605.499266 0.6650 0.6690 0.6710 0.6740 0.6760
1608.808837 0.6770 0.6770 0.6760 0.6760 0.6750
1612.118409 0.6750 0.6750 0.6760 0.6780 0.6800
1615.427981 0.6820 0.6840 0.6880 0.6950 0.7000
1618.737553 0.7050 0.7090 0.7130 0.7160 0.7190
1622.047125 0.7210 0.7230 0.7250 0.7260 0.7280
1625.356697 0.7290 0.7300 0.7320 0.7320 0.7320
1628.666268 0.7320 0.7310 0.7300 0.7290 0.7270
1631.975840 0.7250 0.7230 0.7210 0.7180 0.7150
1635.285412 0.7110 0.7070 0.7030 0.6980 0.6940
1638.594984 0.6880 0.6820 0.6760 0.6700 0.6630
1641.904556 0.6560 0.6490 0.6450 0.6400 0.6320
1645.214128 0.6230 0.6140 0.6040 0.5940 0.5840
1648.523699 0.5730 0.5610 0.5490 0.5480 0.5470
1651.833271 0.5480 0.5480 0.5490 0.5500 0.5500
1655.142843 0.5510 0.5510 0.5500 0.5350 0.5280
1658.452415 0.5180 0.5070 0.4901 0.4810 0.4651
1661.761987 0.4460 0.4240 0.4020 0.3930 0.3830
1665.071559 0.3680 0.3441 0.3201 0.2961 0.2711
1668.381130 0.2510 0.2310 0.1670 0.1590 0.1300
1671.690702 0.1011 0.0920 0.0402 0.0251 0.0111
1675.000274 0.0090 0.0070 0.0050 0.0050 0.0030
1678.309846 0.0020 0.0010 0.0010 0.0000 0.0000
1681.619418 0.0000 0.0000 0.0000 0.0000 0.0000
1684.928990 0.0010 0.0010 0.0010 0.0010 0.0010
1688.238561 0.0020 0.0020 0.0020 0.0020 0.0020
1691.548133 0.0010 0.0010 0.0010 0.0010 0.0000
1694.857705 0.0000 0.0000 0.0000 0.0000 0.0000
1698.167277 0.0000 0.0000 0.0000 0.0000 0.0000
1701.476849 0.0000 0.0000 0.0000 0.0000 0.0010
1704.786421 0.0090 0.0210 0.0310 0.0420 0.0530
1708.095992 0.0670 0.0850 0.1419 0.1839 0.2149
1711.405564 0.2669 0.2899 0.3109 0.3299 0.3479
1714.715136 0.3650 0.3970 0.4120 0.4280 0.4450
1718.024708 0.4620 0.4800 0.4999 0.5339 0.5450
1721.334280 0.5470 0.5570 0.5670 0.5760 0.5840
1724.643852 0.5920 0.6000 0.6060 0.6130 0.6190
1727.953423 0.6240 0.6280 0.6330 0.6370 0.6430
1731.262995 0.6450 0.6470 0.6490 0.6510 0.6540
1734.572567 0.6570 0.6590 0.6610 0.6640 0.6670
1737.882139 0.6690 0.6780 0.6860 0.6930 0.7000
1741.191711 0.7060 0.7120 0.7170 0.7230 0.7270
1744.501283 0.7310 0.7350 0.7380 0.7420 0.7450
1747.810854 0.7480 0.7500 0.7520 0.7540 0.7550
1751.120426 0.7570 0.7590 0.7590 0.7590 0.7570
1754.429998 0.7560 0.7530 0.7510 0.7500 0.7470
1757.739570 0.7460 0.7440 0.7440 0.7430 0.7420
1761.049142 0.7400 0.7400 0.7390 0.7390 0.7380
1764.358714 0.7380 0.7380 0.7360 0.7360 0.7350
1767.668285 0.7340 0.7320 0.7300 0.7260 0.7240
1770.977857 0.7210 0.7190 0.7190 0.7190 0.7190
1774.287429 0.7190 0.7200 0.7230 0.7230 0.7290
1777.597001 0.7340 0.7400 0.7460 0.7510 0.7570
1780.906573 0.7630 0.7680 0.7780 0.7860 0.7930
1784.216145 0.8000 0.8050 0.8110 0.8170 0.8220
1787.525716 0.8270 0.8310 0.8360 0.8390 0.8430
1790.835288 0.8460 0.8490 0.8510 0.8540 0.8570
1794.144860 0.8590 0.8610 0.8630 0.8640 0.8650
1797.454432 0.8670 0.8680 0.8690 0.8710 0.8710
1800.764004 0.8730 0.8730 0.8740 0.8750 0.8750
1804.073576 0.8750 0.8760 0.8760 0.8760 0.8770
1807.383147 0.8780 0.8780 0.8780 0.8780 0.8780
1810.692719 0.8780 0.8790 0.8790 0.8790 0.8790
1814.002291 0.8790 0.8780 0.8780 0.8780 0.8780
1817.311863 0.8770 0.8760 0.8750 0.8750 0.8740
1820.621435 0.8740 0.8730 0.8730 0.8710 0.8710
1823.931007 0.8710 0.8700 0.8700 0.8700 0.8690
1827.240578 0.8690 0.8690 0.8690 0.8700 0.8710
1830.550150 0.8730 0.8730 0.8740 0.8740 0.8740
1833.859722 0.8740 0.8750 0.8750 0.8750 0.8760
1837.169294 0.8760 0.8760 0.8760 0.8760 0.8760
1840.478866 0.8760 0.8760 0.8760 0.8760 0.8750
1843.788438 0.8750 0.8750 0.8750 0.8750 0.8740
1847.098009 0.8740 0.8730 0.8730 0.8730 0.8730
1850.407581 0.8740 0.8750 0.8750 0.8760 0.8760
1853.717153 0.8760 0.8760 0.8770 0.8770 0.8770
1857.026725 0.8780 0.8780 0.8780 0.8780 0.8780
1860.336297 0.8780 0.8780 0.8780 0.8780 0.8780
1863.645869 0.8780 0.8780 0.8790 0.8790 0.8790
1866.955440 0.8800 0.8800 0.8800 0.8800 0.8800
1870.265012 0.8800 0.8810 0.8810 0.8810 0.8820
1873.574584 0.8820 0.8820 0.8820 0.8820 0.8820
1876.884156 0.8820 0.8810 0.8810 0.8800 0.8800
1880.193728 0.8780 0.8780 0.8770 0.8760 0.8750
1883.503300 0.8750 0.8740 0.8730 0.8730 0.8730
1886.812871 0.8710 0.8700 0.8690 0.8680 0.8670
1890.122443 0.8660 0.8650 0.8640 0.8630 0.8630
1893.432015 0.8620 0.8610 0.8610 0.8610 0.8610
1896.741587 0.8610 0.8610 0.8610 0.8610 0.8610
1900.051159 0.8600 0.8600 0.8590 0.8590 0.8590
1903.360731 0.8590 0.8580 0.8580 0.8570 0.8570
1906.670302 0.8570 0.8570 0.8570 0.8570 0.8580
1909.979874 0.8630 0.8630 0.8640 0.8670 0.8690
1913.289446 0.8720 0.8730 0.8740 0.8750 0.8760
1916.599018 0.8780 0.8790 0.8800 0.8810 0.8820
1919.908590 0.8840 0.8850 0.8860 0.8870 0.8880
1923.218162 0.8890 0.8900 0.8910 0.8920 0.8920
1926.527733 0.8920 0.8930 0.8930 0.8940 0.8940
1929.837305 0.8940 0.8940 0.8930 0.8930 0.8920
1933.146877 0.8920 0.8920 0.8910 0.8910 0.8900
1936.456449 0.8900 0.8900 0.8890 0.8890 0.8880
1939.766021 0.8880 0.8870 0.8860 0.8840 0.8840
1943.075593 0.8830 0.8820 0.8810 0.8800 0.8800
1946.385164 0.8800 0.8800 0.8780 0.8770 0.8760
1949.694736 0.8750 0.8750 0.8750 0.8750 0.8750
1953.004308 0.8750 0.8740 0.8740 0.8740 0.8730
1956.313880 0.8730 0.8730 0.8730 0.8720 0.8720
1959.623452 0.8730 0.8730 0.8740 0.8760 0.8780
1962.933024 0.8780 0.8780 0.8780 0.8780 0.8780
1966.242595 0.8780 0.8780 0.8780 0.8780 0.8780
1969.552167 0.8780 0.8770 0.8770 0.8760 0.8760
1972.861739 0.8750 0.8750 0.8740 0.8740 0.8740
1976.171311 0.8730 0.8730 0.8730 0.8730 0.8720
1979.480883 0.8720 0.8720 0.8720 0.8720 0.8720
1982.790455 0.8720 0.8730 0.8730 0.8740 0.8750
1986.100026 0.8760 0.8760 0.8760 0.8760 0.8770
1989.409598 0.8770 0.8780 0.8780 0.8780 0.8780
1992.719170 0.8790 0.8800 0.8810 0.8810 0.8800
1996.028742 0.8800 0.8810 0.8820 0.8820 0.8820
1999.338314 0.8810 0.8800 0.8800 0.8800 0.8800
2002.647886 0.8800 0.8797 0.8795 0.8792 0.8790
2005.957457 0.8790 0.8790 0.8790 0.8790 0.8790
2009.267029 0.8790 0.8790 0.8790 0.8787 0.8785
2012.576601 0.8782 0.8780 0.8780 0.8780 0.8780
2015.886173 0.8780 0.8777 0.8775 0.8772 0.8770
2019.195745 0.8770 0.8770 0.8770 0.8770 0.8770
2022.505317 0.8770 0.8770 0.8769 0.8767 0.8764
2025.814888 0.8762 0.8760 0.8760 0.8760 0.8760
2029.124460 0.8760 0.8760 0.8760 0.8760 0.8760
2032.434032 0.8760 0.8760 0.8760 0.8760 0.8760
2035.743604 0.8760 0.8760 0.8759 0.8756 0.8754
2039.053176 0.8751 0.8750 0.8750 0.8750 0.8750
2042.362748 0.8750 0.8750 0.8750 0.8750 0.8750
2045.672319 0.8750 0.8750 0.8750 0.8750 0.8750
2048.981891 0.8750 0.8750 0.8749 0.8746 0.8744
2052.291463 0.8741 0.8740 0.8740 0.8740 0.8740
2055.601035 0.8738 0.8736 0.8733 0.8731 0.8730
2058.910607 0.8730 0.8730 0.8730 0.8730 0.8730
2062.220179 0.8730 0.8730 0.8728 0.8726 0.8723
2065.529750 0.8721 0.8718 0.8716 0.8713 0.8711
2068.839322 0.8708 0.8706 0.8703 0.8701 0.8698
2072.148894 0.8695 0.8693 0.8690 0.8686 0.8681
2075.458466 0.8676 0.8671 0.8666 0.8661 0.8655
2078.768038 0.8650 0.8645 0.8640 0.8635 0.8630
2082.077610 0.8625 0.8620 0.8615 0.8610 0.8608
2085.387181 0.8605 0.8603 0.8600 0.8597 0.8595
2088.696753 0.8592 0.8590 0.8590 0.8590 0.8590
2092.006325 0.8590 0.8587 0.8585 0.8582 0.8580
2095.315897 0.8577 0.8575 0.8572 0.8570 0.8570
2098.625469 0.8570 0.8570 0.8570 0.8567 0.8565
2101.935041 0.8562 0.8560 0.8557 0.8555 0.8552
2105.244612 0.8550 0.8550 0.8550 0.8550 0.8550
2108.554184 0.8550 0.8550 0.8550 0.8550 0.8550
2111.863756 0.8550 0.8550 0.8551 0.8553 0.8556
2115.173328 0.8558 0.8561 0.8563 0.8566 0.8568
2118.482900 0.8571 0.8573 0.8576 0.8578 0.8580
2121.792472 0.8580 0.8580 0.8580 0.8581 0.8584
2125.102043 0.8586 0.8589 0.8590 0.8590 0.8590
2128.411615 0.8590 0.8591 0.8594 0.8596 0.8599
2131.721187 0.8601 0.8604 0.8606 0.8609 0.8613
2135.030759 0.8618 0.8623 0.8628 0.8633 0.8638
2138.340331 0.8643 0.8648 0.8652 0.8654 0.8657
2141.649903 0.8659 0.8663 0.8668 0.8673 0.8678
2144.959474 0.8682 0.8684 0.8687 0.8689 0.8694
2148.269046 0.8699 0.8704 0.8709 0.8714 0.8719
2151.578618 0.8724 0.8729 0.8732 0.8734 0.8737
2154.888190 0.8739 0.8742 0.8745 0.8747 0.8750
2158.197762 0.8752 0.8755 0.8757 0.8760 0.8764
2161.507334 0.8769 0.8774 0.8780 0.8780 0.8780
2164.816905 0.8780 0.8780 0.8780 0.8780 0.8780
2168.126477 0.8780 0.8782 0.8785 0.8787 0.8790
2171.436049 0.8792 0.8795 0.8797 0.8800 0.8800
2174.745621 0.8800 0.8800 0.8800 0.8805 0.8810
2178.055193 0.8815 0.8820 0.8820 0.8820 0.8820
2181.364765 0.8820 0.8823 0.8825 0.8828 0.8830
2184.674336 0.8830 0.8830 0.8830 0.8830 0.8833
2187.983908 0.8835 0.8838 0.8840 0.8840 0.8840
2191.293480 0.8840 0.8840 0.8840 0.8840 0.8840
2194.603052 0.8840 0.8840 0.8840 0.8840 0.8841
2197.912624 0.8843 0.8846 0.8848 0.8849 0.8847
2201.222196 0.8844 0.8842 0.8840 0.8840 0.8840
2204.531767 0.8840 0.8840 0.8840 0.8840 0.8840
2207.841339 0.8840 0.8840 0.8840 0.8840 0.8840
2211.150911 0.8840 0.8840 0.8840 0.8839 0.8836
2214.460483 0.8834 0.8831 0.8830 0.8830 0.8830
2217.770055 0.8830 0.8829 0.8826 0.8824 0.8821
2221.079627 0.8820 0.8820 0.8820 0.8820 0.8820
2224.389198 0.8820 0.8820 0.8820 0.8818 0.8816
2227.698770 0.8813 0.8811 0.8812 0.8814 0.8817
2231.008342 0.8819 0.8820 0.8820 0.8820 0.8820
2234.317914 0.8824 0.8829 0.8834 0.8839 0.8840
2237.627486 0.8840 0.8840 0.8840 0.8842 0.8845
2240.937058 0.8847 0.8850 0.8860 0.8873 0.8886
2244.246630 0.8898 0.8904 0.8909 0.8914 0.8919
2247.556201 0.8924 0.8929 0.8934 0.8940 0.8942
2250.865773 0.8945 0.8947 0.8950 0.8950 0.8950
2254.175345 0.8950 0.8950 0.8950 0.8950 0.8950
2257.484917 0.8950 0.8950 0.8950 0.8950 0.8950
2260.794489 0.8947 0.8945 0.8942 0.8940 0.8935
2264.104061 0.8930 0.8924 0.8920 0.8917 0.8915
2267.413632 0.8912 0.8910 0.8907 0.8905 0.8902
2270.723204 0.8899 0.8894 0.8889 0.8884 0.8880
2274.032776 0.8880 0.8880 0.8880 0.8879 0.8874
2277.342348 0.8869 0.8864 0.8860 0.8860 0.8860
2280.651920 0.8860 0.8859 0.8854 0.8849 0.8844
2283.961492 0.8839 0.8834 0.8828 0.8823 0.8820
2287.271063 0.8820 0.8820 0.8820 0.8819 0.8817
2290.580635 0.8814 0.8811 0.8809 0.8806 0.8804
2293.890207 0.8801 0.8800 0.8800 0.8800 0.8800
2297.199779 0.8799 0.8796 0.8794 0.8791 0.8789
2300.509351 0.8786 0.8784 0.8781 0.8780 0.8780
2303.818923 0.8780 0.8780 0.8780 0.8780 0.8780
2307.128494 0.8780 0.8780 0.8780 0.8780 0.8780
2310.438066 0.8779 0.8776 0.8773 0.8771 0.8770
2313.747638 0.8770 0.8770 0.8770 0.8772 0.8774
2317.057210 0.8777 0.8779 0.8780 0.8780 0.8780
2320.366782 0.8780 0.8784 0.8789 0.8794 0.8799
2323.676354 0.8800 0.8800 0.8800 0.8800 0.8804
2326.985925 0.8809 0.8814 0.8819 0.8822 0.8825
2330.295497 0.8827 0.8830 0.8832 0.8835 0.8837
2333.605069 0.8840 0.8844 0.8849 0.8854 0.8860
2336.914641 0.8862 0.8865 0.8867 0.8870 0.8872
2340.224213 0.8875 0.8877 0.8880 0.8880 0.8880
2343.533785 0.8880 0.8880 0.8880 0.8880 0.8880
2346.843356 0.8880 0.8880 0.8880 0.8880 0.8880
2350.152928 0.8880 0.8880 0.8880 0.8880 0.8880
2353.462500 0.8880 0.8880 0.8880 0.8880 0.8880
2356.772072 0.8880 0.8880 0.8880 0.8880 0.8880
2360.081644 0.8880 0.8880 0.8880 0.8880 0.8880
2363.391216 0.8880 0.8880 0.8880 0.8880 0.8880
2366.700787 0.8880 0.8880 0.8880 0.8880 0.8880
2370.010359 0.8880 0.8880 0.8880 0.8880 0.8880
2373.319931 0.8880 0.8880 0.8880 0.8880 0.8880
2376.629503 0.8880 0.8880 0.8880 0.8881 0.8884
2379.939075 0.8886 0.8889 0.8891 0.8894 0.8896
2383.248647 0.8899 0.8900 0.8900 0.8900 0.8900
2386.558218 0.8900 0.8900 0.8900 0.8900 0.8901
2389.867790 0.8904 0.8906 0.8909 0.8910 0.8910
2393.177362 0.8910 0.8910 0.8912 0.8914 0.8917
2396.486934 0.8919 0.8920 0.8920 0.8920 0.8920
2399.796506 0.8922 0.8924 0.8927 0.8929 0.8932
2403.106078 0.8934 0.8937 0.8939 0.8940 0.8940
2406.415649 0.8940 0.8940 0.8940 0.8940 0.8940
2409.725221 0.8940 0.8940 0.8940 0.8940 0.8940
2413.034793 0.8942 0.8945 0.8947 0.8950 0.8952
2416.344365 0.8955 0.8957 0.8960 0.8960 0.8960
2419.653937 0.8960 0.8960 0.8960 0.8960 0.8960
2422.963509 0.8960 0.8960 0.8960 0.8960 0.8960
2426.273080 0.8960 0.8960 0.8960 0.8960 0.8960
2429.582652 0.8960 0.8960 0.8960 0.8960 0.8960
2432.892224 0.8960 0.8960 0.8960 0.8960 0.8960
2436.201796 0.8960 0.8960 0.8960 0.8960 0.8960
2439.511368 0.8957 0.8955 0.8952 0.8950 0.8950
2442.820940 0.8950 0.8950 0.8950 0.8947 0.8944
2446.130511 0.8942 0.8940 0.8940 0.8940 0.8940
2449.440083 0.8940 0.8940 0.8940 0.8940 0.8940
2452.749655 0.8940 0.8940 0.8940 0.8940 0.8940
2456.059227 0.8940 0.8940 0.8939 0.8937 0.8934
2459.368799 0.8932 0.8930 0.8930 0.8930 0.8930
2462.678371 0.8929 0.8926 0.8924 0.8921 0.8920
2465.987942 0.8920 0.8920 0.8920 0.8920 0.8920
2469.297514 0.8920 0.8920 0.8920 0.8920 0.8920
2472.607086 0.8920 0.8920 0.8920 0.8920 0.8920
2475.916658 0.8919 0.8916 0.8914 0.8911 0.8912
2479.226230 0.8914 0.8917 0.8919 0.8920 0.8920
2482.535802 0.8920 0.8920 0.8920 0.8920 0.8920
2485.845373 0.8920 0.8920 0.8920 0.8920 0.8920
2489.154945 0.8920 0.8920 0.8920 0.8920 0.8920
2492.464517 0.8920 0.8920 0.8920 0.8920 0.8920
2495.774089 0.8920 0.8920 0.8922 0.8925 0.8927
2499.083661 0.8930 0.8930 0.8930 0.8930 0.8930
2502.393233 0.8930 0.8930 0.8930 0.8930 0.8930
2505.702804 0.8930 0.8930 0.8930 0.8932 0.8935
2509.012376 0.8937 0.8940 0.8940 0.8940 0.8940
2512.321948 0.8940 0.8940 0.8940 0.8940 0.8940
2515.631520 0.8940 0.8940 0.8940 0.8940 0.8940
2518.941092 0.8940 0.8940 0.8940 0.8935 0.8930
2522.250664 0.8925 0.8920 0.8920 0.8920 0.8920
2525.560235 0.8919 0.8914 0.8909 0.8904 0.8899
2528.869807 0.8894 0.8889 0.8884 0.8877 0.8862
2532.179379 0.8847 0.8831 0.8816 0.8798 0.8781
2535.488951 0.8763 0.8743 0.8718 0.8693 0.8668
2538.798523 0.8650 0.8650 0.8650 0.8650 0.8651
2542.108095 0.8653 0.8656 0.8658 0.8663 0.8670
2545.417666 0.8678 0.8685 0.8698 0.8721 0.8744
2548.727238 0.8766 0.8785 0.8798 0.8811 0.8823
2552.036810 0.8835 0.8845 0.8855 0.8865 0.8871
2555.346382 0.8874 0.8876 0.8879 0.8883 0.8888
2558.655954 0.8893 0.8898 0.8901 0.8904 0.8906
2561.965526 0.8909 0.8913 0.8918 0.8923 0.8928
2565.275097 0.8932 0.8934 0.8937 0.8939 0.8942
2568.584669 0.8944 0.8947 0.8949 0.8950 0.8950
2571.894241 0.8950 0.8950 0.8952 0.8954 0.8957
2575.203813 0.8959 0.8960 0.8960 0.8960 0.8960
2578.513385 0.8960 0.8960 0.8960 0.8960 0.8960
2581.822957 0.8960 0.8960 0.8960 0.8962 0.8965
2585.132528 0.8967 0.8970 0.8968 0.8965 0.8963
2588.442100 0.8960 0.8962 0.8965 0.8967 0.8970
2591.751672 0.8970 0.8970 0.8970 0.8970 0.8970
2595.061244 0.8970 0.8970 0.8970 0.8970 0.8970
2598.370816 0.8970 0.8970 0.8970 0.8970 0.8970
2601.680388 0.8970 0.8970 0.8970 0.8970 0.8970
2604.989959 0.8970 0.8970 0.8970 0.8970 0.8970
2608.299531 0.8970 0.8970 0.8970 0.8967 0.8965
2611.609103 0.8962 0.8960 0.8957 0.8955 0.8952
2614.918675 0.8950 0.8947 0.8944 0.8942 0.8939
2618.228247 0.8934 0.8929 0.8924 0.8920 0.8920
2621.537819 0.8920 0.8920 0.8919 0.8914 0.8909
2624.847390 0.8904 0.8899 0.8893 0.8888 0.8883
2628.156962 0.8878 0.8873 0.8868 0.8863 0.8858
2631.466534 0.8853 0.8848 0.8843 0.8838 0.8833
2634.776106 0.8828 0.8823 0.8817 0.8809 0.8802
2638.085678 0.8794 0.8786 0.8779 0.8771 0.8764
2641.395250 0.8756 0.8749 0.8741 0.8734 0.8727
2644.704821 0.8722 0.8717 0.8712 0.8707 0.8702
2648.014393 0.8697 0.8692 0.8690 0.8690 0.8690
2651.323965 0.8690 0.8688 0.8686 0.8683 0.8681
2654.633537 0.8672 0.8659 0.8647 0.8634 0.8623
2657.943109 0.8613 0.8603 0.8593 0.8583 0.8573
2661.252681 0.8563 0.8552 0.8542 0.8532 0.8522
2664.562252 0.8512 0.8504 0.8497 0.8489 0.8481
2667.871824 0.8476 0.8471 0.8466 0.8461 0.8462
2671.181396 0.8465 0.8467 0.8470 0.8518 0.8573
2674.490968 0.8628 0.8684 0.8692 0.8695 0.8697
2677.800540 0.8700 0.8698 0.8695 0.8693 0.8690
2681.110112 0.8678 0.8665 0.8653 0.8640 0.8620
2684.419683 0.8599 0.8579 0.8559 0.8539 0.8519
2687.729255 0.8499 0.8478 0.8443 0.8407 0.8372
2691.038827 0.8329 0.8208 0.8088 0.7967 0.7857
2694.348399 0.7829 0.7801 0.7774 0.7746 0.7716
2697.657971 0.7685 0.7655 0.7619 0.7557 0.7494
2700.967543 0.7431 0.7368 0.7308 0.7248 0.7187
2704.277114 0.7127 0.7066 0.7006 0.6946 0.6884
2707.586686 0.6821 0.6757 0.6693 0.6650 0.6650
2710.896258 0.6650 0.6650 0.6681 0.6769 0.6857
2714.205830 0.6945 0.7030 0.7110 0.7191 0.7272
2717.515402 0.7414 0.7651 0.7887 0.8124 0.8261
2720.824974 0.8264 0.8266 0.8269 0.8276 0.8288
2724.134545 0.8301 0.8313 0.8322 0.8327 0.8332
2727.444117 0.8337 0.8341 0.8344 0.8346 0.8349
2730.753689 0.8349 0.8346 0.8344 0.8341 0.8298
2734.063261 0.8221 0.8145 0.8068 0.8019 0.7987
2737.372833 0.7954 0.7921 0.7851 0.7760 0.7669
2740.682405 0.7579 0.7490 0.7402 0.7314 0.7226
2743.991976 0.7131 0.7033 0.6934 0.6836 0.6766
2747.301548 0.6705 0.6645 0.6585 0.6555 0.6535
2750.611120 0.6514 0.6494 0.6490 0.6490 0.6490
2753.920692 0.6490 0.6535 0.6590 0.6646 0.6701
2757.230264 0.6838 0.6992 0.7145 0.7299 0.7377
2760.539836 0.7443 0.7510 0.7576 0.7582 0.7585
2763.849407 0.7587 0.7590 0.7590 0.7590 0.7590
2767.158979 0.7590 0.7560 0.7530 0.7500 0.7470
2770.468551 0.7442 0.7414 0.7387 0.7357 0.7284
2773.778123 0.7211 0.7138 0.7068 0.7041 0.7013
2777.087695 0.6985 0.6959 0.6949 0.6939 0.6929
2780.397267 0.6918 0.6903 0.6888 0.6873 0.6854
2783.706838 0.6811 0.6768 0.6726 0.6681 0.6630
2787.016410 0.6579 0.6528 0.6477 0.6424 0.6371
2790.325982 0.6318 0.6270 0.6232 0.6194 0.6157
2793.635554 0.6077 0.5898 0.5720 0.5541 0.5377
2796.945126 0.5244 0.5110 0.4977 0.4843 0.4710
2800.254698 0.4577 0.4443 0.4310 0.4177 0.4043
2803.564269 0.3910 0.3777 0.3643 0.3510 0.3377
2806.873841 0.3298 0.3293 0.3288 0.3283 0.3281
2810.183413 0.3284 0.3286 0.3289 0.3367 0.3527
2813.492985 0.3688 0.3848 0.4030 0.4229 0.4428
2816.802557 0.4626 0.4710 0.4710 0.4710 0.4710
2820.112129 0.4786 0.4912 0.5038 0.5164 0.5250
2823.421700 0.5313 0.5375 0.5438 0.5500 0.5560
2826.731272 0.5620 0.5681 0.5717 0.5742 0.5767
2830.040844 0.5793 0.5802 0.5804 0.5807 0.5809
2833.350416 0.5734 0.5631 0.5528 0.5425 0.5320
2836.659988 0.5214 0.5108 0.5003 0.4864 0.4716
2839.969560 0.4568 0.4420 0.4398 0.4395 0.4393
2843.279131 0.4390 0.4392 0.4395 0.4397 0.4400
2846.588703 0.4437 0.4477 0.4517 0.4558 0.4600
2849.898275 0.4643 0.4686 0.4729 0.4907 0.5091
2853.207847 0.5275 0.5458 0.5465 0.5470 0.5475
2856.517419 0.5482 0.5593 0.5703 0.5814 0.5929
2859.826991 0.6140 0.6352 0.6563 0.6767 0.6870
2863.136562 0.6973 0.7077 0.7179 0.7279 0.7378
2866.446134 0.7478 0.7572 0.7642 0.7713 0.7783
2869.755706 0.7840 0.7840 0.7840 0.7840 0.7847
2873.065278 0.7877 0.7907 0.7937 0.7968 0.8001
2876.374850 0.8034 0.8066 0.8097 0.8122 0.8147
2879.684422 0.8172 0.8195 0.8213 0.8230 0.8248
2882.993993 0.8265 0.8280 0.8295 0.8310 0.8324
2886.303565 0.8334 0.8344 0.8354 0.8363 0.8370
2889.613137 0.8378 0.8385 0.8393 0.8401 0.8408
2892.922709 0.8416 0.8421 0.8424 0.8426 0.8429
2896.232281 0.8431 0.8434 0.8436 0.8439 0.8443
2899.541853 0.8448 0.8453 0.8458 0.8463 0.8468
2902.851424 0.8473 0.8478 0.8483 0.8488 0.8493
2906.160996 0.8498 0.8503 0.8508 0.8513 0.8518
2909.470568 0.8522 0.8524 0.8527 0.8529 0.8532
2912.780140 0.8534 0.8537 0.8539 0.8542 0.8544
2916.089712 0.8547 0.8549 0.8554 0.8559 0.8564
2919.399284 0.8569 0.8580 0.8592 0.8605 0.8618
2922.708855 0.8626 0.8634 0.8641 0.8649 0.8658
2926.018427 0.8669 0.8679 0.8689 0.8694 0.8699
2929.327999 0.8704 0.8709 0.8714 0.8720 0.8725
2932.637571 0.8730 0.8732 0.8735 0.8737 0.8740
2935.947143 0.8742 0.8745 0.8747 0.8750 0.8750
2939.256715 0.8750 0.8750 0.8750 0.8750 0.8750
2942.566286 0.8750 0.8750 0.8750 0.8750 0.8750
2945.875858 0.8750 0.8750 0.8750 0.8750 0.8750
2949.185430 0.8747 0.8745 0.8742 0.8740 0.8740
2952.495002 0.8740 0.8740 0.8740 0.8740 0.8740
2955.804574 0.8740 0.8740 0.8737 0.8734 0.8732
2959.114146 0.8730 0.8730 0.8730 0.8730 0.8730
2962.423717 0.8730 0.8730 0.8730 0.8730 0.8730
2965.733289 0.8730 0.8730 0.8730 0.8730 0.8730
2969.042861 0.8730 0.8730 0.8730 0.8730 0.8730
2972.352433 0.8731 0.8734 0.8736 0.8739 0.8741
2975.662005 0.8744 0.8746 0.8749 0.8750 0.8750
2978.971577 0.8750 0.8750 0.8751 0.8754 0.8756
2982.281148 0.8759 0.8761 0.8764 0.8766 0.8769
2985.590720 0.8773 0.8778 0.8783 0.8788 0.8798
2988.900292 0.8814 0.8829 0.8844 0.8854 0.8862
2992.209864 0.8870 0.8877 0.8883 0.8888 0.8893
2995.519436 0.8898 0.8903 0.8908 0.8913 0.8919
2998.829008 0.8920 0.8920 0.8920 0.8920 0.8920
3002.138579 0.8920 0.8920 0.8920 0.8920 0.8920
3005.448151 0.8920 0.8920 0.8920 0.8920 0.8920
3008.757723 0.8920 0.8920 0.8920 0.8920 0.8920
3012.067295 0.8918 0.8915 0.8913 0.8910 0.8906
3015.376867 0.8901 0.8896 0.8891 0.8883 0.8876
3018.686439 0.8868 0.8861 0.8851 0.8841 0.8831
3021.996010 0.8821 0.8820 0.8820 0.8820 0.8820
3025.305582 0.8815 0.8810 0.8805 0.8799 0.8787
3028.615154 0.8774 0.8762 0.8750 0.8747 0.8745
3031.924726 0.8742 0.8740 0.8740 0.8740 0.8740
3035.234298 0.8740 0.8737 0.8735 0.8732 0.8730
3038.543870 0.8730 0.8730 0.8730 0.8730 0.8730
3041.853441 0.8730 0.8730 0.8730 0.8727 0.8724
3045.163013 0.8722 0.8720 0.8720 0.8720 0.8720
3048.472585 0.8719 0.8717 0.8714 0.8712 0.8709
3051.782157 0.8707 0.8704 0.8702 0.8696 0.8683
3055.091729 0.8670 0.8658 0.8647 0.8640 0.8632
3058.401301 0.8624 0.8619 0.8616 0.8614 0.8611
3061.710872 0.8610 0.8610 0.8610 0.8610 0.8610
3065.020444 0.8610 0.8610 0.8610 0.8615 0.8625
3068.330016 0.8635 0.8645 0.8653 0.8658 0.8663
3071.639588 0.8668 0.8673 0.8678 0.8683 0.8688
3074.949160 0.8693 0.8698 0.8703 0.8708 0.8708
3078.258732 0.8706 0.8703 0.8701 0.8697 0.8692
3081.568303 0.8687 0.8682 0.8675 0.8667 0.8660
3084.877875 0.8652 0.8639 0.8624 0.8609 0.8594
3088.187447 0.8583 0.8573 0.8562 0.8552 0.8540
3091.497019 0.8528 0.8515 0.8503 0.8488 0.8473
3094.806591 0.8458 0.8443 0.8424 0.8403 0.8383
3098.116163 0.8363 0.8343 0.8323 0.8303 0.8283
3101.425734 0.8265 0.8247 0.8229 0.8211 0.8191
3104.735306 0.8171 0.8151 0.8131 0.8118 0.8105
3108.044878 0.8093 0.8080 0.8070 0.8060 0.8050
3111.354450 0.8040 0.8035 0.8030 0.8025 0.8017
3114.664022 0.7962 0.7907 0.7851 0.7798 0.7768
3117.973594 0.7737 0.7707 0.7677 0.7644 0.7611
3121.283165 0.7579 0.7544 0.7499 0.7454 0.7409
3124.592737 0.7367 0.7350 0.7332 0.7315 0.7298
3127.902309 0.7285 0.7272 0.7260 0.7240 0.7200
3131.211881 0.7159 0.7119 0.7080 0.7042 0.7004
3134.521453 0.6966 0.6940 0.6940 0.6940 0.6940
3137.831025 0.6941 0.6943 0.6946 0.6948 0.6961
3141.140596 0.6991 0.7021 0.7051 0.7091 0.7146
3144.450168 0.7202 0.7257 0.7302 0.7332 0.7363
3147.759740 0.7393 0.7417 0.7432 0.7447 0.7462
3151.069312 0.7473 0.7481 0.7489 0.7496 0.7506
3154.378884 0.7519 0.7532 0.7544 0.7595 0.7676
3157.688456 0.7756 0.7837 0.7897 0.7942 0.7987
3160.998027 0.8032 0.8069 0.8099 0.8129 0.8159
3164.307599 0.8184 0.8207 0.8230 0.8252 0.8270
3167.617171 0.8285 0.8300 0.8315 0.8327 0.8337
3170.926743 0.8347 0.8357 0.8367 0.8377 0.8387
3174.236315 0.8397 0.8406 0.8413 0.8421 0.8428
3177.545887 0.8440 0.8452 0.8465 0.8477 0.8490
3180.855458 0.8503 0.8516 0.8528 0.8539 0.8549
3184.165030 0.8559 0.8569 0.8575 0.8580 0.8585
3187.474602 0.8590 0.8597 0.8604 0.8612 0.8620
3190.784174 0.8627 0.8635 0.8642 0.8650 0.8655
3194.093746 0.8660 0.8665 0.8670 0.8675 0.8680
3197.403318 0.8685 0.8690 0.8695 0.8700 0.8705
3200.712889 0.8710 0.8715 0.8720 0.8725 0.8730
3204.022461 0.8735 0.8740 0.8745 0.8750 0.8753
3207.332033 0.8755 0.8758 0.8760 0.8763 0.8765
3210.641605 0.8768 0.8771 0.8773 0.8776 0.8778
3213.951177 0.8781 0.8783 0.8786 0.8788 0.8791
3217.260749 0.8793 0.8796 0.8798 0.8800 0.8800
3220.570320 0.8800 0.8800 0.8801 0.8803 0.8806
3223.879892 0.8808 0.8811 0.8813 0.8816 0.8818
3227.189464 0.8820 0.8820 0.8820 0.8820 0.8820
3230.499036 0.8820 0.8820 0.8820 0.8820 0.8820
3233.808608 0.8820 0.8820 0.8819 0.8816 0.8814
3237.118180 0.8811 0.8810 0.8810 0.8810 0.8810
3240.427751 0.8809 0.8806 0.8804 0.8801 0.8800
3243.737323 0.8800 0.8800 0.8800 0.8799 0.8796
3247.046895 0.8793 0.8791 0.8790 0.8790 0.8790
3250.356467 0.8790 0.8790 0.8790 0.8790 0.8790
3253.666039 0.8788 0.8786 0.8783 0.8781 0.8780
3256.975611 0.8780 0.8780 0.8780 0.8782 0.8784
3260.285182 0.8787 0.8789 0.8790 0.8790 0.8790
3263.594754 0.8790 0.8792 0.8795 0.8797 0.8800
3266.904326 0.8806 0.8814 0.8821 0.8829 0.8841
3270.213898 0.8854 0.8866 0.8879 0.8889 0.8899
3273.523470 0.8909 0.8919 0.8925 0.8930 0.8935
3276.833042 0.8940 0.8945 0.8950 0.8955 0.8960
3280.142613 0.8960 0.8960 0.8960 0.8960 0.8963
3283.452185 0.8965 0.8968 0.8970 0.8973 0.8975
3286.761757 0.8978 0.8980 0.8980 0.8980 0.8980
3290.071329 0.8980 0.8980 0.8980 0.8980 0.8980
3293.380901 0.8980 0.8980 0.8980 0.8980 0.8980
3296.690473 0.8980 0.8980 0.8979 0.8977 0.8974
3300.000044 0.8972 0.8970 0.8970 0.8970 0.8970
3303.309616 0.8970 0.8970 0.8970 0.8970 0.8970
3306.619188 0.8970 0.8970 0.8970 0.8970 0.8970
3309.928760 0.8970 0.8970 0.8970 0.8970 0.8970
3313.238332 0.8970 0.8970 0.8970 0.8970 0.8970
3316.547904 0.8969 0.8966 0.8964 0.8961 0.8960
3319.857475 0.8960 0.8960 0.8960 0.8960 0.8960
3323.167047 0.8960 0.8960 0.8956 0.8949 0.8941
3326.476619 0.8933 0.8926 0.8918 0.8911 0.8903
3329.786191 0.8897 0.8892 0.8887 0.8882 0.8877
3333.095763 0.8872 0.8867 0.8862 0.8848 0.8828
3336.405335 0.8807 0.8787 0.8769 0.8751 0.8733
3339.714906 0.8715 0.8692 0.8667 0.8642 0.8616
3343.024478 0.8595 0.8575 0.8555 0.8535 0.8515
3346.334050 0.8494 0.8474 0.8454 0.8432 0.8409
3349.643622 0.8387 0.8364 0.8348 0.8333 0.8317
3352.953194 0.8302 0.8287 0.8272 0.8257 0.8242
3356.262766 0.8229 0.8216 0.8204 0.8191 0.8172
3359.572337 0.8152 0.8132 0.8112 0.8080 0.8047
3362.881909 0.8014 0.7982 0.7980 0.7980 0.7980
3366.191481 0.7980 0.7980 0.7980 0.7980 0.7981
3369.501053 0.8004 0.8026 0.8049 0.8072 0.8092
3372.810625 0.8112 0.8132 0.8153 0.8178 0.8203
3376.120197 0.8228 0.8256 0.8301 0.8346 0.8392
3379.429768 0.8433 0.8450 0.8468 0.8486 0.8502
3382.739340 0.8515 0.8527 0.8540 0.8552 0.8562
3386.048912 0.8572 0.8582 0.8592 0.8599 0.8607
3389.358484 0.8614 0.8622 0.8630 0.8637 0.8645
3392.668056 0.8652 0.8657 0.8662 0.8667 0.8672
3395.977628 0.8677 0.8682 0.8687 0.8691 0.8693
3399.287199 0.8696 0.8699 0.8701 0.8704 0.8706
3402.596771 0.8709 0.8710 0.8710 0.8710 0.8710
3405.906343 0.8711 0.8714 0.8716 0.8719 0.8720
3409.215915 0.8720 0.8720 0.8720 0.8721 0.8724
3412.525487 0.8726 0.8729 0.8730 0.8730 0.8730
3415.835059 0.8730 0.8731 0.8734 0.8737 0.8739
3419.144630 0.8742 0.8744 0.8747 0.8749 0.8750
3422.454202 0.8750 0.8750 0.8750 0.8750 0.8750
3425.763774 0.8750 0.8750 0.8750 0.8750 0.8750
3429.073346 0.8750 0.8752 0.8754 0.8757 0.8759
3432.382918 0.8760 0.8760 0.8760 0.8760 0.8760
3435.692490 0.8760 0.8760 0.8760 0.8760 0.8760
3439.002061 0.8760 0.8760 0.8760 0.8760 0.8760
3442.311633 0.8760 0.8760 0.8760 0.8760 0.8760
3445.621205 0.8760 0.8760 0.8760 0.8760 0.8760
3448.930777 0.8760 0.8760 0.8760 0.8760 0.8760
3452.240349 0.8760 0.8760 0.8760 0.8760 0.8760
3455.549921 0.8760 0.8760 0.8760 0.8760 0.8760
3458.859492 0.8757 0.8755 0.8752 0.8750 0.8750
3462.169064 0.8750 0.8750 0.8750 0.8750 0.8750
3465.478636 0.8750 0.8750 0.8750 0.8750 0.8750
3468.788208 0.8750 0.8750 0.8750 0.8750 0.8750
3472.097780 0.8750 0.8750 0.8750 0.8750 0.8750
3475.407352 0.8750 0.8750 0.8750 0.8750 0.8750
3478.716923 0.8750 0.8749 0.8747 0.8744 0.8742
3482.026495 0.8740 0.8740 0.8740 0.8740 0.8740
3485.336067 0.8740 0.8740 0.8740 0.8740 0.8740
3488.645639 0.8740 0.8740 0.8740 0.8740 0.8740
3491.955211 0.8740 0.8740 0.8740 0.8740 0.8740
3495.264783 0.8740 0.8740 0.8740 0.8740 0.8739
3498.574354 0.8736 0.8734 0.8731 0.8730 0.8730
3501.883926 0.8730 0.8730 0.8730 0.8730 0.8730
3505.193498 0.8730 0.8730 0.8730 0.8730 0.8730
3508.503070 0.8727 0.8722 0.8717 0.8712 0.8710
3511.812642 0.8710 0.8710 0.8710 0.8710 0.8710
3515.122214 0.8710 0.8710 0.8710 0.8710 0.8710
3518.431785 0.8710 0.8708 0.8706 0.8703 0.8701
3521.741357 0.8698 0.8695 0.8693 0.8690 0.8690
3525.050929 0.8690 0.8690 0.8690 0.8690 0.8690
3528.360501 0.8690 0.8690 0.8690 0.8690 0.8690
3531.670073 0.8690 0.8690 0.8690 0.8690 0.8690
3534.979645 0.8688 0.8685 0.8683 0.8680 0.8680
3538.289216 0.8680 0.8680 0.8680 0.8677 0.8675
3541.598788 0.8672 0.8670 0.8670 0.8670 0.8670
3544.908360 0.8670 0.8670 0.8670 0.8670 0.8670
3548.217932 0.8670 0.8670 0.8670 0.8670 0.8670
3551.527504 0.8670 0.8670 0.8670 0.8670 0.8670
3554.837076 0.8670 0.8671 0.8673 0.8676 0.8678
3558.146647 0.8680 0.8680 0.8680 0.8680 0.8680
3561.456219 0.8680 0.8680 0.8680 0.8680 0.8680
3564.765791 0.8680 0.8680 0.8680 0.8680 0.8680
3568.075363 0.8680 0.8681 0.8683 0.8686 0.8688
3571.384935 0.8690 0.8690 0.8690 0.8690 0.8690
3574.694507 0.8690 0.8690 0.8690 0.8690 0.8690
3578.004078 0.8690 0.8690 0.8690 0.8690 0.8690
3581.313650 0.8690 0.8690 0.8690 0.8690 0.8690
3584.623222 0.8691 0.8694 0.8696 0.8699 0.8701
3587.932794 0.8704 0.8707 0.8709 0.8710 0.8710
3591.242366 0.8710 0.8710 0.8710 0.8710 0.8710
3594.551938 0.8710 0.8710 0.8710 0.8710 0.8710
3597.861509 0.8710 0.8710 0.8710 0.8710 0.8712
3601.171081 0.8714 0.8717 0.8719 0.8720 0.8720
3604.480653 0.8720 0.8720 0.8722 0.8725 0.8727
3607.790225 0.8730 0.8730 0.8730 0.8730 0.8730
3611.099797 0.8730 0.8730 0.8730 0.8730 0.8730
3614.409369 0.8730 0.8730 0.8730 0.8730 0.8730
3617.718940 0.8730 0.8730 0.8730 0.8730 0.8730
3621.028512 0.8730 0.8730 0.8730 0.8730 0.8730
3624.338084 0.8730 0.8730 0.8730 0.8730 0.8730
3627.647656 0.8730 0.8730 0.8730 0.8733 0.8735
3630.957228 0.8738 0.8740 0.8740 0.8740 0.8740
3634.266800 0.8740 0.8743 0.8745 0.8748 0.8750
3637.576371 0.8750 0.8750 0.8750 0.8751 0.8753
3640.885943 0.8756 0.8758 0.8760 0.8760 0.8760
3644.195515 0.8760 0.8761 0.8763 0.8766 0.8768
3647.505087 0.8770 0.8770 0.8770 0.8770 0.8770
3650.814659 0.8770 0.8770 0.8770 0.8770 0.8770
3654.124231 0.8770 0.8770 0.8769 0.8766 0.8764
3657.433802 0.8761 0.8760 0.8760 0.8760 0.8760
3660.743374 0.8760 0.8760 0.8760 0.8760 0.8759
3664.052946 0.8756 0.8754 0.8751 0.8750 0.8750
3667.362518 0.8750 0.8750 0.8749 0.8746 0.8744
3670.672090 0.8741 0.8739 0.8736 0.8734 0.8731
3673.981662 0.8730 0.8730 0.8730 0.8730 0.8728
3677.291233 0.8726 0.8723 0.8721 0.8718 0.8716
3680.600805 0.8713 0.8711 0.8710 0.8710 0.8710
3683.910377 0.8710 0.8706 0.8701 0.8696 0.8691
3687.219949 0.8690 0.8690 0.8690 0.8690 0.8686
3690.529521 0.8681 0.8676 0.8671 0.8670 0.8670
3693.839093 0.8670 0.8670 0.8666 0.8661 0.8656
3697.148664 0.8651 0.8650 0.8650 0.8650 0.8650
3700.458236 0.8648 0.8645 0.8643 0.8640 0.8640
3703.767808 0.8640 0.8640 0.8640 0.8642 0.8645
3707.077380 0.8648 0.8650 0.8650 0.8650 0.8650
3710.386952 0.8650 0.8655 0.8660 0.8665 0.8670
3713.696524 0.8675 0.8680 0.8686 0.8690 0.8690
3717.006095 0.8690 0.8690 0.8690 0.8690 0.8690
3720.315667 0.8690 0.8690 0.8690 0.8690 0.8690
3723.625239 0.8690 0.8693 0.8695 0.8698 0.8700
3726.934811 0.8700 0.8700 0.8700 0.8701 0.8703
3730.244383 0.8706 0.8708 0.8711 0.8716 0.8722
3733.553955 0.8727 0.8730 0.8730 0.8730 0.8730
3736.863526 0.8731 0.8733 0.8736 0.8738 0.8740
3740.173098 0.8740 0.8740 0.8740 0.8740 0.8740
3743.482670 0.8740 0.8740 0.8740 0.8740 0.8740
3746.792242 0.8740 0.8741 0.8744 0.8746 0.8749
3750.101814 0.8750 0.8750 0.8750 0.8750 0.8750
3753.411386 0.8750 0.8750 0.8750 0.8750 0.8750
3756.720957 0.8750 0.8750 0.8749 0.8746 0.8743
3760.030529 0.8741 0.8740 0.8740 0.8740 0.8740
3763.340101 0.8740 0.8740 0.8740 0.8740 0.8740
3766.649673 0.8740 0.8740 0.8740 0.8740 0.8740
3769.959245 0.8740 0.8740 0.8740 0.8740 0.8740
3773.268817 0.8740 0.8740 0.8740 0.8740 0.8740
3776.578388 0.8740 0.8740 0.8740 0.8740 0.8740
3779.887960 0.8740 0.8740 0.8740 0.8740 0.8740
3783.197532 0.8740 0.8740 0.8740 0.8740 0.8740
3786.507104 0.8740 0.8740 0.8740 0.8740 0.8740
3789.816676 0.8740 0.8740 0.8740 0.8740 0.8740
3793.126248 0.8740 0.8740 0.8740 0.8740 0.8740
3796.435819 0.8740 0.8740 0.8740 0.8740 0.8740
3799.745391 0.8740 0.8740 0.8740 0.8740 0.8740
3803.054963 0.8740 0.8740 0.8740 0.8740 0.8740
3806.364535 0.8740 0.8740 0.8740 0.8740 0.8740
3809.674107 0.8740 0.8740 0.8740 0.8740 0.8740
3812.983679 0.8740 0.8740 0.8740 0.8740 0.8740
3816.293250 0.8740 0.8740 0.8740 0.8740 0.8740
3819.602822 0.8740 0.8740 0.8740 0.8740 0.8740
3822.912394 0.8740 0.8740 0.8740 0.8740 0.8740
3826.221966 0.8740 0.8740 0.8740 0.8740 0.8740
3829.531538 0.8740 0.8740 0.8740 0.8739 0.8736
3832.841110 0.8734 0.8731 0.8730 0.8730 0.8730
3836.150681 0.8730 0.8730 0.8730 0.8730 0.8730
3839.460253 0.8730 0.8730 0.8730 0.8730 0.8730
3842.769825 0.8730 0.8730 0.8730 0.8730 0.8730
3846.079397 0.8730 0.8730 0.8730 0.8730 0.8730
3849.388969 0.8730 0.8730 0.8730 0.8730 0.8730
3852.698541 0.8730 0.8730 0.8730 0.8730 0.8730
3856.008113 0.8730 0.8730 0.8730 0.8728 0.8726
3859.317684 0.8723 0.8721 0.8720 0.8720 0.8720
3862.627256 0.8720 0.8720 0.8720 0.8720 0.8720
3865.936828 0.8718 0.8715 0.8713 0.8710 0.8710
3869.246400 0.8710 0.8710 0.8710 0.8708 0.8705
3872.555972 0.8703 0.8700 0.8698 0.8695 0.8693
3875.865544 0.8690 0.8690 0.8690 0.8690 0.8690
3879.175115 0.8690 0.8690 0.8690 0.8690 0.8690
3882.484687 0.8690 0.8690 0.8690 0.8687 0.8685
3885.794259 0.8682 0.8680 0.8680 0.8680 0.8680
3889.103831 0.8680 0.8677 0.8675 0.8672 0.8670
3892.413403 0.8670 0.8670 0.8670 0.8670 0.8670
3895.722975 0.8670 0.8670 0.8669 0.8667 0.8664
3899.032546 0.8662 0.8660 0.8660 0.8660 0.8660
3902.342118 0.8660 0.8660 0.8660 0.8660 0.8660
3905.651690 0.8660 0.8660 0.8660 0.8659 0.8657
3908.961262 0.8654 0.8652 0.8650 0.8650 0.8650
3912.270834 0.8650 0.8650 0.8650 0.8650 0.8650
3915.580406 0.8650 0.8650 0.8650 0.8650 0.8650
3918.889977 0.8650 0.8650 0.8650 0.8650 0.8650
3922.199549 0.8650 0.8650 0.8650 0.8650 0.8650
3925.509121 0.8650 0.8650 0.8650 0.8650 0.8650
3928.818693 0.8650 0.8650 0.8650 0.8650 0.8650
3932.128265 0.8650 0.8650 0.8650 0.8650 0.8650
3935.437837 0.8650 0.8650 0.8648 0.8646 0.8643
3938.747408 0.8641 0.8640 0.8640 0.8640 0.8640
3942.056980 0.8640 0.8640 0.8640 0.8640 0.8640
3945.366552 0.8640 0.8640 0.8640 0.8638 0.8635
3948.676124 0.8633 0.8630 0.8630 0.8630 0.8630
3951.985696 0.8630 0.8630 0.8630 0.8630 0.8630
3955.295268 0.8630 0.8630 0.8630 0.8630 0.8630
3958.604839 0.8630 0.8630 0.8630 0.8630 0.8630
3961.914411 0.8630 0.8630 0.8630 0.8630 0.8630
3965.223983 0.8630 0.8630 0.8630 0.8630 0.8630
3968.533555 0.8630 0.8630 0.8630 0.8630 0.8630
3971.843127 0.8630 0.8630 0.8630 0.8630 0.8630
3975.152699 0.8630 0.8630 0.8630 0.8630 0.8630
3978.462270 0.8630 0.8627 0.8624 0.8622 0.8620
3981.771842 0.8620 0.8620 0.8620 0.8620 0.8620
3985.081414 0.8620 0.8620 0.8619 0.8617 0.8614
3988.390986 0.8612 0.8611 0.8617 0.8622 0.8627
3991.700558 0.8630 0.8630 0.8630 0.8630 0.8629
3995.010130 0.8627 0.8624 0.8621 0.8620 0.8620
3998.319701 0.8620 0.8620 0.8620 0.8620 0.8620
4001.629273 0.8620 0.8619 0.8616 0.8614 0.8611
##END=
