##TITLE=BENZENE, (1,1-DIMETHYLETHYL)-
##JCAMP-DX=4.24
##DATA TYPE=INFRARED SPECTRUM
##CLASS=COBLENTZ III
##ORIGIN=DOW CORNING CORP.
##OWNER=COBLENTZ SOCIETY
Collection (C) 2018 copyright by the U.S. Secretary of Commerce
on behalf of the United States of America. All rights reserved.
##DATE=Not specified, most likely prior to 1970
##NAMES=tert-butylbenzene
##CAS REGISTRY NO=98-06-6
##MOLFORM=C10 H14
##SOURCE REFERENCE=COBLENTZ NO. 4775
##$NIST SOURCE=COBLENTZ
##$NIST IMAGE=cob4775
##SPECTROMETER/DATA SYSTEM=PERKIN-ELMER 521 (GRATING)
##INSTRUMENT PARAMETERS=FILTERS AT 3150, 2500, 2000, 1150, 700, 410; GRATING CHANGES AT 2000, 630 CM^-^1
##STATE=SOLUTION (10% IN CCl4 FOR 3800-1300, 10% IN CS2 FOR 1300-650, AND 10% CCl4 FOR 650-240 CM^-^1) VERSUS SOLVENT
##PATH LENGTH=0.011, 0.010, AND 0.010 CM (CsBr CELL)
$$ 99% PURE
##SAMPLING PROCEDURE=TRANSMISSION
##RESOLUTION=4
##DATA PROCESSING=DIGITIZED BY NIST FROM HARD COPY (FROM TWO SEGMENTS)
##XUNITS=1/CM
##YUNITS=TRANSMITTANCE
##XFACTOR=1.000000
##YFACTOR=1
##DELTAX=1.278410
##FIRSTX=234.517
##LASTX=3793.61
##FIRSTY=0.825
##MAXX=3793.61
##MINX=234.517
##MAXY=0.93
##MINY=0.015096
##NPOINTS=2785
##XYDATA=(X++(Y..Y))
234.517000 0.8250 0.8250 0.8270 0.8270 0.8250
240.909050 0.8250 0.8250 0.8230 0.8230 0.8230
247.301101 0.8230 0.8250 0.8250 0.8250 0.8250
253.693151 0.8250 0.8230 0.8230 0.8230 0.8230
260.085202 0.8230 0.8230 0.8230 0.8230 0.8270
266.477252 0.8270 0.8270 0.8270 0.8250 0.8250
272.869303 0.8250 0.8250 0.8270 0.8270 0.8280
279.261353 0.8280 0.8280 0.8280 0.8270 0.8270
285.653404 0.8270 0.8270 0.8280 0.8300 0.8320
292.045454 0.8320 0.8320 0.8320 0.8320 0.8320
298.437505 0.8320 0.8320 0.8340 0.8340 0.8340
304.829555 0.8340 0.8350 0.8350 0.8350 0.8340
311.221605 0.8340 0.8340 0.8340 0.8340 0.8340
317.613656 0.8350 0.8370 0.8390 0.8390 0.8390
324.005706 0.8410 0.8410 0.8410 0.8420 0.8420
330.397757 0.8420 0.8420 0.8420 0.8420 0.8420
336.789807 0.8420 0.8440 0.8420 0.8440 0.8440
343.181858 0.8440 0.8440 0.8460 0.8460 0.8460
349.573908 0.8460 0.8460 0.8460 0.8460 0.8460
355.965959 0.8460 0.8460 0.8480 0.8460 0.8460
362.358009 0.8460 0.8460 0.8460 0.8480 0.8490
368.750060 0.8490 0.8460 0.8460 0.8460 0.8480
375.142110 0.8480 0.8480 0.8480 0.8460 0.8480
381.534160 0.8480 0.8480 0.8480 0.8490 0.8490
387.926211 0.8480 0.8480 0.8480 0.8480 0.8490
394.318261 0.8490 0.8490 0.8510 0.8530 0.8530
400.710312 0.8510 0.8510 0.8510 0.8510 0.8510
407.102362 0.8530 0.8530 0.8550 0.8550 0.8560
413.494413 0.8580 0.8580 0.8600 0.8600 0.8620
419.886463 0.8600 0.8600 0.8600 0.8620 0.8600
426.278514 0.8600 0.8600 0.8600 0.8620 0.8620
432.670564 0.8620 0.8630 0.8630 0.8630 0.8650
439.062615 0.8630 0.8650 0.8650 0.8670 0.8690
445.454665 0.8690 0.8690 0.8670 0.8650 0.8650
451.846715 0.8650 0.8630 0.8630 0.8630 0.8650
458.238766 0.8650 0.8670 0.8690 0.8700 0.8700
464.630816 0.8720 0.8720 0.8740 0.8740 0.8740
471.022867 0.8740 0.8740 0.8760 0.8760 0.8760
477.414917 0.8770 0.8790 0.8790 0.8810 0.8830
483.806968 0.8830 0.8830 0.8830 0.8830 0.8830
490.199018 0.8830 0.8830 0.8830 0.8810 0.8810
496.591069 0.8790 0.8790 0.8770 0.8770 0.8770
502.983119 0.8760 0.8760 0.8740 0.8740 0.8740
509.375170 0.8720 0.8700 0.8700 0.8700 0.8690
515.767220 0.8670 0.8670 0.8650 0.8620 0.8580
522.159270 0.8550 0.8510 0.8480 0.8420 0.8341
528.551321 0.8230 0.8150 0.7990 0.7950 0.7780
534.943371 0.7621 0.7411 0.6962 0.6473 0.5685
541.335422 0.4650 0.3960 0.3381 0.2891 0.2890
547.727472 0.4375 0.5834 0.6955 0.7636 0.7938
554.119523 0.8130 0.8250 0.8340 0.8410 0.8480
560.511573 0.8530 0.8530 0.8560 0.8620 0.8630
566.903624 0.8650 0.8670 0.8700 0.8720 0.8720
573.295674 0.8720 0.8740 0.8740 0.8740 0.8770
579.687725 0.8770 0.8770 0.8810 0.8810 0.8810
586.079775 0.8830 0.8830 0.8840 0.8860 0.8860
592.471825 0.8880 0.8880 0.8910 0.8930 0.8930
598.863876 0.8950 0.8950 0.8970 0.9000 0.9000
605.255926 0.9020 0.9020 0.9040 0.9040 0.9040
611.647977 0.9020 0.9020 0.9000 0.9000 0.9000
618.040027 0.9000 0.9000 0.9000 0.9000 0.9000
624.432078 0.8980 0.8980 0.8980 0.8980 0.8970
630.824128 0.8970 0.8970 0.8970 0.8970 0.8970
637.216179 0.8970 0.8970 0.8970 0.8970 0.8970
643.608229 0.8970 0.8970 0.8950 0.8950 0.8930
650.000280 0.8880 0.8880 0.8880 0.8860 0.8860
656.392330 0.8860 0.8860 0.8840 0.8830 0.8760
662.784380 0.8720 0.8630 0.8530 0.8490 0.8420
669.176431 0.8390 0.8300 0.8200 0.7990 0.7870
675.568481 0.7810 0.7810 0.7800 0.7760 0.7671
681.960532 0.7600 0.7500 0.7270 0.7060 0.6910
688.352582 0.6172 0.5811 0.5183 0.3638 0.1871
694.744633 0.1500 0.0660 0.0360 0.0360 0.0849
701.136683 0.1319 0.1928 0.2696 0.3466 0.4444
707.528734 0.6310 0.7130 0.7660 0.8109 0.8280
713.920784 0.8529 0.8669 0.8720 0.8790 0.8830
720.312835 0.8880 0.8970 0.9000 0.9020 0.9090
726.704885 0.9100 0.9140 0.9140 0.9120 0.9120
733.096935 0.9100 0.9100 0.9070 0.9050 0.9000
739.488986 0.8970 0.8930 0.8910 0.8830 0.8741
745.881036 0.8560 0.8370 0.8150 0.7881 0.7531
752.273087 0.7151 0.6732 0.6282 0.5773 0.3604
758.665137 0.2510 0.1431 0.0341 0.0340 0.1567
765.057188 0.2766 0.3965 0.4458 0.7513 0.8196
771.449238 0.8390 0.8630 0.8760 0.8910 0.8970
777.841289 0.9050 0.9120 0.9170 0.9170 0.9190
784.233339 0.9210 0.9230 0.9230 0.9240 0.9260
790.625390 0.9260 0.9260 0.9260 0.9280 0.9280
797.017440 0.9280 0.9300 0.9300 0.9300 0.9300
803.409490 0.9280 0.9280 0.9280 0.9260 0.9240
809.801541 0.9240 0.9230 0.9230 0.9230 0.9230
816.193591 0.9230 0.9190 0.9160 0.9140 0.9140
822.585642 0.9120 0.9050 0.9040 0.9000 0.8970
828.977692 0.8880 0.8790 0.8760 0.8511 0.8182
835.369743 0.7800 0.7430 0.7430 0.7779 0.8209
841.761793 0.9087 0.9100 0.9140 0.9160 0.9170
848.153844 0.9170 0.9190 0.9210 0.9210 0.9210
854.545894 0.9210 0.9230 0.9230 0.9230 0.9230
860.937945 0.9230 0.9230 0.9230 0.9210 0.9210
867.329995 0.9190 0.9190 0.9170 0.9170 0.9170
873.722045 0.9170 0.9160 0.9160 0.9160 0.9140
880.114096 0.9140 0.9140 0.9140 0.9140 0.9120
886.506146 0.9120 0.9100 0.9050 0.8980 0.8950
892.898197 0.8910 0.8900 0.8860 0.8830 0.8442
899.290247 0.8060 0.7670 0.7670 0.8009 0.8249
905.682298 0.8479 0.8809 0.8860 0.8880 0.8880
912.074348 0.8860 0.8830 0.8810 0.8790 0.8770
918.466399 0.8720 0.8700 0.8700 0.8720 0.8740
924.858449 0.8760 0.8760 0.8770 0.8790 0.8860
931.250500 0.8950 0.8970 0.9000 0.9020 0.9040
937.642550 0.9050 0.9070 0.9070 0.9070 0.9070
944.034600 0.9070 0.9070 0.9070 0.9040 0.9040
950.426651 0.9040 0.9040 0.9040 0.9040 0.9050
956.818701 0.9050 0.9050 0.9050 0.9050 0.9050
963.210752 0.9050 0.9050 0.9050 0.9040 0.9040
969.602802 0.9040 0.9040 0.9040 0.9050 0.9050
975.994853 0.9070 0.9070 0.9070 0.9090 0.9090
982.386903 0.9090 0.9090 0.9090 0.9070 0.9070
988.778954 0.9070 0.9040 0.9040 0.9020 0.9020
995.171004 0.9020 0.9020 0.9000 0.9000 0.9000
1001.563055 0.9000 0.8980 0.8980 0.8970 0.8950
1007.955105 0.8930 0.8860 0.8840 0.8830 0.8770
1014.347155 0.8600 0.8510 0.8370 0.8230 0.8180
1020.739206 0.8130 0.7991 0.7831 0.7601 0.7123
1027.131256 0.4740 0.3870 0.3870 0.5537 0.6846
1033.523307 0.7448 0.8038 0.8597 0.8878 0.8979
1039.915357 0.9000 0.9020 0.9040 0.9050 0.9070
1046.307408 0.9070 0.9070 0.9090 0.9090 0.9090
1052.699458 0.9090 0.9070 0.9070 0.9040 0.9000
1059.091509 0.8950 0.8930 0.8930 0.8900 0.8880
1065.483559 0.8860 0.8760 0.8760 0.8550 0.8271
1071.875610 0.8180 0.7951 0.7622 0.7272 0.7012
1078.267660 0.7010 0.7310 0.8159 0.8230 0.8599
1084.659710 0.8760 0.8810 0.8830 0.8969 0.8980
1091.051761 0.8980 0.8980 0.8950 0.8910 0.8900
1097.443811 0.8840 0.8790 0.8720 0.8650 0.8551
1103.835862 0.8350 0.8090 0.8040 0.7601 0.6941
1110.227912 0.6192 0.6190 0.7425 0.8544 0.8808
1116.619963 0.9090 0.9160 0.9230 0.9280 0.9300
1123.012013 0.9300 0.9300 0.9300 0.9280 0.9260
1129.404064 0.9240 0.9230 0.9230 0.9190 0.9170
1135.796114 0.9170 0.9160 0.9160 0.9140 0.9100
1142.188165 0.9070 0.9050 0.9020 0.8980 0.8950
1148.580215 0.8930 0.8930 0.8930 0.8930 0.8930
1154.972265 0.8950 0.8950 0.8950 0.8950 0.8950
1161.364316 0.8930 0.8930 0.8930 0.8910 0.8910
1167.756366 0.8900 0.8900 0.8900 0.8880 0.8860
1174.148417 0.8840 0.8790 0.8770 0.8760 0.8720
1180.540467 0.8530 0.8480 0.8440 0.8390 0.8350
1186.932518 0.8320 0.8250 0.8200 0.8130 0.8041
1193.324568 0.7710 0.7450 0.7130 0.6821 0.6820
1199.716619 0.7219 0.7589 0.7729 0.7919 0.8208
1206.108669 0.8740 0.8840 0.8860 0.8880 0.8900
1212.500720 0.8910 0.8910 0.8930 0.8930 0.8910
1218.892770 0.8910 0.8900 0.8900 0.8880 0.8860
1225.284820 0.8840 0.8790 0.8760 0.8720 0.8581
1231.676871 0.8560 0.8550 0.8550 0.8550 0.8560
1238.068921 0.8580 0.8600 0.8600 0.8600 0.8580
1244.460972 0.8580 0.8550 0.8530 0.8440 0.8390
1250.853022 0.8280 0.8160 0.8011 0.7801 0.7641
1257.245073 0.7520 0.6960 0.6380 0.5791 0.5071
1263.637123 0.4222 0.3821 0.3820 0.4099 0.4756
1270.029174 0.5532 0.7710 0.7990 0.8200 0.8350
1276.421224 0.8410 0.8490 0.8530 0.8550 0.8560
1282.813275 0.8580 0.8620 0.8630 0.8690 0.8700
1289.205325 0.8720 0.8740 0.8760 0.8760 0.8770
1295.597375 0.8790 0.8810 0.8810 0.8830 0.8830
1301.989426 0.8830 0.8830 0.8810 0.8810 0.8810
1308.381476 0.8830 0.8830 0.8830 0.8840 0.8840
1314.773527 0.8860 0.8860 0.8880 0.8880 0.8860
1321.165577 0.8860 0.8840 0.8840 0.8840 0.8840
1327.557628 0.8830 0.8810 0.8790 0.8790 0.8770
1333.949678 0.8770 0.8760 0.8760 0.8760 0.8740
1340.341729 0.8700 0.8630 0.8580 0.8560 0.8550
1346.733779 0.8530 0.8350 0.8320 0.8250 0.8180
1353.125830 0.8020 0.7831 0.7730 0.7501 0.7172
1359.517880 0.6800 0.6170 0.4971 0.3712 0.3381
1365.909930 0.3011 0.2980 0.2602 0.2600 0.3654
1372.301981 0.5071 0.6660 0.7449 0.7520 0.7590
1378.694031 0.7640 0.7730 0.7780 0.7780 0.7780
1385.086082 0.7780 0.7780 0.7740 0.7550 0.7121
1391.478132 0.6851 0.6561 0.6261 0.6230 0.5673
1397.870183 0.5671 0.7050 0.8039 0.8420 0.8530
1404.262233 0.8550 0.8580 0.8580 0.8600 0.8600
1410.654284 0.8580 0.8580 0.8560 0.8550 0.8530
1417.046334 0.8530 0.8490 0.8420 0.8350 0.8280
1423.438384 0.8200 0.8160 0.8150 0.8110 0.7970
1429.830435 0.7781 0.7641 0.7550 0.7381 0.7221
1436.222485 0.7120 0.6240 0.5960 0.5680 0.5411
1442.614536 0.5131 0.4851 0.4571 0.4292 0.4250
1449.006586 0.3730 0.3730 0.5608 0.5740 0.5720
1455.398637 0.5610 0.5580 0.5371 0.5141 0.4971
1461.790687 0.4930 0.4900 0.4880 0.4860 0.4850
1468.182738 0.4830 0.4810 0.4790 0.4780 0.4780
1474.574788 0.4780 0.4790 0.4920 0.4930 0.5199
1480.966839 0.5210 0.5469 0.5679 0.5879 0.5890
1487.358889 0.6030 0.6000 0.5930 0.5700 0.5391
1493.750939 0.5061 0.4602 0.0986 0.0552 0.0550
1500.142990 0.0951 0.1670 0.2370 0.7403 0.7829
1506.535040 0.8039 0.8249 0.8369 0.8420 0.8460
1512.927091 0.8480 0.8490 0.8490 0.8480 0.8480
1519.319141 0.8490 0.8510 0.8530 0.8530 0.8530
1525.711192 0.8530 0.8510 0.8510 0.8490 0.8490
1532.103242 0.8480 0.8460 0.8460 0.8480 0.8530
1538.495293 0.8600 0.8700 0.8790 0.8880 0.8910
1544.887343 0.8930 0.8950 0.8950 0.8950 0.8950
1551.279394 0.8930 0.8930 0.8910 0.8900 0.8900
1557.671444 0.8880 0.8880 0.8860 0.8840 0.8830
1564.063494 0.8810 0.8790 0.8770 0.8760 0.8740
1570.455545 0.8720 0.8670 0.8650 0.8580 0.8530
1576.847595 0.8510 0.8460 0.8350 0.8300 0.8270
1583.239646 0.8280 0.8320 0.8320 0.8370 0.8370
1589.631696 0.8320 0.7950 0.7730 0.7500 0.7290
1596.023747 0.7061 0.6731 0.6312 0.5882 0.5234
1602.415797 0.5230 0.5630 0.6299 0.6679 0.7119
1608.807848 0.7529 0.7849 0.8149 0.8210 0.8319
1615.199898 0.8440 0.8530 0.8600 0.8650 0.8690
1621.591949 0.8720 0.8740 0.8760 0.8760 0.8770
1627.983999 0.8790 0.8810 0.8810 0.8810 0.8810
1634.376049 0.8810 0.8810 0.8830 0.8840 0.8840
1640.768100 0.8840 0.8840 0.8840 0.8840 0.8830
1647.160150 0.8810 0.8810 0.8790 0.8770 0.8740
1653.552201 0.8740 0.8720 0.8700 0.8690 0.8690
1659.944251 0.8670 0.8650 0.8630 0.8630 0.8650
1666.336302 0.8650 0.8670 0.8690 0.8700 0.8720
1672.728352 0.8740 0.8770 0.8790 0.8790 0.8790
1679.120403 0.8810 0.8810 0.8810 0.8810 0.8810
1685.512453 0.8810 0.8810 0.8810 0.8810 0.8810
1691.904504 0.8810 0.8810 0.8810 0.8810 0.8810
1698.296554 0.8810 0.8810 0.8810 0.8810 0.8790
1704.688604 0.8770 0.8760 0.8760 0.8760 0.8740
1711.080655 0.8740 0.8740 0.8720 0.8720 0.8720
1717.472705 0.8700 0.8670 0.8650 0.8650 0.8650
1723.864756 0.8650 0.8650 0.8670 0.8670 0.8690
1730.256806 0.8690 0.8650 0.8620 0.8550 0.8510
1736.648857 0.8490 0.8460 0.8420 0.8410 0.8370
1743.040907 0.8370 0.8390 0.8420 0.8460 0.8550
1749.432958 0.8700 0.8770 0.8810 0.8830 0.8929
1755.825008 0.8950 0.8970 0.8980 0.8980 0.8980
1762.217059 0.8980 0.8980 0.8980 0.8980 0.8980
1768.609109 0.8980 0.8970 0.8930 0.8900 0.8860
1775.001159 0.8830 0.8810 0.8810 0.8810 0.8810
1781.393210 0.8810 0.8810 0.8810 0.8790 0.8760
1787.785260 0.8740 0.8720 0.8670 0.8620 0.8560
1794.177311 0.8550 0.8490 0.8440 0.8390 0.8340
1800.569361 0.8300 0.8300 0.8370 0.8440 0.8510
1806.961412 0.8620 0.8650 0.8670 0.8690 0.8690
1813.353462 0.8690 0.8690 0.8700 0.8700 0.8740
1819.745513 0.8810 0.8880 0.8900 0.8910 0.8910
1826.137563 0.8930 0.8930 0.8970 0.8980 0.8980
1832.529614 0.8980 0.8980 0.8970 0.8970 0.8970
1838.921664 0.8950 0.8950 0.8950 0.8930 0.8930
1845.313714 0.8910 0.8880 0.8880 0.8860 0.8840
1851.705765 0.8830 0.8810 0.8810 0.8810 0.8790
1858.097815 0.8770 0.8740 0.8700 0.8630 0.8530
1864.489866 0.8460 0.8390 0.8340 0.8270 0.8230
1870.881916 0.8230 0.8270 0.8370 0.8410 0.8440
1877.273967 0.8480 0.8490 0.8490 0.8460 0.8420
1883.666017 0.8350 0.8320 0.8350 0.8440 0.8620
1890.058068 0.8700 0.8760 0.8770 0.8790 0.8830
1896.450118 0.8840 0.8840 0.8840 0.8840 0.8830
1902.842169 0.8830 0.8840 0.8840 0.8860 0.8860
1909.234219 0.8880 0.8880 0.8880 0.8880 0.8880
1915.626269 0.8860 0.8860 0.8860 0.8840 0.8840
1922.018320 0.8830 0.8810 0.8810 0.8790 0.8790
1928.410370 0.8770 0.8740 0.8720 0.8720 0.8670
1934.802421 0.8600 0.8550 0.8460 0.8350 0.8230
1941.194471 0.8110 0.8020 0.8010 0.7990 0.8010
1947.586522 0.8110 0.8340 0.8420 0.8530 0.8530
1953.978572 0.8510 0.8480 0.8440 0.8420 0.8440
1960.370623 0.8490 0.8550 0.8600 0.8670 0.8770
1966.762673 0.8860 0.8880 0.8910 0.8930 0.8930
1973.154724 0.8930 0.8930 0.8930 0.8930 0.8930
1979.546774 0.8950 0.8950 0.8950 0.8950 0.8950
1985.938824 0.8950 0.8950 0.8950 0.8980 0.8980
1992.330875 0.8980 0.8970 0.8970 0.8950 0.8970
1998.722925 0.8980 0.9000 0.9010 0.9020 0.9010
2005.114976 0.9000 0.9000 0.9000 0.9000 0.9000
2011.507026 0.9000 0.9000 0.9000 0.9000 0.9000
2017.899077 0.9000 0.8976 0.8951 0.8950 0.8950
2024.291127 0.8960 0.8970 0.8975 0.8980 0.8990
2030.683178 0.9000 0.9000 0.9000 0.9000 0.9000
2037.075228 0.9000 0.9000 0.9000 0.9000 0.9000
2043.467279 0.9000 0.9000 0.9000 0.8991 0.8981
2049.859329 0.8975 0.8970 0.8961 0.8951 0.8950
2056.251379 0.8950 0.8950 0.8950 0.8950 0.8950
2062.643430 0.8964 0.8979 0.8980 0.8980 0.8989
2069.035480 0.8999 0.9000 0.9000 0.9000 0.9000
2075.427531 0.9000 0.9000 0.9000 0.9000 0.9000
2081.819581 0.9000 0.9000 0.9000 0.9000 0.9000
2088.211632 0.8991 0.8981 0.8976 0.8971 0.8961
2094.603682 0.8951 0.8950 0.8950 0.8950 0.8950
2100.995733 0.8959 0.8969 0.8974 0.8979 0.8989
2107.387783 0.8999 0.9000 0.9000 0.9000 0.9000
2113.779834 0.9000 0.9000 0.9000 0.9000 0.9000
2120.171884 0.9000 0.8992 0.8982 0.8980 0.8980
2126.563934 0.8980 0.8980 0.8976 0.8971 0.8970
2132.955985 0.8970 0.8970 0.8970 0.8970 0.8970
2139.348035 0.8970 0.8970 0.8970 0.8970 0.8970
2145.740086 0.8970 0.8970 0.8970 0.8962 0.8952
2152.132136 0.8950 0.8950 0.8958 0.8968 0.8970
2158.524187 0.8970 0.8962 0.8952 0.8950 0.8950
2164.916237 0.8950 0.8950 0.8950 0.8950 0.8950
2171.308288 0.8950 0.8950 0.8950 0.8942 0.8932
2177.700338 0.8930 0.8930 0.8938 0.8948 0.8950
2184.092389 0.8950 0.8950 0.8950 0.8950 0.8950
2190.484439 0.8942 0.8932 0.8930 0.8930 0.8930
2196.876489 0.8930 0.8930 0.8930 0.8930 0.8930
2203.268540 0.8930 0.8930 0.8930 0.8930 0.8938
2209.660590 0.8948 0.8950 0.8950 0.8950 0.8950
2216.052641 0.8950 0.8950 0.8950 0.8950 0.8950
2222.444691 0.8950 0.8950 0.8950 0.8950 0.8950
2228.836742 0.8950 0.8950 0.8957 0.8967 0.8963
2235.228792 0.8953 0.8950 0.8950 0.8950 0.8950
2241.620843 0.8950 0.8950 0.8950 0.8950 0.8950
2248.012893 0.8950 0.8943 0.8933 0.8930 0.8930
2254.404944 0.8930 0.8930 0.8930 0.8930 0.8930
2260.796994 0.8930 0.8930 0.8930 0.8930 0.8930
2267.189044 0.8930 0.8930 0.8930 0.8930 0.8930
2273.581095 0.8930 0.8930 0.8930 0.8930 0.8930
2279.973145 0.8930 0.8930 0.8930 0.8930 0.8930
2286.365196 0.8930 0.8930 0.8930 0.8937 0.8947
2292.757246 0.8950 0.8950 0.8950 0.8950 0.8950
2299.149297 0.8950 0.8950 0.8950 0.8950 0.8950
2305.541347 0.8950 0.8950 0.8957 0.8967 0.8970
2311.933398 0.8970 0.8970 0.8970 0.8973 0.8978
2318.325448 0.8986 0.8996 0.9000 0.9000 0.9000
2324.717499 0.9000 0.9006 0.9016 0.9020 0.9020
2331.109549 0.9020 0.9020 0.9014 0.9004 0.8994
2337.501599 0.8984 0.8980 0.8980 0.8977 0.8972
2343.893650 0.8970 0.8970 0.8973 0.8978 0.8980
2350.285700 0.8980 0.8980 0.8980 0.8980 0.8980
2356.677751 0.8980 0.8980 0.8980 0.8980 0.8977
2363.069801 0.8972 0.8970 0.8970 0.8964 0.8954
2369.461852 0.8944 0.8934 0.8930 0.8930 0.8930
2375.853902 0.8930 0.8924 0.8914 0.8910 0.8910
2382.245953 0.8916 0.8926 0.8924 0.8914 0.8910
2388.638003 0.8910 0.8910 0.8910 0.8910 0.8910
2395.030054 0.8910 0.8910 0.8910 0.8910 0.8910
2401.422104 0.8910 0.8910 0.8910 0.8910 0.8910
2407.814154 0.8915 0.8925 0.8930 0.8930 0.8930
2414.206205 0.8930 0.8930 0.8930 0.8930 0.8930
2420.598255 0.8930 0.8930 0.8930 0.8930 0.8925
2426.990306 0.8915 0.8910 0.8910 0.8910 0.8910
2433.382356 0.8910 0.8910 0.8910 0.8910 0.8915
2439.774407 0.8925 0.8930 0.8930 0.8930 0.8930
2446.166457 0.8930 0.8930 0.8930 0.8930 0.8930
2452.558508 0.8930 0.8930 0.8930 0.8935 0.8945
2458.950558 0.8950 0.8950 0.8950 0.8950 0.8950
2465.342609 0.8950 0.8950 0.8950 0.8955 0.8965
2471.734659 0.8965 0.8955 0.8950 0.8950 0.8950
2478.126709 0.8950 0.8946 0.8936 0.8930 0.8930
2484.518760 0.8926 0.8915 0.8910 0.8910 0.8910
2490.910810 0.8910 0.8910 0.8910 0.8910 0.8910
2497.302861 0.8908 0.8903 0.8900 0.8900 0.8900
2503.694911 0.8900 0.8900 0.8900 0.8900 0.8900
2510.086962 0.8900 0.8900 0.8900 0.8900 0.8900
2516.479012 0.8900 0.8900 0.8900 0.8900 0.8900
2522.871063 0.8900 0.8900 0.8900 0.8900 0.8900
2529.263113 0.8900 0.8900 0.8900 0.8900 0.8900
2535.655164 0.8900 0.8900 0.8900 0.8900 0.8896
2542.047214 0.8886 0.8876 0.8866 0.8860 0.8860
2548.439264 0.8856 0.8846 0.8840 0.8840 0.8840
2554.831315 0.8840 0.8840 0.8840 0.8838 0.8833
2561.223365 0.8830 0.8830 0.8830 0.8830 0.8830
2567.615416 0.8830 0.8830 0.8830 0.8830 0.8830
2574.007466 0.8830 0.8830 0.8832 0.8837 0.8840
2580.399517 0.8840 0.8840 0.8840 0.8840 0.8840
2586.791567 0.8840 0.8840 0.8840 0.8840 0.8840
2593.183618 0.8840 0.8843 0.8853 0.8860 0.8860
2599.575668 0.8863 0.8873 0.8880 0.8880 0.8880
2605.967719 0.8880 0.8880 0.8880 0.8880 0.8880
2612.359769 0.8877 0.8867 0.8860 0.8860 0.8857
2618.751819 0.8847 0.8840 0.8840 0.8840 0.8840
2625.143870 0.8840 0.8840 0.8840 0.8840 0.8839
2631.535920 0.8834 0.8830 0.8830 0.8830 0.8830
2637.927971 0.8830 0.8830 0.8830 0.8830 0.8830
2644.320021 0.8830 0.8830 0.8830 0.8830 0.8830
2650.712072 0.8830 0.8830 0.8830 0.8830 0.8830
2657.104122 0.8830 0.8830 0.8830 0.8830 0.8830
2663.496173 0.8830 0.8830 0.8831 0.8836 0.8840
2669.888223 0.8840 0.8840 0.8840 0.8840 0.8840
2676.280274 0.8840 0.8840 0.8840 0.8840 0.8840
2682.672324 0.8840 0.8840 0.8840 0.8839 0.8834
2689.064374 0.8830 0.8830 0.8828 0.8818 0.8805
2695.456425 0.8786 0.8767 0.8752 0.8738 0.8728
2701.848475 0.8720 0.8720 0.8720 0.8720 0.8718
2708.240526 0.8708 0.8700 0.8700 0.8700 0.8700
2714.632576 0.8702 0.8712 0.8722 0.8732 0.8742
2721.024627 0.8752 0.8760 0.8760 0.8761 0.8766
2727.416677 0.8772 0.8782 0.8790 0.8790 0.8790
2733.808728 0.8790 0.8788 0.8773 0.8757 0.8737
2740.200778 0.8718 0.8708 0.8700 0.8700 0.8702
2746.592829 0.8712 0.8720 0.8720 0.8723 0.8743
2752.984879 0.8761 0.8766 0.8770 0.8770 0.8770
2759.376929 0.8770 0.8769 0.8764 0.8760 0.8760
2765.768980 0.8759 0.8749 0.8740 0.8740 0.8740
2772.161030 0.8740 0.8739 0.8729 0.8720 0.8720
2778.553081 0.8720 0.8720 0.8720 0.8720 0.8719
2784.945131 0.8709 0.8700 0.8700 0.8698 0.8684
2791.337182 0.8668 0.8648 0.8628 0.8613 0.8595
2797.729232 0.8550 0.8508 0.8493 0.8479 0.8469
2804.121283 0.8460 0.8460 0.8460 0.8460 0.8459
2810.513333 0.8449 0.8440 0.8440 0.8439 0.8424
2816.905384 0.8408 0.8378 0.8350 0.8345 0.8339
2823.297434 0.8329 0.8317 0.8282 0.8247 0.8202
2829.689484 0.8159 0.8144 0.8127 0.8082 0.8039
2836.081535 0.8024 0.8008 0.7979 0.7948 0.7914
2842.473585 0.7876 0.7764 0.7652 0.7528 0.7404
2848.865636 0.7294 0.7184 0.7069 0.6955 0.6840
2855.257686 0.6725 0.6611 0.6473 0.5690 0.4925
2861.649737 0.4750 0.4575 0.4376 0.4177 0.3977
2868.041787 0.3778 0.3575 0.3374 0.3184 0.3000
2874.433838 0.3000 0.3007 0.3326 0.3643 0.3807
2880.825888 0.3972 0.4141 0.4310 0.4315 0.4320
2887.217939 0.4390 0.4460 0.4539 0.4619 0.4645
2893.609989 0.4670 0.4481 0.4289 0.4124 0.3960
2900.002039 0.3795 0.3631 0.3461 0.3292 0.3137
2906.394090 0.2983 0.2980 0.2980 0.3024 0.3069
2912.786140 0.3138 0.3208 0.3302 0.3396 0.3515
2919.178191 0.3635 0.3650 0.3660 0.3645 0.3630
2925.570241 0.3567 0.3502 0.3409 0.3314 0.3233
2931.962292 0.3154 0.3079 0.3004 0.2924 0.2845
2938.354342 0.2694 0.2540 0.2465 0.2395 0.2297
2944.746393 0.2197 0.2092 0.1985 0.1791 0.1591
2951.138443 0.1204 0.0805 0.0724 0.0664 0.0586
2957.530494 0.0506 0.0426 0.0346 0.0276 0.0206
2963.922544 0.0186 0.0171 0.0161 0.0151 0.0159
2970.314594 0.0169 0.0224 0.0285 0.0345 0.0405
2976.706645 0.0565 0.0735 0.0900 0.1064 0.1503
2983.098695 0.1972 0.2553 0.3146 0.3735 0.4323
2989.490746 0.4863 0.5396 0.5605 0.5769 0.5982
2995.882796 0.6201 0.6234 0.6239 0.6365 0.6504
3002.274847 0.6728 0.6962 0.6999 0.7009 0.7010
3008.666897 0.7010 0.7001 0.6991 0.6925 0.6851
3015.058948 0.6810 0.6775 0.6511 0.6207 0.5869
3021.450998 0.5525 0.5117 0.4697 0.4640 0.4640
3027.843049 0.4760 0.4899 0.5043 0.5188 0.5210
3034.235099 0.5210 0.5197 0.5182 0.5180 0.5180
3040.627149 0.5267 0.5372 0.5784 0.6263 0.6334
3047.019200 0.6314 0.6232 0.6136 0.6053 0.5974
3053.411250 0.5824 0.5659 0.5495 0.5330 0.5165
3059.803301 0.5001 0.4950 0.4925 0.4799 0.4650
3066.195351 0.4620 0.4620 0.4779 0.4978 0.5536
3072.587402 0.6189 0.6413 0.6519 0.6709 0.6918
3078.979452 0.6944 0.6924 0.6674 0.6365 0.6237
3085.371503 0.6157 0.5956 0.5722 0.5460 0.5191
3091.763553 0.5149 0.5174 0.5459 0.5823 0.6362
3098.155604 0.6955 0.7367 0.7721 0.7804 0.7809
3104.547654 0.7810 0.7810 0.7825 0.7845 0.7930
3110.939704 0.8034 0.8203 0.8393 0.8533 0.8658
3117.331755 0.8716 0.8751 0.8771 0.8786 0.8805
3123.723805 0.8825 0.8830 0.8830 0.8830 0.8830
3130.115856 0.8834 0.8839 0.8866 0.8901 0.8917
3136.507906 0.8927 0.8930 0.8930 0.8923 0.8913
3142.899957 0.8910 0.8910 0.8906 0.8901 0.8900
3149.292007 0.8900 0.8900 0.8900 0.8900 0.8900
3155.684058 0.8911 0.8926 0.8930 0.8930 0.8923
3162.076108 0.8913 0.8910 0.8910 0.8910 0.8910
3168.468159 0.8910 0.8910 0.8910 0.8910 0.8910
3174.860209 0.8910 0.8907 0.8902 0.8900 0.8900
3181.252259 0.8903 0.8908 0.8910 0.8910 0.8917
3187.644310 0.8927 0.8930 0.8930 0.8923 0.8913
3194.036360 0.8910 0.8910 0.8917 0.8926 0.8930
3200.428411 0.8930 0.8930 0.8930 0.8937 0.8947
3206.820461 0.8950 0.8950 0.8950 0.8950 0.8950
3213.212512 0.8950 0.8950 0.8950 0.8950 0.8950
3219.604562 0.8950 0.8950 0.8950 0.8950 0.8950
3225.996613 0.8950 0.8950 0.8950 0.8950 0.8950
3232.388663 0.8956 0.8966 0.8970 0.8970 0.8970
3238.780714 0.8970 0.8970 0.8970 0.8970 0.8970
3245.172764 0.8970 0.8970 0.8970 0.8970 0.8970
3251.564814 0.8970 0.8970 0.8970 0.8973 0.8978
3257.956865 0.8980 0.8980 0.8971 0.8956 0.8950
3264.348915 0.8950 0.8956 0.8966 0.8970 0.8970
3270.740966 0.8964 0.8954 0.8950 0.8950 0.8944
3277.133016 0.8934 0.8930 0.8930 0.8936 0.8946
3283.525067 0.8950 0.8950 0.8950 0.8950 0.8950
3289.917117 0.8950 0.8950 0.8950 0.8950 0.8950
3296.309168 0.8955 0.8965 0.8973 0.8978 0.8980
3302.701218 0.8980 0.8980 0.8980 0.8980 0.8980
3309.093269 0.8980 0.8980 0.8980 0.8980 0.8980
3315.485319 0.8980 0.8980 0.8980 0.8980 0.8980
3321.877369 0.8980 0.8980 0.8980 0.8980 0.8980
3328.269420 0.8980 0.8980 0.8980 0.8977 0.8972
3334.661470 0.8970 0.8970 0.8970 0.8970 0.8965
3341.053521 0.8955 0.8950 0.8950 0.8950 0.8950
3347.445571 0.8950 0.8950 0.8950 0.8950 0.8950
3353.837622 0.8950 0.8950 0.8950 0.8950 0.8950
3360.229672 0.8950 0.8950 0.8950 0.8950 0.8950
3366.621723 0.8950 0.8955 0.8965 0.8970 0.8970
3373.013773 0.8970 0.8970 0.8970 0.8970 0.8970
3379.405824 0.8970 0.8970 0.8970 0.8970 0.8970
3385.797874 0.8965 0.8955 0.8950 0.8950 0.8950
3392.189924 0.8950 0.8950 0.8950 0.8950 0.8950
3398.581975 0.8950 0.8950 0.8954 0.8964 0.8970
3404.974025 0.8970 0.8970 0.8970 0.8970 0.8970
3411.366076 0.8970 0.8970 0.8970 0.8970 0.8970
3417.758126 0.8970 0.8970 0.8970 0.8972 0.8977
3424.150177 0.8984 0.8994 0.9000 0.9000 0.9000
3430.542227 0.9000 0.9004 0.9014 0.9020 0.9020
3436.934278 0.9024 0.9034 0.9040 0.9040 0.9040
3443.326328 0.9040 0.9040 0.9040 0.9040 0.9040
3449.718379 0.9040 0.9040 0.9040 0.9040 0.9040
3456.110429 0.9040 0.9040 0.9040 0.9040 0.9040
3462.502479 0.9040 0.9040 0.9040 0.9040 0.9040
3468.894530 0.9040 0.9040 0.9040 0.9036 0.9027
3475.286580 0.9020 0.9020 0.9017 0.9007 0.9000
3481.678631 0.9000 0.9003 0.9013 0.9024 0.9033
3488.070681 0.9040 0.9040 0.9040 0.9040 0.9040
3494.462732 0.9040 0.9040 0.9040 0.9042 0.9047
3500.854782 0.9050 0.9050 0.9050 0.9050 0.9050
3507.246833 0.9050 0.9050 0.9050 0.9053 0.9063
3513.638883 0.9073 0.9083 0.9092 0.9097 0.9103
3520.030934 0.9113 0.9120 0.9120 0.9120 0.9120
3526.422984 0.9120 0.9120 0.9120 0.9120 0.9120
3532.815034 0.9120 0.9120 0.9120 0.9120 0.9120
3539.207085 0.9117 0.9107 0.9100 0.9100 0.9100
3545.599135 0.9100 0.9100 0.9100 0.9103 0.9113
3551.991186 0.9120 0.9120 0.9120 0.9120 0.9120
3558.383236 0.9120 0.9120 0.9120 0.9120 0.9120
3564.775287 0.9120 0.9120 0.9120 0.9120 0.9120
3571.167337 0.9120 0.9118 0.9108 0.9100 0.9100
3577.559388 0.9102 0.9112 0.9120 0.9120 0.9120
3583.951438 0.9120 0.9120 0.9120 0.9120 0.9120
3590.343489 0.9120 0.9120 0.9120 0.9120 0.9122
3596.735539 0.9132 0.9140 0.9140 0.9140 0.9140
3603.127589 0.9140 0.9140 0.9140 0.9140 0.9140
3609.519640 0.9140 0.9140 0.9140 0.9140 0.9140
3615.911690 0.9140 0.9140 0.9142 0.9152 0.9160
3622.303741 0.9160 0.9158 0.9148 0.9140 0.9140
3628.695791 0.9140 0.9140 0.9140 0.9140 0.9138
3635.087842 0.9128 0.9120 0.9120 0.9120 0.9120
3641.479892 0.9122 0.9132 0.9140 0.9140 0.9140
3647.871943 0.9140 0.9140 0.9140 0.9140 0.9140
3654.263993 0.9141 0.9151 0.9160 0.9160 0.9161
3660.656044 0.9166 0.9170 0.9170 0.9170 0.9170
3667.048094 0.9169 0.9164 0.9160 0.9160 0.9160
3673.440144 0.9160 0.9160 0.9160 0.9161 0.9166
3679.832195 0.9170 0.9170 0.9169 0.9164 0.9160
3686.224245 0.9160 0.9160 0.9160 0.9160 0.9160
3692.616296 0.9160 0.9160 0.9160 0.9160 0.9160
3699.008346 0.9160 0.9160 0.9160 0.9160 0.9160
3705.400397 0.9160 0.9165 0.9170 0.9170 0.9170
3711.792447 0.9165 0.9160 0.9160 0.9160 0.9160
3718.184498 0.9160 0.9165 0.9170 0.9170 0.9170
3724.576548 0.9170 0.9170 0.9170 0.9170 0.9170
3730.968598 0.9170 0.9170 0.9170 0.9170 0.9170
3737.360649 0.9170 0.9170 0.9170 0.9170 0.9170
3743.752699 0.9170 0.9170 0.9170 0.9165 0.9160
3750.144750 0.9160 0.9160 0.9160 0.9160 0.9165
3756.536800 0.9170 0.9170 0.9170 0.9155 0.9140
3762.928851 0.9140 0.9140 0.9140 0.9140 0.9150
3769.320901 0.9160 0.9160 0.9160 0.9160 0.9160
3775.712952 0.9165 0.9170 0.9170 0.9170 0.9170
3782.105002 0.9170 0.9170 0.9170 0.9170 0.9170
3788.497053 0.9165 0.9160 0.9160 0.9160 0.9160
##END=
