##TITLE=GLYCINE, N-(1-AZIRIDINYLCARBONYL)-, ETHYL ESTER
##JCAMP-DX=4.24
##DATA TYPE=INFRARED SPECTRUM
##CLASS=COBLENTZ III
##ORIGIN=SOUTHERN RESEARCH INST.
##OWNER=COBLENTZ SOCIETY
Collection (C) 2018 copyright by the U.S. Secretary of Commerce
on behalf of the United States of America. All rights reserved.
##DATE=1963/03/04
##NAMES=ethyl [(1-aziridinylcarbonyl)amino]acetate
##CAS REGISTRY NO=98337-03-2
##MOLFORM=C7 H12 N2 O3
##SOURCE REFERENCE=COBLENTZ NO. 9232
##$NIST SOURCE=COBLENTZ
##$NIST IMAGE=cob9232
##SPECTROMETER/DATA SYSTEM=PERKIN-ELMER 221 (GRATING)
##INSTRUMENT PARAMETERS=FILTER CHANGE AT 2490, 980 CM^-^1, GRATING FOR 4000-1428 CM^-^1, NaCl PRISM FOR 1428-650 CM^-^1
##STATE=SOLID (0.7 mg / 500 mg KBr DISC)
##SAMPLING PROCEDURE=TRANSMISSION
##RESOLUTION=4
##DATA PROCESSING=DIGITIZED BY NIST FROM HARD COPY
##XUNITS=1/CM
##YUNITS=TRANSMITTANCE
##XFACTOR=1.000000
##YFACTOR=1
##DELTAX=001.530343
##FIRSTX=550.026
##LASTX=4004.01
##FIRSTY=0.424
##MAXX=4004.01
##MINX=550.026
##MAXY=0.857
##MINY=0.062
##NPOINTS=2258
##XYDATA=(X++(Y..Y))
550.026000 0.4240 0.4240 0.4370 0.4490 0.4500
557.681107 0.4590 0.4680 0.4770 0.4860 0.4950
565.330000 0.4970 0.5120 0.5300 0.5490 0.5690
572.985107 0.5890 0.6050 0.6190 0.6270 0.6300
580.633000 0.6350 0.6420 0.6420 0.6460 0.6480
588.288107 0.6520 0.6540 0.6580 0.6580 0.6580
595.937000 0.6590 0.6600 0.6600 0.6590 0.6580
603.592107 0.6580 0.6570 0.6560 0.6540 0.6510
611.240000 0.6480 0.6450 0.6430 0.6420 0.6420
618.895107 0.6390 0.6380 0.6370 0.6330 0.6320
626.544000 0.6270 0.6220 0.6180 0.6120 0.6080
634.199107 0.6020 0.5970 0.5930 0.5860 0.5810
641.847000 0.5760 0.5700 0.5640 0.5580 0.5510
649.502107 0.5440 0.5370 0.5290 0.5210 0.5130
657.150000 0.5050 0.4960 0.4860 0.4760 0.4650
664.805107 0.4540 0.4420 0.4390 0.4340 0.4280
672.454000 0.4230 0.4180 0.4140 0.4130 0.4130
680.109107 0.4130 0.4160 0.4160 0.4220 0.4270
687.757000 0.4320 0.4390 0.4450 0.4520 0.4570
695.412107 0.4680 0.4770 0.4840 0.4910 0.4960
703.061000 0.5000 0.5030 0.5210 0.5210 0.5210
710.716107 0.5200 0.5150 0.5090 0.5040 0.4990
718.364000 0.4930 0.4890 0.4890 0.4990 0.5240
726.019107 0.5490 0.5710 0.5900 0.6060 0.6210
733.668000 0.6340 0.6450 0.6560 0.6650 0.6730
741.323107 0.6800 0.6860 0.6920 0.6980 0.7040
748.971000 0.7110 0.7170 0.7240 0.7320 0.7390
756.626107 0.7450 0.7500 0.7540 0.7570 0.7580
764.274000 0.7600 0.7600 0.7600 0.7560 0.7510
771.929107 0.7480 0.7170 0.6790 0.6310 0.5810
779.578000 0.5330 0.5330 0.5680 0.6020 0.6110
787.233107 0.6700 0.7200 0.7430 0.7510 0.7510
794.881000 0.7560 0.7600 0.7610 0.7610 0.7600
802.536107 0.7600 0.7600 0.7590 0.7600 0.7650
810.185000 0.7810 0.7870 0.8000 0.8030 0.8030
817.840107 0.8010 0.8010 0.7950 0.7820 0.7550
825.488000 0.7280 0.7090 0.6980 0.6860 0.6810
833.143107 0.6450 0.6440 0.6450 0.6890 0.7200
840.792000 0.7400 0.7550 0.7690 0.7850 0.8080
848.447107 0.8530 0.8530 0.8530 0.8520 0.8510
856.095000 0.8500 0.8500 0.8470 0.8450 0.8390
863.750107 0.8290 0.7870 0.7080 0.6740 0.6730
871.398000 0.6740 0.7060 0.7260 0.7540 0.7820
879.053107 0.8000 0.8160 0.8350 0.8460 0.8560
886.702000 0.8570 0.8570 0.8560 0.8480 0.8350
894.357107 0.8230 0.8140 0.8080 0.8060 0.8050
902.005000 0.8060 0.8080 0.8100 0.8120 0.8120
909.660107 0.8110 0.8100 0.7980 0.7820 0.7600
917.309000 0.7200 0.6850 0.6610 0.6270 0.6270
924.964107 0.6270 0.6440 0.6980 0.6980 0.6850
932.612000 0.5490 0.5210 0.4930 0.4640 0.4090
940.267107 0.4090 0.4090 0.4400 0.4770 0.5110
947.916000 0.5320 0.5690 0.6050 0.6410 0.6750
955.571107 0.7070 0.7360 0.7600 0.7800 0.7950
963.219000 0.8030 0.8030 0.8120 0.8120 0.8130
970.874107 0.8160 0.8160 0.8160 0.8150 0.8140
978.522000 0.8140 0.8110 0.8080 0.8020 0.7970
986.177107 0.7840 0.7740 0.7730 0.7670 0.7580
993.826000 0.7480 0.7460 0.7420 0.7390 0.7350
1001.481107 0.7170 0.7020 0.6670 0.6450 0.6260
1009.129000 0.5830 0.5370 0.4920 0.4440 0.3950
1016.784107 0.3290 0.2860 0.2860 0.3020 0.3160
1024.433000 0.3310 0.3310 0.3300 0.3290 0.3190
1032.088107 0.3080 0.2980 0.2880 0.2880 0.3170
1039.736000 0.3500 0.4310 0.5240 0.5890 0.6340
1047.391107 0.6640 0.6860 0.7040 0.7360 0.7570
1055.040000 0.7590 0.7600 0.7600 0.7600 0.7600
1062.695107 0.7590 0.7580 0.7560 0.7520 0.7480
1070.343000 0.7450 0.7410 0.7360 0.7300 0.7220
1077.998107 0.7110 0.6970 0.6800 0.6590 0.6330
1085.646000 0.6300 0.6300 0.6530 0.6550 0.6550
1093.301107 0.6550 0.6550 0.6540 0.6490 0.6420
1100.950000 0.6330 0.6210 0.6050 0.5850 0.5600
1108.605107 0.5440 0.5380 0.5320 0.5240 0.5170
1116.253000 0.5090 0.5090 0.5120 0.5180 0.5230
1123.908107 0.5260 0.5310 0.5390 0.5430 0.5550
1131.557000 0.5620 0.5620 0.5590 0.5550 0.5450
1139.212107 0.5270 0.5020 0.4770 0.4560 0.4430
1146.860000 0.4250 0.4120 0.3950 0.3790 0.3630
1154.515107 0.3460 0.3460 0.3580 0.4260 0.4350
1162.164000 0.4440 0.4590 0.4850 0.4870 0.4850
1169.819107 0.4830 0.4640 0.4450 0.4250 0.4060
1177.467000 0.3860 0.3670 0.3490 0.3310 0.3130
1185.122107 0.2980 0.2820 0.2680 0.2550 0.2510
1192.771000 0.2470 0.2420 0.2370 0.2190 0.2030
1200.426107 0.1860 0.1800 0.1740 0.1720 0.1700
1208.074000 0.1640 0.1620 0.1580 0.1550 0.1520
1215.729107 0.1490 0.1450 0.1440 0.1440 0.1450
1223.377000 0.1450 0.1480 0.1490 0.1510 0.1520
1231.032107 0.1550 0.1580 0.1610 0.1680 0.1700
1238.681000 0.1770 0.1920 0.2040 0.2160 0.2260
1246.336107 0.2360 0.2470 0.2580 0.2710 0.2870
1253.984000 0.3050 0.3150 0.3190 0.3190 0.3200
1261.639107 0.3200 0.3210 0.3220 0.3240 0.3340
1269.288000 0.3500 0.3680 0.3860 0.4030 0.4200
1276.943107 0.4350 0.4500 0.4620 0.4720 0.4790
1284.591000 0.4830 0.4830 0.4840 0.4840 0.4850
1292.246107 0.4870 0.4870 0.4870 0.4870 0.4850
1299.895000 0.4840 0.4810 0.4720 0.4650 0.4530
1307.550107 0.4370 0.4160 0.3920 0.3660 0.3380
1315.198000 0.3100 0.2820 0.2550 0.2290 0.2070
1322.853107 0.1880 0.1720 0.1540 0.1520 0.1530
1330.501000 0.1550 0.1640 0.1770 0.1940 0.2130
1338.156107 0.2320 0.2520 0.2690 0.2810 0.3100
1345.805000 0.3300 0.3440 0.3530 0.3590 0.3640
1353.460107 0.3710 0.3810 0.3980 0.4220 0.4370
1361.108000 0.4480 0.4470 0.4370 0.4210 0.4170
1368.763107 0.4130 0.3740 0.3460 0.2730 0.2710
1376.412000 0.2720 0.2860 0.3010 0.3140 0.3360
1384.067107 0.3570 0.4000 0.4000 0.4100 0.4110
1391.715000 0.4120 0.4130 0.3220 0.2200 0.2080
1399.370107 0.1950 0.1830 0.1830 0.1940 0.2050
1407.018000 0.2170 0.2260 0.2860 0.3420 0.3880
1414.673107 0.4250 0.4530 0.4720 0.4840 0.4900
1422.322000 0.4930 0.4980 0.5010 0.5030 0.5040
1429.977107 0.5060 0.5070 0.5080 0.5100 0.5150
1437.625000 0.5150 0.5150 0.5150 0.5090 0.5010
1445.280107 0.4740 0.4510 0.4290 0.4070 0.4070
1452.929000 0.4380 0.4540 0.4840 0.4850 0.4860
1460.584107 0.4880 0.4940 0.5000 0.5010 0.5000
1468.232000 0.4820 0.4730 0.4250 0.4200 0.4130
1475.887107 0.3630 0.3520 0.3520 0.3590 0.3820
1483.536000 0.4090 0.4360 0.4440 0.4620 0.4630
1491.191107 0.4630 0.4620 0.4570 0.4510 0.4440
1498.839000 0.4370 0.4280 0.4190 0.4090 0.3980
1506.494107 0.3870 0.3750 0.3630 0.3500 0.3370
1514.142000 0.3230 0.3090 0.2950 0.2810 0.2670
1521.797107 0.2510 0.2370 0.2230 0.2080 0.1930
1529.446000 0.1810 0.1800 0.1700 0.1650 0.1640
1537.101107 0.1630 0.1630 0.1610 0.1600 0.1580
1544.749000 0.1550 0.1550 0.1550 0.1560 0.1590
1552.404107 0.1640 0.1650 0.1690 0.1730 0.1830
1560.053000 0.2000 0.2150 0.2300 0.2450 0.2600
1567.708107 0.2740 0.2880 0.3010 0.3150 0.3280
1575.356000 0.3400 0.3510 0.3630 0.3740 0.3850
1583.011107 0.3940 0.4030 0.4130 0.4210 0.4240
1590.660000 0.4250 0.4340 0.4370 0.4410 0.4430
1598.315107 0.4450 0.4500 0.4530 0.4540 0.4540
1605.963000 0.4550 0.4560 0.4560 0.4560 0.4560
1613.618107 0.4550 0.4530 0.4440 0.4310 0.4120
1621.266000 0.3920 0.3790 0.3780 0.3690 0.3620
1628.921107 0.3610 0.3600 0.3590 0.3570 0.3560
1636.570000 0.3470 0.3340 0.3150 0.2930 0.2730
1644.225107 0.2580 0.2370 0.2170 0.1950 0.1750
1651.873000 0.1540 0.1330 0.0930 0.0920 0.0920
1659.528107 0.0930 0.0960 0.0990 0.1000 0.1020
1667.177000 0.1020 0.1070 0.1080 0.1110 0.1120
1674.832107 0.1140 0.1170 0.1210 0.1250 0.1300
1682.480000 0.1340 0.1470 0.1620 0.1800 0.1950
1690.135107 0.2070 0.2110 0.2200 0.2290 0.2390
1697.784000 0.2480 0.2570 0.2650 0.2720 0.2780
1705.439107 0.2950 0.3010 0.3010 0.3190 0.3360
1713.087000 0.3540 0.3690 0.3970 0.4150 0.4260
1720.742107 0.4310 0.4400 0.4410 0.4410 0.4220
1728.391000 0.4110 0.3780 0.3440 0.3080 0.2710
1736.046107 0.2340 0.1990 0.1650 0.1340 0.0770
1743.694000 0.0620 0.0620 0.0650 0.0710 0.0800
1751.349107 0.0900 0.0990 0.1030 0.1080 0.1130
1758.997000 0.1340 0.1540 0.1720 0.1900 0.2060
1766.652107 0.2220 0.2360 0.2510 0.2630 0.2760
1774.301000 0.2870 0.2980 0.3070 0.3160 0.3250
1781.956107 0.3320 0.3390 0.3460 0.3520 0.3570
1789.604000 0.3620 0.3660 0.3710 0.3750 0.3810
1797.259107 0.3860 0.3920 0.3970 0.4030 0.4090
1804.908000 0.4160 0.4210 0.4270 0.4320 0.4370
1812.563107 0.4410 0.4460 0.4490 0.4520 0.4550
1820.211000 0.4570 0.4600 0.4630 0.4660 0.4690
1827.866107 0.4720 0.4750 0.4780 0.4810 0.4840
1835.515000 0.4870 0.4900 0.4930 0.4960 0.4990
1843.170107 0.5020 0.5050 0.5080 0.5100 0.5120
1850.818000 0.5150 0.5180 0.5190 0.5220 0.5250
1858.473107 0.5280 0.5310 0.5330 0.5360 0.5370
1866.121000 0.5400 0.5420 0.5440 0.5460 0.5480
1873.776107 0.5490 0.5510 0.5530 0.5550 0.5570
1881.425000 0.5590 0.5600 0.5620 0.5640 0.5640
1889.080107 0.5650 0.5660 0.5670 0.5680 0.5680
1896.728000 0.5680 0.5690 0.5710 0.5740 0.5760
1904.383107 0.5790 0.5800 0.5830 0.5840 0.5860
1912.032000 0.5860 0.5870 0.5870 0.5860 0.5860
1919.687107 0.5860 0.5860 0.5850 0.5840 0.5840
1927.335000 0.5850 0.5860 0.5900 0.5930 0.5960
1934.990107 0.5990 0.6020 0.6040 0.6070 0.6080
1942.639000 0.6110 0.6130 0.6140 0.6160 0.6180
1950.294107 0.6190 0.6210 0.6220 0.6240 0.6250
1957.942000 0.6270 0.6270 0.6280 0.6290 0.6300
1965.597107 0.6320 0.6330 0.6350 0.6360 0.6370
1973.245000 0.6390 0.6390 0.6420 0.6450 0.6450
1980.900107 0.6450 0.6460 0.6470 0.6490 0.6490
1988.549000 0.6510 0.6520 0.6530 0.6550 0.6560
1996.204107 0.6570 0.6580 0.6600 0.6610 0.6620
2003.852000 0.6630 0.6640 0.6640 0.6640 0.6640
2011.507107 0.6650 0.6650 0.6650 0.6650 0.6660
2019.156000 0.6660 0.6660 0.6660 0.6670 0.6670
2026.811107 0.6670 0.6670 0.6670 0.6670 0.6670
2034.459000 0.6670 0.6670 0.6670 0.6670 0.6670
2042.114107 0.6670 0.6670 0.6670 0.6680 0.6680
2049.763000 0.6680 0.6680 0.6690 0.6690 0.6690
2057.418107 0.6690 0.6700 0.6700 0.6700 0.6700
2065.066000 0.6710 0.6710 0.6720 0.6720 0.6730
2072.721107 0.6730 0.6730 0.6740 0.6750 0.6760
2080.369000 0.6770 0.6770 0.6780 0.6800 0.6810
2088.024107 0.6820 0.6820 0.6820 0.6820 0.6830
2095.673000 0.6830 0.6830 0.6830 0.6830 0.6830
2103.328107 0.6830 0.6830 0.6840 0.6840 0.6840
2110.976000 0.6840 0.6840 0.6840 0.6850 0.6860
2118.631107 0.6860 0.6870 0.6870 0.6880 0.6890
2126.280000 0.6890 0.6890 0.6900 0.6910 0.6910
2133.935107 0.6920 0.6920 0.6920 0.6920 0.6930
2141.583000 0.6930 0.6940 0.6940 0.6950 0.6950
2149.238107 0.6950 0.6950 0.6950 0.6950 0.6960
2156.886000 0.6960 0.6960 0.6960 0.6970 0.6980
2164.541107 0.6980 0.6980 0.6980 0.6990 0.7000
2172.190000 0.7000 0.7000 0.7000 0.7000 0.6990
2179.845107 0.6980 0.6980 0.6980 0.6980 0.6980
2187.493000 0.6970 0.6970 0.6970 0.6970 0.6970
2195.148107 0.6980 0.7000 0.7040 0.7090 0.7110
2202.797000 0.7110 0.7110 0.7120 0.7130 0.7130
2210.452107 0.7140 0.7140 0.7140 0.7150 0.7150
2218.100000 0.7150 0.7160 0.7170 0.7170 0.7170
2225.755107 0.7170 0.7170 0.7180 0.7180 0.7180
2233.404000 0.7180 0.7190 0.7190 0.7190 0.7190
2241.059107 0.7190 0.7190 0.7190 0.7190 0.7190
2248.707000 0.7190 0.7190 0.7190 0.7190 0.7190
2256.362107 0.7190 0.7190 0.7190 0.7190 0.7190
2264.010000 0.7200 0.7200 0.7200 0.7200 0.7210
2271.665107 0.7210 0.7220 0.7230 0.7230 0.7230
2279.314000 0.7240 0.7240 0.7240 0.7240 0.7240
2286.969107 0.7240 0.7240 0.7250 0.7250 0.7250
2294.617000 0.7250 0.7250 0.7250 0.7260 0.7260
2302.272107 0.7260 0.7260 0.7260 0.7260 0.7260
2309.921000 0.7260 0.7260 0.7260 0.7260 0.7260
2317.576107 0.7260 0.7260 0.7260 0.7260 0.7260
2325.224000 0.7260 0.7260 0.7260 0.7260 0.7260
2332.879107 0.7260 0.7260 0.7260 0.7260 0.7260
2340.528000 0.7260 0.7260 0.7260 0.7260 0.7260
2348.183107 0.7260 0.7260 0.7260 0.7260 0.7260
2355.831000 0.7250 0.7250 0.7250 0.7250 0.7250
2363.486107 0.7240 0.7240 0.7240 0.7240 0.7240
2371.135000 0.7240 0.7240 0.7240 0.7240 0.7240
2378.790107 0.7240 0.7240 0.7240 0.7240 0.7240
2386.438000 0.7240 0.7240 0.7240 0.7240 0.7240
2394.093107 0.7240 0.7240 0.7250 0.7250 0.7250
2401.741000 0.7250 0.7260 0.7260 0.7260 0.7260
2409.396107 0.7260 0.7280 0.7280 0.7280 0.7280
2417.045000 0.7290 0.7290 0.7290 0.7290 0.7290
2424.700107 0.7290 0.7290 0.7290 0.7290 0.7290
2432.348000 0.7300 0.7300 0.7310 0.7320 0.7320
2440.003107 0.7330 0.7330 0.7330 0.7330 0.7330
2447.652000 0.7330 0.7330 0.7330 0.7330 0.7330
2455.307107 0.7320 0.7320 0.7320 0.7320 0.7310
2462.955000 0.7300 0.7300 0.7300 0.7290 0.7290
2470.610107 0.7290 0.7290 0.7290 0.7290 0.7290
2478.259000 0.7300 0.7300 0.7310 0.7320 0.7320
2485.914107 0.7320 0.7330 0.7340 0.7350 0.7360
2493.562000 0.7370 0.7380 0.7380 0.7390 0.7390
2501.217107 0.7390 0.7400 0.7410 0.7410 0.7410
2508.865000 0.7420 0.7420 0.7420 0.7420 0.7420
2516.520107 0.7420 0.7420 0.7420 0.7420 0.7420
2524.169000 0.7420 0.7420 0.7420 0.7420 0.7420
2531.824107 0.7420 0.7420 0.7420 0.7420 0.7420
2539.472000 0.7420 0.7420 0.7420 0.7420 0.7420
2547.127107 0.7420 0.7420 0.7420 0.7420 0.7420
2554.776000 0.7420 0.7420 0.7420 0.7420 0.7410
2562.431107 0.7410 0.7410 0.7410 0.7410 0.7410
2570.079000 0.7410 0.7410 0.7410 0.7410 0.7410
2577.734107 0.7410 0.7410 0.7410 0.7410 0.7410
2585.383000 0.7410 0.7410 0.7410 0.7410 0.7410
2593.038107 0.7410 0.7420 0.7420 0.7420 0.7420
2600.686000 0.7420 0.7420 0.7420 0.7420 0.7420
2608.341107 0.7420 0.7420 0.7420 0.7420 0.7420
2615.990000 0.7420 0.7420 0.7430 0.7430 0.7430
2623.645107 0.7430 0.7430 0.7430 0.7440 0.7440
2631.293000 0.7440 0.7440 0.7440 0.7440 0.7450
2638.948107 0.7450 0.7450 0.7450 0.7450 0.7450
2646.596000 0.7450 0.7450 0.7450 0.7450 0.7450
2654.251107 0.7450 0.7450 0.7450 0.7450 0.7450
2661.900000 0.7450 0.7450 0.7450 0.7450 0.7450
2669.555107 0.7450 0.7450 0.7450 0.7450 0.7450
2677.203000 0.7450 0.7450 0.7440 0.7440 0.7430
2684.858107 0.7430 0.7430 0.7420 0.7420 0.7420
2692.507000 0.7420 0.7420 0.7420 0.7420 0.7420
2700.162107 0.7420 0.7420 0.7420 0.7420 0.7420
2707.810000 0.7420 0.7420 0.7420 0.7410 0.7410
2715.465107 0.7400 0.7400 0.7390 0.7390 0.7390
2723.114000 0.7380 0.7380 0.7370 0.7360 0.7350
2730.769107 0.7340 0.7330 0.7320 0.7320 0.7310
2738.417000 0.7300 0.7280 0.7260 0.7240 0.7220
2746.072107 0.7200 0.7190 0.7170 0.7170 0.7150
2753.720000 0.7140 0.7140 0.7130 0.7120 0.7110
2761.375107 0.7100 0.7080 0.7050 0.7020 0.6980
2769.024000 0.6960 0.6950 0.6930 0.6920 0.6900
2776.679107 0.6890 0.6890 0.6880 0.6870 0.6870
2784.327000 0.6870 0.6870 0.6880 0.6880 0.6890
2791.982107 0.6900 0.6910 0.6920 0.6930 0.6940
2799.631000 0.6950 0.6950 0.6970 0.6980 0.7010
2807.286107 0.7020 0.7040 0.7040 0.7050 0.7060
2814.934000 0.7060 0.7060 0.7070 0.7080 0.7080
2822.589107 0.7080 0.7080 0.7080 0.7080 0.7080
2830.238000 0.7080 0.7080 0.7070 0.7040 0.7000
2837.893107 0.6950 0.6920 0.6880 0.6850 0.6820
2845.541000 0.6800 0.6770 0.6750 0.6730 0.6710
2853.196107 0.6700 0.6670 0.6650 0.6630 0.6600
2860.844000 0.6560 0.6530 0.6490 0.6440 0.6380
2868.499107 0.6320 0.6250 0.6170 0.6080 0.5990
2876.148000 0.5980 0.5990 0.6050 0.6090 0.6140
2883.803107 0.6180 0.6240 0.6330 0.6330 0.6330
2891.451000 0.6330 0.6330 0.6250 0.6170 0.6070
2899.106107 0.5990 0.5900 0.5830 0.5780 0.5750
2906.755000 0.5690 0.5590 0.5580 0.5590 0.5680
2914.410107 0.5770 0.5780 0.5790 0.5800 0.5800
2922.058000 0.5790 0.5650 0.5620 0.5550 0.5490
2929.713107 0.5440 0.5400 0.5370 0.5350 0.5340
2937.362000 0.5330 0.5330 0.5320 0.5320 0.5310
2945.017107 0.5310 0.5300 0.5290 0.5290 0.5240
2952.665000 0.5220 0.5210 0.5210 0.5260 0.5330
2960.320107 0.5490 0.5550 0.5480 0.5350 0.5230
2967.969000 0.5170 0.5070 0.4970 0.4870 0.4780
2975.624107 0.4480 0.4380 0.4290 0.4280 0.4270
2983.272000 0.4270 0.4260 0.4260 0.4250 0.4250
2990.927107 0.4250 0.4250 0.4250 0.4250 0.4260
2998.575000 0.4260 0.4270 0.4280 0.4280 0.4310
3006.230107 0.4340 0.4340 0.4420 0.4500 0.4590
3013.879000 0.4680 0.4760 0.4840 0.4910 0.5140
3021.534107 0.5220 0.5280 0.5350 0.5460 0.5460
3029.182000 0.5460 0.5460 0.5460 0.5450 0.5440
3036.837107 0.5420 0.5380 0.5340 0.5310 0.5280
3044.486000 0.5250 0.5220 0.5180 0.4970 0.4920
3052.141107 0.4900 0.4780 0.4780 0.4760 0.4750
3059.789000 0.4740 0.4730 0.4720 0.4720 0.4720
3067.444107 0.4720 0.4720 0.4720 0.4720 0.4710
3075.093000 0.4710 0.4710 0.4710 0.4710 0.4720
3082.748107 0.4720 0.4720 0.4720 0.4730 0.4750
3090.396000 0.4770 0.4870 0.4990 0.5250 0.5340
3098.051107 0.5520 0.5650 0.5700 0.5760 0.5770
3105.699000 0.5770 0.5820 0.5830 0.5840 0.5850
3113.354107 0.5860 0.5860 0.5860 0.5860 0.5860
3121.003000 0.5860 0.5860 0.5860 0.5860 0.5850
3128.658107 0.5850 0.5840 0.5830 0.5830 0.5820
3136.306000 0.5810 0.5800 0.5800 0.5790 0.5790
3143.961107 0.5780 0.5770 0.5770 0.5770 0.5760
3151.610000 0.5740 0.5740 0.5720 0.5710 0.5700
3159.265107 0.5690 0.5680 0.5680 0.5660 0.5640
3166.913000 0.5610 0.5590 0.5550 0.5520 0.5490
3174.568107 0.5450 0.5420 0.5370 0.5340 0.5290
3182.217000 0.5250 0.5210 0.5160 0.5110 0.5060
3189.872107 0.5020 0.4960 0.4910 0.4860 0.4810
3197.520000 0.4760 0.4700 0.4680 0.4680 0.4660
3205.175107 0.4650 0.4640 0.4620 0.4610 0.4610
3212.823000 0.4580 0.4530 0.4500 0.4480 0.4450
3220.478107 0.4400 0.4320 0.4280 0.4230 0.4190
3228.127000 0.4130 0.4070 0.4020 0.3970 0.3910
3235.782107 0.3870 0.3830 0.3790 0.3750 0.3640
3243.430000 0.3540 0.3440 0.3350 0.3260 0.3180
3251.085107 0.3100 0.3020 0.2940 0.2850 0.2760
3258.734000 0.2660 0.2540 0.2420 0.2280 0.2180
3266.389107 0.2150 0.2090 0.2030 0.2010 0.2000
3274.037000 0.1990 0.1980 0.1980 0.1990 0.2000
3281.692107 0.2010 0.2020 0.2040 0.2060 0.2070
3289.340000 0.2100 0.2150 0.2180 0.2210 0.2230
3296.995107 0.2260 0.2280 0.2320 0.2350 0.2380
3304.644000 0.2410 0.2450 0.2500 0.2540 0.2590
3312.299107 0.2630 0.2680 0.2730 0.2770 0.2820
3319.947000 0.2850 0.2880 0.2910 0.2920 0.2940
3327.602107 0.2980 0.3040 0.3090 0.3130 0.3170
3335.251000 0.3220 0.3260 0.3290 0.3320 0.3350
3342.906107 0.3380 0.3410 0.3440 0.3470 0.3500
3350.554000 0.3530 0.3550 0.3590 0.3620 0.3650
3358.209107 0.3690 0.3720 0.3760 0.3810 0.3850
3365.858000 0.3870 0.3910 0.3920 0.3930 0.3940
3373.513107 0.3950 0.3960 0.3960 0.4030 0.4110
3381.161000 0.4140 0.4150 0.4160 0.4180 0.4190
3388.816107 0.4210 0.4260 0.4350 0.4430 0.4470
3396.464000 0.4490 0.4500 0.4500 0.4520 0.4550
3404.119107 0.4580 0.4620 0.4640 0.4670 0.4690
3411.768000 0.4720 0.4740 0.4750 0.4760 0.4770
3419.423107 0.4780 0.4790 0.4820 0.4870 0.4900
3427.071000 0.4930 0.4960 0.5000 0.5030 0.5050
3434.726107 0.5080 0.5090 0.5120 0.5140 0.5150
3442.375000 0.5160 0.5180 0.5180 0.5200 0.5210
3450.030107 0.5210 0.5210 0.5210 0.5210 0.5210
3457.678000 0.5210 0.5220 0.5220 0.5220 0.5220
3465.333107 0.5220 0.5230 0.5240 0.5250 0.5270
3472.982000 0.5280 0.5300 0.5300 0.5330 0.5350
3480.637107 0.5370 0.5390 0.5410 0.5430 0.5430
3488.285000 0.5460 0.5470 0.5480 0.5490 0.5490
3495.940107 0.5490 0.5520 0.5560 0.5590 0.5620
3503.588000 0.5650 0.5670 0.5680 0.5700 0.5710
3511.243107 0.5730 0.5740 0.5740 0.5750 0.5760
3518.892000 0.5770 0.5770 0.5780 0.5780 0.5790
3526.547107 0.5800 0.5800 0.5800 0.5800 0.5800
3534.195000 0.5810 0.5810 0.5810 0.5830 0.5860
3541.850107 0.5870 0.5880 0.5890 0.5890 0.5890
3549.499000 0.5900 0.5900 0.5900 0.5900 0.5900
3557.154107 0.5900 0.5900 0.5900 0.5900 0.5900
3564.802000 0.5900 0.5920 0.5930 0.5960 0.5970
3572.457107 0.5990 0.5990 0.6010 0.6020 0.6030
3580.106000 0.6040 0.6050 0.6050 0.6050 0.6060
3587.761107 0.6070 0.6070 0.6080 0.6080 0.6100
3595.409000 0.6110 0.6120 0.6140 0.6150 0.6150
3603.064107 0.6160 0.6180 0.6180 0.6190 0.6210
3610.712000 0.6210 0.6220 0.6230 0.6240 0.6240
3618.367107 0.6240 0.6240 0.6250 0.6260 0.6260
3626.016000 0.6270 0.6270 0.6270 0.6270 0.6280
3633.671107 0.6280 0.6290 0.6290 0.6300 0.6300
3641.319000 0.6300 0.6310 0.6320 0.6330 0.6330
3648.974107 0.6330 0.6340 0.6350 0.6360 0.6360
3656.623000 0.6360 0.6370 0.6380 0.6380 0.6390
3664.278107 0.6390 0.6400 0.6400 0.6410 0.6410
3671.926000 0.6420 0.6420 0.6420 0.6420 0.6420
3679.581107 0.6420 0.6420 0.6420 0.6430 0.6430
3687.230000 0.6430 0.6430 0.6440 0.6440 0.6440
3694.885107 0.6440 0.6440 0.6440 0.6440 0.6440
3702.533000 0.6440 0.6450 0.6450 0.6450 0.6450
3710.188107 0.6450 0.6450 0.6450 0.6450 0.6450
3717.836000 0.6450 0.6450 0.6450 0.6450 0.6450
3725.491107 0.6450 0.6450 0.6450 0.6450 0.6450
3733.140000 0.6450 0.6450 0.6450 0.6450 0.6450
3740.795107 0.6450 0.6450 0.6450 0.6450 0.6450
3748.443000 0.6460 0.6460 0.6460 0.6460 0.6460
3756.098107 0.6460 0.6460 0.6460 0.6460 0.6460
3763.747000 0.6460 0.6460 0.6470 0.6470 0.6470
3771.402107 0.6470 0.6470 0.6470 0.6470 0.6470
3779.050000 0.6470 0.6470 0.6470 0.6470 0.6470
3786.705107 0.6470 0.6470 0.6470 0.6470 0.6470
3794.354000 0.6470 0.6470 0.6470 0.6470 0.6470
3802.009107 0.6470 0.6470 0.6470 0.6470 0.6470
3809.657000 0.6470 0.6460 0.6460 0.6460 0.6460
3817.312107 0.6460 0.6460 0.6460 0.6460 0.6460
3824.960000 0.6460 0.6460 0.6460 0.6460 0.6460
3832.615107 0.6460 0.6460 0.6460 0.6460 0.6460
3840.264000 0.6450 0.6450 0.6450 0.6450 0.6450
3847.919107 0.6450 0.6450 0.6450 0.6450 0.6450
3855.567000 0.6450 0.6450 0.6450 0.6450 0.6450
3863.222107 0.6450 0.6450 0.6450 0.6450 0.6450
3870.871000 0.6450 0.6450 0.6450 0.6450 0.6450
3878.526107 0.6450 0.6450 0.6450 0.6450 0.6450
3886.174000 0.6450 0.6450 0.6450 0.6450 0.6450
3893.829107 0.6450 0.6450 0.6450 0.6450 0.6450
3901.478000 0.6450 0.6450 0.6450 0.6450 0.6450
3909.133107 0.6450 0.6460 0.6460 0.6460 0.6460
3916.781000 0.6470 0.6470 0.6470 0.6470 0.6470
3924.436107 0.6480 0.6480 0.6480 0.6480 0.6490
3932.084000 0.6490 0.6490 0.6490 0.6490 0.6490
3939.739107 0.6490 0.6490 0.6490 0.6490 0.6490
3947.388000 0.6490 0.6490 0.6490 0.6490 0.6490
3955.043107 0.6490 0.6490 0.6490 0.6490 0.6490
3962.691000 0.6490 0.6490 0.6490 0.6490 0.6490
3970.346107 0.6490 0.6490 0.6490 0.6490 0.6490
3977.995000 0.6490 0.6490 0.6490 0.6490 0.6490
3985.650107 0.6490 0.6490 0.6490 0.6490 0.6490
3993.298000 0.6490 0.6490 0.6490 0.6490 0.6490
4000.953107 0.6490 0.6490 0.6480
##END=
