##TITLE=ETHANONE, 1-PHENYL-
##JCAMP-DX=4.24
##DATA TYPE=INFRARED SPECTRUM
##CLASS=COBLENTZ III
##ORIGIN=STANDARD OIL OF OHIO
##OWNER=COBLENTZ SOCIETY
Collection (C) 2018 copyright by the U.S. Secretary of Commerce
on behalf of the United States of America. All rights reserved.
##DATE=1976/12/20
##NAMES=1-phenylethanone
ACETOPHENONE
##CAS REGISTRY NO=98-86-2
##MOLFORM=C8 H8 O
##SOURCE REFERENCE=COBLENTZ NO. 10191
##$NIST SOURCE=COBLENTZ
##$NIST IMAGE=cob10191
##SPECTROMETER/DATA SYSTEM=PERKIN-ELMER 180 (GRATING)
##INSTRUMENT PARAMETERS=GRATING CHANGES AT 2000, 1000, 500, 250 CM^-^1
##STATE=LIQUID (NEAT)
##PATH LENGTH=0.006 CM FOR 4000-1800 CM^-^1 AND 0.001 CM FOR 1800-250 CM^-^1; KBr PLATES
##SAMPLING PROCEDURE=TRANSMISSION
##RESOLUTION=4
##DATA PROCESSING=DIGITIZED BY NIST FROM HARD COPY (FROM TWO SEGMENTS)
##XUNITS=1/CM
##YUNITS=TRANSMITTANCE
##XFACTOR=1.000000
##YFACTOR=1
##DELTAX=1.016519
##FIRSTX=300.381
##LASTX=3997.46
##FIRSTY=0.063
##MAXX=3997.46
##MINX=300.381
##MAXY=0.893
##MINY=0
##NPOINTS=3638
##XYDATA=(X++(Y..Y))
300.381000 0.0630 0.0750 0.0790 0.0810 0.0860
305.463596 0.0910 0.0950 0.1000 0.1050 0.1090
310.546193 0.1120 0.1160 0.1210 0.1230 0.1280
315.628789 0.1330 0.1360 0.1400 0.1430 0.1490
320.711386 0.1510 0.1590 0.1640 0.1690 0.1770
325.793982 0.1830 0.1890 0.1990 0.2020 0.2090
330.876579 0.2140 0.2230 0.2360 0.2410 0.2490
335.959175 0.2520 0.2620 0.2710 0.2790 0.2840
341.041772 0.2900 0.3010 0.3090 0.3150 0.3210
346.124368 0.3290 0.3400 0.3450 0.3510 0.3590
351.206965 0.3650 0.3730 0.3810 0.3900 0.3980
356.289561 0.4000 0.4060 0.4130 0.4200 0.4230
361.372157 0.4280 0.4370 0.4460 0.4490 0.4510
366.454754 0.4600 0.4630 0.4670 0.4710 0.4919
371.537350 0.5030 0.5140 0.5210 0.5250 0.5300
376.619947 0.5370 0.5450 0.5510 0.5570 0.5630
381.702543 0.5710 0.5780 0.5810 0.5860 0.5920
386.785140 0.5950 0.6010 0.6020 0.6070 0.6120
391.867736 0.6190 0.6250 0.6270 0.6300 0.6320
396.950333 0.6390 0.6420 0.6450 0.6490 0.6530
402.032929 0.6570 0.6600 0.6630 0.6690 0.6700
407.115525 0.6760 0.6800 0.6840 0.6890 0.6920
412.198122 0.6990 0.7040 0.7070 0.7100 0.7120
417.280718 0.7190 0.7220 0.7280 0.7320 0.7370
422.363315 0.7390 0.7440 0.7480 0.7490 0.7500
427.445911 0.7530 0.7560 0.7590 0.7620 0.7650
432.528508 0.7700 0.7710 0.7710 0.7730 0.7780
437.611104 0.7810 0.7830 0.7850 0.7870 0.7870
442.693701 0.7880 0.7910 0.7920 0.7940 0.7950
447.776297 0.7960 0.7970 0.7980 0.7990 0.8000
452.858894 0.8010 0.8010 0.8020 0.8020 0.8020
457.941490 0.8010 0.8010 0.8010 0.8000 0.8000
463.024086 0.8010 0.8010 0.8030 0.8030 0.8070
468.106683 0.8100 0.8110 0.8120 0.8140 0.8170
473.189279 0.8200 0.8210 0.8240 0.8300 0.8310
478.271876 0.8330 0.8340 0.8350 0.8400 0.8420
483.354472 0.8480 0.8490 0.8490 0.8500 0.8500
488.437069 0.8500 0.8500 0.8500 0.8510 0.8520
493.519665 0.8530 0.8540 0.8570 0.8590 0.8590
498.602262 0.8590 0.8610 0.8769 0.8780 0.8780
503.684858 0.8800 0.8800 0.8810 0.8830 0.8830
508.767455 0.8850 0.8860 0.8870 0.8870 0.8850
513.850051 0.8850 0.8870 0.8870 0.8870 0.8870
518.932647 0.8870 0.8900 0.8900 0.8910 0.8910
524.015244 0.8910 0.8910 0.8910 0.8910 0.8920
529.097840 0.8920 0.8920 0.8920 0.8910 0.8910
534.180437 0.8910 0.8910 0.8910 0.8920 0.8930
539.263033 0.8930 0.8920 0.8910 0.8910 0.8900
544.345630 0.8890 0.8880 0.8880 0.8890 0.8890
549.428226 0.8890 0.8880 0.8860 0.8850 0.8840
554.510823 0.8830 0.8810 0.8770 0.8760 0.8740
559.593419 0.8720 0.8680 0.8660 0.8620 0.8620
564.676015 0.8610 0.8590 0.8520 0.8500 0.8440
569.758612 0.8400 0.8310 0.8250 0.8101 0.7901
574.841208 0.7740 0.7460 0.7040 0.6511 0.5782
579.923805 0.5281 0.4792 0.1613 0.0674 0.0680
585.006401 0.0830 0.1090 0.1310 0.1540 0.1809
590.088998 0.2189 0.2728 0.3258 0.3947 0.4249
595.171594 0.5300 0.5829 0.6219 0.6509 0.6709
600.254191 0.7218 0.7648 0.7809 0.7820 0.7949
605.336787 0.8050 0.8160 0.8220 0.8290 0.8320
610.419384 0.8330 0.8320 0.8310 0.8220 0.8101
615.501980 0.8060 0.8100 0.8300 0.8490 0.8610
620.584576 0.8660 0.8690 0.8710 0.8730 0.8740
625.667173 0.8750 0.8800 0.8810 0.8830 0.8840
630.749769 0.8860 0.8870 0.8870 0.8880 0.8870
635.832366 0.8860 0.8860 0.8870 0.8870 0.8880
640.914962 0.8880 0.8870 0.8860 0.8850 0.8840
645.997559 0.8830 0.8830 0.8810 0.8810 0.8810
651.080155 0.8800 0.8790 0.8760 0.8760 0.8750
656.162752 0.8720 0.8690 0.8670 0.8660 0.8650
661.245348 0.8620 0.8590 0.8490 0.8381 0.8300
666.327945 0.8200 0.8090 0.7970 0.7810 0.7670
671.410541 0.7510 0.7351 0.7201 0.7081 0.6961
676.493137 0.6810 0.6620 0.6350 0.5981 0.5331
681.575734 0.4592 0.3863 0.2147 0.0796 0.0452
686.658330 0.0450 0.0550 0.0790 0.1050 0.1429
691.740927 0.1969 0.2458 0.3058 0.3647 0.4088
696.823523 0.5000 0.5370 0.5790 0.6170 0.6599
701.906120 0.6959 0.7299 0.7479 0.7709 0.7889
706.988716 0.8000 0.8100 0.8190 0.8260 0.8310
712.071313 0.8330 0.8350 0.8390 0.8420 0.8440
717.153909 0.8450 0.8480 0.8490 0.8470 0.8420
722.236506 0.8400 0.8300 0.8210 0.8110 0.7981
727.319102 0.7760 0.7690 0.7720 0.7840 0.7930
732.401698 0.8080 0.8150 0.8160 0.8160 0.8150
737.484295 0.8140 0.8090 0.8010 0.7980 0.7930
742.566891 0.7910 0.7631 0.7401 0.7062 0.6682
747.649488 0.6280 0.5460 0.4621 0.2952 0.1243
752.732084 0.1041 0.0841 0.0551 0.0450 0.0450
757.814681 0.0640 0.0840 0.1100 0.1439 0.1829
762.897277 0.2259 0.2619 0.3118 0.3538 0.4186
767.979874 0.5090 0.5510 0.5939 0.6339 0.6649
773.062470 0.6989 0.7249 0.7449 0.7619 0.7779
778.145066 0.7900 0.8010 0.8100 0.8190 0.8270
783.227663 0.8340 0.8410 0.8430 0.8460 0.8490
788.310259 0.8500 0.8510 0.8590 0.8640 0.8650
793.392856 0.8660 0.8700 0.8720 0.8720 0.8720
798.475452 0.8720 0.8720 0.8730 0.8740 0.8750
803.558049 0.8760 0.8770 0.8780 0.8790 0.8800
808.640645 0.8800 0.8810 0.8810 0.8840 0.8840
813.723242 0.8800 0.8800 0.8810 0.8810 0.8810
818.805838 0.8810 0.8840 0.8840 0.8850 0.8850
823.888435 0.8850 0.8860 0.8860 0.8860 0.8840
828.971031 0.8810 0.8800 0.8790 0.8790 0.8770
834.053627 0.8770 0.8750 0.8710 0.8690 0.8680
839.136224 0.8660 0.8650 0.8600 0.8540 0.8530
844.218820 0.8510 0.8500 0.8500 0.8500 0.8510
849.301417 0.8540 0.8560 0.8590 0.8620 0.8650
854.384013 0.8680 0.8710 0.8740 0.8740 0.8750
859.466610 0.8750 0.8760 0.8800 0.8810 0.8830
864.549206 0.8830 0.8840 0.8840 0.8850 0.8870
869.631803 0.8900 0.8900 0.8890 0.8890 0.8860
874.714399 0.8850 0.8870 0.8890 0.8890 0.8890
879.796996 0.8890 0.8890 0.8890 0.8890 0.8890
884.879592 0.8890 0.8880 0.8880 0.8860 0.8830
889.962188 0.8790 0.8790 0.8780 0.8770 0.8750
895.044785 0.8730 0.8730 0.8720 0.8720 0.8720
900.127381 0.8720 0.8710 0.8700 0.8700 0.8690
905.209978 0.8680 0.8640 0.8610 0.8600 0.8580
910.292574 0.8570 0.8550 0.8510 0.8500 0.8470
915.375171 0.8380 0.8330 0.8240 0.8101 0.8000
920.457767 0.7850 0.7680 0.7450 0.7230 0.7060
925.540364 0.7030 0.7060 0.7090 0.7160 0.7250
930.622960 0.7340 0.7430 0.7520 0.7670 0.7710
935.705556 0.7770 0.7790 0.7800 0.7790 0.7760
940.788153 0.7700 0.7610 0.7470 0.7270 0.7060
945.870749 0.6791 0.6371 0.5972 0.5462 0.4943
950.953346 0.3860 0.3640 0.3400 0.3140 0.3140
956.035942 0.3599 0.3949 0.4348 0.5146 0.5558
961.118539 0.5960 0.6280 0.6590 0.6950 0.7120
966.201135 0.7320 0.7489 0.7600 0.7700 0.7790
971.283732 0.7860 0.7920 0.7990 0.8000 0.8010
976.366328 0.8040 0.8080 0.8140 0.8180 0.8190
981.448925 0.8210 0.8240 0.8270 0.8280 0.8280
986.531521 0.8280 0.8270 0.8240 0.8220 0.8200
991.614117 0.8190 0.8160 0.8120 0.8040 0.8010
996.696714 0.7900 0.7790 0.7680 0.7561 0.7679
1001.779310 0.7790 0.7900 0.8010 0.8100 0.8100
1006.861907 0.8090 0.8060 0.8000 0.7950 0.7870
1011.944503 0.7800 0.7710 0.7590 0.7450 0.7220
1017.027100 0.6971 0.6681 0.6321 0.6051 0.5642
1022.109696 0.5000 0.5000 0.5370 0.5400 0.6598
1027.192293 0.7199 0.7599 0.7929 0.8149 0.8299
1032.274889 0.8370 0.8480 0.8550 0.8560 0.8570
1037.357486 0.8590 0.8620 0.8650 0.8660 0.8670
1042.440082 0.8670 0.8670 0.8680 0.8680 0.8690
1047.522678 0.8690 0.8690 0.8690 0.8660 0.8660
1052.605275 0.8650 0.8640 0.8640 0.8630 0.8620
1057.687871 0.8610 0.8600 0.8590 0.8580 0.8550
1062.770468 0.8490 0.8370 0.8300 0.8270 0.8160
1067.853064 0.8030 0.7900 0.7721 0.7521 0.7311
1072.935661 0.7000 0.6660 0.6360 0.6130 0.6130
1078.018257 0.6260 0.6509 0.6789 0.7009 0.7259
1083.100854 0.7490 0.7670 0.7790 0.7980 0.8040
1088.183450 0.8060 0.8120 0.8160 0.8180 0.8180
1093.266046 0.8130 0.8120 0.8110 0.8100 0.8010
1098.348643 0.7980 0.7960 0.7920 0.7920 0.7930
1103.431239 0.7940 0.7980 0.8050 0.8100 0.8240
1108.513836 0.8330 0.8440 0.8490 0.8500 0.8520
1113.596432 0.8560 0.8650 0.8660 0.8660 0.8670
1118.679029 0.8670 0.8680 0.8690 0.8690 0.8680
1123.761625 0.8680 0.8680 0.8670 0.8670 0.8680
1128.844222 0.8680 0.8700 0.8700 0.8690 0.8690
1133.926818 0.8720 0.8720 0.8710 0.8700 0.8620
1139.009415 0.8610 0.8610 0.8600 0.8600 0.8590
1144.092011 0.8570 0.8560 0.8550 0.8540 0.8510
1149.174607 0.8490 0.8460 0.8410 0.8350 0.8270
1154.257204 0.8180 0.8090 0.7880 0.7770 0.7570
1159.339800 0.7570 0.7610 0.7720 0.7770 0.7850
1164.422397 0.7880 0.7870 0.7850 0.7820 0.7800
1169.504993 0.7690 0.7560 0.7470 0.7251 0.6971
1174.587590 0.6710 0.6390 0.6050 0.5640 0.5640
1179.670186 0.5730 0.5820 0.5960 0.6080 0.6180
1184.752783 0.6780 0.7070 0.7270 0.7490 0.7660
1189.835379 0.7790 0.7840 0.7890 0.7930 0.8000
1194.917976 0.8010 0.8020 0.8020 0.8030 0.8030
1200.000572 0.8040 0.8060 0.8070 0.8070 0.8080
1205.083168 0.8080 0.8100 0.8120 0.8130 0.8130
1210.165765 0.8130 0.8140 0.8140 0.8140 0.8140
1215.248361 0.8140 0.8140 0.8130 0.8120 0.8090
1220.330958 0.8080 0.8060 0.8040 0.8000 0.7980
1225.413554 0.7940 0.7870 0.7790 0.7720 0.7650
1230.496151 0.7510 0.7390 0.7251 0.7031 0.6841
1235.578747 0.6680 0.6460 0.6050 0.5680 0.5221
1240.661344 0.4991 0.4761 0.4381 0.3912 0.3601
1245.743940 0.3260 0.2970 0.2700 0.2480 0.2250
1250.826537 0.2030 0.1811 0.1541 0.1241 0.0902
1255.909133 0.0610 0.0270 0.0040 0.0030 0.0020
1260.991729 0.0020 0.0020 0.0020 0.0030 0.0040
1266.074326 0.0070 0.0260 0.0280 0.0869 0.1519
1271.156922 0.2039 0.2718 0.3128 0.3678 0.4138
1276.239519 0.5060 0.5380 0.5680 0.5900 0.6140
1281.322115 0.6290 0.6430 0.6560 0.6660 0.6760
1286.404712 0.6860 0.6980 0.7020 0.7030 0.7030
1291.487308 0.7020 0.6990 0.6870 0.6681 0.6511
1296.569905 0.6250 0.5970 0.5660 0.5360 0.5300
1301.652501 0.5300 0.5420 0.6018 0.6189 0.6309
1306.735097 0.6380 0.6380 0.6300 0.6240 0.6240
1311.817694 0.6340 0.6629 0.6879 0.7129 0.7349
1316.900290 0.7490 0.7610 0.7710 0.7760 0.7790
1321.982887 0.7830 0.7870 0.7890 0.7890 0.7900
1327.065483 0.7900 0.7890 0.7880 0.7810 0.7760
1332.148080 0.7700 0.7660 0.7600 0.7520 0.7450
1337.230676 0.7390 0.7330 0.7310 0.7200 0.7100
1342.313273 0.7000 0.6781 0.6491 0.6301 0.5982
1347.395869 0.5620 0.5250 0.4880 0.4101 0.3331
1352.478466 0.2532 0.1293 0.0632 0.0371 0.0330
1357.561062 0.0380 0.0540 0.0830 0.1140 0.1510
1362.643658 0.1989 0.2519 0.2919 0.3438 0.3948
1367.726255 0.4300 0.5130 0.5420 0.5779 0.6010
1372.808851 0.6249 0.6449 0.6589 0.6769 0.6899
1377.891448 0.6990 0.7070 0.7140 0.7210 0.7240
1382.974044 0.7270 0.7310 0.7350 0.7380 0.7390
1388.056641 0.7410 0.7410 0.7390 0.7390 0.7380
1393.139237 0.7380 0.7380 0.7390 0.7400 0.7410
1398.221834 0.7420 0.7430 0.7430 0.7430 0.7420
1403.304430 0.7410 0.7390 0.7340 0.7290 0.7260
1408.387027 0.7110 0.7000 0.6890 0.6730 0.6590
1413.469623 0.6380 0.6220 0.6021 0.5751 0.5581
1418.552219 0.5350 0.5220 0.5120 0.5020 0.5010
1423.634816 0.4990 0.4950 0.4930 0.4910 0.4900
1428.717412 0.4900 0.4900 0.4910 0.4910 0.4930
1433.800009 0.4950 0.5030 0.5040 0.5020 0.5010
1438.882605 0.4990 0.4890 0.4770 0.4530 0.4241
1443.965202 0.3941 0.3432 0.2782 0.2123 0.1991
1449.047798 0.1990 0.2590 0.3240 0.3849 0.5058
1454.130395 0.5629 0.6039 0.6518 0.6819 0.7099
1459.212991 0.7320 0.7490 0.7620 0.7720 0.7780
1464.295587 0.7880 0.7920 0.7990 0.8010 0.8060
1469.378184 0.8120 0.8140 0.8160 0.8200 0.8220
1474.460780 0.8270 0.8310 0.8320 0.8340 0.8340
1479.543377 0.8340 0.8340 0.8330 0.8330 0.8330
1484.625973 0.8330 0.8340 0.8340 0.8330 0.8290
1489.708570 0.8270 0.8200 0.8200 0.8260 0.8270
1494.791166 0.8340 0.8390 0.8420 0.8440 0.8450
1499.873763 0.8460 0.8470 0.8470 0.8480 0.8480
1504.956359 0.8490 0.8500 0.8500 0.8510 0.8510
1510.038956 0.8500 0.8500 0.8490 0.8460 0.8430
1515.121552 0.8410 0.8410 0.8400 0.8400 0.8390
1520.204148 0.8390 0.8390 0.8390 0.8370 0.8360
1525.286745 0.8360 0.8360 0.8350 0.8330 0.8300
1530.369341 0.8270 0.8250 0.8250 0.8210 0.8200
1535.451938 0.8180 0.8130 0.8110 0.8090 0.8030
1540.534534 0.8020 0.8020 0.8020 0.8020 0.8030
1545.617131 0.8040 0.8050 0.8070 0.8100 0.8140
1550.699727 0.8160 0.8190 0.8200 0.8200 0.8190
1555.782324 0.8180 0.8170 0.8160 0.8140 0.8120
1560.864920 0.8110 0.8080 0.8060 0.8000 0.7980
1565.947517 0.7880 0.7830 0.7780 0.7670 0.7541
1571.030113 0.7470 0.7340 0.7190 0.6980 0.6800
1576.112709 0.6590 0.6341 0.5921 0.5442 0.4952
1581.195306 0.4459 0.3970 0.3970 0.5019 0.5479
1586.277902 0.5660 0.5760 0.5810 0.5810 0.5800
1591.360499 0.5750 0.5620 0.5230 0.4561 0.3881
1596.443095 0.2533 0.2311 0.1812 0.1810 0.3203
1601.525692 0.3941 0.5240 0.5870 0.6419 0.6610
1606.608288 0.6780 0.6910 0.6990 0.7010 0.7010
1611.690885 0.7010 0.7030 0.7040 0.7040 0.7070
1616.773481 0.7100 0.7140 0.7180 0.7220 0.7320
1621.856077 0.7390 0.7480 0.7510 0.7540 0.7570
1626.938674 0.7590 0.7600 0.7590 0.7590 0.7580
1632.021270 0.7570 0.7570 0.7560 0.7540 0.7510
1637.103867 0.7500 0.7490 0.7470 0.7410 0.7340
1642.186463 0.7250 0.7120 0.6980 0.6890 0.6850
1647.269060 0.6850 0.6890 0.6940 0.6960 0.6970
1652.351656 0.6950 0.6930 0.6890 0.6850 0.6830
1657.434253 0.6760 0.6610 0.6490 0.6311 0.6111
1662.516849 0.5950 0.5620 0.5320 0.5150 0.4980
1667.599446 0.4571 0.4022 0.3542 0.2753 0.2093
1672.682042 0.1239 0.0540 0.0030 0.0000 0.0000
1677.764638 0.0000 0.0000 0.0000 0.0000 0.0000
1682.847235 0.0000 0.0000 0.0000 0.0000 0.0000
1687.929831 0.0000 0.0000 0.0110 0.0279 0.0589
1693.012428 0.1001 0.1390 0.1790 0.2480 0.2820
1698.095024 0.3399 0.3919 0.4000 0.4329 0.4649
1703.177621 0.5430 0.5890 0.6100 0.6280 0.6430
1708.260217 0.6580 0.6720 0.6830 0.6969 0.7010
1713.342814 0.7110 0.7210 0.7250 0.7300 0.7350
1718.425410 0.7430 0.7450 0.7480 0.7490 0.7500
1723.508007 0.7500 0.7510 0.7510 0.7520 0.7530
1728.590603 0.7530 0.7540 0.7540 0.7550 0.7550
1733.673199 0.7560 0.7560 0.7560 0.7560 0.7570
1738.755796 0.7570 0.7570 0.7570 0.7580 0.7580
1743.838392 0.7580 0.7580 0.7580 0.7590 0.7590
1748.920989 0.7590 0.7590 0.7590 0.7590 0.7600
1754.003585 0.7600 0.7600 0.7600 0.7600 0.7600
1759.086182 0.7600 0.7600 0.7600 0.7600 0.7600
1764.168778 0.7600 0.7590 0.7590 0.7590 0.7590
1769.251375 0.7580 0.7580 0.7580 0.7570 0.7570
1774.333971 0.7560 0.7560 0.7560 0.7550 0.7550
1779.416567 0.7540 0.7530 0.7520 0.7500 0.7490
1784.499164 0.7470 0.7460 0.7440 0.7420 0.7400
1789.581760 0.7370 0.7350 0.7330 0.7300 0.7260
1794.664357 0.7200 0.7150 0.7100 0.7040 0.6990
1799.746953 0.6910 0.6780 0.6630 0.6500 0.6380
1804.829550 0.6270 0.6210 0.6140 0.6020 0.5990
1809.912146 0.5890 0.5780 0.5690 0.5590 0.5520
1814.994743 0.5480 0.5450 0.5440 0.5440 0.5450
1820.077339 0.5470 0.5500 0.5550 0.5580 0.5630
1825.159936 0.5690 0.5760 0.5830 0.5910 0.6000
1830.242532 0.6080 0.6120 0.6190 0.6230 0.6290
1835.325128 0.6320 0.6340 0.6350 0.6380 0.6390
1840.407725 0.6410 0.6420 0.6430 0.6420 0.6420
1845.490321 0.6410 0.6390 0.6340 0.6330 0.6290
1850.572918 0.6240 0.6240 0.6250 0.6320 0.6360
1855.655514 0.6480 0.6550 0.6660 0.6790 0.6890
1860.738111 0.6980 0.7080 0.7150 0.7220 0.7310
1865.820707 0.7350 0.7370 0.7400 0.7440 0.7460
1870.903304 0.7480 0.7480 0.7480 0.7470 0.7470
1875.985900 0.7460 0.7440 0.7420 0.7400 0.7370
1881.068497 0.7310 0.7220 0.7150 0.7030 0.6980
1886.151093 0.6870 0.6770 0.6630 0.6500 0.6330
1891.233689 0.6230 0.6120 0.6000 0.5890 0.5780
1896.316286 0.5610 0.5500 0.5420 0.5360 0.5260
1901.398882 0.5190 0.5150 0.5130 0.5130 0.5140
1906.481479 0.5160 0.5180 0.5210 0.5270 0.5320
1911.564075 0.5350 0.5380 0.5470 0.5510 0.5550
1916.646672 0.5610 0.5720 0.5830 0.5920 0.6020
1921.729268 0.6150 0.6240 0.6330 0.6410 0.6500
1926.811865 0.6570 0.6660 0.6750 0.6820 0.6890
1931.894461 0.6990 0.7020 0.7110 0.7160 0.7190
1936.977058 0.7220 0.7220 0.7210 0.7200 0.7190
1942.059654 0.7150 0.7100 0.7010 0.6970 0.6900
1947.142250 0.6830 0.6750 0.6700 0.6680 0.6650
1952.224847 0.6610 0.6570 0.6510 0.6420 0.6340
1957.307443 0.6280 0.6210 0.6120 0.6010 0.5930
1962.390040 0.5870 0.5780 0.5710 0.5660 0.5630
1967.472636 0.5610 0.5600 0.5610 0.5610 0.5630
1972.555233 0.5650 0.5660 0.5670 0.5670 0.5690
1977.637829 0.5700 0.5720 0.5730 0.5750 0.5750
1982.720426 0.5740 0.5740 0.5730 0.5730 0.5720
1987.803022 0.5710 0.5700 0.5690 0.5680 0.5680
1992.885618 0.5690 0.5720 0.5730 0.5770 0.5850
1997.968215 0.5950 0.6020 0.6110 0.6135 0.6160
2003.050811 0.6345 0.6530 0.6690 0.6850 0.7016
2008.133408 0.7180 0.7315 0.7450 0.7495 0.7540
2013.216004 0.7615 0.7690 0.7700 0.7710 0.7735
2018.298601 0.7760 0.7765 0.7770 0.7780 0.7790
2023.381197 0.7785 0.7779 0.7759 0.7739 0.7714
2028.463794 0.7690 0.7680 0.7670 0.7670 0.7671
2033.546390 0.7716 0.7761 0.7812 0.7862 0.7922
2038.628987 0.7980 0.7990 0.8001 0.8011 0.8020
2043.711583 0.8020 0.8022 0.8062 0.8101 0.8116
2048.794179 0.8130 0.8135 0.8141 0.8166 0.8192
2053.876776 0.8232 0.8271 0.8281 0.8291 0.8306
2058.959372 0.8320 0.8325 0.8331 0.8341 0.8352
2064.041969 0.8377 0.8400 0.8405 0.8410 0.8410
2069.124565 0.8410 0.8415 0.8420 0.8420 0.8419
2074.207162 0.8409 0.8400 0.8395 0.8390 0.8390
2079.289758 0.8389 0.8379 0.8367 0.8342 0.8317
2084.372355 0.8292 0.8263 0.8198 0.8130 0.8035
2089.454951 0.7949 0.7944 0.7941 0.7951 0.7966
2094.537548 0.8026 0.8086 0.8146 0.8203 0.8233
2099.620144 0.8263 0.8294 0.8324 0.8359 0.8395
2104.702740 0.8430 0.8463 0.8483 0.8503 0.8523
2109.785337 0.8542 0.8557 0.8570 0.8570 0.8569
2114.867933 0.8559 0.8550 0.8550 0.8549 0.8544
2119.950530 0.8540 0.8540 0.8543 0.8563 0.8581
2125.033126 0.8586 0.8592 0.8602 0.8610 0.8610
2130.115723 0.8609 0.8604 0.8600 0.8600 0.8600
2135.198319 0.8600 0.8599 0.8594 0.8590 0.8590
2140.280916 0.8591 0.8596 0.8601 0.8606 0.8611
2145.363512 0.8616 0.8620 0.8620 0.8620 0.8620
2150.446108 0.8621 0.8626 0.8630 0.8630 0.8630
2155.528705 0.8630 0.8631 0.8636 0.8640 0.8640
2160.611301 0.8639 0.8634 0.8630 0.8630 0.8629
2165.693898 0.8624 0.8619 0.8614 0.8610 0.8610
2170.776494 0.8608 0.8598 0.8587 0.8572 0.8559
2175.859091 0.8554 0.8548 0.8538 0.8530 0.8530
2180.941687 0.8531 0.8536 0.8540 0.8540 0.8540
2186.024284 0.8540 0.8540 0.8540 0.8540 0.8540
2191.106880 0.8539 0.8534 0.8530 0.8530 0.8529
2196.189477 0.8524 0.8519 0.8514 0.8509 0.8504
2201.272073 0.8495 0.8475 0.8455 0.8435 0.8415
2206.354669 0.8395 0.8370 0.8330 0.8292 0.8262
2211.437266 0.8232 0.8202 0.8172 0.8142 0.8107
2216.519862 0.8057 0.8011 0.7976 0.7931 0.7856
2221.602459 0.7800 0.7800 0.7824 0.7909 0.7988
2226.685055 0.8053 0.8103 0.8113 0.8127 0.8152
2231.767652 0.8195 0.8285 0.8351 0.8356 0.8363
2236.850248 0.8373 0.8381 0.8386 0.8391 0.8396
2241.932845 0.8401 0.8406 0.8412 0.8417 0.8417
2247.015441 0.8407 0.8394 0.8374 0.8345 0.8295
2252.098038 0.8252 0.8227 0.8204 0.8184 0.8162
2257.180634 0.8137 0.8117 0.8107 0.8100 0.8100
2262.263230 0.8102 0.8107 0.8112 0.8117 0.8122
2267.345827 0.8127 0.8135 0.8150 0.8163 0.8173
2272.428423 0.8180 0.8180 0.8180 0.8180 0.8178
2277.511020 0.8173 0.8168 0.8163 0.8150 0.8120
2282.593616 0.8095 0.8080 0.8061 0.8036 0.8016
2287.676213 0.8006 0.7998 0.7993 0.7992 0.7997
2292.758809 0.8004 0.8014 0.8025 0.8040 0.8054
2297.841406 0.8064 0.8066 0.8056 0.8045 0.8030
2302.924002 0.8009 0.7979 0.7952 0.7932 0.7907
2308.006598 0.7872 0.7821 0.7746 0.7675 0.7610
2313.089195 0.7539 0.7459 0.7395 0.7355 0.7322
2318.171791 0.7302 0.7271 0.7221 0.7186 0.7176
2323.254388 0.7170 0.7170 0.7172 0.7177 0.7186
2328.336984 0.7201 0.7214 0.7224 0.7234 0.7244
2333.419581 0.7248 0.7243 0.7234 0.7219 0.7192
2338.502177 0.7147 0.7124 0.7134 0.7165 0.7225
2343.584774 0.7277 0.7317 0.7390 0.7505 0.7609
2348.667370 0.7699 0.7778 0.7843 0.7904 0.7959
2353.749967 0.7997 0.8012 0.8031 0.8056 0.8074
2358.832563 0.8084 0.8092 0.8097 0.8100 0.8100
2363.915159 0.8100 0.8100 0.8100 0.8100 0.8098
2368.997756 0.8093 0.8072 0.8032 0.7989 0.7944
2374.080352 0.7906 0.7876 0.7844 0.7809 0.7790
2379.162949 0.7790 0.7792 0.7797 0.7802 0.7807
2384.245545 0.7817 0.7832 0.7847 0.7862 0.7894
2389.328142 0.7944 0.7975 0.7985 0.8012 0.8057
2394.410738 0.8099 0.8139 0.8172 0.8197 0.8225
2399.493335 0.8255 0.8275 0.8285 0.8297 0.8312
2404.575931 0.8335 0.8365 0.8380 0.8380 0.8375
2409.658528 0.8365 0.8352 0.8337 0.8327 0.8322
2414.741124 0.8312 0.8297 0.8282 0.8267 0.8260
2419.823720 0.8260 0.8260 0.8260 0.8260 0.8260
2424.906317 0.8255 0.8245 0.8221 0.8186 0.8138
2429.988913 0.8078 0.8047 0.8042 0.8037 0.8032
2435.071510 0.8030 0.8030 0.8030 0.8030 0.8030
2440.154106 0.8030 0.8027 0.8022 0.8017 0.8012
2445.236703 0.8007 0.8002 0.8000 0.8000 0.8028
2450.319299 0.8078 0.8114 0.8139 0.8167 0.8197
2455.401896 0.8235 0.8280 0.8306 0.8316 0.8323
2460.484492 0.8328 0.8338 0.8353 0.8366 0.8376
2465.567088 0.8383 0.8388 0.8393 0.8398 0.8400
2470.649685 0.8400 0.8397 0.8392 0.8390 0.8390
2475.732281 0.8390 0.8390 0.8390 0.8390 0.8390
2480.814878 0.8390 0.8387 0.8382 0.8374 0.8364
2485.897474 0.8342 0.8312 0.8294 0.8284 0.8262
2490.980071 0.8232 0.8220 0.8220 0.8229 0.8244
2496.062667 0.8250 0.8250 0.8247 0.8242 0.8228
2501.145264 0.8208 0.8185 0.8160 0.8132 0.8102
2506.227860 0.8084 0.8074 0.8064 0.8054 0.8034
2511.310457 0.8009 0.7981 0.7951 0.7905 0.7850
2516.393053 0.7782 0.7707 0.7648 0.7598 0.7551
2521.475649 0.7506 0.7487 0.7482 0.7458 0.7423
2526.558246 0.7407 0.7402 0.7403 0.7408 0.7440
2531.640842 0.7485 0.7536 0.7591 0.7643 0.7693
2536.723439 0.7760 0.7835 0.7900 0.7960 0.8003
2541.806035 0.8038 0.8063 0.8083 0.8093 0.8098
2546.888632 0.8100 0.8100 0.8100 0.8100 0.8097
2551.971228 0.8092 0.8083 0.8073 0.8053 0.8028
2557.053825 0.8013 0.8003 0.7990 0.7975 0.7942
2562.136421 0.7902 0.7876 0.7856 0.7829 0.7799
2567.219018 0.7790 0.7790 0.7794 0.7799 0.7807
2572.301614 0.7817 0.7824 0.7829 0.7830 0.7830
2577.384210 0.7834 0.7839 0.7858 0.7883 0.7901
2582.466807 0.7916 0.7931 0.7946 0.7957 0.7967
2587.549403 0.7959 0.7944 0.7929 0.7914 0.7899
2592.632000 0.7884 0.7825 0.7750 0.7678 0.7608
2597.714596 0.7583 0.7573 0.7574 0.7579 0.7599
2602.797193 0.7624 0.7652 0.7682 0.7694 0.7699
2607.879789 0.7708 0.7718 0.7724 0.7729 0.7738
2612.962386 0.7748 0.7754 0.7759 0.7745 0.7725
2618.044982 0.7701 0.7676 0.7651 0.7626 0.7601
2623.127579 0.7576 0.7562 0.7552 0.7542 0.7532
2628.210175 0.7530 0.7530 0.7526 0.7521 0.7520
2633.292771 0.7520 0.7508 0.7493 0.7490 0.7490
2638.375368 0.7526 0.7571 0.7600 0.7625 0.7670
2643.457964 0.7720 0.7758 0.7793 0.7824 0.7854
2648.540561 0.7876 0.7896 0.7916 0.7936 0.7960
2653.623157 0.7985 0.7998 0.8008 0.8018 0.8028
2658.705754 0.8030 0.8030 0.8026 0.8021 0.8012
2663.788350 0.8002 0.8000 0.8000 0.7992 0.7982
2668.870947 0.7963 0.7943 0.7927 0.7912 0.7906
2673.953543 0.7901 0.7904 0.7909 0.7923 0.7938
2679.036139 0.7961 0.7986 0.7994 0.7999 0.8004
2684.118736 0.8009 0.8014 0.8019 0.8041 0.8066
2689.201332 0.8083 0.8098 0.8100 0.8100 0.8096
2694.283929 0.8091 0.8081 0.8071 0.8066 0.8061
2699.366525 0.8056 0.8051 0.8046 0.8041 0.8040
2704.449122 0.8040 0.8031 0.8021 0.8020 0.8020
2709.531718 0.8024 0.8029 0.8030 0.8030 0.8034
2714.614315 0.8039 0.8040 0.8040 0.8049 0.8059
2719.696911 0.8073 0.8088 0.8094 0.8099 0.8109
2724.779508 0.8119 0.8124 0.8129 0.8130 0.8130
2729.862104 0.8125 0.8120 0.8111 0.8101 0.8095
2734.944700 0.8090 0.8058 0.8023 0.8006 0.7991
2740.027297 0.7962 0.7932 0.7893 0.7853 0.7841
2745.109893 0.7831 0.7807 0.7782 0.7762 0.7742
2750.192490 0.7703 0.7662 0.7580 0.7495 0.7434
2755.275086 0.7373 0.7370 0.7370 0.7403 0.7438
2760.357683 0.7478 0.7518 0.7581 0.7646 0.7659
2765.440279 0.7669 0.7679 0.7689 0.7695 0.7700
2770.522876 0.7700 0.7700 0.7690 0.7680 0.7675
2775.605472 0.7670 0.7665 0.7660 0.7655 0.7650
2780.688069 0.7640 0.7630 0.7630 0.7630 0.7625
2785.770665 0.7620 0.7625 0.7630 0.7664 0.7699
2790.853261 0.7705 0.7710 0.7715 0.7720 0.7725
2795.935858 0.7730 0.7725 0.7720 0.7710 0.7700
2801.018454 0.7685 0.7670 0.7670 0.7670 0.7675
2806.101051 0.7680 0.7695 0.7710 0.7715 0.7720
2811.183647 0.7720 0.7720 0.7705 0.7690 0.7685
2816.266244 0.7680 0.7675 0.7670 0.7665 0.7660
2821.348840 0.7655 0.7650 0.7625 0.7599 0.7549
2826.431437 0.7499 0.7464 0.7429 0.7404 0.7379
2831.514033 0.7334 0.7288 0.7248 0.7208 0.7168
2836.596629 0.7129 0.7109 0.7088 0.7048 0.7009
2841.679226 0.6984 0.6957 0.6892 0.6827 0.6772
2846.761822 0.6719 0.6689 0.6656 0.6581 0.6508
2851.844419 0.6457 0.6406 0.6346 0.6286 0.6226
2856.927015 0.6167 0.6122 0.6075 0.6005 0.5940
2862.009612 0.5940 0.5942 0.5967 0.5998 0.6113
2867.092208 0.6222 0.6258 0.6292 0.6317 0.6341
2872.174805 0.6351 0.6361 0.6371 0.6382 0.6402
2877.257401 0.6421 0.6431 0.6444 0.6484 0.6523
2882.339998 0.6553 0.6580 0.6585 0.6590 0.6585
2887.422594 0.6577 0.6542 0.6507 0.6477 0.6445
2892.505190 0.6395 0.6348 0.6328 0.6308 0.6293
2897.587787 0.6276 0.6241 0.6205 0.6165 0.6125
2902.670383 0.6085 0.6045 0.6000 0.5952 0.5887
2907.752980 0.5819 0.5729 0.5640 0.5560 0.5473
2912.835576 0.5337 0.5209 0.5134 0.5058 0.4978
2917.918173 0.4885 0.4710 0.4535 0.4365 0.4220
2923.000769 0.4220 0.4223 0.4243 0.4270 0.4340
2928.083366 0.4407 0.4457 0.4509 0.4569 0.4630
2933.165962 0.4701 0.4781 0.4906 0.5025 0.5115
2938.248559 0.5194 0.5219 0.5243 0.5263 0.5280
2943.331155 0.5280 0.5277 0.5262 0.5243 0.5203
2948.413751 0.5157 0.5082 0.5015 0.4985 0.4955
2953.496348 0.4924 0.4881 0.4786 0.4689 0.4584
2958.578944 0.4475 0.4345 0.4214 0.4084 0.3964
2963.661541 0.3884 0.3802 0.3712 0.3639 0.3634
2968.744137 0.3631 0.3636 0.3643 0.3658 0.3679
2973.826734 0.3725 0.3774 0.3839 0.3901 0.3951
2978.909330 0.3991 0.3996 0.4000 0.4000 0.3999
2983.991927 0.3994 0.3969 0.3874 0.3773 0.3653
2989.074523 0.3482 0.3131 0.2821 0.2646 0.2466
2994.157119 0.2269 0.2073 0.1883 0.1693 0.1503
2999.239716 0.1313 0.1123 0.0980 0.0980 0.0986
3004.322312 0.1011 0.1057 0.1167 0.1265 0.1325
3009.404909 0.1404 0.1539 0.1686 0.1871 0.2035
3014.487505 0.2136 0.2211 0.2216 0.2216 0.2201
3019.570102 0.2176 0.2126 0.2060 0.1950 0.1833
3024.652698 0.1698 0.1600 0.1600 0.1616 0.1676
3029.735295 0.1721 0.1726 0.1730 0.1730 0.1730
3034.817891 0.1730 0.1731 0.1736 0.1759 0.1824
3039.900488 0.1894 0.1974 0.2030 0.2030 0.2026
3044.983084 0.2011 0.1960 0.1825 0.1693 0.1568
3050.065680 0.1411 0.1181 0.0973 0.0818 0.0684
3055.148277 0.0598 0.0526 0.0481 0.0450 0.0450
3060.230873 0.0455 0.0470 0.0507 0.0592 0.0711
3065.313470 0.0902 0.1043 0.1083 0.1134 0.1209
3070.396066 0.1291 0.1386 0.1483 0.1583 0.1714
3075.478663 0.1911 0.2042 0.2047 0.2008 0.1888
3080.561259 0.1803 0.1783 0.1730 0.1615 0.1540
3085.643856 0.1540 0.1624 0.1864 0.2029 0.2054
3090.726452 0.2235 0.2705 0.3043 0.3138 0.3228
3095.809049 0.3309 0.3362 0.3367 0.3372 0.3377
3100.891645 0.3391 0.3421 0.3502 0.3667 0.3822
3105.974241 0.3962 0.4112 0.4277 0.4427 0.4552
3111.056838 0.4709 0.4919 0.5078 0.5153 0.5230
3116.139434 0.5311 0.5384 0.5444 0.5500 0.5550
3121.222031 0.5586 0.5601 0.5624 0.5659 0.5694
3126.304627 0.5729 0.5766 0.5806 0.5836 0.5851
3131.387224 0.5882 0.5937 0.5974 0.5984 0.5994
3136.469820 0.6004 0.6014 0.6024 0.6047 0.6087
3141.552417 0.6116 0.6131 0.6146 0.6161 0.6176
3146.635013 0.6191 0.6202 0.6207 0.6214 0.6224
3151.717610 0.6232 0.6237 0.6238 0.6233 0.6221
3156.800206 0.6201 0.6177 0.6147 0.6130 0.6130
3161.882802 0.6135 0.6145 0.6177 0.6237 0.6308
3166.965399 0.6393 0.6465 0.6520 0.6579 0.6644
3172.047995 0.6698 0.6738 0.6769 0.6789 0.6805
3177.130592 0.6815 0.6820 0.6820 0.6827 0.6842
3182.213188 0.6857 0.6872 0.6885 0.6895 0.6905
3187.295785 0.6915 0.6920 0.6920 0.6915 0.6905
3192.378381 0.6900 0.6900 0.6890 0.6870 0.6858
3197.460978 0.6853 0.6880 0.6940 0.7005 0.7075
3202.543574 0.7133 0.7178 0.7220 0.7260 0.7295
3207.626170 0.7325 0.7350 0.7370 0.7385 0.7395
3212.708767 0.7403 0.7408 0.7420 0.7440 0.7458
3217.791363 0.7473 0.7485 0.7495 0.7503 0.7508
3222.873960 0.7515 0.7525 0.7535 0.7545 0.7553
3227.956556 0.7558 0.7560 0.7560 0.7560 0.7560
3233.039153 0.7568 0.7583 0.7598 0.7613 0.7628
3238.121749 0.7643 0.7658 0.7673 0.7680 0.7680
3243.204346 0.7686 0.7696 0.7703 0.7708 0.7710
3248.286942 0.7710 0.7707 0.7702 0.7700 0.7700
3253.369539 0.7700 0.7700 0.7697 0.7692 0.7684
3258.452135 0.7674 0.7667 0.7662 0.7637 0.7597
3263.534731 0.7577 0.7572 0.7573 0.7578 0.7583
3268.617328 0.7588 0.7596 0.7606 0.7622 0.7642
3273.699924 0.7656 0.7666 0.7673 0.7678 0.7683
3278.782521 0.7688 0.7699 0.7714 0.7723 0.7728
3283.865117 0.7736 0.7746 0.7753 0.7758 0.7766
3288.947714 0.7776 0.7783 0.7788 0.7793 0.7798
3294.030310 0.7809 0.7824 0.7836 0.7846 0.7853
3299.112907 0.7858 0.7860 0.7860 0.7851 0.7836
3304.195503 0.7827 0.7822 0.7823 0.7828 0.7836
3309.278100 0.7846 0.7850 0.7850 0.7847 0.7842
3314.360696 0.7840 0.7840 0.7831 0.7816 0.7800
3319.443292 0.7785 0.7764 0.7739 0.7727 0.7722
3324.525889 0.7704 0.7679 0.7637 0.7587 0.7547
3329.608485 0.7512 0.7454 0.7384 0.7294 0.7194
3334.691082 0.7088 0.6978 0.6838 0.6683 0.6540
3339.773678 0.6404 0.6231 0.6041 0.5797 0.5527
3344.856275 0.5359 0.5239 0.5122 0.5007 0.4875
3349.938871 0.4735 0.4588 0.4438 0.4373 0.4348
3355.021468 0.4354 0.4374 0.4431 0.4506 0.4699
3360.104064 0.4946 0.5118 0.5258 0.5416 0.5581
3365.186660 0.5785 0.6005 0.6144 0.6249 0.6375
3370.269257 0.6510 0.6628 0.6738 0.6837 0.6932
3375.351853 0.7006 0.7071 0.7132 0.7192 0.7242
3380.434450 0.7288 0.7351 0.7421 0.7458 0.7483
3385.517046 0.7530 0.7585 0.7626 0.7661 0.7681
3390.599643 0.7696 0.7707 0.7717 0.7724 0.7729
3395.682239 0.7737 0.7747 0.7754 0.7759 0.7764
3400.764836 0.7769 0.7770 0.7770 0.7770 0.7770
3405.847432 0.7766 0.7761 0.7752 0.7742 0.7740
3410.930029 0.7740 0.7740 0.7740 0.7740 0.7740
3416.012625 0.7740 0.7740 0.7736 0.7731 0.7726
3421.095221 0.7721 0.7712 0.7702 0.7684 0.7664
3426.177818 0.7656 0.7651 0.7642 0.7632 0.7630
3431.260414 0.7630 0.7622 0.7612 0.7606 0.7601
3436.343011 0.7596 0.7591 0.7586 0.7581 0.7568
3441.425607 0.7553 0.7538 0.7523 0.7516 0.7511
3446.508204 0.7506 0.7501 0.7496 0.7491 0.7482
3451.590800 0.7472 0.7442 0.7407 0.7392 0.7382
3456.673397 0.7372 0.7362 0.7356 0.7351 0.7346
3461.755993 0.7341 0.7332 0.7322 0.7295 0.7265
3466.838590 0.7235 0.7205 0.7192 0.7182 0.7163
3471.921186 0.7143 0.7136 0.7131 0.7113 0.7093
3477.003782 0.7086 0.7081 0.7059 0.7034 0.7009
3482.086379 0.6984 0.6959 0.6934 0.6913 0.6893
3487.168975 0.6886 0.6881 0.6876 0.6871 0.6861
3492.251572 0.6851 0.6820 0.6785 0.6763 0.6743
3497.334168 0.6731 0.6721 0.6686 0.6646 0.6618
3502.416765 0.6593 0.6577 0.6562 0.6547 0.6532
3507.499361 0.6512 0.6492 0.6486 0.6481 0.6440
3512.581958 0.6395 0.6386 0.6381 0.6376 0.6371
3517.664554 0.6366 0.6361 0.6356 0.6351 0.6341
3522.747150 0.6331 0.6325 0.6320 0.6315 0.6310
3527.829747 0.6310 0.6310 0.6310 0.6310 0.6310
3532.912343 0.6310 0.6310 0.6310 0.6310 0.6310
3537.994940 0.6315 0.6320 0.6320 0.6320 0.6325
3543.077536 0.6330 0.6335 0.6340 0.6349 0.6359
3548.160133 0.6365 0.6370 0.6370 0.6370 0.6375
3553.242729 0.6380 0.6385 0.6390 0.6395 0.6400
3558.325326 0.6437 0.6477 0.6489 0.6499 0.6505
3563.407922 0.6510 0.6515 0.6520 0.6534 0.6549
3568.490519 0.6550 0.6550 0.6560 0.6570 0.6570
3573.573115 0.6570 0.6575 0.6580 0.6580 0.6580
3578.655711 0.6575 0.6570 0.6565 0.6560 0.6555
3583.738308 0.6550 0.6530 0.6510 0.6505 0.6500
3588.820904 0.6480 0.6460 0.6455 0.6450 0.6445
3593.903501 0.6440 0.6430 0.6420 0.6415 0.6410
3598.986097 0.6400 0.6390 0.6385 0.6380 0.6375
3604.068694 0.6370 0.6355 0.6340 0.6335 0.6330
3609.151290 0.6325 0.6320 0.6305 0.6290 0.6285
3614.233887 0.6280 0.6285 0.6290 0.6295 0.6300
3619.316483 0.6305 0.6310 0.6315 0.6320 0.6330
3624.399080 0.6340 0.6350 0.6361 0.6391 0.6420
3629.481676 0.6430 0.6440 0.6445 0.6451 0.6466
3634.564272 0.6480 0.6480 0.6480 0.6480 0.6480
3639.646869 0.6470 0.6460 0.6460 0.6460 0.6455
3644.729465 0.6450 0.6450 0.6450 0.6445 0.6440
3649.812062 0.6435 0.6428 0.6398 0.6370 0.6370
3654.894658 0.6371 0.6381 0.6394 0.6459 0.6524
3659.977255 0.6584 0.6641 0.6651 0.6664 0.6730
3665.059851 0.6794 0.6844 0.6893 0.6923 0.6952
3670.142448 0.6972 0.6993 0.7028 0.7062 0.7087
3675.225044 0.7114 0.7164 0.7215 0.7270 0.7325
3680.307640 0.7385 0.7443 0.7473 0.7504 0.7555
3685.390237 0.7606 0.7661 0.7713 0.7743 0.7773
3690.472833 0.7798 0.7827 0.7887 0.7940 0.7940
3695.555430 0.7939 0.7929 0.7920 0.7920 0.7921
3700.638026 0.7926 0.7931 0.7936 0.7941 0.7951
3705.720623 0.7961 0.7966 0.7971 0.7976 0.7981
3710.803219 0.7991 0.8000 0.8000 0.7995 0.7955
3715.885816 0.7917 0.7897 0.7879 0.7869 0.7862
3720.968412 0.7877 0.7897 0.7947 0.7996 0.8042
3726.051009 0.8083 0.8103 0.8120 0.8120 0.8119
3731.133605 0.8114 0.8109 0.8104 0.8102 0.8112
3736.216201 0.8123 0.8143 0.8167 0.8207 0.8241
3741.298798 0.8246 0.8250 0.8250 0.8250 0.8250
3746.381394 0.8246 0.8226 0.8210 0.8210 0.8209
3751.463991 0.8204 0.8200 0.8200 0.8204 0.8224
3756.546587 0.8238 0.8228 0.8219 0.8214 0.8208
3761.629184 0.8198 0.8189 0.8184 0.8184 0.8204
3766.711780 0.8220 0.8220 0.8220 0.8220 0.8219
3771.794377 0.8214 0.8208 0.8198 0.8189 0.8184
3776.876973 0.8177 0.8162 0.8148 0.8138 0.8129
3781.959570 0.8124 0.8120 0.8120 0.8117 0.8102
3787.042166 0.8088 0.8078 0.8059 0.8014 0.7971
3792.124762 0.7930 0.7900 0.7900 0.7904 0.7919
3797.207359 0.7932 0.7942 0.7956 0.7981 0.8001
3802.289955 0.8006 0.8016 0.8041 0.8062 0.8073
3807.372552 0.8083 0.8093 0.8103 0.8113 0.8121
3812.455148 0.8126 0.8131 0.8136 0.8137 0.8127
3817.537745 0.8119 0.8114 0.8111 0.8116 0.8121
3822.620341 0.8126 0.8133 0.8143 0.8153 0.8163
3827.702938 0.8171 0.8176 0.8180 0.8180 0.8181
3832.785534 0.8186 0.8190 0.8190 0.8191 0.8196
3837.868131 0.8203 0.8213 0.8224 0.8239 0.8253
3842.950727 0.8263 0.8273 0.8283 0.8290 0.8290
3848.033323 0.8282 0.8257 0.8237 0.8227 0.8229
3853.115920 0.8259 0.8283 0.8293 0.8300 0.8300
3858.198516 0.8295 0.8280 0.8265 0.8250 0.8235
3863.281113 0.8220 0.8207 0.8197 0.8188 0.8183
3868.363709 0.8178 0.8173 0.8170 0.8170 0.8177
3873.446306 0.8197 0.8210 0.8210 0.8207 0.8197
3878.528902 0.8188 0.8183 0.8180 0.8180 0.8185
3883.611499 0.8200 0.8217 0.8237 0.8253 0.8264
3888.694095 0.8268 0.8263 0.8256 0.8246 0.8236
3893.776691 0.8226 0.8216 0.8206 0.8196 0.8186
3898.859288 0.8180 0.8180 0.8180 0.8180 0.8180
3903.941884 0.8180 0.8178 0.8173 0.8166 0.8156
3909.024481 0.8146 0.8136 0.8126 0.8116 0.8108
3914.107077 0.8103 0.8100 0.8100 0.8102 0.8107
3919.189674 0.8110 0.8110 0.8108 0.8103 0.8090
3924.272270 0.8065 0.8046 0.8036 0.8022 0.8002
3929.354867 0.7988 0.7983 0.7976 0.7966 0.7954
3934.437463 0.7939 0.7924 0.7909 0.7898 0.7893
3939.520060 0.7890 0.7890 0.7892 0.7897 0.7917
3944.602656 0.7957 0.7984 0.7994 0.8002 0.8007
3949.685252 0.8008 0.8003 0.7996 0.7986 0.7978
3954.767849 0.7973 0.7970 0.7970 0.7974 0.7984
3959.850445 0.7992 0.7997 0.8002 0.8007 0.8010
3964.933042 0.8010 0.8006 0.7996 0.7990 0.7990
3970.015638 0.7990 0.7990 0.7988 0.7983 0.7987
3975.098235 0.8002 0.8008 0.8003 0.7995 0.7985
3980.180831 0.7980 0.7980 0.7966 0.7936 0.7913
3985.263428 0.7898 0.7885 0.7875 0.7868 0.7863
3990.346024 0.7855 0.7845 0.7835 0.7825 0.7813
3995.428621 0.7798 0.7790 0.7790
##END=
