##TITLE=BENZOYL CHLORIDE
##JCAMP-DX=4.24
##DATA TYPE=INFRARED SPECTRUM
##CLASS=COBLENTZ III
##ORIGIN=DOW CHEMICAL COMPANY
##OWNER=COBLENTZ SOCIETY
Collection (C) 2018 copyright by the U.S. Secretary of Commerce
on behalf of the United States of America. All rights reserved.
##DATE=1965/02/01
##CAS REGISTRY NO=98-88-4
##MOLFORM=C7 H5 Cl O
##MP=0 C
##SOURCE REFERENCE=COBLENTZ NO. 10662
##$NIST SOURCE=COBLENTZ
##$NIST IMAGE=cob10662
##SPECTROMETER/DATA SYSTEM=DOW KBr FOREPRISM-GRATING
##INSTRUMENT PARAMETERS=BLAZED AT 3.5, 12.0, 20.0 MICRON, CHANGED AT 5.0, 7.5, 14.9 MICRON
##STATE=SOLUTION (10% IN CCl4 FOR 3800-1330, 10% IN CS2 FOR 1330-450 CM^-^1)
##PATH LENGTH=0.010, 0.011 CM
$$SPECTRAL CONTAMINATION DUE TO CCl4 AROUND 1550, AND CS2 AROUND 640 CM^-^1
$$ SEE SPECTRUM NO. 10661 FOR "SOLUTION (2%)" STATE
##SAMPLING PROCEDURE=TRANSMISSION
##RESOLUTION=4
##DATA PROCESSING=DIGITIZED BY NIST FROM HARD COPY (FROM TWO SEGMENTS)
##XUNITS=1/CM
##YUNITS=TRANSMITTANCE
##XFACTOR=1.000000
##YFACTOR=1
##DELTAX=0.949970
##FIRSTX=456.301
##LASTX=3800.2
##FIRSTY=0.841
##MAXX=3800.2
##MINX=456.301
##MAXY=0.998
##MINY=0
##NPOINTS=3521
##XYDATA=(X++(Y..Y))
456.301000 0.8410 0.8430 0.8440 0.8460 0.8470
461.050852 0.8490 0.8500 0.8520 0.8530 0.8530
465.800703 0.8550 0.8560 0.8560 0.8570 0.8590
470.550555 0.8600 0.8600 0.8620 0.8620 0.8620
475.300406 0.8630 0.8650 0.8650 0.8650 0.8660
480.050258 0.8660 0.8680 0.8680 0.8680 0.8690
484.800110 0.8690 0.8690 0.8690 0.8690 0.8680
489.549961 0.8680 0.8660 0.8650 0.8650 0.8620
494.299813 0.8590 0.8570 0.8550 0.8550 0.8490
499.049664 0.8380 0.8340 0.8320 0.8250 0.8180
503.799516 0.8000 0.7920 0.7860 0.7780 0.7780
508.549367 0.7939 0.8010 0.8259 0.8459 0.8748
513.299219 0.8860 0.8970 0.9030 0.9140 0.9150
518.049071 0.9180 0.9210 0.9260 0.9270 0.9310
522.798922 0.9330 0.9340 0.9340 0.9370 0.9370
527.548774 0.9390 0.9400 0.9420 0.9420 0.9430
532.298625 0.9430 0.9450 0.9460 0.9460 0.9480
537.048477 0.9480 0.9490 0.9510 0.9510 0.9510
541.798329 0.9510 0.9520 0.9520 0.9520 0.9540
546.548180 0.9540 0.9540 0.9550 0.9550 0.9550
551.298032 0.9550 0.9550 0.9570 0.9570 0.9570
556.047883 0.9570 0.9580 0.9580 0.9600 0.9600
560.797735 0.9610 0.9610 0.9630 0.9640 0.9640
565.547587 0.9640 0.9650 0.9670 0.9670 0.9680
570.297438 0.9680 0.9680 0.9680 0.9680 0.9680
575.047290 0.9680 0.9680 0.9680 0.9700 0.9700
579.797141 0.9700 0.9700 0.9710 0.9710 0.9710
584.546993 0.9700 0.9680 0.9680 0.9670 0.9670
589.296844 0.9670 0.9670 0.9650 0.9650 0.9650
594.046696 0.9650 0.9640 0.9640 0.9630 0.9610
598.796548 0.9610 0.9600 0.9600 0.9580 0.9580
603.546399 0.9550 0.9520 0.9490 0.9460 0.9430
608.296251 0.9370 0.9260 0.9140 0.9110 0.9060
613.046102 0.8591 0.7275 0.7230 0.6802 0.6372
617.795954 0.7780 0.8629 0.8840 0.8860 0.8870
622.545806 0.8890 0.8890 0.8890 0.8860 0.8830
627.295657 0.8800 0.8750 0.8690 0.8600 0.8530
632.045509 0.8341 0.8001 0.7940 0.7890 0.7850
636.795360 0.7760 0.7480 0.7230 0.6960 0.6471
641.545212 0.6001 0.5532 0.4394 0.3255 0.2106
646.295064 0.0940 0.0870 0.0480 0.1309 0.2757
651.044915 0.3528 0.4078 0.4598 0.4978 0.5010
655.794767 0.5130 0.5130 0.4970 0.4800 0.4361
660.544618 0.4001 0.3651 0.3252 0.2663 0.1616
665.294470 0.1220 0.0820 0.0041 0.0010 0.0000
670.044322 0.0000 0.0010 0.0020 0.0050 0.0140
674.794173 0.0380 0.0530 0.1249 0.1579 0.1590
679.544025 0.1072 0.0821 0.0561 0.0222 0.0051
684.293876 0.0020 0.0040 0.0200 0.0340 0.1278
689.043728 0.2576 0.4054 0.4090 0.4757 0.5376
693.793579 0.5600 0.5750 0.5790 0.5850 0.5910
698.543431 0.6189 0.7007 0.7020 0.7289 0.7548
703.293283 0.7820 0.8210 0.8550 0.8650 0.8770
708.043134 0.8840 0.8940 0.9050 0.9080 0.9140
712.792986 0.9170 0.9230 0.9280 0.9340 0.9340
717.542837 0.9370 0.9400 0.9430 0.9460 0.9480
722.292689 0.9490 0.9510 0.9520 0.9540 0.9550
727.042541 0.9570 0.9570 0.9580 0.9600 0.9600
731.792392 0.9600 0.9610 0.9610 0.9610 0.9610
736.542244 0.9610 0.9610 0.9630 0.9630 0.9610
741.292095 0.9610 0.9610 0.9610 0.9600 0.9600
746.041947 0.9600 0.9580 0.9550 0.9540 0.9510
750.791799 0.9490 0.9480 0.9450 0.9400 0.9370
755.541650 0.9340 0.9270 0.9240 0.9170 0.9001
760.291502 0.8940 0.8740 0.8530 0.8180 0.7841
765.041353 0.7291 0.6901 0.6521 0.6052 0.4617
769.791205 0.3160 0.1671 0.1031 0.0391 0.0390
774.541056 0.3152 0.3220 0.4355 0.4888 0.5924
779.290908 0.7810 0.8260 0.8560 0.8720 0.8780
784.040760 0.8870 0.8960 0.9000 0.9050 0.9080
788.790611 0.9090 0.9090 0.9090 0.9060 0.9020
793.540463 0.8990 0.8940 0.8870 0.8711 0.8531
798.290314 0.8440 0.8440 0.8530 0.8560 0.8630
803.040166 0.8740 0.8780 0.8870 0.8930 0.8960
807.790018 0.8960 0.8990 0.9000 0.9000 0.8990
812.539869 0.8990 0.8970 0.8960 0.8940 0.8930
817.289721 0.8870 0.8830 0.8770 0.8740 0.8680
822.039572 0.8570 0.8530 0.8430 0.8340 0.8250
826.789424 0.8150 0.8030 0.7970 0.7640 0.7480
831.539276 0.7420 0.7270 0.7131 0.6951 0.6771
836.289127 0.6620 0.6370 0.6300 0.5821 0.5531
841.038979 0.5261 0.4911 0.4711 0.4302 0.4091
845.788830 0.3960 0.3830 0.3630 0.3320 0.2511
850.538682 0.2211 0.1961 0.1701 0.1501 0.1301
855.288533 0.1100 0.0910 0.0880 0.0820 0.0650
860.038385 0.0500 0.0380 0.0201 0.0110 0.0050
864.788237 0.0020 0.0010 0.0000 0.0000 0.0000
869.538088 0.0000 0.0000 0.0010 0.0010 0.0020
874.287940 0.0050 0.0080 0.0140 0.0170 0.0320
879.037791 0.0380 0.0480 0.0679 0.1018 0.1129
883.787643 0.1520 0.1670 0.1890 0.2210 0.2380
888.537495 0.2550 0.2879 0.3249 0.3379 0.3569
893.287346 0.4170 0.4450 0.4730 0.5139 0.5320
898.037198 0.5559 0.5899 0.6179 0.6339 0.6360
902.787049 0.6490 0.6610 0.6700 0.6770 0.6840
907.536901 0.6920 0.6950 0.7099 0.7100 0.7150
912.286753 0.7210 0.7270 0.7320 0.7420 0.7500
917.036604 0.7550 0.7630 0.7779 0.7850 0.7890
921.786456 0.7970 0.8000 0.8040 0.8090 0.8090
926.536307 0.8030 0.7980 0.7860 0.7472 0.7132
931.286159 0.6770 0.7080 0.7130 0.7469 0.8348
936.036011 0.8529 0.8620 0.8749 0.8859 0.8940
940.785862 0.8990 0.9050 0.9150 0.9180 0.9210
945.535714 0.9240 0.9270 0.9300 0.9330 0.9340
950.285565 0.9360 0.9370 0.9370 0.9360 0.9360
955.035417 0.9340 0.9340 0.9340 0.9330 0.9310
959.785268 0.9300 0.9300 0.9270 0.9230 0.9200
964.535120 0.9170 0.9150 0.9140 0.9120 0.9080
969.284972 0.9060 0.9000 0.8970 0.8940 0.8930
974.034823 0.8920 0.8900 0.8890 0.8870 0.8810
978.784675 0.8780 0.8750 0.8740 0.8720 0.8710
983.534526 0.8690 0.8680 0.8660 0.8660 0.8680
988.284378 0.8680 0.8690 0.8710 0.8720 0.8720
993.034230 0.8710 0.8650 0.8630 0.8570 0.8530
997.784081 0.8439 0.7210 0.6920 0.6620 0.7509
1002.533933 0.8468 0.8650 0.8829 0.8840 0.8860
1007.283784 0.8860 0.8840 0.8840 0.8840 0.8830
1012.033636 0.8830 0.8830 0.8840 0.8840 0.8840
1016.783488 0.8860 0.8870 0.8890 0.8920 0.8900
1021.533339 0.8890 0.8780 0.8631 0.8222 0.7812
1026.283191 0.7100 0.7100 0.7790 0.8180 0.8869
1031.033042 0.8960 0.8970 0.9000 0.9020 0.9050
1035.782894 0.9060 0.9080 0.9110 0.9140 0.9150
1040.532745 0.9170 0.9180 0.9210 0.9210 0.9230
1045.282597 0.9230 0.9230 0.9230 0.9200 0.9200
1050.032449 0.9230 0.9240 0.9270 0.9300 0.9310
1054.782300 0.9310 0.9340 0.9360 0.9360 0.9360
1059.532152 0.9360 0.9340 0.9330 0.9300 0.9280
1064.282003 0.9260 0.9210 0.9170 0.9120 0.9050
1069.031855 0.9020 0.8940 0.8651 0.8520 0.8410
1073.781707 0.8160 0.8160 0.8340 0.8520 0.8740
1078.531558 0.8840 0.9000 0.9080 0.9150 0.9170
1083.281410 0.9180 0.9200 0.9210 0.9210 0.9200
1088.031261 0.9180 0.9170 0.9150 0.9140 0.9080
1092.781113 0.9020 0.8970 0.8840 0.8690 0.8600
1097.530965 0.8530 0.8530 0.8630 0.8829 0.8940
1102.280816 0.9050 0.9150 0.9170 0.9230 0.9260
1107.030668 0.9270 0.9280 0.9300 0.9310 0.9340
1111.780519 0.9360 0.9370 0.9390 0.9400 0.9420
1116.530371 0.9430 0.9450 0.9450 0.9460 0.9460
1121.280222 0.9460 0.9480 0.9480 0.9480 0.9460
1126.030074 0.9430 0.9400 0.9370 0.9370 0.9360
1130.779926 0.9340 0.9340 0.9330 0.9300 0.9280
1135.529777 0.9260 0.9240 0.9200 0.9170 0.9140
1140.279629 0.9140 0.9030 0.9000 0.8970 0.8960
1145.029480 0.8930 0.8920 0.8830 0.8770 0.8720
1149.779332 0.8680 0.8530 0.8280 0.8190 0.8010
1154.529184 0.7810 0.7630 0.7351 0.7101 0.6831
1159.279035 0.6530 0.6180 0.5360 0.5140 0.5010
1164.028887 0.4631 0.4081 0.3681 0.3282 0.2862
1168.778738 0.2269 0.1560 0.0840 0.0510 0.0161
1173.528590 0.0130 0.0140 0.0200 0.0359 0.0450
1178.278442 0.1360 0.1501 0.2420 0.3010 0.4169
1183.028293 0.4280 0.4450 0.4460 0.4450 0.4271
1187.778145 0.4090 0.4050 0.3990 0.3780 0.3311
1192.527996 0.2851 0.2611 0.2291 0.1742 0.1372
1197.277848 0.1060 0.0930 0.0780 0.0500 0.0190
1202.027699 0.0080 0.0070 0.0070 0.0070 0.0080
1206.777551 0.0110 0.0190 0.0250 0.0990 0.1400
1211.527403 0.2009 0.2609 0.3308 0.3320 0.5252
1216.277254 0.5280 0.5560 0.5840 0.6300 0.7009
1221.027106 0.7290 0.7719 0.7790 0.7969 0.8070
1225.776957 0.8180 0.8250 0.8340 0.8380 0.8410
1230.526809 0.8440 0.8440 0.8440 0.8430 0.8410
1235.276661 0.8340 0.8320 0.8160 0.8060 0.7970
1240.026512 0.7810 0.7411 0.7390 0.7410 0.7450
1244.776364 0.7601 0.8340 0.8430 0.8530 0.8720
1249.526215 0.8770 0.8840 0.8940 0.8990 0.9000
1254.276067 0.9030 0.9060 0.9090 0.9120 0.9140
1259.025919 0.9150 0.9170 0.9210 0.9210 0.9240
1263.775770 0.9260 0.9270 0.9280 0.9300 0.9330
1268.525622 0.9340 0.9340 0.9360 0.9360 0.9370
1273.275473 0.9370 0.9400 0.9400 0.9400 0.9420
1278.025325 0.9420 0.9430 0.9430 0.9430 0.9430
1282.775177 0.9430 0.9430 0.9420 0.9400 0.9370
1287.525028 0.9360 0.9330 0.9310 0.9260 0.9170
1292.274880 0.9140 0.9020 0.8940 0.8770 0.8630
1297.024731 0.8530 0.8520 0.8530 0.8560 0.8560
1301.774583 0.8530 0.8430 0.8320 0.8160 0.7790
1306.524434 0.7790 0.7940 0.7980 0.8040 0.8189
1311.274286 0.8188 0.7010 0.6980 0.6950 0.6471
1316.024138 0.5901 0.5900 0.7416 0.7749 0.8009
1320.773989 0.8740 0.8940 0.9080 0.9140 0.9150
1325.523841 0.9200 0.9210 0.9230 0.9230 0.9240
1330.273692 0.9240 0.9230 0.9230 0.9210 0.9210
1335.023544 0.9170 0.9150 0.9140 0.9030 0.8990
1339.773396 0.8960 0.8930 0.8770 0.8550 0.8310
1344.523247 0.8290 0.8310 0.8380 0.8629 0.8779
1349.273099 0.8920 0.9120 0.9180 0.9240 0.9280
1354.022950 0.9280 0.9300 0.9310 0.9310 0.9340
1358.772802 0.9340 0.9360 0.9360 0.9370 0.9370
1363.522654 0.9370 0.9370 0.9390 0.9390 0.9390
1368.272505 0.9390 0.9390 0.9390 0.9370 0.9370
1373.022357 0.9360 0.9360 0.9360 0.9360 0.9360
1377.772208 0.9340 0.9340 0.9340 0.9340 0.9330
1382.522060 0.9330 0.9300 0.9260 0.9230 0.9180
1387.271911 0.9150 0.9140 0.9050 0.8970 0.8930
1392.021763 0.8920 0.8930 0.8960 0.9020 0.9080
1396.771615 0.9210 0.9280 0.9340 0.9390 0.9430
1401.521466 0.9460 0.9490 0.9510 0.9510 0.9510
1406.271318 0.9510 0.9520 0.9520 0.9540 0.9540
1411.021169 0.9540 0.9540 0.9520 0.9510 0.9490
1415.771021 0.9480 0.9480 0.9460 0.9450 0.9450
1420.520873 0.9430 0.9420 0.9420 0.9420 0.9420
1425.270724 0.9420 0.9430 0.9430 0.9450 0.9450
1430.020576 0.9450 0.9430 0.9430 0.9400 0.9370
1434.770427 0.9360 0.9340 0.9300 0.9260 0.9230
1439.520279 0.9180 0.9140 0.8871 0.8740 0.8352
1444.270131 0.7819 0.7270 0.7070 0.6860 0.6391
1449.019982 0.4404 0.2425 0.0446 0.0440 0.1356
1453.769834 0.2296 0.5530 0.5541 0.7230 0.8589
1458.519685 0.8650 0.8860 0.8940 0.9050 0.9140
1463.269537 0.9150 0.9170 0.9210 0.9240 0.9260
1468.019388 0.9270 0.9280 0.9260 0.9230 0.9210
1472.769240 0.9200 0.9180 0.9170 0.9150 0.9140
1477.519092 0.9080 0.9050 0.9020 0.8930 0.8771
1482.268943 0.8720 0.8560 0.8470 0.8370 0.7840
1487.018795 0.7840 0.7920 0.7970 0.8120 0.8289
1491.768646 0.8350 0.8370 0.8400 0.8410 0.8410
1496.518498 0.8410 0.8400 0.8340 0.8320 0.8280
1501.268350 0.8250 0.8210 0.8160 0.8130 0.8030
1506.018201 0.7980 0.7970 0.7860 0.7820 0.7720
1510.768053 0.7630 0.7600 0.7540 0.7470 0.7440
1515.517904 0.7380 0.7290 0.7260 0.7200 0.7100
1520.267756 0.7100 0.7050 0.6990 0.6930 0.6920
1525.017608 0.6810 0.6770 0.6650 0.6610 0.6590
1529.767459 0.6470 0.6420 0.6370 0.6330 0.6310
1534.517311 0.6210 0.6100 0.6050 0.5930 0.5900
1539.267162 0.5789 0.5560 0.5420 0.5360 0.5280
1544.017014 0.5250 0.5050 0.5020 0.4940 0.4910
1548.766865 0.4910 0.4920 0.4940 0.4980 0.5010
1553.516717 0.5050 0.5080 0.5130 0.5230 0.5260
1558.266569 0.5360 0.5500 0.5630 0.5760 0.5820
1563.016420 0.5850 0.5910 0.6030 0.6060 0.6160
1567.766272 0.6180 0.6240 0.6280 0.6300 0.6310
1572.516123 0.6300 0.6280 0.6240 0.6160 0.6160
1577.265975 0.6070 0.6030 0.5909 0.5050 0.4370
1582.015827 0.3890 0.3381 0.3151 0.2861 0.2860
1586.765678 0.4151 0.4740 0.5130 0.5500 0.5500
1591.515530 0.5390 0.5260 0.4582 0.4151 0.3921
1596.265381 0.3678 0.2850 0.2809 0.1990 0.1980
1601.015233 0.6018 0.7079 0.7230 0.7300 0.7549
1605.765085 0.7970 0.8150 0.8210 0.8310 0.8310
1610.514936 0.8340 0.8350 0.8340 0.8320 0.8310
1615.264788 0.8230 0.8070 0.8070 0.8150 0.8190
1620.014639 0.8280 0.8370 0.8709 0.8750 0.8830
1624.764491 0.8940 0.9000 0.9120 0.9170 0.9230
1629.514343 0.9270 0.9330 0.9340 0.9370 0.9390
1634.264194 0.9420 0.9430 0.9450 0.9450 0.9460
1639.014046 0.9460 0.9460 0.9460 0.9480 0.9480
1643.763897 0.9480 0.9490 0.9510 0.9510 0.9520
1648.513749 0.9520 0.9520 0.9520 0.9510 0.9490
1653.263600 0.9490 0.9480 0.9460 0.9450 0.9430
1658.013452 0.9420 0.9400 0.9390 0.9370 0.9370
1662.763304 0.9360 0.9360 0.9340 0.9340 0.9340
1667.513155 0.9340 0.9330 0.9300 0.9240 0.9180
1672.263007 0.9120 0.9080 0.9030 0.9020 0.9020
1677.012858 0.9020 0.9020 0.9020 0.9000 0.8970
1681.762710 0.8970 0.8960 0.8930 0.8920 0.8860
1686.512562 0.8840 0.8810 0.8770 0.8740 0.8720
1691.262413 0.8630 0.8600 0.8550 0.8500 0.8400
1696.012265 0.8340 0.8250 0.8190 0.8130 0.8060
1700.762116 0.7890 0.7780 0.7670 0.7510 0.7420
1705.511968 0.7270 0.7020 0.6930 0.6830 0.6651
1710.261820 0.6609 0.6310 0.6210 0.6060 0.5900
1715.011671 0.5760 0.5630 0.5470 0.5261 0.5001
1719.761523 0.4729 0.4479 0.4210 0.4080 0.3940
1724.511374 0.3690 0.2751 0.2510 0.2271 0.2041
1729.261226 0.1799 0.1560 0.1330 0.0990 0.0630
1734.011077 0.0570 0.0500 0.0470 0.0450 0.0470
1738.760929 0.0500 0.0600 0.0620 0.0680 0.1030
1743.510781 0.1180 0.1300 0.1430 0.1580 0.1710
1748.260632 0.1800 0.1900 0.1950 0.2020 0.2050
1753.010484 0.2050 0.2020 0.1980 0.1950 0.1890
1757.760335 0.1800 0.1710 0.1640 0.1360 0.1280
1762.510187 0.1030 0.0990 0.0930 0.0790 0.0650
1767.260039 0.0560 0.0410 0.0190 0.0100 0.0040
1772.009890 0.0010 0.0000 0.0000 0.0000 0.0000
1776.759742 0.0000 0.0000 0.0000 0.0000 0.0010
1781.509593 0.0050 0.0110 0.0140 0.0220 0.0310
1786.259445 0.0500 0.0621 0.1301 0.1710 0.1960
1791.009297 0.2470 0.2860 0.3429 0.4298 0.4360
1795.759148 0.4581 0.4890 0.5130 0.5420 0.5630
1800.509000 0.6000 0.6210 0.6639 0.6710 0.6929
1805.258851 0.7100 0.7170 0.7240 0.7260 0.7270
1810.008703 0.7260 0.7240 0.7230 0.7240 0.7260
1814.758554 0.7290 0.7360 0.7480 0.7640 0.7890
1819.508406 0.8000 0.8150 0.8260 0.8410 0.8520
1824.258258 0.8520 0.8560 0.8590 0.8630 0.8650
1829.008109 0.8660 0.8680 0.8710 0.8720 0.8750
1833.757961 0.8800 0.8840 0.8870 0.8930 0.8940
1838.507812 0.8960 0.9000 0.9020 0.9050 0.9060
1843.257664 0.9080 0.9090 0.9090 0.9120 0.9140
1848.007516 0.9140 0.9150 0.9170 0.9180 0.9230
1852.757367 0.9240 0.9270 0.9270 0.9280 0.9300
1857.507219 0.9330 0.9330 0.9340 0.9360 0.9370
1862.257070 0.9370 0.9390 0.9390 0.9390 0.9390
1867.006922 0.9390 0.9390 0.9370 0.9370 0.9370
1871.756774 0.9360 0.9360 0.9360 0.9370 0.9370
1876.506625 0.9370 0.9390 0.9420 0.9430 0.9450
1881.256477 0.9460 0.9490 0.9510 0.9520 0.9520
1886.006328 0.9520 0.9540 0.9540 0.9540 0.9540
1890.756180 0.9540 0.9520 0.9520 0.9510 0.9510
1895.506032 0.9490 0.9460 0.9430 0.9390 0.9360
1900.255883 0.9310 0.9240 0.9120 0.9090 0.8960
1905.005735 0.8710 0.8690 0.8710 0.8740 0.8800
1909.755586 0.8930 0.9020 0.9140 0.9180 0.9210
1914.505438 0.9240 0.9260 0.9270 0.9270 0.9230
1919.255289 0.9180 0.9150 0.9080 0.9050 0.9030
1924.005141 0.9050 0.9060 0.9140 0.9180 0.9260
1928.754993 0.9340 0.9360 0.9420 0.9480 0.9480
1933.504844 0.9510 0.9520 0.9550 0.9570 0.9570
1938.254696 0.9570 0.9570 0.9570 0.9570 0.9570
1943.004547 0.9570 0.9570 0.9570 0.9570 0.9570
1947.754399 0.9550 0.9550 0.9540 0.9520 0.9490
1952.504251 0.9460 0.9450 0.9400 0.9340 0.9300
1957.254102 0.9230 0.9150 0.9060 0.8990 0.8860
1962.003954 0.8750 0.8740 0.8750 0.8800 0.8840
1966.753805 0.8940 0.9050 0.9150 0.9200 0.9260
1971.503657 0.9280 0.9280 0.9270 0.9260 0.9230
1976.253509 0.9210 0.9170 0.9140 0.9110 0.9090
1981.003360 0.9090 0.9110 0.9140 0.9180 0.9230
1985.753212 0.9310 0.9340 0.9360 0.9390 0.9400
1990.503063 0.9420 0.9390 0.9330 0.9240 0.9140
1995.252915 0.9230 0.9270 0.9330 0.9390 0.9430
2000.002766 0.9490 0.9505 0.9520 0.9565 0.9610
2004.752618 0.9625 0.9640 0.9640 0.9640 0.9640
2009.502470 0.9640 0.9640 0.9640 0.9640 0.9640
2014.252321 0.9640 0.9640 0.9640 0.9640 0.9640
2019.002173 0.9640 0.9640 0.9640 0.9640 0.9640
2023.752024 0.9640 0.9640 0.9640 0.9640 0.9640
2028.501876 0.9640 0.9640 0.9640 0.9635 0.9630
2033.251728 0.9630 0.9630 0.9615 0.9600 0.9600
2038.001579 0.9600 0.9590 0.9580 0.9575 0.9570
2042.751431 0.9560 0.9550 0.9550 0.9550 0.9550
2047.501282 0.9550 0.9550 0.9550 0.9550 0.9550
2052.251134 0.9545 0.9540 0.9540 0.9540 0.9545
2057.000986 0.9550 0.9550 0.9550 0.9560 0.9570
2061.750837 0.9570 0.9570 0.9575 0.9580 0.9580
2066.500689 0.9580 0.9580 0.9580 0.9575 0.9570
2071.250540 0.9560 0.9550 0.9515 0.9480 0.9480
2076.000392 0.9480 0.9470 0.9460 0.9460 0.9460
2080.750243 0.9460 0.9460 0.9470 0.9480 0.9480
2085.500095 0.9480 0.9495 0.9510 0.9530 0.9550
2090.249947 0.9560 0.9570 0.9585 0.9600 0.9605
2094.999798 0.9610 0.9620 0.9630 0.9640 0.9650
2099.749650 0.9665 0.9680 0.9690 0.9700 0.9705
2104.499501 0.9710 0.9720 0.9730 0.9730 0.9730
2109.249353 0.9735 0.9740 0.9750 0.9760 0.9765
2113.999205 0.9770 0.9770 0.9770 0.9770 0.9770
2118.749056 0.9780 0.9790 0.9790 0.9790 0.9790
2123.498908 0.9790 0.9790 0.9790 0.9790 0.9790
2128.248759 0.9790 0.9790 0.9790 0.9790 0.9790
2132.998611 0.9790 0.9790 0.9790 0.9790 0.9790
2137.748463 0.9790 0.9790 0.9790 0.9790 0.9790
2142.498314 0.9790 0.9790 0.9790 0.9790 0.9790
2147.248166 0.9790 0.9790 0.9780 0.9770 0.9770
2151.998017 0.9770 0.9770 0.9770 0.9770 0.9770
2156.747869 0.9770 0.9770 0.9770 0.9770 0.9770
2161.497720 0.9770 0.9770 0.9770 0.9770 0.9770
2166.247572 0.9770 0.9770 0.9770 0.9770 0.9770
2170.997424 0.9770 0.9765 0.9760 0.9760 0.9760
2175.747275 0.9760 0.9760 0.9760 0.9760 0.9760
2180.497127 0.9760 0.9760 0.9760 0.9750 0.9740
2185.246978 0.9740 0.9740 0.9740 0.9740 0.9740
2189.996830 0.9740 0.9740 0.9740 0.9740 0.9740
2194.746682 0.9740 0.9740 0.9740 0.9740 0.9750
2199.496533 0.9760 0.9765 0.9770 0.9770 0.9770
2204.246385 0.9770 0.9770 0.9780 0.9790 0.9790
2208.996236 0.9790 0.9790 0.9790 0.9790 0.9790
2213.746088 0.9790 0.9790 0.9790 0.9790 0.9790
2218.495940 0.9790 0.9790 0.9790 0.9790 0.9790
2223.245791 0.9790 0.9790 0.9790 0.9790 0.9790
2227.995643 0.9790 0.9790 0.9790 0.9780 0.9770
2232.745494 0.9765 0.9760 0.9750 0.9740 0.9740
2237.495346 0.9740 0.9740 0.9740 0.9740 0.9740
2242.245198 0.9740 0.9740 0.9740 0.9740 0.9740
2246.995049 0.9740 0.9740 0.9740 0.9740 0.9740
2251.744901 0.9735 0.9730 0.9720 0.9710 0.9705
2256.494752 0.9700 0.9690 0.9680 0.9675 0.9670
2261.244604 0.9660 0.9650 0.9650 0.9650 0.9645
2265.994455 0.9640 0.9640 0.9640 0.9635 0.9629
2270.744307 0.9604 0.9580 0.9580 0.9580 0.9575
2275.494159 0.9570 0.9570 0.9570 0.9560 0.9550
2280.244010 0.9550 0.9550 0.9560 0.9570 0.9570
2284.993862 0.9570 0.9570 0.9570 0.9575 0.9581
2289.743713 0.9591 0.9600 0.9600 0.9600 0.9600
2294.493565 0.9600 0.9600 0.9600 0.9605 0.9610
2299.243417 0.9610 0.9610 0.9610 0.9610 0.9610
2303.993268 0.9611 0.9621 0.9630 0.9630 0.9630
2308.743120 0.9630 0.9629 0.9619 0.9610 0.9610
2313.492971 0.9609 0.9594 0.9580 0.9580 0.9579
2318.242823 0.9564 0.9549 0.9534 0.9519 0.9488
2322.992675 0.9460 0.9460 0.9460 0.9455 0.9450
2327.742526 0.9450 0.9450 0.9450 0.9450 0.9450
2332.492378 0.9450 0.9455 0.9460 0.9460 0.9460
2337.242229 0.9455 0.9450 0.9450 0.9450 0.9455
2341.992081 0.9460 0.9460 0.9460 0.9460 0.9461
2346.741932 0.9471 0.9480 0.9480 0.9480 0.9480
2351.491784 0.9479 0.9469 0.9460 0.9460 0.9460
2356.241636 0.9460 0.9460 0.9455 0.9450 0.9450
2360.991487 0.9450 0.9455 0.9460 0.9460 0.9460
2365.741339 0.9460 0.9461 0.9471 0.9480 0.9480
2370.491190 0.9480 0.9480 0.9479 0.9469 0.9460
2375.241042 0.9460 0.9460 0.9455 0.9450 0.9450
2379.990894 0.9450 0.9455 0.9461 0.9476 0.9491
2384.740745 0.9506 0.9521 0.9531 0.9540 0.9545
2389.490597 0.9551 0.9561 0.9570 0.9575 0.9581
2394.240448 0.9591 0.9600 0.9600 0.9599 0.9589
2398.990300 0.9580 0.9575 0.9569 0.9559 0.9550
2403.740152 0.9545 0.9539 0.9529 0.9521 0.9531
2408.490003 0.9540 0.9545 0.9551 0.9566 0.9581
2413.239855 0.9591 0.9601 0.9621 0.9640 0.9645
2417.989706 0.9651 0.9666 0.9681 0.9691 0.9700
2422.739558 0.9705 0.9711 0.9721 0.9730 0.9735
2427.489409 0.9740 0.9740 0.9741 0.9751 0.9760
2432.239261 0.9765 0.9770 0.9770 0.9770 0.9770
2436.989113 0.9770 0.9770 0.9770 0.9770 0.9770
2441.738964 0.9770 0.9770 0.9770 0.9770 0.9770
2446.488816 0.9770 0.9770 0.9770 0.9765 0.9760
2451.238667 0.9760 0.9760 0.9760 0.9760 0.9760
2455.988519 0.9760 0.9760 0.9759 0.9749 0.9740
2460.738371 0.9740 0.9740 0.9740 0.9741 0.9751
2465.488222 0.9760 0.9760 0.9759 0.9749 0.9740
2470.238074 0.9740 0.9740 0.9740 0.9740 0.9735
2474.987925 0.9730 0.9730 0.9730 0.9730 0.9730
2479.737777 0.9735 0.9740 0.9740 0.9740 0.9740
2484.487629 0.9740 0.9740 0.9741 0.9751 0.9760
2489.237480 0.9760 0.9760 0.9760 0.9760 0.9765
2493.987332 0.9770 0.9770 0.9770 0.9770 0.9770
2498.737183 0.9770 0.9770 0.9770 0.9770 0.9770
2503.487035 0.9770 0.9770 0.9770 0.9770 0.9770
2508.236886 0.9770 0.9770 0.9770 0.9770 0.9770
2512.986738 0.9770 0.9770 0.9770 0.9770 0.9770
2517.736590 0.9770 0.9770 0.9765 0.9760 0.9760
2522.486441 0.9760 0.9760 0.9760 0.9760 0.9760
2527.236293 0.9765 0.9770 0.9770 0.9771 0.9781
2531.986144 0.9790 0.9790 0.9790 0.9790 0.9790
2536.735996 0.9790 0.9790 0.9790 0.9789 0.9779
2541.485848 0.9770 0.9770 0.9770 0.9770 0.9770
2546.235699 0.9770 0.9770 0.9770 0.9770 0.9770
2550.985551 0.9770 0.9770 0.9769 0.9764 0.9760
2555.735402 0.9760 0.9760 0.9760 0.9760 0.9760
2560.485254 0.9760 0.9760 0.9760 0.9760 0.9759
2565.235106 0.9749 0.9740 0.9740 0.9740 0.9740
2569.984957 0.9740 0.9740 0.9740 0.9740 0.9739
2574.734809 0.9734 0.9729 0.9719 0.9709 0.9704
2579.484660 0.9699 0.9689 0.9679 0.9674 0.9670
2584.234512 0.9670 0.9670 0.9675 0.9680 0.9680
2588.984364 0.9678 0.9663 0.9649 0.9639 0.9630
2593.734215 0.9630 0.9629 0.9619 0.9610 0.9610
2598.484067 0.9611 0.9621 0.9630 0.9630 0.9631
2603.233918 0.9641 0.9650 0.9650 0.9649 0.9644
2607.983770 0.9640 0.9640 0.9639 0.9634 0.9629
2612.733621 0.9619 0.9611 0.9621 0.9630 0.9630
2617.483473 0.9631 0.9641 0.9650 0.9650 0.9652
2622.233325 0.9667 0.9680 0.9680 0.9681 0.9691
2626.983176 0.9701 0.9706 0.9710 0.9710 0.9710
2631.733028 0.9710 0.9711 0.9721 0.9730 0.9730
2636.482879 0.9729 0.9719 0.9710 0.9710 0.9710
2641.232731 0.9710 0.9709 0.9704 0.9700 0.9700
2645.982583 0.9699 0.9689 0.9680 0.9680 0.9680
2650.732434 0.9680 0.9680 0.9680 0.9680 0.9680
2655.482286 0.9680 0.9680 0.9680 0.9680 0.9680
2660.232137 0.9680 0.9680 0.9680 0.9680 0.9680
2664.981989 0.9680 0.9680 0.9681 0.9691 0.9700
2669.731841 0.9700 0.9700 0.9700 0.9700 0.9700
2674.481692 0.9700 0.9700 0.9700 0.9700 0.9699
2679.231544 0.9689 0.9680 0.9680 0.9679 0.9674
2683.981395 0.9669 0.9659 0.9649 0.9644 0.9640
2688.731247 0.9640 0.9640 0.9640 0.9641 0.9646
2693.481098 0.9651 0.9661 0.9671 0.9676 0.9682
2698.230950 0.9697 0.9712 0.9727 0.9740 0.9740
2702.980802 0.9741 0.9751 0.9761 0.9766 0.9770
2707.730653 0.9770 0.9770 0.9770 0.9771 0.9781
2712.480505 0.9790 0.9790 0.9790 0.9790 0.9790
2717.230356 0.9790 0.9790 0.9790 0.9790 0.9790
2721.980208 0.9790 0.9790 0.9790 0.9790 0.9790
2726.730060 0.9790 0.9790 0.9790 0.9790 0.9790
2731.479911 0.9790 0.9790 0.9790 0.9790 0.9790
2736.229763 0.9790 0.9790 0.9790 0.9789 0.9779
2740.979614 0.9770 0.9770 0.9769 0.9764 0.9760
2745.729466 0.9760 0.9759 0.9749 0.9739 0.9734
2750.479318 0.9729 0.9719 0.9709 0.9704 0.9698
2755.229169 0.9683 0.9670 0.9670 0.9669 0.9659
2759.979021 0.9649 0.9644 0.9638 0.9623 0.9609
2764.728872 0.9604 0.9600 0.9600 0.9600 0.9600
2769.478724 0.9601 0.9606 0.9611 0.9621 0.9631
2774.228575 0.9636 0.9641 0.9646 0.9651 0.9661
2778.978427 0.9671 0.9676 0.9679 0.9674 0.9669
2783.728279 0.9659 0.9649 0.9644 0.9639 0.9634
2788.478130 0.9628 0.9613 0.9598 0.9583 0.9569
2793.227982 0.9559 0.9549 0.9544 0.9540 0.9540
2797.977833 0.9541 0.9546 0.9554 0.9579 0.9605
2802.727685 0.9640 0.9672 0.9687 0.9701 0.9706
2807.477537 0.9712 0.9727 0.9742 0.9757 0.9770
2812.227388 0.9770 0.9771 0.9781 0.9790 0.9790
2816.977240 0.9791 0.9796 0.9800 0.9800 0.9802
2821.727091 0.9812 0.9820 0.9820 0.9820 0.9820
2826.476943 0.9821 0.9826 0.9830 0.9830 0.9830
2831.226795 0.9830 0.9831 0.9841 0.9850 0.9850
2835.976646 0.9850 0.9850 0.9851 0.9856 0.9860
2840.726498 0.9860 0.9862 0.9872 0.9881 0.9886
2845.476349 0.9890 0.9890 0.9892 0.9902 0.9911
2850.226201 0.9916 0.9920 0.9920 0.9920 0.9920
2854.976053 0.9920 0.9920 0.9919 0.9914 0.9908
2859.725904 0.9898 0.9889 0.9884 0.9880 0.9880
2864.475756 0.9880 0.9880 0.9880 0.9880 0.9878
2869.225607 0.9868 0.9858 0.9843 0.9827 0.9807
2873.975459 0.9788 0.9778 0.9770 0.9770 0.9769
2878.725310 0.9764 0.9760 0.9760 0.9760 0.9760
2883.475162 0.9761 0.9766 0.9770 0.9770 0.9770
2888.225014 0.9770 0.9772 0.9782 0.9791 0.9796
2892.974865 0.9800 0.9800 0.9802 0.9812 0.9821
2897.724717 0.9826 0.9830 0.9830 0.9832 0.9842
2902.474568 0.9851 0.9856 0.9860 0.9860 0.9860
2907.224420 0.9860 0.9862 0.9872 0.9880 0.9880
2911.974272 0.9881 0.9886 0.9893 0.9908 0.9920
2916.724123 0.9920 0.9922 0.9932 0.9938 0.9928
2921.473975 0.9919 0.9914 0.9908 0.9898 0.9889
2926.223826 0.9884 0.9878 0.9868 0.9859 0.9854
2930.973678 0.9845 0.9820 0.9799 0.9794 0.9788
2935.723530 0.9778 0.9770 0.9770 0.9769 0.9764
2940.473381 0.9758 0.9748 0.9737 0.9722 0.9710
2945.223233 0.9710 0.9709 0.9704 0.9700 0.9700
2949.973084 0.9700 0.9700 0.9698 0.9688 0.9680
2954.722936 0.9680 0.9680 0.9680 0.9680 0.9680
2959.472787 0.9680 0.9680 0.9677 0.9662 0.9650
2964.222639 0.9650 0.9648 0.9638 0.9630 0.9630
2968.972491 0.9628 0.9618 0.9610 0.9610 0.9609
2973.722342 0.9604 0.9600 0.9600 0.9600 0.9600
2978.472194 0.9600 0.9600 0.9600 0.9600 0.9600
2983.222045 0.9600 0.9600 0.9600 0.9600 0.9600
2987.971897 0.9600 0.9600 0.9601 0.9606 0.9610
2992.721749 0.9610 0.9610 0.9610 0.9610 0.9610
2997.471600 0.9609 0.9604 0.9598 0.9588 0.9577
3002.221452 0.9562 0.9547 0.9532 0.9515 0.9484
3006.971303 0.9456 0.9436 0.9412 0.9372 0.9340
3011.721155 0.9340 0.9348 0.9388 0.9420 0.9420
3016.471007 0.9423 0.9438 0.9451 0.9456 0.9457
3021.220858 0.9442 0.9426 0.9406 0.9385 0.9360
3025.970710 0.9329 0.9274 0.9218 0.9158 0.9092
3030.720561 0.9002 0.8930 0.8930 0.8940 0.8990
3035.470413 0.9039 0.9084 0.9120 0.9120 0.9117
3040.220264 0.9102 0.9087 0.9072 0.9059 0.9054
3044.970116 0.9056 0.9086 0.9111 0.9116 0.9122
3049.719968 0.9132 0.9140 0.9140 0.9122 0.9032
3054.469819 0.8947 0.8882 0.8819 0.8764 0.8701
3059.219671 0.8601 0.8486 0.8306 0.8142 0.8046
3063.969522 0.7967 0.7952 0.7906 0.7741 0.7596
3068.719374 0.7526 0.7458 0.7398 0.7344 0.7314
3073.469226 0.7287 0.7272 0.7258 0.7248 0.7242
3078.219077 0.7252 0.7284 0.7409 0.7578 0.7931
3082.968929 0.8258 0.8482 0.8663 0.8678 0.8693
3087.718780 0.8708 0.8722 0.8732 0.8743 0.8758
3092.468632 0.8783 0.8848 0.8904 0.8924 0.8952
3097.218484 0.9012 0.9069 0.9114 0.9155 0.9180
3101.968335 0.9209 0.9249 0.9289 0.9328 0.9370
3106.718187 0.9414 0.9451 0.9456 0.9463 0.9478
3111.468038 0.9498 0.9538 0.9571 0.9576 0.9582
3116.217890 0.9592 0.9601 0.9606 0.9612 0.9622
3120.967741 0.9631 0.9636 0.9643 0.9658 0.9670
3125.717593 0.9670 0.9671 0.9676 0.9680 0.9680
3130.467445 0.9682 0.9692 0.9701 0.9706 0.9712
3135.217296 0.9722 0.9730 0.9730 0.9730 0.9730
3139.967148 0.9730 0.9730 0.9728 0.9718 0.9710
3144.716999 0.9710 0.9710 0.9710 0.9709 0.9704
3149.466851 0.9700 0.9700 0.9700 0.9700 0.9698
3154.216703 0.9688 0.9679 0.9674 0.9668 0.9658
3158.966554 0.9644 0.9619 0.9597 0.9582 0.9568
3163.716406 0.9558 0.9552 0.9562 0.9573 0.9588
3168.466257 0.9605 0.9630 0.9653 0.9668 0.9682
3173.216109 0.9692 0.9698 0.9688 0.9680 0.9680
3177.965961 0.9679 0.9674 0.9670 0.9670 0.9671
3182.715812 0.9676 0.9682 0.9692 0.9700 0.9700
3187.465664 0.9700 0.9700 0.9700 0.9700 0.9701
3192.215515 0.9706 0.9712 0.9722 0.9731 0.9736
3196.965367 0.9742 0.9752 0.9761 0.9766 0.9770
3201.715219 0.9770 0.9772 0.9782 0.9790 0.9790
3206.465070 0.9790 0.9790 0.9790 0.9790 0.9790
3211.214922 0.9790 0.9790 0.9790 0.9790 0.9790
3215.964773 0.9791 0.9796 0.9800 0.9800 0.9800
3220.714625 0.9800 0.9800 0.9800 0.9800 0.9800
3225.464476 0.9800 0.9800 0.9802 0.9812 0.9820
3230.214328 0.9820 0.9820 0.9820 0.9820 0.9820
3234.964180 0.9821 0.9826 0.9830 0.9830 0.9830
3239.714031 0.9830 0.9830 0.9830 0.9830 0.9830
3244.463883 0.9830 0.9830 0.9829 0.9824 0.9820
3249.213734 0.9820 0.9818 0.9808 0.9800 0.9800
3253.963586 0.9800 0.9800 0.9802 0.9812 0.9820
3258.713438 0.9820 0.9821 0.9826 0.9830 0.9830
3263.463289 0.9832 0.9842 0.9850 0.9850 0.9851
3268.213141 0.9856 0.9860 0.9860 0.9862 0.9872
3272.962992 0.9880 0.9880 0.9880 0.9880 0.9880
3277.712844 0.9880 0.9880 0.9880 0.9880 0.9880
3282.462696 0.9880 0.9880 0.9880 0.9880 0.9880
3287.212547 0.9880 0.9880 0.9880 0.9880 0.9880
3291.962399 0.9881 0.9886 0.9890 0.9890 0.9890
3296.712250 0.9890 0.9890 0.9890 0.9892 0.9902
3301.462102 0.9910 0.9910 0.9908 0.9898 0.9890
3306.211953 0.9890 0.9889 0.9884 0.9878 0.9868
3310.961805 0.9860 0.9860 0.9863 0.9873 0.9880
3315.711657 0.9880 0.9880 0.9880 0.9881 0.9886
3320.461508 0.9890 0.9890 0.9886 0.9871 0.9860
3325.211360 0.9860 0.9859 0.9854 0.9850 0.9850
3329.961211 0.9850 0.9850 0.9847 0.9837 0.9830
3334.711063 0.9830 0.9830 0.9830 0.9830 0.9830
3339.460915 0.9833 0.9842 0.9850 0.9850 0.9850
3344.210766 0.9850 0.9850 0.9850 0.9850 0.9850
3348.960618 0.9850 0.9850 0.9847 0.9837 0.9830
3353.710469 0.9830 0.9830 0.9830 0.9829 0.9824
3358.460321 0.9820 0.9820 0.9817 0.9807 0.9800
3363.210173 0.9800 0.9799 0.9794 0.9790 0.9790
3367.960024 0.9790 0.9790 0.9791 0.9796 0.9803
3372.709876 0.9813 0.9820 0.9820 0.9821 0.9826
3377.459727 0.9830 0.9830 0.9830 0.9830 0.9833
3382.209579 0.9843 0.9850 0.9850 0.9851 0.9856
3386.959430 0.9860 0.9860 0.9860 0.9860 0.9863
3391.709282 0.9873 0.9880 0.9880 0.9876 0.9861
3396.459134 0.9850 0.9850 0.9850 0.9850 0.9850
3401.208985 0.9850 0.9850 0.9850 0.9850 0.9850
3405.958837 0.9850 0.9850 0.9850 0.9850 0.9850
3410.708688 0.9850 0.9850 0.9850 0.9850 0.9850
3415.458540 0.9847 0.9837 0.9830 0.9830 0.9830
3420.208392 0.9830 0.9829 0.9824 0.9820 0.9820
3424.958243 0.9820 0.9820 0.9820 0.9820 0.9817
3429.708095 0.9807 0.9800 0.9800 0.9799 0.9794
3434.457946 0.9790 0.9790 0.9787 0.9777 0.9770
3439.207798 0.9770 0.9770 0.9770 0.9769 0.9764
3443.957650 0.9760 0.9760 0.9760 0.9760 0.9760
3448.707501 0.9760 0.9760 0.9760 0.9757 0.9747
3453.457353 0.9740 0.9740 0.9740 0.9740 0.9739
3458.207204 0.9734 0.9730 0.9730 0.9727 0.9717
3462.957056 0.9709 0.9704 0.9697 0.9687 0.9679
3467.706907 0.9674 0.9667 0.9657 0.9647 0.9637
3472.456759 0.9630 0.9630 0.9622 0.9592 0.9566
3477.206611 0.9551 0.9532 0.9502 0.9472 0.9442
3481.956462 0.9411 0.9381 0.9353 0.9328 0.9299
3486.706314 0.9259 0.9222 0.9192 0.9166 0.9151
3491.456165 0.9137 0.9127 0.9123 0.9133 0.9141
3496.206017 0.9146 0.9157 0.9182 0.9205 0.9226
3500.955869 0.9259 0.9324 0.9377 0.9402 0.9434
3505.705720 0.9484 0.9523 0.9533 0.9546 0.9566
3510.455572 0.9587 0.9612 0.9631 0.9636 0.9641
3515.205423 0.9646 0.9654 0.9669 0.9684 0.9699
3519.955275 0.9710 0.9710 0.9713 0.9723 0.9730
3524.705127 0.9730 0.9730 0.9730 0.9730 0.9730
3529.454978 0.9730 0.9730 0.9727 0.9717 0.9710
3534.204830 0.9710 0.9709 0.9704 0.9700 0.9700
3538.954681 0.9700 0.9700 0.9700 0.9700 0.9700
3543.704533 0.9700 0.9701 0.9706 0.9713 0.9723
3548.454385 0.9731 0.9736 0.9740 0.9740 0.9740
3553.204236 0.9740 0.9744 0.9759 0.9770 0.9770
3557.954088 0.9773 0.9783 0.9792 0.9797 0.9800
3562.703939 0.9800 0.9800 0.9800 0.9803 0.9813
3567.453791 0.9820 0.9820 0.9816 0.9801 0.9787
3572.203642 0.9777 0.9769 0.9764 0.9760 0.9760
3576.953494 0.9762 0.9767 0.9775 0.9790 0.9808
3581.703346 0.9833 0.9852 0.9857 0.9863 0.9873
3586.453197 0.9881 0.9886 0.9893 0.9903 0.9910
3591.203049 0.9910 0.9910 0.9910 0.9910 0.9910
3595.952900 0.9910 0.9910 0.9912 0.9917 0.9920
3600.702752 0.9920 0.9920 0.9920 0.9920 0.9920
3605.452604 0.9920 0.9920 0.9920 0.9920 0.9920
3610.202455 0.9920 0.9920 0.9920 0.9920 0.9920
3614.952307 0.9920 0.9920 0.9920 0.9920 0.9920
3619.702158 0.9920 0.9920 0.9920 0.9920 0.9920
3624.452010 0.9920 0.9920 0.9920 0.9920 0.9918
3629.201862 0.9914 0.9910 0.9910 0.9910 0.9910
3633.951713 0.9910 0.9910 0.9910 0.9910 0.9907
3638.701565 0.9897 0.9890 0.9890 0.9890 0.9890
3643.451416 0.9888 0.9883 0.9880 0.9880 0.9882
3648.201268 0.9887 0.9890 0.9890 0.9893 0.9903
3652.951119 0.9910 0.9910 0.9910 0.9910 0.9912
3657.700971 0.9917 0.9920 0.9920 0.9920 0.9920
3662.450823 0.9920 0.9920 0.9920 0.9920 0.9920
3667.200674 0.9920 0.9920 0.9920 0.9920 0.9920
3671.950526 0.9920 0.9920 0.9920 0.9920 0.9923
3676.700377 0.9933 0.9940 0.9940 0.9937 0.9927
3681.450229 0.9920 0.9920 0.9918 0.9913 0.9907
3686.200081 0.9897 0.9890 0.9890 0.9888 0.9883
3690.949932 0.9880 0.9880 0.9880 0.9880 0.9880
3695.699784 0.9880 0.9880 0.9880 0.9880 0.9880
3700.449635 0.9877 0.9867 0.9860 0.9860 0.9860
3705.199487 0.9860 0.9860 0.9860 0.9863 0.9873
3709.949339 0.9885 0.9900 0.9910 0.9910 0.9910
3714.699190 0.9910 0.9910 0.9910 0.9912 0.9917
3719.449042 0.9920 0.9920 0.9920 0.9920 0.9920
3724.198893 0.9920 0.9920 0.9920 0.9920 0.9920
3728.948745 0.9923 0.9933 0.9940 0.9940 0.9940
3733.698596 0.9940 0.9940 0.9940 0.9940 0.9940
3738.448448 0.9940 0.9940 0.9937 0.9927 0.9920
3743.198300 0.9920 0.9923 0.9933 0.9937 0.9927
3747.948151 0.9920 0.9920 0.9920 0.9920 0.9920
3752.698003 0.9920 0.9920 0.9920 0.9920 0.9920
3757.447854 0.9923 0.9933 0.9940 0.9940 0.9942
3762.197706 0.9947 0.9950 0.9950 0.9950 0.9950
3766.947558 0.9950 0.9950 0.9950 0.9950 0.9950
3771.697409 0.9950 0.9950 0.9950 0.9950 0.9950
3776.447261 0.9950 0.9950 0.9950 0.9950 0.9950
3781.197112 0.9950 0.9950 0.9950 0.9950 0.9950
3785.946964 0.9953 0.9963 0.9970 0.9970 0.9972
3790.696816 0.9977 0.9980 0.9980 0.9980 0.9980
3795.446667 0.9980 0.9980 0.9980 0.9980 0.9980
3800.196519 0.9980
##END=
