##TITLE=ACETOPHENONE
##JCAMP-DX=4.24
##DATA TYPE=INFRARED SPECTRUM
##CLASS=COBLENTZ III
##ORIGIN=WESTERN REGIONAL RES. USDA
##OWNER=COBLENTZ SOCIETY
Collection (C) 2018 copyright by the U.S. Secretary of Commerce
on behalf of the United States of America. All rights reserved.
##DATE=1964/05/25
##NAMES=1-phenylethanone
##CAS REGISTRY NO=98-86-2
##MOLFORM=C8 H8 O
##MP=19 C
##SOURCE REFERENCE=COBLENTZ NO. 6181
##$NIST SOURCE=COBLENTZ
##$NIST IMAGE=cob6181
##SPECTROMETER/DATA SYSTEM=BECKMAN IR-7 (GRATING)
##INSTRUMENT PARAMETERS=GRATING CHANGES AT 3000, 2200, 1150 CM^-^1
##STATE=SOLUTION (LESS THAN 10% IN CCl4 FOR 4000-1330 CM^-^1, LESS THAN 10% IN CS2 FOR 1330-600 CM^-^1)
##PATH LENGTH=0.011 CM, 0.010 CM
$$SPECTRAL CONTAMINATION DUE TO CCl4 AROUND 1550, AND CS2 AROUND 855 CM^-^1
##SAMPLING PROCEDURE=TRANSMISSION
##RESOLUTION=4
##DATA PROCESSING=DIGITIZED BY NIST FROM HARD COPY (FROM TWO SEGMENTS)
##XUNITS=1/CM
##YUNITS=TRANSMITTANCE
##XFACTOR=1.000000
##YFACTOR=1
##DELTAX=0.660689
##FIRSTX=598.018
##LASTX=3985.37
##FIRSTY=0.641
##MAXX=3985.37
##MINX=598.018
##MAXY=0.852
##MINY=0
##NPOINTS=5128
##XYDATA=(X++(Y..Y))
598.018000 0.6410 0.6490 0.6410 0.6490 0.6580
601.321447 0.6600 0.6640 0.6660 0.6809 0.6929
604.624894 0.7080 0.7110 0.7190 0.7260 0.7320
607.928342 0.7370 0.7420 0.7470 0.7530 0.7590
611.231789 0.7650 0.7690 0.7710 0.7730 0.7750
614.535236 0.7780 0.7790 0.7790 0.7750 0.7740
617.838683 0.7660 0.7610 0.7600 0.7610 0.7640
621.142131 0.7690 0.7750 0.7830 0.7910 0.7970
624.445578 0.8020 0.8040 0.8050 0.8060 0.8070
627.749025 0.8070 0.8070 0.8080 0.8080 0.8080
631.052472 0.8080 0.8080 0.8070 0.8070 0.8060
634.355919 0.8050 0.8040 0.8040 0.8030 0.8020
637.659367 0.8020 0.8000 0.7990 0.7970 0.7960
640.962814 0.7940 0.7920 0.7900 0.7880 0.7860
644.266261 0.7840 0.7820 0.7810 0.7790 0.7770
647.569708 0.7750 0.7730 0.7710 0.7690 0.7690
650.873156 0.7680 0.7670 0.7650 0.7580 0.7530
654.176603 0.7460 0.7400 0.7380 0.7380 0.7370
657.480050 0.7370 0.7380 0.7390 0.7420 0.7500
660.783497 0.7540 0.7550 0.7570 0.7570 0.7580
664.086944 0.7580 0.7570 0.7530 0.7500 0.7470
667.390392 0.7440 0.7400 0.7380 0.7370 0.7300
670.693839 0.7200 0.7000 0.6820 0.6640 0.6500
673.997286 0.6380 0.6280 0.6210 0.6160 0.6080
677.300733 0.6010 0.5930 0.5820 0.5670 0.5441
680.604181 0.5151 0.4213 0.3921 0.2924 0.2651
683.907628 0.1351 0.1150 0.0960 0.0770 0.0580
687.211075 0.0381 0.0191 0.0190 0.0190 0.0230
690.514522 0.0331 0.1000 0.1590 0.2110 0.2560
693.817969 0.2959 0.3299 0.3599 0.3859 0.4099
697.121417 0.4300 0.4490 0.4800 0.5110 0.5420
700.424864 0.5909 0.6060 0.6070 0.6200 0.6330
703.728311 0.6470 0.6600 0.6740 0.6870 0.6920
707.031758 0.6970 0.7040 0.7140 0.7190 0.7270
710.335206 0.7400 0.7500 0.7560 0.7610 0.7630
713.638653 0.7650 0.7670 0.7680 0.7710 0.7730
716.942100 0.7740 0.7750 0.7760 0.7770 0.7770
720.245547 0.7780 0.7780 0.7780 0.7770 0.7750
723.548994 0.7710 0.7690 0.7660 0.7630 0.7590
726.852442 0.7540 0.7490 0.7420 0.7340 0.7270
730.155889 0.7200 0.7130 0.7130 0.7150 0.7180
733.459336 0.7240 0.7300 0.7360 0.7410 0.7440
736.762783 0.7460 0.7470 0.7480 0.7480 0.7470
740.066231 0.7450 0.7400 0.7320 0.7240 0.7140
743.369678 0.7030 0.6890 0.6720 0.6500 0.6231
746.673125 0.5891 0.5691 0.5471 0.4255 0.3583
749.976572 0.2129 0.1300 0.1160 0.0980 0.0810
753.280019 0.0640 0.0470 0.0300 0.0130 0.0120
756.583467 0.0130 0.0310 0.0710 0.0910 0.1100
759.886914 0.1629 0.2159 0.2669 0.3178 0.3658
763.190361 0.4120 0.4340 0.4550 0.4930 0.5270
766.493808 0.5549 0.5770 0.5930 0.6000 0.6239
769.797256 0.6400 0.6600 0.6760 0.6870 0.6960
773.100703 0.7030 0.7090 0.7140 0.7190 0.7250
776.404150 0.7320 0.7380 0.7440 0.7480 0.7520
779.707597 0.7530 0.7580 0.7620 0.7650 0.7670
783.011044 0.7680 0.7690 0.7700 0.7710 0.7710
786.314492 0.7710 0.7730 0.7730 0.7750 0.7770
789.617939 0.7790 0.7840 0.7890 0.7920 0.7950
792.921386 0.7980 0.8000 0.8010 0.8020 0.8020
796.224833 0.8030 0.8040 0.8040 0.8060 0.8060
799.528281 0.8080 0.8100 0.8120 0.8140 0.8150
802.831728 0.8150 0.8160 0.8170 0.8170 0.8170
806.135175 0.8170 0.8170 0.8170 0.8170 0.8170
809.438622 0.8170 0.8180 0.8180 0.8190 0.8190
812.742069 0.8190 0.8190 0.8190 0.8190 0.8190
816.045517 0.8190 0.8190 0.8190 0.8200 0.8200
819.348964 0.8210 0.8210 0.8210 0.8220 0.8220
822.652411 0.8210 0.8210 0.8210 0.8200 0.8200
825.955858 0.8190 0.8190 0.8190 0.8170 0.8170
829.259306 0.8150 0.8140 0.8130 0.8100 0.8070
832.562753 0.8050 0.8030 0.8010 0.8000 0.7980
835.866200 0.7960 0.7940 0.7910 0.7880 0.7840
839.169647 0.7790 0.7730 0.7670 0.7590 0.7510
842.473094 0.7440 0.7380 0.7320 0.7280 0.7240
845.776542 0.7210 0.7180 0.7150 0.7130 0.7090
849.079989 0.7060 0.7020 0.6970 0.6930 0.6910
852.383436 0.6900 0.6870 0.6860 0.6830 0.6820
855.686883 0.6820 0.6820 0.6810 0.6810 0.6820
858.990331 0.6820 0.6840 0.6860 0.6890 0.6930
862.293778 0.6960 0.6990 0.7010 0.7030 0.7050
865.597225 0.7070 0.7090 0.7110 0.7120 0.7130
868.900672 0.7140 0.7170 0.7200 0.7240 0.7280
872.204119 0.7320 0.7340 0.7350 0.7360 0.7390
875.507567 0.7410 0.7440 0.7470 0.7490 0.7500
878.811014 0.7510 0.7550 0.7580 0.7610 0.7650
882.114461 0.7670 0.7700 0.7730 0.7760 0.7780
885.417908 0.7810 0.7830 0.7860 0.7880 0.7900
888.721356 0.7930 0.7950 0.7980 0.8000 0.8010
892.024803 0.8030 0.8030 0.8040 0.8050 0.8050
895.328250 0.8050 0.8050 0.8050 0.8050 0.8050
898.631697 0.8060 0.8060 0.8060 0.8060 0.8060
901.935144 0.8060 0.8070 0.8070 0.8070 0.8070
905.238592 0.8070 0.8060 0.8060 0.8060 0.8040
908.542039 0.8040 0.8020 0.8020 0.8000 0.7960
911.845486 0.7930 0.7890 0.7860 0.7820 0.7780
915.148933 0.7740 0.7690 0.7620 0.7400 0.6951
918.452381 0.6850 0.6581 0.6351 0.6121 0.5632
921.755828 0.5620 0.5630 0.5770 0.5910 0.6060
925.059275 0.6200 0.6290 0.6340 0.6489 0.6659
928.362722 0.6840 0.7110 0.7200 0.7350 0.7420
931.666169 0.7430 0.7440 0.7450 0.7470 0.7480
934.969617 0.7480 0.7490 0.7490 0.7490 0.7480
938.273064 0.7450 0.7420 0.7380 0.7300 0.7180
941.576511 0.7130 0.6990 0.6810 0.6570 0.6300
944.879958 0.5990 0.5651 0.5291 0.4931 0.4183
948.183406 0.3810 0.3430 0.3040 0.2690 0.2420
951.486853 0.2260 0.2250 0.2260 0.2270 0.2489
954.790300 0.3150 0.3740 0.4250 0.4480 0.4700
958.093747 0.5099 0.5439 0.5739 0.5979 0.6199
961.397194 0.6370 0.6520 0.6640 0.6740 0.6820
964.700642 0.6890 0.6960 0.7020 0.7140 0.7150
968.004089 0.7210 0.7260 0.7290 0.7310 0.7320
971.307536 0.7340 0.7340 0.7360 0.7380 0.7400
974.610983 0.7450 0.7500 0.7550 0.7610 0.7650
977.914431 0.7700 0.7730 0.7770 0.7820 0.7860
981.217878 0.7860 0.7870 0.7870 0.7860 0.7860
984.521325 0.7860 0.7850 0.7840 0.7840 0.7820
987.824772 0.7810 0.7760 0.7710 0.7690 0.7680
991.128219 0.7690 0.7750 0.7790 0.7820 0.7840
994.431667 0.7840 0.7840 0.7840 0.7840 0.7820
997.735114 0.7800 0.7750 0.7720 0.7670 0.7590
1001.038561 0.7460 0.7310 0.7300 0.7290 0.7300
1004.342008 0.7320 0.7320 0.7440 0.7490 0.7510
1007.645456 0.7530 0.7540 0.7550 0.7550 0.7560
1010.948903 0.7560 0.7550 0.7530 0.7440 0.7340
1014.252350 0.7240 0.7130 0.7000 0.6860 0.6700
1017.555797 0.6530 0.6340 0.6121 0.6040 0.5930
1020.859244 0.5780 0.5550 0.4201 0.3691 0.3510
1024.162692 0.3500 0.3500 0.3560 0.3909 0.4338
1027.466139 0.4760 0.5830 0.6410 0.6939 0.7100
1030.769586 0.7399 0.7500 0.7620 0.7710 0.7800
1034.073033 0.7860 0.7920 0.7970 0.8000 0.8040
1037.376481 0.8060 0.8080 0.8100 0.8110 0.8120
1040.679928 0.8130 0.8150 0.8170 0.8190 0.8190
1043.983375 0.8200 0.8200 0.8200 0.8210 0.8210
1047.286822 0.8210 0.8210 0.8210 0.8210 0.8210
1050.590269 0.8210 0.8210 0.8210 0.8210 0.8210
1053.893717 0.8210 0.8210 0.8200 0.8200 0.8190
1057.197164 0.8190 0.8170 0.8170 0.8150 0.8130
1060.500611 0.8120 0.8100 0.8070 0.8040 0.8000
1063.804058 0.7940 0.7930 0.7910 0.7880 0.7860
1067.107506 0.7830 0.7620 0.7610 0.7590 0.7510
1070.410953 0.7300 0.7021 0.6741 0.6471 0.6201
1073.714400 0.5950 0.5710 0.5580 0.5560 0.5580
1077.017847 0.5630 0.5740 0.5860 0.6079 0.6339
1080.321294 0.6620 0.6840 0.6990 0.7000 0.7090
1083.624742 0.7170 0.7240 0.7300 0.7360 0.7410
1086.928189 0.7450 0.7500 0.7530 0.7550 0.7550
1090.231636 0.7560 0.7570 0.7570 0.7560 0.7550
1093.535083 0.7550 0.7530 0.7530 0.7510 0.7460
1096.838531 0.7400 0.7360 0.7320 0.7280 0.7220
1100.141978 0.7170 0.7170 0.7170 0.7170 0.7250
1103.445425 0.7300 0.7310 0.7430 0.7569 0.7660
1106.748872 0.7740 0.7800 0.7870 0.7960 0.8030
1110.052319 0.8080 0.8100 0.8120 0.8130 0.8140
1113.355767 0.8150 0.8150 0.8150 0.8170 0.8170
1116.659214 0.8180 0.8190 0.8190 0.8190 0.8190
1119.962661 0.8190 0.8200 0.8200 0.8210 0.8210
1123.266108 0.8210 0.8210 0.8210 0.8210 0.8210
1126.569556 0.8210 0.8220 0.8220 0.8220 0.8220
1129.873003 0.8220 0.8220 0.8220 0.8220 0.8220
1133.176450 0.8220 0.8220 0.8220 0.8210 0.8210
1136.479897 0.8200 0.8200 0.8190 0.8190 0.8180
1139.783344 0.8170 0.8160 0.8150 0.8140 0.8130
1143.086792 0.8110 0.8090 0.8080 0.8060 0.8050
1146.390239 0.8040 0.8020 0.8010 0.8000 0.7980
1149.693686 0.7960 0.7880 0.7830 0.7770 0.7690
1152.997133 0.7610 0.7530 0.7450 0.7360 0.7240
1156.300581 0.7120 0.7050 0.7030 0.7020 0.7030
1159.604028 0.7080 0.7130 0.7180 0.7240 0.7280
1162.907475 0.7280 0.7290 0.7280 0.7280 0.7270
1166.210922 0.7220 0.7180 0.7130 0.7080 0.7000
1169.514369 0.6910 0.6870 0.6800 0.6690 0.6550
1172.817817 0.6260 0.5980 0.5730 0.5480 0.5270
1176.121264 0.5070 0.4671 0.3991 0.3970 0.3980
1179.424711 0.4270 0.4410 0.4560 0.4590 0.4940
1182.728158 0.5339 0.5919 0.6329 0.6599 0.6740
1186.031606 0.6860 0.6970 0.7060 0.7140 0.7200
1189.335053 0.7260 0.7300 0.7340 0.7360 0.7380
1192.638500 0.7400 0.7410 0.7420 0.7420 0.7430
1195.941947 0.7430 0.7440 0.7440 0.7450 0.7450
1199.245394 0.7460 0.7460 0.7460 0.7460 0.7470
1202.548842 0.7470 0.7480 0.7490 0.7500 0.7500
1205.852289 0.7510 0.7510 0.7530 0.7540 0.7540
1209.155736 0.7550 0.7550 0.7550 0.7550 0.7550
1212.459183 0.7550 0.7550 0.7550 0.7540 0.7540
1215.762631 0.7530 0.7530 0.7520 0.7520 0.7520
1219.066078 0.7510 0.7500 0.7500 0.7480 0.7440
1222.369525 0.7400 0.7340 0.7300 0.7250 0.7200
1225.672972 0.7160 0.7110 0.7070 0.7030 0.7000
1228.976419 0.6910 0.6800 0.6680 0.6550 0.6410
1232.279867 0.6260 0.6100 0.5930 0.5750 0.5570
1235.583314 0.5370 0.5170 0.4960 0.4751 0.4301
1238.886761 0.4060 0.3830 0.3590 0.3340 0.3090
1242.190208 0.3010 0.3000 0.3000 0.3000 0.3020
1245.493656 0.3040 0.3070 0.3100 0.3100 0.3100
1248.797103 0.3080 0.3020 0.2960 0.2840 0.2671
1252.100550 0.2440 0.2180 0.1890 0.1590 0.1300
1255.403997 0.1020 0.0790 0.0600 0.0470 0.0420
1258.707444 0.0360 0.0290 0.0220 0.0150 0.0000
1262.010892 0.0000 0.0000 0.0000 0.0000 0.0000
1265.314339 0.0000 0.0000 0.0030 0.0070 0.0459
1268.617786 0.0779 0.1309 0.1789 0.2239 0.2639
1271.921233 0.3020 0.3360 0.3680 0.3960 0.4220
1275.224680 0.4450 0.4570 0.4670 0.4879 0.5059
1278.528128 0.5230 0.5390 0.5540 0.5680 0.5820
1281.831575 0.5960 0.6100 0.6240 0.6409 0.6520
1285.135022 0.6600 0.6660 0.6720 0.6790 0.6890
1288.438469 0.6890 0.6910 0.6920 0.6920 0.6920
1291.741917 0.6910 0.6910 0.6910 0.6890 0.6770
1295.045364 0.6680 0.6580 0.6430 0.6310 0.6140
1298.348811 0.6000 0.5890 0.5820 0.5580 0.5330
1301.652258 0.5090 0.5080 0.5090 0.5170 0.5250
1304.955705 0.5320 0.5500 0.5670 0.5710 0.5710
1308.259153 0.5700 0.5620 0.5510 0.5400 0.5320
1311.562600 0.5260 0.5210 0.5210 0.5270 0.5410
1314.866047 0.6269 0.6639 0.6850 0.6970 0.7020
1318.169494 0.7070 0.7130 0.7180 0.7260 0.7300
1321.472942 0.7310 0.7320 0.7320 0.7320 0.7320
1324.776389 0.7320 0.7330 0.7340 0.7340 0.7360
1328.079836 0.7370 0.7380 0.7390 0.7380 0.7380
1331.383283 0.7350 0.7300 0.7250 0.7190 0.7140
1334.686730 0.7090 0.7050 0.7000 0.6960 0.6930
1337.990178 0.6910 0.6890 0.6890 0.6850 0.6800
1341.293625 0.6760 0.6720 0.6660 0.6610 0.6540
1344.597072 0.6450 0.6350 0.6230 0.6080 0.5910
1347.900519 0.5710 0.5481 0.5211 0.4911 0.4183
1351.203967 0.3749 0.3269 0.2730 0.2140 0.1490
1354.507414 0.1100 0.0990 0.0890 0.0690 0.0510
1357.810861 0.0320 0.0140 0.0130 0.0140 0.0150
1361.114308 0.0440 0.0730 0.1029 0.1160 0.1290
1364.417755 0.1771 0.2210 0.2620 0.2980 0.3300
1367.721203 0.3570 0.3790 0.4269 0.4469 0.4669
1371.024650 0.5010 0.5290 0.5520 0.5710 0.5860
1374.328097 0.5980 0.6060 0.6140 0.6200 0.6240
1377.631544 0.6290 0.6350 0.6420 0.6510 0.6620
1380.934992 0.6760 0.6840 0.6870 0.6880 0.6880
1384.238439 0.6870 0.6870 0.6870 0.6860 0.6850
1387.541886 0.6800 0.6760 0.6730 0.6720 0.6730
1390.845333 0.6740 0.6780 0.6830 0.6880 0.6920
1394.148780 0.6950 0.6990 0.7030 0.7060 0.7090
1397.452228 0.7120 0.7150 0.7160 0.7170 0.7170
1400.755675 0.7180 0.7180 0.7180 0.7170 0.7170
1404.059122 0.7160 0.7150 0.7130 0.7100 0.7060
1407.362569 0.7010 0.6950 0.6890 0.6830 0.6760
1410.666017 0.6680 0.6600 0.6530 0.6440 0.6350
1413.969464 0.6250 0.6150 0.6050 0.5940 0.5840
1417.272911 0.5730 0.5620 0.5500 0.5390 0.5270
1420.576358 0.5150 0.5030 0.4920 0.4790 0.4720
1423.879805 0.4660 0.4600 0.4550 0.4480 0.4470
1427.183253 0.4450 0.4430 0.4430 0.4410 0.4390
1430.486700 0.4360 0.4300 0.4230 0.4170 0.4160
1433.790147 0.4150 0.4160 0.4160 0.4220 0.4280
1437.093594 0.4340 0.4400 0.4440 0.4490 0.4530
1440.397042 0.4640 0.4700 0.4700 0.4690 0.4630
1443.700489 0.4470 0.4340 0.3970 0.3350 0.2881
1447.003936 0.2481 0.2221 0.1941 0.1661 0.1381
1450.307383 0.1110 0.1100 0.1110 0.1470 0.1820
1453.610830 0.2020 0.2389 0.3208 0.4316 0.4778
1456.914278 0.5230 0.5730 0.5980 0.6100 0.6270
1460.217725 0.6629 0.6770 0.6880 0.6970 0.7050
1463.521172 0.7110 0.7160 0.7200 0.7230 0.7250
1466.824619 0.7280 0.7290 0.7320 0.7340 0.7360
1470.128067 0.7400 0.7420 0.7430 0.7440 0.7450
1473.431514 0.7490 0.7500 0.7500 0.7510 0.7510
1476.734961 0.7510 0.7510 0.7510 0.7520 0.7530
1480.038408 0.7530 0.7520 0.7520 0.7510 0.7510
1483.341855 0.7480 0.7460 0.7440 0.7430 0.7420
1486.645303 0.7400 0.7390 0.7370 0.7350 0.7320
1489.948750 0.7290 0.7240 0.7190 0.7130 0.7050
1493.252197 0.7050 0.7040 0.7040 0.7050 0.7050
1496.555644 0.7060 0.7070 0.7070 0.7070 0.7070
1499.859092 0.7060 0.7050 0.7030 0.6980 0.6930
1503.162539 0.6890 0.6860 0.6820 0.6800 0.6780
1506.465986 0.6750 0.6720 0.6680 0.6650 0.6600
1509.769433 0.6560 0.6520 0.6470 0.6430 0.6390
1513.072880 0.6340 0.6300 0.6250 0.6220 0.6180
1516.376328 0.6160 0.6120 0.6100 0.6080 0.6070
1519.679775 0.6020 0.5970 0.5940 0.5910 0.5880
1522.983222 0.5860 0.5850 0.5830 0.5810 0.5800
1526.286669 0.5780 0.5760 0.5730 0.5700 0.5660
1529.590117 0.5620 0.5560 0.5480 0.5400 0.5340
1532.893564 0.5280 0.5210 0.5140 0.5070 0.5000
1536.197011 0.4940 0.4870 0.4800 0.4740 0.4670
1539.500458 0.4610 0.4550 0.4450 0.4410 0.4370
1542.803905 0.4340 0.4320 0.4300 0.4280 0.4260
1546.107353 0.4240 0.4220 0.4210 0.4200 0.4200
1549.410800 0.4200 0.4190 0.4190 0.4190 0.4200
1552.714247 0.4220 0.4250 0.4290 0.4320 0.4340
1556.017694 0.4360 0.4380 0.4410 0.4430 0.4470
1559.321142 0.4490 0.4510 0.4530 0.4550 0.4590
1562.624589 0.4620 0.4650 0.4690 0.4720 0.4760
1565.928036 0.4800 0.4830 0.4870 0.4900 0.4940
1569.231483 0.4980 0.5010 0.5020 0.5030 0.5040
1572.534930 0.5050 0.5050 0.5030 0.5020 0.4990
1575.838378 0.4940 0.4890 0.4830 0.4720 0.4241
1579.141825 0.3891 0.3461 0.3410 0.3151 0.2901
1582.445272 0.2650 0.2420 0.2420 0.2660 0.2900
1585.748719 0.3150 0.3399 0.3420 0.3560 0.3729
1589.052167 0.3840 0.3940 0.4030 0.4160 0.4350
1592.355614 0.4430 0.4430 0.4430 0.4430 0.4420
1595.659061 0.4400 0.4380 0.4039 0.2430 0.2080
1598.962508 0.1740 0.1390 0.1071 0.1070 0.1529
1602.265955 0.1980 0.2280 0.2530 0.3190 0.3910
1605.569403 0.4280 0.4630 0.5369 0.5410 0.5550
1608.872850 0.5630 0.5710 0.5770 0.5790 0.5800
1612.176297 0.5820 0.5840 0.5880 0.5930 0.5990
1615.479744 0.6050 0.6120 0.6200 0.6300 0.6410
1618.783192 0.6600 0.6620 0.6680 0.6750 0.6850
1622.086639 0.6910 0.6940 0.6960 0.7000 0.7030
1625.390086 0.7060 0.7090 0.7110 0.7130 0.7150
1628.693533 0.7170 0.7180 0.7190 0.7210 0.7220
1631.996980 0.7230 0.7240 0.7260 0.7260 0.7270
1635.300428 0.7270 0.7280 0.7280 0.7280 0.7290
1638.603875 0.7290 0.7290 0.7290 0.7290 0.7280
1641.907322 0.7270 0.7250 0.7190 0.7110 0.7070
1645.210769 0.6970 0.6970 0.6910 0.6830 0.6750
1648.514217 0.6670 0.6590 0.6510 0.6440 0.6370
1651.817664 0.6370 0.6370 0.6380 0.6430 0.6450
1655.121111 0.6460 0.6470 0.6470 0.6470 0.6470
1658.424558 0.6460 0.6450 0.6400 0.6340 0.6280
1661.728005 0.6210 0.6120 0.6050 0.5990 0.5960
1665.031453 0.5870 0.5830 0.5790 0.5670 0.5600
1668.334900 0.5570 0.5440 0.5290 0.5130 0.5030
1671.638347 0.4431 0.4250 0.4050 0.3831 0.3581
1674.941794 0.3310 0.3020 0.2690 0.2340 0.2190
1678.245242 0.1840 0.1441 0.1420 0.1061 0.0233
1681.548689 0.0170 0.0130 0.0100 0.0060 0.0050
1684.852136 0.0030 0.0020 0.0010 0.0000 0.0000
1688.155583 0.0000 0.0000 0.0000 0.0000 0.0000
1691.459030 0.0000 0.0000 0.0000 0.0000 0.0000
1694.762478 0.0000 0.0030 0.0040 0.0190 0.0250
1698.065925 0.0440 0.0849 0.1309 0.1729 0.2149
1701.369372 0.2560 0.2840 0.2970 0.2980 0.3340
1704.672819 0.3679 0.3860 0.4069 0.4279 0.4300
1707.976267 0.4460 0.4660 0.4850 0.5190 0.5410
1711.279714 0.5550 0.5670 0.5780 0.5940 0.5960
1714.583161 0.5970 0.6010 0.6100 0.6180 0.6240
1717.886608 0.6320 0.6360 0.6380 0.6490 0.6530
1721.190055 0.6590 0.6650 0.6700 0.6740 0.6770
1724.493503 0.6800 0.6820 0.6840 0.6860 0.6870
1727.796950 0.6880 0.6890 0.6910 0.6930 0.6950
1731.100397 0.6980 0.7010 0.7040 0.7060 0.7070
1734.403844 0.7100 0.7130 0.7170 0.7190 0.7220
1737.707292 0.7230 0.7280 0.7310 0.7340 0.7380
1741.010739 0.7400 0.7430 0.7450 0.7470 0.7490
1744.314186 0.7510 0.7520 0.7540 0.7550 0.7570
1747.617633 0.7580 0.7590 0.7600 0.7610 0.7630
1750.921080 0.7640 0.7650 0.7670 0.7690 0.7700
1754.224528 0.7710 0.7710 0.7720 0.7720 0.7720
1757.527975 0.7730 0.7730 0.7730 0.7730 0.7720
1760.831422 0.7720 0.7710 0.7700 0.7680 0.7650
1764.134869 0.7630 0.7620 0.7610 0.7610 0.7610
1767.438317 0.7610 0.7610 0.7610 0.7610 0.7620
1770.741764 0.7630 0.7650 0.7670 0.7700 0.7730
1774.045211 0.7760 0.7790 0.7810 0.7820 0.7840
1777.348658 0.7870 0.7890 0.7900 0.7930 0.7930
1780.652105 0.7960 0.7970 0.8020 0.8060 0.8060
1783.955553 0.8070 0.8090 0.8110 0.8120 0.8130
1787.259000 0.8150 0.8160 0.8170 0.8180 0.8190
1790.562447 0.8190 0.8200 0.8200 0.8210 0.8210
1793.865894 0.8210 0.8210 0.8210 0.8210 0.8210
1797.169342 0.8210 0.8200 0.8200 0.8190 0.8190
1800.472789 0.8170 0.8140 0.8120 0.8090 0.8080
1803.776236 0.8080 0.8070 0.8060 0.8060 0.8050
1807.079683 0.8040 0.8020 0.8000 0.7960 0.7920
1810.383130 0.7860 0.7810 0.7750 0.7700 0.7650
1813.686578 0.7600 0.7570 0.7550 0.7540 0.7530
1816.990025 0.7540 0.7550 0.7570 0.7610 0.7650
1820.293472 0.7700 0.7750 0.7800 0.7840 0.7940
1823.596919 0.8020 0.8040 0.8050 0.8060 0.8060
1826.900367 0.8060 0.8060 0.8070 0.8080 0.8080
1830.203814 0.8080 0.8080 0.8080 0.8090 0.8090
1833.507261 0.8100 0.8100 0.8100 0.8100 0.8120
1836.810708 0.8120 0.8120 0.8130 0.8130 0.8130
1840.114155 0.8140 0.8140 0.8140 0.8150 0.8150
1843.417603 0.8150 0.8140 0.8140 0.8140 0.8130
1846.721050 0.8130 0.8130 0.8130 0.8110 0.8100
1850.024497 0.8080 0.8080 0.8070 0.8060 0.8060
1853.327944 0.8050 0.8050 0.8060 0.8060 0.8080
1856.631392 0.8090 0.8120 0.8120 0.8150 0.8150
1859.934839 0.8170 0.8180 0.8210 0.8230 0.8250
1863.238286 0.8270 0.8280 0.8290 0.8290 0.8290
1866.541733 0.8290 0.8300 0.8300 0.8300 0.8310
1869.845180 0.8310 0.8310 0.8320 0.8330 0.8330
1873.148628 0.8330 0.8330 0.8330 0.8320 0.8320
1876.452075 0.8310 0.8310 0.8310 0.8310 0.8300
1879.755522 0.8300 0.8290 0.8280 0.8260 0.8250
1883.058969 0.8240 0.8230 0.8220 0.8210 0.8190
1886.362417 0.8180 0.8170 0.8150 0.8120 0.8100
1889.665864 0.8060 0.8060 0.8010 0.8010 0.7940
1892.969311 0.7880 0.7820 0.7770 0.7730 0.7690
1896.272758 0.7670 0.7650 0.7630 0.7620 0.7630
1899.576205 0.7670 0.7750 0.7770 0.7790 0.7810
1902.879653 0.7820 0.7840 0.7840 0.7850 0.7850
1906.183100 0.7860 0.7860 0.7860 0.7860 0.7860
1909.486547 0.7860 0.7860 0.7860 0.7860 0.7860
1912.789994 0.7860 0.7860 0.7860 0.7860 0.7870
1916.093442 0.7880 0.7900 0.7930 0.7960 0.7980
1919.396889 0.8020 0.8030 0.8060 0.8120 0.8180
1922.700336 0.8210 0.8220 0.8220 0.8230 0.8240
1926.003783 0.8260 0.8280 0.8300 0.8300 0.8310
1929.307230 0.8320 0.8330 0.8340 0.8350 0.8350
1932.610678 0.8350 0.8350 0.8350 0.8360 0.8360
1935.914125 0.8360 0.8360 0.8360 0.8360 0.8350
1939.217572 0.8350 0.8350 0.8340 0.8330 0.8330
1942.521019 0.8330 0.8310 0.8290 0.8270 0.8260
1945.824467 0.8260 0.8250 0.8240 0.8230 0.8230
1949.127914 0.8230 0.8210 0.8200 0.8180 0.8170
1952.431361 0.8170 0.8160 0.8160 0.8150 0.8150
1955.734808 0.8130 0.8110 0.8060 0.8010 0.7960
1959.038255 0.7910 0.7860 0.7810 0.7760 0.7710
1962.341703 0.7650 0.7610 0.7590 0.7610 0.7640
1965.645150 0.7680 0.7720 0.7750 0.7840 0.7880
1968.948597 0.7910 0.7960 0.8000 0.8000 0.8000
1972.252044 0.8000 0.8000 0.8000 0.7990 0.7980
1975.555492 0.7960 0.7960 0.7950 0.7940 0.7940
1978.858939 0.7940 0.7950 0.7960 0.7980 0.8000
1982.162386 0.8010 0.8020 0.8040 0.8050 0.8060
1985.465833 0.8060 0.8070 0.8110 0.8120 0.8120
1988.769280 0.8120 0.8120 0.8120 0.8110 0.8100
1992.072728 0.8100 0.8090 0.8080 0.8080 0.8070
1995.376175 0.8060 0.8060 0.8060 0.8070 0.8090
1998.679622 0.8110 0.8130 0.8160 0.8163 0.8165
2001.983069 0.8168 0.8170 0.8170 0.8170 0.8170
2005.286517 0.8170 0.8175 0.8180 0.8185 0.8190
2008.589964 0.8190 0.8190 0.8190 0.8191 0.8196
2011.893411 0.8201 0.8206 0.8211 0.8216 0.8221
2015.196858 0.8226 0.8232 0.8242 0.8252 0.8262
2018.500305 0.8271 0.8276 0.8281 0.8286 0.8290
2021.803753 0.8293 0.8296 0.8298 0.8301 0.8303
2025.107200 0.8306 0.8308 0.8310 0.8310 0.8310
2028.410647 0.8310 0.8310 0.8310 0.8310 0.8310
2031.714094 0.8310 0.8310 0.8310 0.8310 0.8311
2035.017542 0.8313 0.8316 0.8318 0.8321 0.8324
2038.320989 0.8326 0.8329 0.8331 0.8334 0.8336
2041.624436 0.8339 0.8340 0.8340 0.8340 0.8340
2044.927883 0.8341 0.8344 0.8346 0.8349 0.8350
2048.231330 0.8350 0.8350 0.8350 0.8350 0.8350
2051.534778 0.8350 0.8350 0.8350 0.8350 0.8350
2054.838225 0.8350 0.8350 0.8350 0.8350 0.8350
2058.141672 0.8350 0.8350 0.8350 0.8350 0.8350
2061.445119 0.8350 0.8350 0.8350 0.8350 0.8350
2064.748567 0.8350 0.8350 0.8350 0.8350 0.8350
2068.052014 0.8350 0.8352 0.8354 0.8357 0.8359
2071.355461 0.8360 0.8360 0.8360 0.8360 0.8360
2074.658908 0.8360 0.8360 0.8360 0.8362 0.8365
2077.962355 0.8367 0.8370 0.8370 0.8370 0.8370
2081.265803 0.8370 0.8370 0.8370 0.8370 0.8370
2084.569250 0.8368 0.8365 0.8363 0.8360 0.8358
2087.872697 0.8355 0.8353 0.8350 0.8350 0.8350
2091.176144 0.8350 0.8350 0.8350 0.8350 0.8350
2094.479592 0.8350 0.8350 0.8350 0.8350 0.8350
2097.783039 0.8347 0.8345 0.8342 0.8340 0.8340
2101.086486 0.8340 0.8340 0.8340 0.8337 0.8335
2104.389933 0.8332 0.8330 0.8330 0.8330 0.8330
2107.693380 0.8330 0.8330 0.8330 0.8330 0.8331
2110.996828 0.8336 0.8341 0.8346 0.8350 0.8350
2114.300275 0.8350 0.8350 0.8350 0.8350 0.8350
2117.603722 0.8350 0.8351 0.8353 0.8356 0.8358
2120.907169 0.8360 0.8360 0.8360 0.8360 0.8360
2124.210617 0.8360 0.8360 0.8360 0.8359 0.8356
2127.514064 0.8354 0.8351 0.8350 0.8350 0.8350
2130.817511 0.8350 0.8350 0.8350 0.8350 0.8350
2134.120958 0.8350 0.8350 0.8350 0.8350 0.8349
2137.424405 0.8346 0.8344 0.8341 0.8340 0.8340
2140.727853 0.8340 0.8340 0.8340 0.8340 0.8340
2144.031300 0.8340 0.8342 0.8344 0.8347 0.8349
2147.334747 0.8352 0.8354 0.8357 0.8359 0.8362
2150.638194 0.8364 0.8367 0.8369 0.8370 0.8370
2153.941642 0.8370 0.8370 0.8370 0.8370 0.8370
2157.245089 0.8370 0.8370 0.8370 0.8370 0.8370
2160.548536 0.8370 0.8370 0.8370 0.8370 0.8372
2163.851983 0.8375 0.8377 0.8380 0.8382 0.8385
2167.155430 0.8387 0.8390 0.8390 0.8390 0.8390
2170.458878 0.8390 0.8392 0.8395 0.8397 0.8400
2173.762325 0.8400 0.8400 0.8400 0.8400 0.8402
2177.065772 0.8405 0.8407 0.8410 0.8410 0.8410
2180.369219 0.8410 0.8410 0.8410 0.8410 0.8410
2183.672667 0.8410 0.8410 0.8410 0.8410 0.8410
2186.976114 0.8413 0.8415 0.8418 0.8420 0.8420
2190.279561 0.8420 0.8420 0.8420 0.8420 0.8420
2193.583008 0.8420 0.8420 0.8420 0.8420 0.8420
2196.886455 0.8421 0.8423 0.8426 0.8428 0.8430
2200.189903 0.8430 0.8430 0.8430 0.8431 0.8433
2203.493350 0.8436 0.8438 0.8440 0.8440 0.8440
2206.796797 0.8440 0.8440 0.8440 0.8440 0.8440
2210.100244 0.8441 0.8444 0.8446 0.8449 0.8450
2213.403692 0.8450 0.8450 0.8450 0.8450 0.8450
2216.707139 0.8450 0.8450 0.8449 0.8446 0.8444
2220.010586 0.8441 0.8440 0.8440 0.8440 0.8440
2223.314033 0.8440 0.8440 0.8440 0.8440 0.8440
2226.617480 0.8440 0.8440 0.8440 0.8439 0.8436
2229.920928 0.8434 0.8431 0.8430 0.8430 0.8430
2233.224375 0.8430 0.8430 0.8430 0.8430 0.8430
2236.527822 0.8428 0.8426 0.8423 0.8421 0.8420
2239.831269 0.8420 0.8420 0.8420 0.8418 0.8416
2243.134717 0.8413 0.8411 0.8410 0.8410 0.8410
2246.438164 0.8410 0.8410 0.8410 0.8410 0.8410
2249.741611 0.8408 0.8405 0.8403 0.8400 0.8400
2253.045058 0.8400 0.8400 0.8400 0.8400 0.8400
2256.348505 0.8400 0.8400 0.8398 0.8395 0.8393
2259.651953 0.8390 0.8390 0.8390 0.8390 0.8390
2262.955400 0.8387 0.8385 0.8382 0.8380 0.8377
2266.258847 0.8375 0.8372 0.8370 0.8370 0.8370
2269.562294 0.8370 0.8370 0.8367 0.8365 0.8362
2272.865742 0.8360 0.8357 0.8355 0.8352 0.8350
2276.169189 0.8347 0.8345 0.8342 0.8340 0.8337
2279.472636 0.8335 0.8332 0.8329 0.8324 0.8319
2282.776083 0.8314 0.8310 0.8307 0.8304 0.8302
2286.079530 0.8299 0.8294 0.8289 0.8284 0.8279
2289.382978 0.8277 0.8274 0.8272 0.8270 0.8270
2292.686425 0.8270 0.8270 0.8269 0.8267 0.8264
2295.989872 0.8262 0.8259 0.8257 0.8254 0.8252
2299.293319 0.8250 0.8250 0.8250 0.8250 0.8250
2302.596767 0.8250 0.8250 0.8250 0.8249 0.8246
2305.900214 0.8244 0.8241 0.8240 0.8240 0.8240
2309.203661 0.8240 0.8239 0.8236 0.8234 0.8231
2312.507108 0.8230 0.8230 0.8230 0.8230 0.8228
2315.810555 0.8226 0.8223 0.8221 0.8218 0.8216
2319.114003 0.8213 0.8211 0.8210 0.8210 0.8210
2322.417450 0.8210 0.8208 0.8206 0.8203 0.8201
2325.720897 0.8198 0.8196 0.8193 0.8191 0.8190
2329.024344 0.8190 0.8190 0.8190 0.8188 0.8186
2332.327792 0.8183 0.8181 0.8180 0.8180 0.8180
2335.631239 0.8180 0.8180 0.8180 0.8180 0.8180
2338.934686 0.8180 0.8180 0.8180 0.8180 0.8182
2342.238133 0.8185 0.8187 0.8190 0.8190 0.8190
2345.541580 0.8190 0.8190 0.8192 0.8195 0.8197
2348.845028 0.8200 0.8207 0.8215 0.8222 0.8230
2352.148475 0.8235 0.8240 0.8245 0.8250 0.8258
2355.451922 0.8265 0.8273 0.8280 0.8285 0.8290
2358.755369 0.8295 0.8301 0.8308 0.8316 0.8323
2362.058817 0.8330 0.8333 0.8335 0.8338 0.8340
2365.362264 0.8343 0.8345 0.8348 0.8350 0.8350
2368.665711 0.8350 0.8350 0.8350 0.8350 0.8350
2371.969158 0.8350 0.8351 0.8353 0.8356 0.8358
2375.272605 0.8360 0.8360 0.8360 0.8360 0.8360
2378.576053 0.8360 0.8360 0.8360 0.8361 0.8363
2381.879500 0.8366 0.8368 0.8371 0.8373 0.8376
2385.182947 0.8378 0.8381 0.8383 0.8386 0.8388
2388.486394 0.8390 0.8390 0.8390 0.8390 0.8391
2391.789842 0.8394 0.8396 0.8399 0.8401 0.8404
2395.093289 0.8406 0.8409 0.8410 0.8410 0.8410
2398.396736 0.8410 0.8411 0.8414 0.8416 0.8419
2401.700183 0.8421 0.8424 0.8426 0.8429 0.8430
2405.003630 0.8430 0.8430 0.8430 0.8432 0.8434
2408.307078 0.8437 0.8439 0.8440 0.8440 0.8440
2411.610525 0.8440 0.8442 0.8444 0.8447 0.8449
2414.913972 0.8450 0.8450 0.8450 0.8450 0.8452
2418.217419 0.8454 0.8457 0.8459 0.8460 0.8460
2421.520867 0.8460 0.8460 0.8462 0.8465 0.8467
2424.824314 0.8470 0.8468 0.8465 0.8463 0.8460
2428.127761 0.8460 0.8460 0.8460 0.8460 0.8458
2431.431208 0.8455 0.8453 0.8450 0.8448 0.8445
2434.734655 0.8443 0.8440 0.8440 0.8440 0.8440
2438.038103 0.8440 0.8440 0.8440 0.8440 0.8440
2441.341550 0.8440 0.8440 0.8440 0.8440 0.8443
2444.644997 0.8445 0.8448 0.8450 0.8456 0.8461
2447.948444 0.8466 0.8470 0.8473 0.8475 0.8478
2451.251892 0.8480 0.8483 0.8485 0.8488 0.8490
2454.555339 0.8490 0.8490 0.8490 0.8490 0.8493
2457.858786 0.8496 0.8498 0.8500 0.8500 0.8500
2461.162233 0.8500 0.8500 0.8500 0.8500 0.8500
2464.465680 0.8501 0.8503 0.8506 0.8508 0.8511
2467.769128 0.8513 0.8516 0.8518 0.8520 0.8520
2471.072575 0.8520 0.8520 0.8520 0.8520 0.8520
2474.376022 0.8520 0.8520 0.8520 0.8520 0.8520
2477.679469 0.8520 0.8520 0.8520 0.8520 0.8520
2480.982917 0.8520 0.8520 0.8520 0.8520 0.8520
2484.286364 0.8520 0.8520 0.8519 0.8516 0.8514
2487.589811 0.8511 0.8510 0.8510 0.8510 0.8510
2490.893258 0.8509 0.8506 0.8504 0.8501 0.8500
2494.196705 0.8500 0.8500 0.8500 0.8500 0.8500
2497.500153 0.8500 0.8500 0.8498 0.8496 0.8493
2500.803600 0.8491 0.8490 0.8490 0.8490 0.8490
2504.107047 0.8488 0.8486 0.8483 0.8481 0.8476
2507.410494 0.8471 0.8466 0.8461 0.8458 0.8455
2510.713942 0.8453 0.8450 0.8446 0.8441 0.8436
2514.017389 0.8431 0.8426 0.8421 0.8416 0.8411
2517.320836 0.8406 0.8401 0.8396 0.8391 0.8386
2520.624283 0.8380 0.8375 0.8370 0.8368 0.8365
2523.927730 0.8363 0.8360 0.8363 0.8365 0.8368
2527.231178 0.8370 0.8370 0.8370 0.8370 0.8370
2530.534625 0.8370 0.8370 0.8370 0.8370 0.8373
2533.838072 0.8375 0.8378 0.8380 0.8383 0.8385
2537.141519 0.8388 0.8390 0.8393 0.8395 0.8398
2540.444967 0.8400 0.8403 0.8405 0.8408 0.8410
2543.748414 0.8413 0.8415 0.8418 0.8420 0.8423
2547.051861 0.8426 0.8428 0.8431 0.8433 0.8436
2550.355308 0.8438 0.8441 0.8443 0.8446 0.8448
2553.658755 0.8450 0.8450 0.8450 0.8450 0.8451
2556.962203 0.8453 0.8456 0.8458 0.8460 0.8460
2560.265650 0.8460 0.8460 0.8460 0.8460 0.8460
2563.569097 0.8460 0.8460 0.8460 0.8460 0.8460
2566.872544 0.8460 0.8460 0.8460 0.8460 0.8460
2570.175992 0.8460 0.8460 0.8460 0.8459 0.8456
2573.479439 0.8454 0.8451 0.8449 0.8446 0.8444
2576.782886 0.8441 0.8440 0.8440 0.8440 0.8440
2580.086333 0.8440 0.8440 0.8440 0.8440 0.8440
2583.389780 0.8440 0.8440 0.8440 0.8438 0.8436
2586.693228 0.8433 0.8431 0.8430 0.8430 0.8430
2589.996675 0.8430 0.8430 0.8430 0.8430 0.8430
2593.300122 0.8428 0.8426 0.8423 0.8421 0.8420
2596.603569 0.8420 0.8420 0.8420 0.8418 0.8415
2599.907017 0.8413 0.8410 0.8410 0.8410 0.8410
2603.210464 0.8410 0.8408 0.8405 0.8403 0.8400
2606.513911 0.8400 0.8400 0.8400 0.8400 0.8398
2609.817358 0.8395 0.8393 0.8390 0.8390 0.8390
2613.120805 0.8390 0.8390 0.8390 0.8390 0.8390
2616.424253 0.8390 0.8387 0.8385 0.8382 0.8380
2619.727700 0.8380 0.8380 0.8380 0.8380 0.8380
2623.031147 0.8380 0.8380 0.8380 0.8380 0.8380
2626.334594 0.8380 0.8380 0.8380 0.8380 0.8380
2629.638041 0.8380 0.8380 0.8380 0.8380 0.8381
2632.941489 0.8383 0.8386 0.8388 0.8390 0.8390
2636.244936 0.8390 0.8390 0.8390 0.8390 0.8390
2639.548383 0.8390 0.8391 0.8397 0.8402 0.8407
2642.851830 0.8411 0.8413 0.8416 0.8418 0.8421
2646.155278 0.8423 0.8426 0.8428 0.8430 0.8430
2649.458725 0.8430 0.8430 0.8431 0.8434 0.8436
2652.762172 0.8439 0.8440 0.8440 0.8440 0.8440
2656.065619 0.8440 0.8440 0.8440 0.8440 0.8440
2659.369066 0.8440 0.8440 0.8440 0.8440 0.8440
2662.672514 0.8440 0.8440 0.8441 0.8444 0.8446
2665.975961 0.8449 0.8450 0.8450 0.8450 0.8450
2669.279408 0.8450 0.8450 0.8450 0.8450 0.8450
2672.582855 0.8450 0.8450 0.8450 0.8452 0.8454
2675.886303 0.8457 0.8459 0.8460 0.8460 0.8460
2679.189750 0.8460 0.8460 0.8460 0.8460 0.8460
2682.493197 0.8460 0.8460 0.8460 0.8460 0.8462
2685.796644 0.8465 0.8467 0.8470 0.8470 0.8470
2689.100091 0.8470 0.8470 0.8472 0.8475 0.8477
2692.403539 0.8480 0.8480 0.8480 0.8480 0.8480
2695.706986 0.8480 0.8480 0.8480 0.8480 0.8480
2699.010433 0.8480 0.8480 0.8480 0.8480 0.8480
2702.313880 0.8480 0.8480 0.8480 0.8480 0.8480
2705.617328 0.8480 0.8480 0.8480 0.8480 0.8480
2708.920775 0.8480 0.8480 0.8480 0.8480 0.8480
2712.224222 0.8480 0.8480 0.8480 0.8480 0.8480
2715.527669 0.8480 0.8480 0.8480 0.8480 0.8480
2718.831116 0.8480 0.8483 0.8486 0.8488 0.8490
2722.134564 0.8490 0.8490 0.8490 0.8490 0.8490
2725.438011 0.8490 0.8490 0.8489 0.8487 0.8484
2728.741458 0.8482 0.8480 0.8480 0.8480 0.8480
2732.044905 0.8480 0.8480 0.8480 0.8480 0.8480
2735.348353 0.8480 0.8480 0.8480 0.8480 0.8480
2738.651800 0.8480 0.8480 0.8479 0.8476 0.8474
2741.955247 0.8471 0.8469 0.8466 0.8464 0.8461
2745.258694 0.8459 0.8456 0.8454 0.8451 0.8449
2748.562141 0.8446 0.8444 0.8441 0.8439 0.8436
2751.865589 0.8434 0.8431 0.8430 0.8430 0.8430
2755.169036 0.8430 0.8429 0.8426 0.8423 0.8421
2758.472483 0.8420 0.8420 0.8420 0.8420 0.8418
2761.775930 0.8416 0.8413 0.8411 0.8410 0.8410
2765.079378 0.8410 0.8410 0.8408 0.8406 0.8403
2768.382825 0.8401 0.8402 0.8404 0.8407 0.8409
2771.686272 0.8410 0.8410 0.8410 0.8410 0.8410
2774.989719 0.8410 0.8410 0.8410 0.8412 0.8415
2778.293166 0.8417 0.8420 0.8422 0.8425 0.8427
2781.596614 0.8430 0.8430 0.8430 0.8430 0.8430
2784.900061 0.8430 0.8430 0.8430 0.8430 0.8430
2788.203508 0.8430 0.8430 0.8430 0.8430 0.8430
2791.506955 0.8430 0.8430 0.8433 0.8435 0.8438
2794.810403 0.8440 0.8440 0.8440 0.8440 0.8440
2798.113850 0.8440 0.8440 0.8440 0.8440 0.8437
2801.417297 0.8435 0.8432 0.8430 0.8430 0.8430
2804.720744 0.8430 0.8430 0.8430 0.8430 0.8430
2808.024191 0.8430 0.8427 0.8424 0.8422 0.8419
2811.327639 0.8417 0.8414 0.8412 0.8410 0.8410
2814.631086 0.8410 0.8410 0.8410 0.8410 0.8410
2817.934533 0.8410 0.8410 0.8410 0.8410 0.8410
2821.237980 0.8409 0.8407 0.8404 0.8402 0.8399
2824.541428 0.8396 0.8394 0.8391 0.8390 0.8390
2827.844875 0.8390 0.8390 0.8388 0.8383 0.8378
2831.148322 0.8373 0.8369 0.8366 0.8364 0.8361
2834.451769 0.8359 0.8356 0.8354 0.8351 0.8347
2837.755216 0.8342 0.8337 0.8332 0.8327 0.8322
2841.058664 0.8317 0.8312 0.8307 0.8302 0.8297
2844.362111 0.8292 0.8287 0.8282 0.8277 0.8272
2847.665558 0.8263 0.8253 0.8243 0.8233 0.8227
2850.969005 0.8221 0.8216 0.8211 0.8203 0.8193
2854.272453 0.8183 0.8173 0.8168 0.8166 0.8163
2857.575900 0.8161 0.8152 0.8142 0.8132 0.8122
2860.879347 0.8118 0.8115 0.8113 0.8110 0.8112
2864.182794 0.8115 0.8117 0.8120 0.8120 0.8120
2867.486241 0.8120 0.8120 0.8122 0.8125 0.8127
2870.789689 0.8130 0.8140 0.8150 0.8160 0.8170
2874.093136 0.8175 0.8180 0.8185 0.8190 0.8190
2877.396583 0.8190 0.8190 0.8190 0.8193 0.8195
2880.700030 0.8198 0.8200 0.8200 0.8200 0.8200
2884.003478 0.8200 0.8203 0.8205 0.8208 0.8210
2887.306925 0.8210 0.8210 0.8210 0.8210 0.8210
2890.610372 0.8210 0.8210 0.8210 0.8210 0.8210
2893.913819 0.8210 0.8210 0.8210 0.8210 0.8210
2897.217266 0.8209 0.8204 0.8199 0.8194 0.8188
2900.520714 0.8180 0.8173 0.8165 0.8159 0.8157
2903.824161 0.8154 0.8152 0.8149 0.8147 0.8144
2907.127608 0.8142 0.8139 0.8137 0.8134 0.8132
2910.431055 0.8129 0.8127 0.8124 0.8122 0.8114
2913.734503 0.8099 0.8084 0.8069 0.8054 0.8038
2917.037950 0.8023 0.8008 0.7986 0.7959 0.7931
2920.341397 0.7903 0.7881 0.7863 0.7846 0.7828
2923.644844 0.7819 0.7816 0.7814 0.7811 0.7810
2926.948291 0.7810 0.7810 0.7810 0.7813 0.7818
2930.251739 0.7823 0.7828 0.7833 0.7838 0.7843
2933.555186 0.7848 0.7852 0.7854 0.7857 0.7859
2936.858633 0.7867 0.7877 0.7887 0.7897 0.7907
2940.162080 0.7917 0.7927 0.7937 0.7944 0.7949
2943.465528 0.7954 0.7959 0.7964 0.7969 0.7974
2946.768975 0.7979 0.7980 0.7980 0.7980 0.7980
2950.072422 0.7974 0.7966 0.7959 0.7951 0.7930
2953.375869 0.7908 0.7885 0.7862 0.7844 0.7827
2956.679316 0.7809 0.7791 0.7767 0.7742 0.7717
2959.982764 0.7691 0.7669 0.7646 0.7623 0.7601
2963.286211 0.7576 0.7551 0.7525 0.7500 0.7473
2966.589658 0.7445 0.7417 0.7390 0.7367 0.7344
2969.893105 0.7321 0.7300 0.7295 0.7289 0.7284
2973.196553 0.7280 0.7283 0.7285 0.7288 0.7293
2976.500000 0.7316 0.7339 0.7361 0.7382 0.7395
2979.803447 0.7407 0.7420 0.7432 0.7445 0.7458
2983.106894 0.7470 0.7482 0.7492 0.7502 0.7512
2986.410341 0.7529 0.7564 0.7599 0.7634 0.7661
2989.713789 0.7663 0.7666 0.7668 0.7670 0.7670
2993.017236 0.7670 0.7670 0.7669 0.7667 0.7664
2996.320683 0.7662 0.7609 0.7481 0.7353 0.7225
2999.624130 0.7123 0.7057 0.6992 0.6926 0.6861
3002.927578 0.6796 0.6730 0.6665 0.6604 0.6549
3006.231025 0.6493 0.6438 0.6404 0.6391 0.6379
3009.534472 0.6366 0.6360 0.6360 0.6360 0.6360
3012.837919 0.6378 0.6410 0.6443 0.6476 0.6506
3016.141366 0.6533 0.6561 0.6589 0.6618 0.6648
3019.444814 0.6678 0.6708 0.6736 0.6761 0.6787
3022.748261 0.6812 0.6823 0.6829 0.6834 0.6839
3026.051708 0.6849 0.6862 0.6874 0.6887 0.6890
3029.355155 0.6890 0.6890 0.6890 0.6857 0.6814
3032.658603 0.6772 0.6729 0.6678 0.6625 0.6573
3035.962050 0.6520 0.6461 0.6400 0.6340 0.6280
3039.265497 0.6270 0.6270 0.6270 0.6270 0.6296
3042.568944 0.6326 0.6357 0.6387 0.6442 0.6499
3045.872391 0.6557 0.6615 0.6639 0.6659 0.6679
3049.175839 0.6700 0.6733 0.6765 0.6798 0.6830
3052.479286 0.6833 0.6835 0.6838 0.6838 0.6801
3055.782733 0.6763 0.6725 0.6685 0.6615 0.6544
3059.086180 0.6474 0.6405 0.6355 0.6305 0.6254
3062.389628 0.6204 0.6151 0.6098 0.6045 0.5992
3065.693075 0.5940 0.5887 0.5834 0.5781 0.5728
3068.996522 0.5676 0.5623 0.5570 0.5520 0.5470
3072.299969 0.5419 0.5380 0.5380 0.5380 0.5380
3075.603416 0.5401 0.5471 0.5541 0.5612 0.5682
3078.906864 0.5753 0.5823 0.5894 0.5961 0.6021
3082.210311 0.6081 0.6142 0.6224 0.6345 0.6466
3085.513758 0.6587 0.6659 0.6656 0.6654 0.6651
3088.817205 0.6597 0.6468 0.6340 0.6212 0.6127
3092.120653 0.6097 0.6066 0.6036 0.6007 0.5979
3095.424100 0.5952 0.5924 0.5910 0.5910 0.5910
3098.727547 0.5910 0.5932 0.5976 0.6019 0.6062
3102.030994 0.6134 0.6224 0.6315 0.6405 0.6541
3105.334441 0.6705 0.6868 0.7032 0.7105 0.7127
3108.637889 0.7150 0.7172 0.7192 0.7209 0.7227
3111.941336 0.7245 0.7262 0.7280 0.7297 0.7315
3115.244783 0.7336 0.7359 0.7382 0.7404 0.7477
3118.548230 0.7568 0.7658 0.7749 0.7818 0.7881
3121.851678 0.7944 0.8007 0.8020 0.8020 0.8020
3125.155125 0.8020 0.8028 0.8039 0.8049 0.8059
3128.458572 0.8071 0.8084 0.8096 0.8109 0.8119
3131.762019 0.8129 0.8139 0.8149 0.8155 0.8160
3135.065466 0.8165 0.8170 0.8172 0.8175 0.8177
3138.368914 0.8180 0.8182 0.8185 0.8188 0.8190
3141.672361 0.8195 0.8200 0.8205 0.8210 0.8210
3144.975808 0.8210 0.8210 0.8210 0.8210 0.8210
3148.279255 0.8210 0.8210 0.8215 0.8221 0.8226
3151.582703 0.8230 0.8230 0.8230 0.8230 0.8230
3154.886150 0.8227 0.8224 0.8222 0.8219 0.8217
3158.189597 0.8214 0.8212 0.8209 0.8204 0.8199
3161.493044 0.8194 0.8189 0.8187 0.8184 0.8182
3164.796491 0.8179 0.8174 0.8168 0.8163 0.8159
3168.099939 0.8157 0.8154 0.8152 0.8150 0.8150
3171.403386 0.8150 0.8150 0.8152 0.8157 0.8162
3174.706833 0.8167 0.8174 0.8184 0.8194 0.8204
3178.010280 0.8214 0.8224 0.8235 0.8245 0.8255
3181.313728 0.8265 0.8275 0.8285 0.8294 0.8301
3184.617175 0.8309 0.8317 0.8321 0.8324 0.8326
3187.920622 0.8329 0.8331 0.8334 0.8336 0.8339
3191.224069 0.8340 0.8340 0.8340 0.8340 0.8342
3194.527516 0.8344 0.8347 0.8349 0.8350 0.8350
3197.830964 0.8350 0.8350 0.8350 0.8350 0.8350
3201.134411 0.8350 0.8350 0.8350 0.8350 0.8350
3204.437858 0.8350 0.8350 0.8350 0.8350 0.8352
3207.741305 0.8355 0.8357 0.8360 0.8362 0.8365
3211.044753 0.8367 0.8370 0.8370 0.8370 0.8370
3214.348200 0.8370 0.8370 0.8370 0.8370 0.8370
3217.651647 0.8372 0.8375 0.8377 0.8380 0.8382
3220.955094 0.8385 0.8387 0.8390 0.8390 0.8390
3224.258541 0.8390 0.8390 0.8390 0.8390 0.8390
3227.561989 0.8390 0.8392 0.8395 0.8398 0.8400
3230.865436 0.8400 0.8400 0.8400 0.8400 0.8403
3234.168883 0.8405 0.8408 0.8411 0.8416 0.8421
3237.472330 0.8426 0.8430 0.8430 0.8430 0.8430
3240.775778 0.8430 0.8433 0.8435 0.8438 0.8440
3244.079225 0.8440 0.8440 0.8440 0.8439 0.8437
3247.382672 0.8434 0.8432 0.8430 0.8430 0.8430
3250.686119 0.8430 0.8430 0.8430 0.8430 0.8430
3253.989566 0.8430 0.8430 0.8430 0.8430 0.8430
3257.293014 0.8430 0.8430 0.8430 0.8430 0.8430
3260.596461 0.8430 0.8430 0.8430 0.8430 0.8430
3263.899908 0.8430 0.8430 0.8430 0.8430 0.8430
3267.203355 0.8430 0.8430 0.8430 0.8430 0.8429
3270.506803 0.8426 0.8424 0.8421 0.8419 0.8416
3273.810250 0.8414 0.8411 0.8410 0.8410 0.8410
3277.113697 0.8410 0.8409 0.8406 0.8404 0.8401
3280.417144 0.8400 0.8400 0.8400 0.8400 0.8400
3283.720591 0.8400 0.8400 0.8400 0.8400 0.8400
3287.024039 0.8400 0.8400 0.8402 0.8404 0.8407
3290.327486 0.8409 0.8410 0.8410 0.8410 0.8410
3293.630933 0.8410 0.8410 0.8410 0.8410 0.8410
3296.934380 0.8410 0.8410 0.8410 0.8410 0.8410
3300.237828 0.8410 0.8410 0.8412 0.8415 0.8417
3303.541275 0.8420 0.8420 0.8420 0.8420 0.8420
3306.844722 0.8422 0.8425 0.8427 0.8430 0.8430
3310.148169 0.8430 0.8430 0.8430 0.8430 0.8430
3313.451616 0.8430 0.8430 0.8430 0.8430 0.8430
3316.755064 0.8430 0.8430 0.8430 0.8430 0.8430
3320.058511 0.8430 0.8430 0.8430 0.8430 0.8427
3323.361958 0.8425 0.8422 0.8420 0.8420 0.8420
3326.665405 0.8420 0.8420 0.8417 0.8415 0.8412
3329.968853 0.8410 0.8410 0.8410 0.8410 0.8409
3333.272300 0.8404 0.8399 0.8394 0.8389 0.8387
3336.575747 0.8384 0.8382 0.8379 0.8377 0.8374
3339.879194 0.8372 0.8368 0.8363 0.8358 0.8353
3343.182641 0.8347 0.8337 0.8326 0.8316 0.8306
3346.486089 0.8296 0.8286 0.8276 0.8254 0.8214
3349.789536 0.8174 0.8134 0.8107 0.8099 0.8092
3353.092983 0.8084 0.8073 0.8058 0.8043 0.8028
3356.396430 0.8011 0.7991 0.7970 0.7950 0.7928
3359.699878 0.7903 0.7877 0.7852 0.7813 0.7759
3363.003325 0.7705 0.7652 0.7611 0.7578 0.7545
3366.306772 0.7513 0.7500 0.7500 0.7500 0.7500
3369.610219 0.7532 0.7583 0.7633 0.7683 0.7717
3372.913666 0.7742 0.7767 0.7792 0.7817 0.7843
3376.217114 0.7868 0.7893 0.7911 0.7926 0.7941
3379.520561 0.7956 0.7986 0.8021 0.8056 0.8092
3382.824008 0.8113 0.8131 0.8149 0.8166 0.8184
3386.127455 0.8202 0.8219 0.8237 0.8246 0.8254
3389.430903 0.8262 0.8269 0.8277 0.8284 0.8292
3392.734350 0.8299 0.8309 0.8319 0.8329 0.8339
3396.037797 0.8342 0.8345 0.8347 0.8350 0.8352
3399.341244 0.8355 0.8357 0.8360 0.8362 0.8365
3402.644691 0.8368 0.8370 0.8370 0.8370 0.8370
3405.948139 0.8370 0.8373 0.8375 0.8378 0.8380
3409.251586 0.8380 0.8380 0.8380 0.8380 0.8383
3412.555033 0.8385 0.8388 0.8390 0.8390 0.8390
3415.858480 0.8390 0.8390 0.8390 0.8390 0.8390
3419.161928 0.8390 0.8390 0.8390 0.8390 0.8390
3422.465375 0.8390 0.8390 0.8390 0.8390 0.8390
3425.768822 0.8390 0.8390 0.8390 0.8390 0.8390
3429.072269 0.8390 0.8390 0.8390 0.8390 0.8390
3432.375716 0.8390 0.8390 0.8390 0.8390 0.8390
3435.679164 0.8390 0.8390 0.8390 0.8390 0.8390
3438.982611 0.8390 0.8390 0.8390 0.8390 0.8390
3442.286058 0.8390 0.8389 0.8386 0.8384 0.8381
3445.589505 0.8380 0.8380 0.8380 0.8380 0.8380
3448.892953 0.8380 0.8380 0.8380 0.8380 0.8380
3452.196400 0.8380 0.8380 0.8379 0.8376 0.8373
3455.499847 0.8371 0.8370 0.8370 0.8370 0.8370
3458.803294 0.8370 0.8370 0.8370 0.8370 0.8370
3462.106741 0.8370 0.8370 0.8370 0.8368 0.8366
3465.410189 0.8363 0.8361 0.8360 0.8360 0.8360
3468.713636 0.8360 0.8358 0.8356 0.8353 0.8350
3472.017083 0.8350 0.8350 0.8350 0.8350 0.8350
3475.320530 0.8350 0.8350 0.8350 0.8350 0.8350
3478.623978 0.8350 0.8350 0.8348 0.8345 0.8343
3481.927425 0.8340 0.8340 0.8340 0.8340 0.8340
3485.230872 0.8338 0.8335 0.8333 0.8330 0.8330
3488.534319 0.8330 0.8330 0.8330 0.8330 0.8330
3491.837766 0.8330 0.8330 0.8330 0.8330 0.8330
3495.141214 0.8330 0.8327 0.8325 0.8322 0.8320
3498.444661 0.8320 0.8320 0.8320 0.8320 0.8317
3501.748108 0.8315 0.8312 0.8310 0.8310 0.8310
3505.051555 0.8310 0.8310 0.8307 0.8304 0.8302
3508.355003 0.8300 0.8300 0.8300 0.8300 0.8299
3511.658450 0.8297 0.8294 0.8292 0.8290 0.8290
3514.961897 0.8290 0.8290 0.8290 0.8290 0.8290
3518.265344 0.8290 0.8289 0.8287 0.8284 0.8282
3521.568791 0.8280 0.8280 0.8280 0.8280 0.8279
3524.872239 0.8276 0.8274 0.8271 0.8270 0.8270
3528.175686 0.8270 0.8270 0.8270 0.8270 0.8270
3531.479133 0.8270 0.8270 0.8270 0.8270 0.8270
3534.782580 0.8270 0.8270 0.8270 0.8270 0.8270
3538.086028 0.8270 0.8270 0.8270 0.8270 0.8270
3541.389475 0.8270 0.8270 0.8270 0.8270 0.8270
3544.692922 0.8270 0.8270 0.8270 0.8270 0.8270
3547.996369 0.8270 0.8270 0.8270 0.8270 0.8270
3551.299816 0.8270 0.8270 0.8270 0.8272 0.8274
3554.603264 0.8277 0.8279 0.8280 0.8280 0.8280
3557.906711 0.8280 0.8282 0.8285 0.8287 0.8290
3561.210158 0.8290 0.8290 0.8290 0.8290 0.8290
3564.513605 0.8290 0.8290 0.8290 0.8290 0.8290
3567.817053 0.8290 0.8290 0.8292 0.8295 0.8297
3571.120500 0.8300 0.8302 0.8305 0.8307 0.8310
3574.423947 0.8312 0.8315 0.8318 0.8320 0.8323
3577.727394 0.8325 0.8328 0.8330 0.8335 0.8340
3581.030841 0.8345 0.8350 0.8353 0.8355 0.8358
3584.334289 0.8360 0.8363 0.8365 0.8368 0.8371
3587.637736 0.8376 0.8381 0.8386 0.8390 0.8393
3590.941183 0.8395 0.8398 0.8400 0.8403 0.8405
3594.244630 0.8408 0.8411 0.8416 0.8421 0.8426
3597.548078 0.8431 0.8433 0.8436 0.8438 0.8441
3600.851525 0.8443 0.8446 0.8448 0.8451 0.8453
3604.154972 0.8456 0.8458 0.8460 0.8460 0.8460
3607.458419 0.8460 0.8460 0.8460 0.8460 0.8460
3610.761866 0.8460 0.8460 0.8460 0.8460 0.8461
3614.065314 0.8464 0.8466 0.8469 0.8470 0.8470
3617.368761 0.8470 0.8470 0.8470 0.8470 0.8470
3620.672208 0.8470 0.8470 0.8470 0.8470 0.8470
3623.975655 0.8470 0.8470 0.8470 0.8470 0.8469
3627.279103 0.8466 0.8463 0.8461 0.8460 0.8460
3630.582550 0.8460 0.8460 0.8460 0.8460 0.8460
3633.885997 0.8460 0.8460 0.8460 0.8460 0.8460
3637.189444 0.8458 0.8456 0.8453 0.8451 0.8450
3640.492891 0.8450 0.8450 0.8450 0.8450 0.8450
3643.796339 0.8450 0.8450 0.8448 0.8446 0.8443
3647.099786 0.8441 0.8440 0.8440 0.8440 0.8440
3650.403233 0.8438 0.8435 0.8433 0.8430 0.8428
3653.706680 0.8425 0.8423 0.8420 0.8418 0.8415
3657.010128 0.8413 0.8410 0.8410 0.8410 0.8410
3660.313575 0.8410 0.8410 0.8410 0.8410 0.8410
3663.617022 0.8410 0.8410 0.8410 0.8410 0.8410
3666.920469 0.8410 0.8410 0.8410 0.8407 0.8405
3670.223916 0.8402 0.8400 0.8397 0.8395 0.8392
3673.527364 0.8389 0.8379 0.8369 0.8359 0.8349
3676.830811 0.8339 0.8328 0.8318 0.8310 0.8310
3680.134258 0.8310 0.8310 0.8309 0.8304 0.8299
3683.437705 0.8294 0.8289 0.8284 0.8279 0.8274
3686.741153 0.8269 0.8264 0.8259 0.8254 0.8250
3690.044600 0.8250 0.8250 0.8250 0.8252 0.8257
3693.348047 0.8262 0.8267 0.8273 0.8283 0.8294
3696.651494 0.8304 0.8310 0.8310 0.8310 0.8310
3699.954941 0.8311 0.8313 0.8316 0.8319 0.8322
3703.258389 0.8327 0.8332 0.8337 0.8341 0.8344
3706.561836 0.8346 0.8349 0.8350 0.8350 0.8350
3709.865283 0.8350 0.8353 0.8358 0.8363 0.8368
3713.168730 0.8371 0.8374 0.8376 0.8379 0.8381
3716.472178 0.8384 0.8387 0.8389 0.8390 0.8390
3719.775625 0.8390 0.8390 0.8390 0.8390 0.8390
3723.079072 0.8390 0.8392 0.8394 0.8397 0.8399
3726.382519 0.8402 0.8404 0.8407 0.8409 0.8414
3729.685966 0.8419 0.8424 0.8429 0.8432 0.8435
3732.989414 0.8437 0.8440 0.8440 0.8440 0.8440
3736.292861 0.8440 0.8440 0.8440 0.8440 0.8440
3739.596308 0.8442 0.8445 0.8447 0.8450 0.8450
3742.899755 0.8450 0.8450 0.8450 0.8452 0.8455
3746.203203 0.8457 0.8460 0.8460 0.8460 0.8460
3749.506650 0.8460 0.8460 0.8460 0.8460 0.8460
3752.810097 0.8462 0.8465 0.8468 0.8470 0.8473
3756.113544 0.8475 0.8478 0.8480 0.8480 0.8480
3759.416991 0.8480 0.8480 0.8480 0.8480 0.8480
3762.720439 0.8480 0.8480 0.8480 0.8480 0.8480
3766.023886 0.8480 0.8480 0.8480 0.8480 0.8480
3769.327333 0.8480 0.8480 0.8480 0.8480 0.8480
3772.630780 0.8480 0.8479 0.8477 0.8474 0.8472
3775.934228 0.8469 0.8467 0.8464 0.8462 0.8460
3779.237675 0.8460 0.8460 0.8460 0.8460 0.8460
3782.541122 0.8460 0.8460 0.8459 0.8457 0.8454
3785.844569 0.8451 0.8450 0.8450 0.8450 0.8450
3789.148016 0.8449 0.8446 0.8444 0.8441 0.8440
3792.451464 0.8440 0.8440 0.8440 0.8440 0.8440
3795.754911 0.8440 0.8440 0.8440 0.8440 0.8440
3799.058358 0.8440 0.8440 0.8440 0.8440 0.8440
3802.361805 0.8440 0.8440 0.8440 0.8440 0.8441
3805.665253 0.8444 0.8447 0.8449 0.8452 0.8454
3808.968700 0.8457 0.8459 0.8460 0.8460 0.8460
3812.272147 0.8460 0.8460 0.8460 0.8460 0.8460
3815.575594 0.8460 0.8460 0.8460 0.8460 0.8460
3818.879041 0.8460 0.8460 0.8460 0.8460 0.8460
3822.182489 0.8460 0.8460 0.8460 0.8460 0.8460
3825.485936 0.8460 0.8460 0.8460 0.8460 0.8460
3828.789383 0.8462 0.8465 0.8467 0.8470 0.8470
3832.092830 0.8470 0.8470 0.8470 0.8470 0.8470
3835.396278 0.8470 0.8470 0.8470 0.8470 0.8470
3838.699725 0.8470 0.8473 0.8475 0.8478 0.8480
3842.003172 0.8480 0.8480 0.8480 0.8480 0.8480
3845.306619 0.8480 0.8480 0.8480 0.8480 0.8480
3848.610066 0.8480 0.8480 0.8480 0.8480 0.8480
3851.913514 0.8480 0.8480 0.8480 0.8480 0.8480
3855.216961 0.8480 0.8480 0.8480 0.8480 0.8480
3858.520408 0.8480 0.8480 0.8480 0.8480 0.8480
3861.823855 0.8480 0.8479 0.8477 0.8474 0.8472
3865.127303 0.8470 0.8470 0.8470 0.8470 0.8470
3868.430750 0.8470 0.8470 0.8470 0.8470 0.8470
3871.734197 0.8470 0.8470 0.8470 0.8470 0.8470
3875.037644 0.8470 0.8469 0.8466 0.8464 0.8461
3878.341091 0.8460 0.8460 0.8460 0.8460 0.8460
3881.644539 0.8460 0.8460 0.8460 0.8460 0.8460
3884.947986 0.8460 0.8460 0.8460 0.8460 0.8460
3888.251433 0.8460 0.8460 0.8460 0.8460 0.8460
3891.554880 0.8460 0.8460 0.8460 0.8460 0.8460
3894.858328 0.8460 0.8460 0.8460 0.8460 0.8460
3898.161775 0.8460 0.8460 0.8458 0.8456 0.8453
3901.465222 0.8451 0.8448 0.8446 0.8443 0.8441
3904.768669 0.8440 0.8440 0.8440 0.8440 0.8440
3908.072116 0.8440 0.8440 0.8440 0.8440 0.8440
3911.375564 0.8440 0.8440 0.8440 0.8440 0.8440
3914.679011 0.8440 0.8440 0.8440 0.8440 0.8440
3917.982458 0.8440 0.8440 0.8440 0.8440 0.8438
3921.285905 0.8435 0.8433 0.8430 0.8430 0.8430
3924.589353 0.8430 0.8430 0.8430 0.8430 0.8430
3927.892800 0.8430 0.8430 0.8430 0.8430 0.8430
3931.196247 0.8427 0.8425 0.8422 0.8420 0.8417
3934.499694 0.8415 0.8412 0.8410 0.8410 0.8410
3937.803141 0.8410 0.8410 0.8410 0.8410 0.8410
3941.106589 0.8410 0.8413 0.8416 0.8418 0.8420
3944.410036 0.8420 0.8420 0.8420 0.8421 0.8423
3947.713483 0.8426 0.8428 0.8430 0.8430 0.8430
3951.016930 0.8430 0.8430 0.8430 0.8430 0.8430
3954.320378 0.8430 0.8430 0.8430 0.8430 0.8430
3957.623825 0.8430 0.8430 0.8430 0.8430 0.8430
3960.927272 0.8430 0.8430 0.8430 0.8430 0.8430
3964.230719 0.8430 0.8430 0.8430 0.8430 0.8430
3967.534166 0.8430 0.8430 0.8430 0.8430 0.8430
3970.837614 0.8430 0.8430 0.8430 0.8430 0.8430
3974.141061 0.8430 0.8430 0.8429 0.8426 0.8424
3977.444508 0.8421 0.8420 0.8420 0.8420 0.8420
3980.747955 0.8418 0.8416 0.8413 0.8411 0.8410
3984.051402 0.8410 0.8410 0.8410
##END=
