##TITLE=3-Nitrotoluene
##JCAMP-DX=4.24
$$ By DXEDIT 1.05 (RS McDonald)
##DATA TYPE=INFRARED SPECTRUM
##CLASS=COBLENTZ III
##ORIGIN=DOW CHEMICAL COMPANY
##OWNER=COPYRIGHT (C) 1988 by COBLENTZ SOCIETY INC.
Collection (C) 2018 copyright by the U.S. Secretary of Commerce
on behalf of the United States of America. All rights reserved.
##DATE=1963/11/21
##NAMES=1-methyl-3-nitrobenzene
##CAS REGISTRY NO=99-08-1
##MOLFORM=C7 H7 N O2
##SOURCE REFERENCE=COBLENTZ NO. 9185
##$NIST SOURCE=COBLENTZ
##$NIST IMAGE=cob9185
##SPECTROMETER/DATA SYSTEM=DOW KBr FOREPRISM-GRATING
##INSTRUMENT PARAMETERS=BLAZED AT 3.5, 12.0, 20.0 MICRON AND CHANGED AT 5.0, 7.5, 14.9 MICRON
##STATE=SOLUTION (10% CCl4 FOR 3800-1330, 10% CS2 FOR 1330-400 CM^-^1)
##PATH LENGTH=0.011 CM, 0.011 CM
$$SPECTRAL CONTAMINATION DUE TO AN UNKNOWN AROUND 400 CM^-^1
##SAMPLING PROCEDURE=TRANSMISSION
##RESOLUTION=2
##DATA PROCESSING=DIGITIZED BY COBLENTZ SOCIETY (BATCH I) FROM HARD COPY
##XUNITS=1/CM
##YUNITS=TRANSMITTANCE
##XFACTOR=1
##YFACTOR=1
##DELTAX=1
##FIRSTX=3782
##LASTX=385
##FIRSTY=0.8518
##MAXX=3782
##MINX=385
##MAXY=0.9521
##MINY=0.0009
##NPOINTS=3398
##XYDATA=(X++(Y..Y))
3782.000000 0.8518 0.8518 0.8518 0.8521 0.8524
3777.000000 0.8525 0.8528 0.8531 0.8534 0.8537
3772.000000 0.8540 0.8542 0.8545 0.8547 0.8550
3767.000000 0.8552 0.8555 0.8555 0.8555 0.8555
3762.000000 0.8554 0.8553 0.8552 0.8551 0.8550
3757.000000 0.8549 0.8549 0.8550 0.8551 0.8551
3752.000000 0.8550 0.8549 0.8546 0.8542 0.8538
3747.000000 0.8534 0.8530 0.8525 0.8521 0.8511
3742.000000 0.8501 0.8491 0.8482 0.8466 0.8450
3737.000000 0.8448 0.8446 0.8443 0.8441 0.8445
3732.000000 0.8449 0.8457 0.8465 0.8475 0.8488
3727.000000 0.8497 0.8506 0.8512 0.8518 0.8515
3722.000000 0.8513 0.8508 0.8503 0.8498 0.8493
3717.000000 0.8490 0.8487 0.8484 0.8481 0.8480
3712.000000 0.8478 0.8478 0.8480 0.8480 0.8480
3707.000000 0.8480 0.8481 0.8481 0.8481 0.8482
3702.000000 0.8483 0.8486 0.8489 0.8491 0.8494
3697.000000 0.8497 0.8500 0.8502 0.8505 0.8507
3692.000000 0.8510 0.8512 0.8515 0.8517 0.8518
3687.000000 0.8518 0.8517 0.8513 0.8503 0.8503
3682.000000 0.8502 0.8502 0.8502 0.8504 0.8507
3677.000000 0.8509 0.8512 0.8514 0.8517 0.8518
3672.000000 0.8520 0.8521 0.8524 0.8525 0.8527
3667.000000 0.8528 0.8531 0.8531 0.8532 0.8531
3662.000000 0.8528 0.8525 0.8521 0.8518 0.8515
3657.000000 0.8512 0.8510 0.8508 0.8507 0.8505
3652.000000 0.8504 0.8502 0.8500 0.8498 0.8497
3647.000000 0.8496 0.8495 0.8494 0.8494 0.8493
3642.000000 0.8493 0.8492 0.8492 0.8491 0.8491
3637.000000 0.8490 0.8490 0.8489 0.8489 0.8488
3632.000000 0.8488 0.8485 0.8483 0.8480 0.8478
3627.000000 0.8475 0.8471 0.8468 0.8467 0.8464
3622.000000 0.8462 0.8459 0.8456 0.8453 0.8451
3617.000000 0.8448 0.8445 0.8442 0.8440 0.8438
3612.000000 0.8437 0.8436 0.8435 0.8434 0.8434
3607.000000 0.8433 0.8432 0.8431 0.8430 0.8430
3602.000000 0.8430 0.8430 0.8431 0.8431 0.8432
3597.000000 0.8432 0.8433 0.8433 0.8433 0.8432
3592.000000 0.8430 0.8420 0.8410 0.8403 0.8397
3587.000000 0.8394 0.8392 0.8392 0.8393 0.8394
3582.000000 0.8396 0.8397 0.8399 0.8400 0.8401
3577.000000 0.8402 0.8403 0.8404 0.8405 0.8405
3572.000000 0.8405 0.8405 0.8406 0.8406 0.8406
3567.000000 0.8406 0.8406 0.8406 0.8406 0.8406
3562.000000 0.8406 0.8406 0.8407 0.8407 0.8407
3557.000000 0.8407 0.8407 0.8407 0.8407 0.8406
3552.000000 0.8406 0.8405 0.8405 0.8404 0.8403
3547.000000 0.8402 0.8402 0.8401 0.8400 0.8399
3542.000000 0.8399 0.8398 0.8398 0.8397 0.8396
3537.000000 0.8395 0.8395 0.8394 0.8393 0.8392
3532.000000 0.8392 0.8391 0.8391 0.8390 0.8390
3527.000000 0.8389 0.8389 0.8388 0.8388 0.8387
3522.000000 0.8387 0.8386 0.8386 0.8385 0.8385
3517.000000 0.8384 0.8384 0.8383 0.8383 0.8382
3512.000000 0.8382 0.8381 0.8381 0.8380 0.8380
3507.000000 0.8378 0.8378 0.8378 0.8377 0.8374
3502.000000 0.8371 0.8368 0.8367 0.8364 0.8361
3497.000000 0.8358 0.8356 0.8353 0.8350 0.8347
3492.000000 0.8345 0.8342 0.8339 0.8335 0.8332
3487.000000 0.8325 0.8321 0.8315 0.8309 0.8303
3482.000000 0.8298 0.8292 0.8286 0.8280 0.8275
3477.000000 0.8268 0.8263 0.8257 0.8251 0.8245
3472.000000 0.8239 0.8233 0.8227 0.8221 0.8215
3467.000000 0.8209 0.8203 0.8196 0.8190 0.8184
3462.000000 0.8178 0.8172 0.8168 0.8164 0.8160
3457.000000 0.8156 0.8151 0.8148 0.8144 0.8139
3452.000000 0.8135 0.8131 0.8126 0.8122 0.8118
3447.000000 0.8115 0.8111 0.8107 0.8104 0.8100
3442.000000 0.8096 0.8092 0.8089 0.8085 0.8081
3437.000000 0.8076 0.8074 0.8071 0.8068 0.8065
3432.000000 0.8061 0.8058 0.8056 0.8051 0.8049
3427.000000 0.8046 0.8043 0.8042 0.8041 0.8040
3422.000000 0.8039 0.8038 0.8038 0.8037 0.8036
3417.000000 0.8035 0.8034 0.8033 0.8033 0.8032
3412.000000 0.8031 0.8031 0.8031 0.8033 0.8035
3407.000000 0.8037 0.8039 0.8041 0.8044 0.8046
3402.000000 0.8048 0.8050 0.8051 0.8054 0.8056
3397.000000 0.8058 0.8061 0.8062 0.8065 0.8068
3392.000000 0.8071 0.8072 0.8075 0.8078 0.8081
3387.000000 0.8083 0.8086 0.8087 0.8088 0.8089
3382.000000 0.8090 0.8090 0.8091 0.8092 0.8093
3377.000000 0.8094 0.8095 0.8095 0.8096 0.8096
3372.000000 0.8096 0.8096 0.8096 0.8095 0.8095
3367.000000 0.8095 0.8095 0.8094 0.8094 0.8093
3362.000000 0.8093 0.8093 0.8093 0.8094 0.8096
3357.000000 0.8098 0.8101 0.8103 0.8106 0.8108
3352.000000 0.8111 0.8112 0.8115 0.8118 0.8119
3347.000000 0.8121 0.8125 0.8126 0.8130 0.8132
3342.000000 0.8135 0.8137 0.8140 0.8142 0.8144
3337.000000 0.8146 0.8148 0.8150 0.8153 0.8155
3332.000000 0.8157 0.8158 0.8161 0.8162 0.8165
3327.000000 0.8168 0.8169 0.8171 0.8172 0.8174
3322.000000 0.8175 0.8176 0.8178 0.8180 0.8182
3317.000000 0.8183 0.8185 0.8186 0.8188 0.8189
3312.000000 0.8190 0.8190 0.8191 0.8191 0.8192
3307.000000 0.8193 0.8194 0.8194 0.8195 0.8196
3302.000000 0.8197 0.8197 0.8198 0.8198 0.8198
3297.000000 0.8198 0.8198 0.8197 0.8197 0.8196
3292.000000 0.8196 0.8195 0.8195 0.8195 0.8195
3287.000000 0.8194 0.8194 0.8193 0.8192 0.8189
3282.000000 0.8187 0.8185 0.8183 0.8180 0.8178
3277.000000 0.8175 0.8174 0.8171 0.8168 0.8167
3272.000000 0.8165 0.8161 0.8158 0.8155 0.8151
3267.000000 0.8148 0.8145 0.8141 0.8137 0.8133
3262.000000 0.8130 0.8125 0.8122 0.8119 0.8118
3257.000000 0.8115 0.8111 0.8108 0.8107 0.8106
3252.000000 0.8105 0.8104 0.8103 0.8101 0.8101
3247.000000 0.8101 0.8101 0.8100 0.8099 0.8098
3242.000000 0.8098 0.8097 0.8097 0.8096 0.8096
3237.000000 0.8095 0.8095 0.8094 0.8094 0.8093
3232.000000 0.8093 0.8090 0.8088 0.8085 0.8083
3227.000000 0.8081 0.8078 0.8071 0.8065 0.8058
3222.000000 0.8051 0.8043 0.8036 0.8022 0.8011
3217.000000 0.8005 0.7999 0.7993 0.7988 0.7985
3212.000000 0.7983 0.7981 0.7980 0.7978 0.7975
3207.000000 0.7974 0.7971 0.7969 0.7968 0.7968
3202.000000 0.7968 0.7968 0.7968 0.7968 0.7968
3197.000000 0.7967 0.7967 0.7965 0.7965 0.7965
3192.000000 0.7965 0.7965 0.7965 0.7965 0.7965
3187.000000 0.7964 0.7964 0.7964 0.7964 0.7964
3182.000000 0.7964 0.7964 0.7964 0.7962 0.7962
3177.000000 0.7962 0.7962 0.7962 0.7962 0.7962
3172.000000 0.7962 0.7962 0.7962 0.7962 0.7962
3167.000000 0.7961 0.7961 0.7960 0.7960 0.7958
3162.000000 0.7958 0.7958 0.7957 0.7956 0.7956
3157.000000 0.7955 0.7954 0.7953 0.7951 0.7950
3152.000000 0.7949 0.7947 0.7946 0.7944 0.7943
3147.000000 0.7940 0.7938 0.7935 0.7932 0.7928
3142.000000 0.7926 0.7924 0.7921 0.7918 0.7917
3137.000000 0.7914 0.7911 0.7908 0.7906 0.7903
3132.000000 0.7900 0.7894 0.7888 0.7881 0.7875
3127.000000 0.7868 0.7861 0.7856 0.7850 0.7840
3122.000000 0.7831 0.7818 0.7807 0.7793 0.7778
3117.000000 0.7758 0.7739 0.7714 0.7689 0.7641
3112.000000 0.7593 0.7525 0.7460 0.7418 0.7375
3107.000000 0.7345 0.7314 0.7272 0.7233 0.7193
3102.000000 0.7153 0.7143 0.7133 0.7133 0.7133
3097.000000 0.7136 0.7139 0.7148 0.7158 0.7165
3092.000000 0.7172 0.7171 0.7169 0.7101 0.7032
3087.000000 0.6935 0.6838 0.6741 0.6645 0.6548
3082.000000 0.6451 0.6355 0.6259 0.6226 0.6181
3077.000000 0.6197 0.6201 0.6224 0.6248 0.6391
3072.000000 0.6534 0.6680 0.6826 0.6964 0.7101
3067.000000 0.7142 0.7184 0.7214 0.7244 0.7260
3062.000000 0.7275 0.7288 0.7301 0.7312 0.7325
3057.000000 0.7330 0.7336 0.7338 0.7341 0.7341
3052.000000 0.7342 0.7321 0.7301 0.7260 0.7218
3047.000000 0.7149 0.7078 0.7038 0.6998 0.6975
3042.000000 0.6951 0.6936 0.6917 0.6917 0.6918
3037.000000 0.6918 0.6918 0.6924 0.6931 0.6958
3032.000000 0.6988 0.7022 0.7058 0.7084 0.7110
3027.000000 0.7135 0.7160 0.7171 0.7182 0.7186
3022.000000 0.7191 0.7192 0.7211 0.7187 0.7182
3017.000000 0.7175 0.7168 0.7161 0.7155 0.7148
3012.000000 0.7142 0.7136 0.7131 0.7125 0.7121
3007.000000 0.7118 0.7114 0.7108 0.7103 0.7083
3002.000000 0.7064 0.7041 0.7018 0.7004 0.6989
2997.000000 0.6980 0.6971 0.6965 0.6958 0.6951
2992.000000 0.6945 0.6940 0.6935 0.6933 0.6932
2987.000000 0.6932 0.6932 0.6931 0.6931 0.6930
2982.000000 0.6928 0.6928 0.6926 0.6924 0.6921
2977.000000 0.6910 0.6898 0.6868 0.6841 0.6801
2972.000000 0.6761 0.6740 0.6718 0.6707 0.6696
2967.000000 0.6693 0.6690 0.6691 0.6692 0.6698
2962.000000 0.6705 0.6721 0.6738 0.6754 0.6769
2957.000000 0.6780 0.6790 0.6796 0.6801 0.6807
2952.000000 0.6812 0.6817 0.6821 0.6818 0.6818
2947.000000 0.6799 0.6780 0.6705 0.6630 0.6555
2942.000000 0.6480 0.6405 0.6330 0.6255 0.6180
2937.000000 0.6105 0.6030 0.5984 0.5937 0.5934
2932.000000 0.5930 0.5996 0.6062 0.6138 0.6212
2927.000000 0.6288 0.6362 0.6438 0.6512 0.6588
2922.000000 0.6662 0.6738 0.6814 0.6853 0.6893
2917.000000 0.6928 0.6965 0.7005 0.7045 0.7071
2912.000000 0.7099 0.7121 0.7146 0.7171 0.7197
2907.000000 0.7222 0.7249 0.7272 0.7298 0.7318
2902.000000 0.7339 0.7356 0.7372 0.7392 0.7411
2897.000000 0.7425 0.7438 0.7441 0.7444 0.7446
2892.000000 0.7471 0.7450 0.7451 0.7444 0.7436
2887.000000 0.7397 0.7358 0.7218 0.7080 0.6941
2882.000000 0.6801 0.6661 0.6522 0.6384 0.6245
2877.000000 0.6184 0.6124 0.6117 0.6132 0.6182
2872.000000 0.6254 0.6362 0.6471 0.6580 0.6689
2867.000000 0.6797 0.6906 0.7004 0.7101 0.7149
2862.000000 0.7197 0.7246 0.7296 0.7355 0.7415
2857.000000 0.7511 0.7608 0.7638 0.7668 0.7701
2852.000000 0.7736 0.7745 0.7754 0.7761 0.7768
2847.000000 0.7769 0.7772 0.7774 0.7774 0.7772
2842.000000 0.7768 0.7760 0.7751 0.7749 0.7746
2837.000000 0.7743 0.7741 0.7738 0.7735 0.7742
2832.000000 0.7750 0.7764 0.7778 0.7795 0.7811
2827.000000 0.7831 0.7851 0.7869 0.7890 0.7911
2822.000000 0.7932 0.7953 0.7974 0.7989 0.8004
2817.000000 0.8015 0.8028 0.8034 0.8039 0.8043
2812.000000 0.8047 0.8049 0.8051 0.8053 0.8056
2807.000000 0.8058 0.8062 0.8065 0.8069 0.8074
2802.000000 0.8078 0.8088 0.8098 0.8108 0.8118
2797.000000 0.8128 0.8139 0.8149 0.8158 0.8168
2792.000000 0.8176 0.8186 0.8195 0.8204 0.8214
2787.000000 0.8223 0.8232 0.8241 0.8251 0.8257
2782.000000 0.8264 0.8270 0.8275 0.8280 0.8284
2777.000000 0.8288 0.8292 0.8296 0.8301 0.8303
2772.000000 0.8306 0.8307 0.8307 0.8307 0.8307
2767.000000 0.8306 0.8305 0.8303 0.8302 0.8299
2762.000000 0.8296 0.8290 0.8285 0.8277 0.8270
2757.000000 0.8257 0.8244 0.8223 0.8202 0.8188
2752.000000 0.8174 0.8165 0.8158 0.8151 0.8146
2747.000000 0.8143 0.8141 0.8140 0.8140 0.8149
2742.000000 0.8158 0.8174 0.8190 0.8203 0.8217
2737.000000 0.8230 0.8243 0.8256 0.8268 0.8278
2732.000000 0.8287 0.8296 0.8306 0.8309 0.8312
2727.000000 0.8313 0.8315 0.8316 0.8318 0.8321
2722.000000 0.8325 0.8330 0.8335 0.8340 0.8345
2717.000000 0.8349 0.8354 0.8359 0.8364 0.8368
2712.000000 0.8374 0.8378 0.8383 0.8387 0.8392
2707.000000 0.8391 0.8391 0.8384 0.8378 0.8370
2702.000000 0.8362 0.8354 0.8347 0.8341 0.8335
2697.000000 0.8328 0.8324 0.8321 0.8321 0.8318
2692.000000 0.8318 0.8318 0.8320 0.8321 0.8324
2687.000000 0.8325 0.8328 0.8331 0.8334 0.8338
2682.000000 0.8342 0.8345 0.8349 0.8353 0.8357
2677.000000 0.8361 0.8365 0.8370 0.8375 0.8380
2672.000000 0.8385 0.8389 0.8394 0.8396 0.8399
2667.000000 0.8401 0.8404 0.8406 0.8409 0.8411
2662.000000 0.8413 0.8414 0.8416 0.8417 0.8418
2657.000000 0.8420 0.8421 0.8424 0.8425 0.8427
2652.000000 0.8428 0.8431 0.8433 0.8434 0.8436
2647.000000 0.8437 0.8437 0.8438 0.8438 0.8437
2642.000000 0.8437 0.8436 0.8436 0.8435 0.8435
2637.000000 0.8434 0.8434 0.8434 0.8434 0.8434
2632.000000 0.8434 0.8434 0.8435 0.8436 0.8437
2627.000000 0.8438 0.8439 0.8440 0.8441 0.8442
2622.000000 0.8443 0.8444 0.8445 0.8446 0.8448
2617.000000 0.8450 0.8452 0.8454 0.8457 0.8457
2612.000000 0.8457 0.8456 0.8455 0.8454 0.8453
2607.000000 0.8452 0.8451 0.8447 0.8443 0.8439
2602.000000 0.8435 0.8435 0.8435 0.8435 0.8435
2597.000000 0.8435 0.8435 0.8435 0.8435 0.8434
2592.000000 0.8434 0.8434 0.8434 0.8433 0.8433
2587.000000 0.8432 0.8431 0.8424 0.8417 0.8409
2582.000000 0.8401 0.8394 0.8388 0.8382 0.8375
2577.000000 0.8370 0.8364 0.8361 0.8359 0.8365
2572.000000 0.8371 0.8380 0.8388 0.8398 0.8408
2567.000000 0.8418 0.8430 0.8441 0.8453 0.8467
2562.000000 0.8481 0.8494 0.8508 0.8517 0.8525
2557.000000 0.8534 0.8543 0.8552 0.8561 0.8568
2552.000000 0.8575 0.8577 0.8578 0.8578 0.8578
2547.000000 0.8578 0.8578 0.8578 0.8578 0.8578
2542.000000 0.8578 0.8578 0.8578 0.8578 0.8578
2537.000000 0.8578 0.8578 0.8580 0.8582 0.8583
2532.000000 0.8585 0.8586 0.8588 0.8589 0.8591
2527.000000 0.8592 0.8594 0.8595 0.8597 0.8598
2522.000000 0.8600 0.8601 0.8606 0.8606 0.8606
2517.000000 0.8606 0.8607 0.8607 0.8608 0.8608
2512.000000 0.8609 0.8609 0.8609 0.8609 0.8610
2507.000000 0.8610 0.8611 0.8611 0.8612 0.8612
2502.000000 0.8612 0.8611 0.8610 0.8609 0.8609
2497.000000 0.8608 0.8607 0.8606 0.8606 0.8605
2492.000000 0.8604 0.8603 0.8603 0.8602 0.8602
2487.000000 0.8601 0.8600 0.8599 0.8599 0.8598
2482.000000 0.8597 0.8596 0.8596 0.8596 0.8596
2477.000000 0.8595 0.8595 0.8595 0.8595 0.8595
2472.000000 0.8595 0.8595 0.8595 0.8585 0.8575
2467.000000 0.8547 0.8518 0.8481 0.8443 0.8408
2462.000000 0.8373 0.8349 0.8325 0.8305 0.8285
2457.000000 0.8271 0.8257 0.8249 0.8241 0.8237
2452.000000 0.8224 0.8231 0.8228 0.8236 0.8243
2447.000000 0.8255 0.8268 0.8282 0.8296 0.8310
2442.000000 0.8325 0.8339 0.8353 0.8368 0.8383
2437.000000 0.8398 0.8413 0.8428 0.8443 0.8458
2432.000000 0.8474 0.8491 0.8508 0.8524 0.8541
2427.000000 0.8548 0.8556 0.8563 0.8570 0.8573
2422.000000 0.8577 0.8580 0.8584 0.8586 0.8589
2417.000000 0.8591 0.8594 0.8596 0.8599 0.8601
2412.000000 0.8604 0.8606 0.8609 0.8608 0.8607
2407.000000 0.8594 0.8582 0.8568 0.8554 0.8536
2402.000000 0.8518 0.8502 0.8485 0.8468 0.8451
2397.000000 0.8445 0.8439 0.8441 0.8443 0.8445
2392.000000 0.8447 0.8449 0.8452 0.8455 0.8458
2387.000000 0.8461 0.8464 0.8466 0.8468 0.8471
2382.000000 0.8475 0.8478 0.8481 0.8484 0.8487
2377.000000 0.8490 0.8493 0.8497 0.8501 0.8505
2372.000000 0.8510 0.8514 0.8518 0.8521 0.8525
2367.000000 0.8528 0.8531 0.8533 0.8536 0.8538
2362.000000 0.8541 0.8543 0.8545 0.8546 0.8548
2357.000000 0.8549 0.8551 0.8552 0.8554 0.8554
2352.000000 0.8554 0.8541 0.8528 0.8499 0.8470
2347.000000 0.8435 0.8401 0.8374 0.8347 0.8337
2342.000000 0.8328 0.8325 0.8325 0.8325 0.8330
2337.000000 0.8336 0.8343 0.8355 0.8368 0.8382
2332.000000 0.8397 0.8405 0.8414 0.8421 0.8428
2327.000000 0.8434 0.8441 0.8448 0.8455 0.8461
2322.000000 0.8468 0.8474 0.8481 0.8486 0.8492
2317.000000 0.8497 0.8503 0.8508 0.8514 0.8518
2312.000000 0.8525 0.8528 0.8532 0.8536 0.8540
2307.000000 0.8541 0.8543 0.8543 0.8543 0.8543
2302.000000 0.8542 0.8541 0.8540 0.8539 0.8538
2297.000000 0.8538 0.8539 0.8543 0.8547 0.8551
2292.000000 0.8555 0.8559 0.8564 0.8568 0.8573
2287.000000 0.8575 0.8580 0.8583 0.8587 0.8589
2282.000000 0.8591 0.8593 0.8595 0.8596 0.8597
2277.000000 0.8597 0.8596 0.8592 0.8589 0.8584
2272.000000 0.8578 0.8574 0.8568 0.8565 0.8561
2267.000000 0.8561 0.8562 0.8564 0.8566 0.8577
2262.000000 0.8588 0.8599 0.8611 0.8621 0.8634
2257.000000 0.8645 0.8657 0.8667 0.8678 0.8686
2252.000000 0.8694 0.8702 0.8710 0.8718 0.8725
2247.000000 0.8734 0.8742 0.8748 0.8754 0.8758
2242.000000 0.8763 0.8767 0.8771 0.8775 0.8781
2237.000000 0.8783 0.8785 0.8786 0.8787 0.8787
2232.000000 0.8787 0.8787 0.8787 0.8786 0.8786
2227.000000 0.8786 0.8786 0.8786 0.8786 0.8786
2222.000000 0.8786 0.8786 0.8786 0.8786 0.8786
2217.000000 0.8785 0.8785 0.8785 0.8785 0.8784
2212.000000 0.8783 0.8782 0.8781 0.8778 0.8778
2207.000000 0.8775 0.8774 0.8771 0.8768 0.8767
2202.000000 0.8766 0.8765 0.8764 0.8762 0.8761
2197.000000 0.8759 0.8757 0.8756 0.8755 0.8758
2192.000000 0.8762 0.8766 0.8770 0.8773 0.8777
2187.000000 0.8780 0.8784 0.8788 0.8792 0.8796
2182.000000 0.8801 0.8805 0.8810 0.8814 0.8818
2177.000000 0.8823 0.8828 0.8832 0.8836 0.8840
2172.000000 0.8844 0.8847 0.8851 0.8854 0.8857
2167.000000 0.8860 0.8863 0.8866 0.8868 0.8871
2162.000000 0.8873 0.8874 0.8875 0.8877 0.8878
2157.000000 0.8880 0.8882 0.8883 0.8885 0.8886
2152.000000 0.8888 0.8889 0.8891 0.8892 0.8894
2147.000000 0.8895 0.8896 0.8896 0.8897 0.8898
2142.000000 0.8899 0.8899 0.8900 0.8901 0.8902
2137.000000 0.8902 0.8903 0.8904 0.8905 0.8905
2132.000000 0.8906 0.8907 0.8908 0.8908 0.8909
2127.000000 0.8909 0.8910 0.8911 0.8912 0.8912
2122.000000 0.8913 0.8914 0.8914 0.8914 0.8914
2117.000000 0.8914 0.8914 0.8914 0.8914 0.8914
2112.000000 0.8914 0.8914 0.8914 0.8914 0.8914
2107.000000 0.8913 0.8913 0.8913 0.8913 0.8913
2102.000000 0.8913 0.8913 0.8913 0.8913 0.8913
2097.000000 0.8913 0.8913 0.8913 0.8913 0.8913
2092.000000 0.8913 0.8913 0.8913 0.8913 0.8913
2087.000000 0.8913 0.8913 0.8913 0.8913 0.8913
2082.000000 0.8913 0.8913 0.8913 0.8913 0.8913
2077.000000 0.8913 0.8914 0.8914 0.8914 0.8914
2072.000000 0.8914 0.8914 0.8914 0.8914 0.8914
2067.000000 0.8914 0.8914 0.8914 0.8914 0.8914
2062.000000 0.8914 0.8914 0.8914 0.8914 0.8915
2057.000000 0.8915 0.8915 0.8915 0.8915 0.8915
2052.000000 0.8916 0.8916 0.8916 0.8916 0.8916
2047.000000 0.8916 0.8916 0.8915 0.8915 0.8915
2042.000000 0.8915 0.8914 0.8914 0.8913 0.8913
2037.000000 0.8913 0.8913 0.8912 0.8912 0.8912
2032.000000 0.8912 0.8911 0.8911 0.8910 0.8910
2027.000000 0.8909 0.8908 0.8907 0.8907 0.8906
2022.000000 0.8906 0.8905 0.8905 0.8904 0.8904
2017.000000 0.8903 0.8903 0.8897 0.8892 0.8884
2012.000000 0.8875 0.8870 0.8865 0.8861 0.8858
2007.000000 0.8857 0.8857 0.8857 0.8857 0.8857
2002.000000 0.8857 0.8857 0.8857 0.8857 0.8857
1997.000000 0.8856 0.8856 0.8856 0.8856 0.8856
1992.000000 0.8855 0.8855 0.8854 0.8853 0.8853
1987.000000 0.8852 0.8851 0.8849 0.8845 0.8842
1982.000000 0.8839 0.8835 0.8828 0.8823 0.8817
1977.000000 0.8811 0.8805 0.8799 0.8792 0.8786
1972.000000 0.8780 0.8773 0.8766 0.8759 0.8752
1967.000000 0.8743 0.8732 0.8721 0.8707 0.8680
1962.000000 0.8568 0.8504 0.8482 0.8462 0.8447
1957.000000 0.8444 0.8459 0.8482 0.8506 0.8550
1952.000000 0.8594 0.8638 0.8671 0.8705 0.8738
1947.000000 0.8768 0.8794 0.8818 0.8831 0.8844
1942.000000 0.8856 0.8868 0.8880 0.8887 0.8891
1937.000000 0.8895 0.8898 0.8906 0.8896 0.8895
1932.000000 0.8894 0.8891 0.8887 0.8883 0.8878
1927.000000 0.8874 0.8870 0.8866 0.8862 0.8857
1922.000000 0.8852 0.8847 0.8842 0.8836 0.8830
1917.000000 0.8823 0.8814 0.8792 0.8768 0.8739
1912.000000 0.8697 0.8650 0.8593 0.8536 0.8480
1907.000000 0.8424 0.8400 0.8393 0.8405 0.8401
1902.000000 0.8449 0.8502 0.8532 0.8560 0.8587
1897.000000 0.8614 0.8639 0.8661 0.8684 0.8704
1892.000000 0.8718 0.8735 0.8750 0.8765 0.8778
1887.000000 0.8791 0.8803 0.8815 0.8827 0.8839
1882.000000 0.8852 0.8864 0.8878 0.8878 0.8878
1877.000000 0.8878 0.8875 0.8871 0.8863 0.8852
1872.000000 0.8840 0.8827 0.8812 0.8790 0.8753
1867.000000 0.8702 0.8675 0.8658 0.8640 0.8623
1862.000000 0.8624 0.8616 0.8621 0.8625 0.8631
1857.000000 0.8636 0.8643 0.8651 0.8658 0.8666
1852.000000 0.8674 0.8681 0.8689 0.8696 0.8702
1847.000000 0.8709 0.8716 0.8723 0.8730 0.8737
1842.000000 0.8743 0.8748 0.8754 0.8760 0.8766
1837.000000 0.8771 0.8777 0.8783 0.8789 0.8794
1832.000000 0.8799 0.8804 0.8809 0.8814 0.8818
1827.000000 0.8820 0.8821 0.8820 0.8818 0.8817
1822.000000 0.8811 0.8806 0.8801 0.8786 0.8760
1817.000000 0.8735 0.8704 0.8665 0.8625 0.8585
1812.000000 0.8528 0.8471 0.8408 0.8331 0.8259
1807.000000 0.8202 0.8156 0.8101 0.8114 0.8106
1802.000000 0.8131 0.8201 0.8278 0.8330 0.8378
1797.000000 0.8421 0.8460 0.8498 0.8535 0.8565
1792.000000 0.8595 0.8624 0.8651 0.8684 0.8720
1787.000000 0.8744 0.8758 0.8761 0.8762 0.8763
1782.000000 0.8759 0.8753 0.8745 0.8735 0.8725
1777.000000 0.8718 0.8712 0.8705 0.8670 0.8616
1772.000000 0.8606 0.8596 0.8586 0.8577 0.8570
1767.000000 0.8563 0.8557 0.8557 0.8557 0.8558
1762.000000 0.8565 0.8571 0.8587 0.8602 0.8616
1757.000000 0.8625 0.8634 0.8641 0.8644 0.8647
1752.000000 0.8637 0.8627 0.8617 0.8607 0.8596
1747.000000 0.8585 0.8575 0.8564 0.8554 0.8549
1742.000000 0.8547 0.8547 0.8548 0.8549 0.8544
1737.000000 0.8520 0.8482 0.8447 0.8425 0.8407
1732.000000 0.8390 0.8373 0.8359 0.8345 0.8340
1727.000000 0.8335 0.8347 0.8370 0.8394 0.8418
1722.000000 0.8443 0.8468 0.8482 0.8487 0.8495
1717.000000 0.8508 0.8523 0.8540 0.8557 0.8574
1712.000000 0.8590 0.8601 0.8595 0.8578 0.8564
1707.000000 0.8549 0.8535 0.8528 0.8521 0.8516
1702.000000 0.8506 0.8493 0.8475 0.8458 0.8457
1697.000000 0.8457 0.8465 0.8473 0.8482 0.8487
1692.000000 0.8470 0.8427 0.8386 0.8353 0.8308
1687.000000 0.8262 0.8242 0.8236 0.8230 0.8221
1682.000000 0.8208 0.8195 0.8172 0.8121 0.8081
1677.000000 0.8045 0.8034 0.8036 0.8026 0.8018
1672.000000 0.8010 0.8000 0.7978 0.7958 0.7938
1667.000000 0.7921 0.7910 0.7899 0.7887 0.7889
1662.000000 0.7890 0.7890 0.7890 0.7884 0.7817
1657.000000 0.7765 0.7735 0.7730 0.7750 0.7795
1652.000000 0.7838 0.7882 0.7890 0.7900 0.7917
1647.000000 0.7934 0.7965 0.7992 0.8008 0.8008
1642.000000 0.8008 0.7987 0.7958 0.7940 0.7932
1637.000000 0.7924 0.7908 0.7882 0.7842 0.7785
1632.000000 0.7722 0.7644 0.7558 0.7472 0.7417
1627.000000 0.7378 0.7351 0.7351 0.7351 0.7340
1622.000000 0.7328 0.7271 0.7207 0.7131 0.7053
1617.000000 0.6975 0.6882 0.6786 0.6715 0.6646
1612.000000 0.6576 0.6503 0.6426 0.6351 0.6274
1607.000000 0.6195 0.6112 0.6029 0.5947 0.5842
1602.000000 0.5733 0.5637 0.5559 0.5481 0.5360
1597.000000 0.5193 0.5040 0.4866 0.4443 0.4110
1592.000000 0.3777 0.3539 0.3528 0.3650 0.3782
1587.000000 0.3914 0.4047 0.4180 0.4225 0.4217
1582.000000 0.4154 0.4080 0.4059 0.4049 0.4034
1577.000000 0.4000 0.3922 0.3787 0.3686 0.3590
1572.000000 0.3495 0.3307 0.2843 0.2378 0.1914
1567.000000 0.1831 0.1821 0.1834 0.1854 0.1918
1562.000000 0.2026 0.2092 0.2142 0.2187 0.2227
1557.000000 0.2248 0.2299 0.2259 0.2241 0.2208
1552.000000 0.2127 0.2033 0.1927 0.1756 0.1469
1547.000000 0.1265 0.1042 0.0820 0.0597 0.0375
1542.000000 0.0153 0.0090 0.0091 0.0092 0.0094
1537.000000 0.0096 0.0088 0.0101 0.0103 0.0103
1532.000000 0.0103 0.0108 0.0116 0.0166 0.0233
1527.000000 0.0349 0.0504 0.0845 0.1299 0.1698
1522.000000 0.2097 0.2497 0.2896 0.3566 0.3684
1517.000000 0.3812 0.3957 0.4105 0.4254 0.4325
1512.000000 0.4397 0.4468 0.4542 0.4635 0.4728
1507.000000 0.4812 0.4867 0.4923 0.4979 0.5035
1502.000000 0.5117 0.5225 0.5308 0.5346 0.5362
1497.000000 0.5380 0.5384 0.5402 0.5397 0.5383
1492.000000 0.5336 0.5240 0.4688 0.4135 0.3582
1487.000000 0.3038 0.3122 0.3534 0.3947 0.4359
1482.000000 0.4771 0.5184 0.5557 0.5678 0.5772
1477.000000 0.5841 0.5910 0.5962 0.5988 0.6008
1472.000000 0.6027 0.6036 0.6036 0.6036 0.6032
1467.000000 0.6022 0.6003 0.5974 0.5932 0.5877
1462.000000 0.5832 0.5814 0.5817 0.5841 0.5907
1457.000000 0.5950 0.6010 0.6075 0.6139 0.6203
1452.000000 0.6266 0.6330 0.6394 0.6458 0.6521
1447.000000 0.6585 0.6648 0.6671 0.6694 0.6715
1442.000000 0.6731 0.6748 0.6764 0.6776 0.6783
1437.000000 0.6783 0.6783 0.6781 0.6776 0.6774
1432.000000 0.6769 0.6771 0.6778 0.6790 0.6808
1427.000000 0.6828 0.6851 0.6880 0.6944 0.7062
1422.000000 0.7167 0.7224 0.7290 0.7342 0.7371
1417.000000 0.7388 0.7405 0.7418 0.7432 0.7421
1412.000000 0.7435 0.7405 0.7264 0.7143 0.6986
1407.000000 0.6869 0.6855 0.6853 0.6884 0.6934
1402.000000 0.6998 0.7057 0.7101 0.7131 0.7151
1397.000000 0.7161 0.7161 0.7164 0.7151 0.7126
1392.000000 0.7081 0.6987 0.6883 0.6795 0.6526
1387.000000 0.5140 0.5371 0.5167 0.5272 0.5576
1382.000000 0.5881 0.6185 0.6359 0.6381 0.6400
1377.000000 0.6378 0.6358 0.6318 0.6270 0.6194
1372.000000 0.6099 0.5986 0.5847 0.5592 0.4840
1367.000000 0.4453 0.3904 0.3355 0.2805 0.2256
1362.000000 0.1707 0.1157 0.0608 0.0115 0.0104
1357.000000 0.0098 0.0086 0.0086 0.0087 0.0085
1352.000000 0.0085 0.0099 0.0128 0.0233 0.0328
1347.000000 0.0432 0.0544 0.0976 0.1670 0.2363
1342.000000 0.3056 0.3749 0.4442 0.4922 0.5106
1337.000000 0.5302 0.5488 0.5632 0.5845 0.6103
1332.000000 0.6123 0.6125 0.6139 0.6158 0.6176
1327.000000 0.6195 0.6232 0.6260 0.6284 0.6269
1322.000000 0.5942 0.5453 0.4962 0.4394 0.4400
1317.000000 0.4526 0.4745 0.4964 0.5183 0.5402
1312.000000 0.5621 0.5840 0.6059 0.6109 0.6122
1307.000000 0.6105 0.6001 0.5896 0.5792 0.5688
1302.000000 0.5584 0.5519 0.5557 0.5698 0.5840
1297.000000 0.5981 0.6123 0.6264 0.6406 0.6394
1292.000000 0.6142 0.5890 0.5777 0.6250 0.6989
1287.000000 0.7149 0.7298 0.7434 0.7569 0.7687
1282.000000 0.7799 0.7921 0.8091 0.8244 0.8368
1277.000000 0.8495 0.8585 0.8660 0.8736 0.8811
1272.000000 0.8880 0.8949 0.9018 0.9068 0.9111
1267.000000 0.9153 0.9195 0.9237 0.9265 0.9294
1262.000000 0.9320 0.9341 0.9362 0.9383 0.9403
1257.000000 0.9420 0.9436 0.9452 0.9465 0.9471
1252.000000 0.9477 0.9483 0.9489 0.9496 0.9503
1247.000000 0.9511 0.9516 0.9521 0.9520 0.9520
1242.000000 0.9515 0.9500 0.9484 0.9468 0.9453
1237.000000 0.9437 0.9416 0.9392 0.9368 0.9344
1232.000000 0.9321 0.9296 0.9271 0.9247 0.9221
1227.000000 0.9198 0.9171 0.9145 0.9116 0.9082
1222.000000 0.9043 0.8961 0.8878 0.8801 0.8761
1217.000000 0.8723 0.8709 0.8706 0.8703 0.8703
1212.000000 0.8728 0.8755 0.8781 0.8806 0.8830
1207.000000 0.8854 0.8878 0.8902 0.8916 0.8930
1202.000000 0.8944 0.8958 0.8971 0.8986 0.9001
1197.000000 0.9015 0.9028 0.9041 0.9054 0.9067
1192.000000 0.9080 0.9093 0.9105 0.9115 0.9125
1187.000000 0.9132 0.9142 0.9127 0.9123 0.9107
1182.000000 0.9091 0.9067 0.9043 0.9025 0.9021
1177.000000 0.9016 0.9011 0.9004 0.8990 0.8961
1172.000000 0.8917 0.8858 0.8789 0.8693 0.8621
1167.000000 0.8551 0.8491 0.8447 0.8396 0.8324
1162.000000 0.8248 0.8168 0.8087 0.7844 0.7833
1157.000000 0.7839 0.7844 0.7850 0.7855 0.7858
1152.000000 0.7860 0.7861 0.7871 0.7895 0.7919
1147.000000 0.7950 0.7981 0.8011 0.8030 0.8046
1142.000000 0.8061 0.8078 0.8093 0.8108 0.8126
1137.000000 0.8144 0.8160 0.8168 0.8178 0.8189
1132.000000 0.8196 0.8200 0.8204 0.8206 0.8227
1127.000000 0.8208 0.8198 0.8183 0.8164 0.8145
1122.000000 0.8115 0.8076 0.8037 0.7971 0.7893
1117.000000 0.7798 0.7682 0.7565 0.7465 0.7367
1112.000000 0.7261 0.7142 0.7021 0.6872 0.6692
1107.000000 0.6469 0.6337 0.6160 0.6007 0.5660
1102.000000 0.4927 0.3358 0.3457 0.3400 0.3724
1097.000000 0.4047 0.4371 0.4694 0.5018 0.5342
1092.000000 0.5665 0.5989 0.6273 0.6295 0.6109
1087.000000 0.5798 0.5488 0.5178 0.4867 0.4557
1082.000000 0.4489 0.4569 0.4826 0.5084 0.5341
1077.000000 0.5599 0.5856 0.6114 0.6371 0.6628
1072.000000 0.7074 0.7204 0.7317 0.7388 0.7458
1067.000000 0.7508 0.7558 0.7581 0.7601 0.7612
1062.000000 0.7624 0.7632 0.7628 0.7628 0.7614
1057.000000 0.7598 0.7562 0.7524 0.7476 0.7421
1052.000000 0.7367 0.7305 0.7219 0.7134 0.7058
1047.000000 0.6983 0.6855 0.6761 0.6724 0.6701
1042.000000 0.6708 0.6724 0.6800 0.6885 0.6978
1037.000000 0.7076 0.7288 0.7408 0.7483 0.7536
1032.000000 0.7568 0.7603 0.7636 0.7658 0.7680
1027.000000 0.7701 0.7724 0.7747 0.7769 0.7792
1022.000000 0.7811 0.7830 0.7848 0.7865 0.7881
1017.000000 0.7896 0.7910 0.7918 0.7928 0.7934
1012.000000 0.7939 0.7941 0.7937 0.7914 0.7875
1007.000000 0.7837 0.7797 0.7778 0.7761 0.7758
1002.000000 0.7767 0.7791 0.7819 0.7840 0.7857
997.000000 0.7874 0.7887 0.7896 0.7906 0.7915
992.000000 0.7918 0.7921 0.7921 0.7921 0.7918
987.000000 0.7915 0.7911 0.7906 0.7899 0.7893
982.000000 0.7885 0.7878 0.7867 0.7865 0.7862
977.000000 0.7871 0.7883 0.7893 0.7904 0.7914
972.000000 0.7925 0.7935 0.7946 0.7956 0.7965
967.000000 0.7975 0.7984 0.7994 0.8003 0.8012
962.000000 0.8019 0.8026 0.8033 0.8040 0.8046
957.000000 0.8053 0.8057 0.8061 0.8064 0.8067
952.000000 0.8071 0.8069 0.8068 0.8068 0.8068
947.000000 0.8067 0.8065 0.8062 0.8054 0.8045
942.000000 0.8035 0.8025 0.8008 0.7986 0.7961
937.000000 0.7917 0.7871 0.7818 0.7758 0.7701
932.000000 0.7612 0.7501 0.7355 0.7228 0.7132
927.000000 0.6657 0.6050 0.5443 0.4836 0.4620
922.000000 0.5034 0.5499 0.5962 0.6428 0.6893
917.000000 0.7218 0.7239 0.7258 0.7258 0.7249
912.000000 0.6648 0.5922 0.5195 0.4492 0.4469
907.000000 0.4610 0.4946 0.5282 0.5617 0.5953
902.000000 0.6288 0.6624 0.6958 0.7097 0.7138
897.000000 0.7157 0.7172 0.7183 0.7183 0.7184
892.000000 0.7161 0.6942 0.6534 0.6126 0.5718
887.000000 0.5310 0.4903 0.4495 0.4070 0.4066
882.000000 0.4066 0.4545 0.5118 0.5690 0.6140
877.000000 0.6304 0.6434 0.6550 0.6710 0.6775
872.000000 0.6819 0.6844 0.6876 0.6856 0.6858
867.000000 0.6845 0.6831 0.6795 0.6755 0.6704
862.000000 0.6651 0.6583 0.6494 0.6501 0.6478
857.000000 0.6485 0.6541 0.6604 0.6672 0.6724
852.000000 0.6781 0.6864 0.6946 0.7028 0.7110
847.000000 0.7192 0.7274 0.7356 0.7438 0.7519
842.000000 0.7601 0.7621 0.7638 0.7634 0.7608
837.000000 0.7605 0.7635 0.7680 0.7718 0.7750
832.000000 0.7781 0.7819 0.7849 0.7891 0.7868
827.000000 0.7868 0.7851 0.7818 0.7778 0.7737
822.000000 0.7682 0.7625 0.7567 0.7499 0.7428
817.000000 0.7358 0.7241 0.7090 0.6696 0.6478
812.000000 0.6308 0.6050 0.5367 0.4969 0.4026
807.000000 0.3083 0.2140 0.1196 0.0254 0.0009
802.000000 0.0009 0.0691 0.1777 0.2863 0.3948
797.000000 0.4912 0.5171 0.5437 0.6397 0.6711
792.000000 0.6937 0.7065 0.7180 0.7284 0.7384
787.000000 0.7475 0.7565 0.7646 0.7703 0.7755
782.000000 0.7801 0.7841 0.7880 0.7915 0.7950
777.000000 0.7978 0.8003 0.8026 0.8044 0.8060
772.000000 0.8075 0.8090 0.8105 0.8118 0.8133
767.000000 0.8138 0.8143 0.8143 0.8143 0.8143
762.000000 0.8135 0.8126 0.8118 0.8101 0.8086
757.000000 0.8068 0.8053 0.8030 0.8006 0.7976
752.000000 0.7917 0.7851 0.7750 0.7647 0.7498
747.000000 0.7289 0.7153 0.7028 0.6904 0.6761
742.000000 0.6617 0.6460 0.6282 0.5001 0.4380
737.000000 0.3759 0.3139 0.2518 0.1896 0.1276
732.000000 0.0655 0.0042 0.0031 0.0027 0.0570
727.000000 0.1357 0.2145 0.2932 0.3720 0.4507
722.000000 0.5295 0.5900 0.6312 0.6774 0.7072
717.000000 0.7349 0.7586 0.7715 0.7805 0.7882
712.000000 0.7950 0.8010 0.8069 0.8115 0.8154
707.000000 0.8190 0.8221 0.8251 0.8282 0.8297
702.000000 0.8312 0.8321 0.8330 0.8339 0.8346
697.000000 0.8352 0.8343 0.8363 0.8365 0.8365
692.000000 0.8359 0.8342 0.8325 0.8293 0.8255
687.000000 0.8198 0.8133 0.8067 0.7907 0.7732
682.000000 0.7476 0.7260 0.7078 0.6918 0.6785
677.000000 0.6218 0.4465 0.0606 0.0960 0.0588
672.000000 0.0627 0.0718 0.2041 0.3786 0.5531
667.000000 0.6415 0.6561 0.6682 0.6822 0.6978
662.000000 0.7125 0.7460 0.7595 0.7625 0.7641
657.000000 0.7649 0.7596 0.7532 0.7551 0.7589
652.000000 0.7647 0.7706 0.7754 0.7800 0.7847
647.000000 0.7893 0.7944 0.7995 0.8047 0.8098
642.000000 0.8145 0.8187 0.8228 0.8271 0.8312
637.000000 0.8349 0.8386 0.8423 0.8458 0.8484
632.000000 0.8510 0.8532 0.8552 0.8571 0.8591
627.000000 0.8611 0.8630 0.8649 0.8662 0.8674
622.000000 0.8684 0.8690 0.8697 0.8696 0.8684
617.000000 0.8675 0.8673 0.8671 0.8675 0.8680
612.000000 0.8684 0.8688 0.8694 0.8700 0.8706
607.000000 0.8712 0.8718 0.8724 0.8731 0.8742
602.000000 0.8753 0.8762 0.8770 0.8771 0.8771
597.000000 0.8771 0.8770 0.8768 0.8768 0.8768
592.000000 0.8771 0.8786 0.8806 0.8818 0.8821
587.000000 0.8821 0.8807 0.8789 0.8778 0.8768
582.000000 0.8765 0.8757 0.8753 0.8751 0.8750
577.000000 0.8749 0.8747 0.8746 0.8743 0.8741
572.000000 0.8739 0.8735 0.8731 0.8725 0.8721
567.000000 0.8712 0.8693 0.8674 0.8658 0.8642
562.000000 0.8625 0.8610 0.8595 0.8581 0.8566
557.000000 0.8542 0.8517 0.8496 0.8475 0.8454
552.000000 0.8433 0.8415 0.8386 0.8405 0.8404
547.000000 0.8403 0.8402 0.8401 0.8405 0.8413
542.000000 0.8421 0.8430 0.8438 0.8446 0.8453
537.000000 0.8461 0.8468 0.8475 0.8483 0.8486
532.000000 0.8489 0.8492 0.8494 0.8497 0.8500
527.000000 0.8504 0.8507 0.8511 0.8514 0.8518
522.000000 0.8521 0.8521 0.8530 0.8520 0.8518
517.000000 0.8513 0.8502 0.8478 0.8441 0.8397
512.000000 0.8342 0.8266 0.8193 0.8147 0.8121
507.000000 0.8111 0.8103 0.8097 0.8091 0.8086
502.000000 0.8078 0.8071 0.8061 0.8054 0.8036
497.000000 0.8017 0.7998 0.7957 0.7908 0.7855
492.000000 0.7800 0.7743 0.7676 0.7625 0.7581
487.000000 0.7535 0.7521 0.7485 0.7508 0.7511
482.000000 0.7528 0.7561 0.7631 0.7684 0.7722
477.000000 0.7761 0.7810 0.7862 0.7911 0.7951
472.000000 0.7990 0.8030 0.8071 0.8115 0.8161
467.000000 0.8196 0.8231 0.8265 0.8298 0.8328
462.000000 0.8359 0.8389 0.8409 0.8423 0.8430
457.000000 0.8437 0.8444 0.8451 0.8456 0.8460
452.000000 0.8482 0.8468 0.8468 0.8468 0.8468
447.000000 0.8466 0.8463 0.8449 0.8423 0.8400
442.000000 0.8383 0.8366 0.8354 0.8344 0.8334
437.000000 0.8324 0.8307 0.8275 0.8242 0.8204
432.000000 0.8145 0.8086 0.8028 0.7960 0.7881
427.000000 0.7801 0.7721 0.7642 0.7558 0.7476
422.000000 0.7395 0.7312 0.7208 0.7104 0.6999
417.000000 0.6894 0.6785 0.6675 0.6567 0.6456
412.000000 0.6344 0.6231 0.6119 0.5955 0.5753
407.000000 0.5234 0.4969 0.4704 0.4439 0.4173
402.000000 0.3908 0.3643 0.3377 0.3112 0.2954
397.000000 0.2871 0.2787 0.2731 0.2678 0.2626
392.000000 0.2592 0.2562 0.2534 0.2521 0.2515
387.000000 0.2513 0.2511 0.2509
##END=
