##TITLE=METHYLSILANE
##JCAMP-DX=4.24
##DATA TYPE=INFRARED SPECTRUM
##CLASS=COBLENTZ
##ORIGIN=DOW CORNING CORP.
##OWNER=COBLENTZ SOCIETY
Collection (C) 2018 copyright by the U.S. Secretary of Commerce
on behalf of the United States of America. All rights reserved.
##DATE=1965/06/28
##CAS REGISTRY NO=992-94-9
##MOLFORM=C H6 Si
##BP=56 C
##SOURCE REFERENCE=COBLENTZ NO. 9214
##$NIST SOURCE=COBLENTZ
##$NIST IMAGE=cob-r9214
##SPECTROMETER/DATA SYSTEM=PERKIN-ELMER 521 (GRATING)
##INSTRUMENT PARAMETERS=FILTERS 3150, 2500, 2000, 1150, 700, 410, GRATING CHANGES AT 2000, 630 CM^-^1
$$ SPECTRAL CONTAMINATION DUE TO H2O IN THE 1600 CM^-^1 REGION.
##STATE=GAS (22 mmHg, N2 ADDED, TOTAL PRESSURE 750 mmHg)
##PATH LENGTH=10 CM
##SAMPLING PROCEDURE=TRANSMISSION
##RESOLUTION=2
##DATA PROCESSING=DIGITIZED BY NIST FROM HARD COPY (FROM TWO SEGMENTS)
##XUNITS=1/CM
##YUNITS=TRANSMITTANCE
##XFACTOR=1.000000
##YFACTOR=1
##DELTAX=1.368692
##FIRSTX=274.08
##LASTX=3790.25
##FIRSTY=0.001
##MAXX=3790.25
##MINX=274.08
##MAXY=0.884
##MINY=0.001
##NPOINTS=2570
##XYDATA=(X++(Y..Y))
274.080000 0.0010 0.0010 0.0090 0.0090 0.0090
280.923461 0.0110 0.0130 0.0180 0.0200 0.0200
287.766921 0.0220 0.0220 0.0290 0.0310 0.0479
294.610382 0.0480 0.0331 0.0330 0.0330 0.0350
301.453843 0.0390 0.0440 0.0460 0.0500 0.0500
308.297303 0.0520 0.0540 0.0610 0.0650 0.0719
315.140764 0.0830 0.0830 0.0890 0.0930 0.0960
321.984225 0.0980 0.0980 0.1000 0.1000 0.1020
328.827685 0.1020 0.1040 0.1040 0.1080 0.1130
335.671146 0.1240 0.1320 0.1429 0.1519 0.1619
342.514607 0.1730 0.1800 0.1840 0.1950 0.2010
349.358067 0.2100 0.2299 0.2419 0.2450 0.2510
356.201528 0.2530 0.2560 0.2680 0.2770 0.3089
363.044989 0.3219 0.3379 0.3509 0.3570 0.3679
369.888449 0.3780 0.3890 0.4040 0.4090 0.4170
376.731910 0.4299 0.4350 0.4390 0.4499 0.4718
383.575370 0.4860 0.5020 0.5120 0.5250 0.5360
390.418831 0.5380 0.5639 0.5670 0.5690 0.5710
397.262292 0.5750 0.5770 0.5790 0.5950 0.6159
404.105752 0.6210 0.6309 0.6330 0.6459 0.6529
410.949213 0.6660 0.6680 0.6750 0.6810 0.6870
417.792674 0.6900 0.6850 0.6850 0.7068 0.7159
424.636134 0.7260 0.7290 0.7410 0.7460 0.7460
431.479595 0.7311 0.7539 0.7689 0.7700 0.7720
438.323056 0.7760 0.7830 0.7870 0.7890 0.7910
445.166516 0.7910 0.7980 0.7980 0.8060 0.8080
452.009977 0.8100 0.8100 0.8100 0.8080 0.8080
458.853438 0.8150 0.8190 0.8190 0.8230 0.8240
465.696898 0.8300 0.8300 0.8320 0.8340 0.8340
472.540359 0.8360 0.8370 0.8370 0.8410 0.8410
479.383820 0.8430 0.8430 0.8430 0.8430 0.8450
486.227280 0.8450 0.8430 0.8430 0.8430 0.8410
493.070741 0.8390 0.8390 0.8370 0.8360 0.8320
499.914202 0.8300 0.8300 0.8280 0.8260 0.8260
506.757662 0.8230 0.8210 0.8190 0.8150 0.8130
513.601123 0.8110 0.8100 0.8060 0.8040 0.8020
520.444584 0.7980 0.7980 0.7950 0.7930 0.7890
527.288044 0.7870 0.7870 0.7870 0.7870 0.7870
534.131505 0.7870 0.7870 0.7870 0.7890 0.7930
540.974966 0.7950 0.7950 0.7930 0.7930 0.7930
547.818426 0.7950 0.7980 0.8020 0.8020 0.8040
554.661887 0.8060 0.8060 0.8080 0.8150 0.8170
561.505348 0.8260 0.8280 0.8300 0.8300 0.8320
568.348808 0.8360 0.8390 0.8450 0.8470 0.8490
575.192269 0.8510 0.8510 0.8540 0.8560 0.8600
582.035730 0.8620 0.8620 0.8640 0.8650 0.8650
588.879190 0.8690 0.8690 0.8690 0.8710 0.8710
595.722651 0.8710 0.8710 0.8730 0.8730 0.8750
602.566111 0.8750 0.8750 0.8750 0.8770 0.8800
609.409572 0.8800 0.8800 0.8780 0.8780 0.8820
616.253033 0.8840 0.8840 0.8840 0.8840 0.8840
623.096493 0.8651 0.8620 0.8620 0.8620 0.8640
629.939954 0.8640 0.8640 0.8640 0.8640 0.8620
636.783415 0.8620 0.8620 0.8640 0.8640 0.8640
643.626875 0.8640 0.8640 0.8640 0.8640 0.8640
650.470336 0.8620 0.8620 0.8620 0.8600 0.8600
657.313797 0.8560 0.8540 0.8520 0.8510 0.8510
664.157257 0.8510 0.8490 0.8470 0.8430 0.8410
671.000718 0.8340 0.8320 0.8190 0.8150 0.8150
677.844179 0.8110 0.8060 0.8020 0.7980 0.7970
684.687639 0.7950 0.7950 0.7950 0.7950 0.7970
691.531100 0.8080 0.8100 0.8110 0.8110 0.8150
698.374561 0.8170 0.8170 0.6703 0.6700 0.8145
705.218021 0.8409 0.8320 0.8171 0.8110 0.7872
712.061482 0.7760 0.7610 0.7590 0.7560 0.7560
718.904943 0.7610 0.7670 0.7759 0.7830 0.7999
725.748403 0.8060 0.8110 0.8210 0.8389 0.8559
732.591864 0.8600 0.8640 0.8640 0.8650 0.8670
739.435325 0.8670 0.8670 0.8670 0.8670 0.8670
746.278785 0.8650 0.8650 0.8640 0.8640 0.8640
753.122246 0.8620 0.8620 0.8600 0.8600 0.8580
759.965707 0.8540 0.8520 0.8510 0.8510 0.8510
766.809167 0.8490 0.8490 0.8510 0.8510 0.8520
773.652628 0.8540 0.8540 0.8560 0.8560 0.8600
780.496089 0.8640 0.8690 0.8690 0.8690 0.8690
787.339549 0.8670 0.8650 0.8650 0.8650 0.8640
794.183010 0.8640 0.8640 0.8620 0.8600 0.8560
801.026471 0.8510 0.8470 0.8450 0.8410 0.8360
807.869931 0.8240 0.8210 0.8150 0.8130 0.8080
814.713392 0.8020 0.7980 0.7871 0.7781 0.7671
821.556852 0.7630 0.7590 0.7560 0.7520 0.7331
828.400313 0.7280 0.7111 0.7090 0.6941 0.6791
835.243774 0.6720 0.6640 0.6420 0.6310 0.6200
842.087234 0.6071 0.6030 0.6010 0.5970 0.5662
848.930695 0.5270 0.5170 0.5130 0.5020 0.5000
855.774156 0.4890 0.4860 0.4671 0.4461 0.4331
862.617616 0.4260 0.4090 0.4050 0.4000 0.4000
869.461077 0.4110 0.4110 0.3981 0.3871 0.3870
876.304538 0.3870 0.3870 0.3890 0.3940 0.4050
883.147998 0.4150 0.4150 0.4110 0.4130 0.4299
889.991459 0.4370 0.4500 0.4520 0.4560 0.4580
896.834920 0.4590 0.4630 0.4710 0.4780 0.4780
903.678380 0.4760 0.4720 0.4710 0.4480 0.4301
910.521841 0.4260 0.4150 0.4051 0.3980 0.3811
917.365302 0.3290 0.3070 0.2770 0.2531 0.2291
924.208762 0.2170 0.1951 0.1691 0.1432 0.1212
931.052223 0.1190 0.1190 0.1210 0.1260 0.1340
937.895684 0.1599 0.1749 0.2078 0.2010 0.0491
944.739144 0.0480 0.0670 0.0610 0.0570 0.0550
951.582605 0.0540 0.0540 0.0540 0.0550 0.0907
958.426066 0.1240 0.1600 0.1989 0.2229 0.2559
965.269526 0.2839 0.3158 0.3289 0.3638 0.4047
972.112987 0.4580 0.4760 0.4870 0.5598 0.5819
978.956448 0.6139 0.6160 0.6349 0.6658 0.6700
985.799908 0.6810 0.6920 0.6960 0.7130 0.7130
992.643369 0.7180 0.7349 0.7410 0.7430 0.7410
999.486830 0.7430 0.7590 0.7630 0.7650 0.7700
1006.330290 0.7720 0.7720 0.7740 0.7740 0.7760
1013.173751 0.7760 0.7780 0.7800 0.7820 0.7820
1020.017212 0.7830 0.7870 0.7930 0.7950 0.7970
1026.860672 0.7970 0.7970 0.7970 0.7970 0.7970
1033.704133 0.7980 0.7980 0.7980 0.7980 0.7980
1040.547593 0.7980 0.7980 0.7980 0.7980 0.7950
1047.391054 0.7950 0.7950 0.7950 0.7910 0.7870
1054.234515 0.7830 0.7800 0.7800 0.7800 0.7780
1061.077975 0.7760 0.7760 0.7611 0.7590 0.7501
1067.921436 0.7480 0.7460 0.7440 0.7440 0.7410
1074.764897 0.7370 0.7330 0.7290 0.7290 0.7290
1081.608357 0.7290 0.7280 0.7280 0.7280 0.7280
1088.451818 0.7290 0.7310 0.7310 0.7330 0.7409
1095.295279 0.7460 0.7540 0.7590 0.7590 0.7630
1102.138739 0.7650 0.7700 0.7760 0.7800 0.7820
1108.982200 0.7850 0.7890 0.7930 0.7950 0.7970
1115.825661 0.8000 0.8100 0.8130 0.8130 0.8150
1122.669121 0.8170 0.8280 0.8320 0.8320 0.8320
1129.512582 0.8320 0.8320 0.8320 0.8320 0.8340
1136.356043 0.8340 0.8340 0.8340 0.8340 0.8340
1143.199503 0.8340 0.8340 0.8320 0.8320 0.8340
1150.042964 0.8360 0.8370 0.8370 0.8340 0.8320
1156.886425 0.8320 0.8320 0.8320 0.8300 0.8300
1163.729885 0.8300 0.8300 0.8300 0.8300 0.8300
1170.573346 0.8300 0.8300 0.8320 0.8320 0.8320
1177.416807 0.8320 0.8320 0.8340 0.8370 0.8390
1184.260267 0.8390 0.8410 0.8410 0.8430 0.8430
1191.103728 0.8450 0.8450 0.8470 0.8470 0.8470
1197.947189 0.8470 0.8470 0.8450 0.8450 0.8430
1204.790649 0.8450 0.8470 0.8490 0.8510 0.8510
1211.634110 0.8510 0.8510 0.8510 0.8490 0.8430
1218.477571 0.8430 0.8410 0.8410 0.8410 0.8390
1225.321031 0.8370 0.8340 0.8320 0.8300 0.8230
1232.164492 0.8130 0.8110 0.8020 0.7970 0.7910
1239.007952 0.7780 0.7760 0.7740 0.7740 0.7740
1245.851413 0.7740 0.7760 0.7800 0.7820 0.7850
1252.694874 0.7870 0.7870 0.7950 0.7930 0.7781
1259.538334 0.7370 0.6700 0.6700 0.7947 0.7950
1266.381795 0.7721 0.7700 0.7690 0.7690 0.7670
1273.225256 0.7610 0.7570 0.7570 0.7590 0.7590
1280.068716 0.7650 0.7799 0.7949 0.8000 0.8169
1286.912177 0.8210 0.8240 0.8260 0.8390 0.8430
1293.755638 0.8450 0.8520 0.8540 0.8520 0.8540
1300.599098 0.8540 0.8540 0.8560 0.8560 0.8540
1307.442559 0.8540 0.8540 0.8540 0.8540 0.8540
1314.286020 0.8540 0.8540 0.8520 0.8520 0.8520
1321.129480 0.8540 0.8540 0.8540 0.8540 0.8520
1327.972941 0.8520 0.8510 0.8510 0.8510 0.8540
1334.816402 0.8540 0.8510 0.8510 0.8490 0.8490
1341.659862 0.8470 0.8470 0.8450 0.8450 0.8450
1348.503323 0.8450 0.8490 0.8490 0.8470 0.8450
1355.346784 0.8450 0.8390 0.8390 0.8370 0.8370
1362.190244 0.8430 0.8430 0.8410 0.8321 0.8320
1369.033705 0.8300 0.8260 0.8210 0.8170 0.8260
1375.877166 0.8260 0.8150 0.8110 0.8110 0.8130
1382.720626 0.8150 0.8150 0.8150 0.8210 0.8210
1389.564087 0.8190 0.8170 0.8150 0.8110 0.8110
1396.407548 0.8110 0.8110 0.8110 0.8110 0.8110
1403.251008 0.8110 0.8110 0.8150 0.8170 0.8170
1410.094469 0.8170 0.8170 0.8150 0.8130 0.8000
1416.937930 0.7970 0.7980 0.8209 0.8299 0.8320
1423.781390 0.8340 0.8340 0.8340 0.8280 0.8280
1430.624851 0.8300 0.8300 0.8280 0.8041 0.8040
1437.468312 0.8340 0.8340 0.8340 0.8340 0.8340
1444.311772 0.8340 0.8340 0.8320 0.8320 0.8280
1451.155233 0.8260 0.8240 0.8190 0.7781 0.7780
1457.998693 0.8238 0.8320 0.8280 0.8280 0.8240
1464.842154 0.8240 0.8370 0.8340 0.8061 0.8040
1471.685615 0.8040 0.8209 0.8260 0.8280 0.8389
1478.529075 0.8410 0.8410 0.8390 0.8370 0.8320
1485.372536 0.8300 0.8230 0.8240 0.8369 0.8390
1492.215997 0.8260 0.8170 0.8170 0.8360 0.8370
1499.059457 0.8360 0.8360 0.8340 0.8300 0.7913
1505.902918 0.7910 0.8280 0.8340 0.8360 0.8360
1512.746379 0.8340 0.8320 0.8320 0.8300 0.8151
1519.589839 0.7970 0.8230 0.8280 0.8300 0.8320
1526.433300 0.8360 0.8360 0.8300 0.8300 0.8230
1533.276761 0.8230 0.8370 0.8230 0.7851 0.7850
1540.120221 0.8059 0.8130 0.8299 0.8320 0.8409
1546.963682 0.8390 0.8370 0.8370 0.8340 0.8170
1553.807143 0.8150 0.8130 0.7782 0.7700 0.8336
1560.650603 0.8360 0.8370 0.8370 0.8370 0.8260
1567.494064 0.8230 0.8240 0.8369 0.8370 0.7973
1574.337525 0.7970 0.8190 0.8430 0.8430 0.8430
1581.180985 0.8430 0.8430 0.8430 0.8430 0.8410
1588.024446 0.8410 0.8410 0.8410 0.8410 0.8390
1594.867907 0.8450 0.8450 0.8410 0.8410 0.8410
1601.711367 0.8410 0.8410 0.8370 0.8340 0.8340
1608.554828 0.8340 0.8340 0.8320 0.8280 0.7972
1615.398289 0.8110 0.8170 0.8170 0.8170 0.8170
1622.241749 0.8280 0.8280 0.8320 0.8340 0.8340
1629.085210 0.8340 0.8320 0.8280 0.7931 0.7930
1635.928671 0.8279 0.8320 0.8320 0.8320 0.8320
1642.772131 0.8320 0.8320 0.8320 0.8320 0.7851
1649.615592 0.7571 0.7570 0.7739 0.8237 0.8339
1656.459053 0.8340 0.8300 0.8280 0.8280 0.8280
1663.302513 0.8280 0.8280 0.8260 0.8131 0.8130
1670.145974 0.8260 0.8320 0.8130 0.8130 0.8339
1676.989434 0.8340 0.8260 0.8230 0.8150 0.7852
1683.832895 0.7800 0.8340 0.8340 0.8320 0.8340
1690.676356 0.8320 0.8320 0.8230 0.8131 0.7822
1697.519816 0.7740 0.7740 0.8170 0.8210 0.8210
1704.363277 0.8240 0.8340 0.8340 0.8320 0.8260
1711.206738 0.8190 0.8170 0.7970 0.8130 0.8240
1718.050198 0.8300 0.8320 0.8320 0.8320 0.8320
1724.893659 0.8300 0.8280 0.8240 0.8230 0.8170
1731.737120 0.7871 0.7870 0.8258 0.8131 0.8150
1738.580580 0.8240 0.8240 0.8240 0.8240 0.8210
1745.424041 0.8190 0.8170 0.8190 0.8240 0.8319
1752.267502 0.8320 0.8320 0.8340 0.8260 0.8210
1759.110962 0.8210 0.8320 0.8320 0.8320 0.8320
1765.954423 0.8280 0.8150 0.8130 0.8130 0.8319
1772.797884 0.8320 0.8320 0.8320 0.8320 0.8300
1779.641344 0.8300 0.8300 0.8300 0.8280 0.8260
1786.484805 0.8230 0.8230 0.8240 0.8260 0.8280
1793.328266 0.8300 0.8320 0.8320 0.8280 0.8300
1800.171726 0.8300 0.8300 0.8320 0.8340 0.8340
1807.015187 0.8320 0.8320 0.8320 0.8340 0.8320
1813.858648 0.8320 0.8340 0.8340 0.8320 0.8320
1820.702108 0.8280 0.8240 0.8240 0.8260 0.8210
1827.545569 0.8240 0.8300 0.8340 0.8340 0.8340
1834.389030 0.8340 0.8340 0.8320 0.8320 0.8280
1841.232490 0.8230 0.8280 0.8320 0.8320 0.8340
1848.075951 0.8320 0.8320 0.8320 0.8320 0.8320
1854.919412 0.8340 0.8340 0.8300 0.8300 0.8300
1861.762872 0.8300 0.8300 0.8280 0.8280 0.8280
1868.606333 0.8300 0.8300 0.8300 0.8300 0.8300
1875.449794 0.8320 0.8320 0.8300 0.8300 0.8300
1882.293254 0.8300 0.8300 0.8300 0.8280 0.8280
1889.136715 0.8280 0.8280 0.8280 0.8280 0.8280
1895.980175 0.8280 0.8280 0.8260 0.8260 0.8260
1902.823636 0.8260 0.8280 0.8280 0.8280 0.8280
1909.667097 0.8260 0.8260 0.8260 0.8260 0.8260
1916.510557 0.8280 0.8280 0.8300 0.8300 0.8300
1923.354018 0.8300 0.8280 0.8280 0.8280 0.8280
1930.197479 0.8280 0.8280 0.8280 0.8280 0.8260
1937.040939 0.8240 0.8240 0.8240 0.8230 0.8240
1943.884400 0.8260 0.8260 0.8280 0.8280 0.8260
1950.727861 0.8260 0.8260 0.8260 0.8260 0.8240
1957.571321 0.8230 0.8230 0.8240 0.8240 0.8240
1964.414782 0.8230 0.8230 0.8210 0.8190 0.8190
1971.258243 0.8190 0.8190 0.8190 0.8210 0.8210
1978.101703 0.8230 0.8240 0.8260 0.8260 0.8260
1984.945164 0.8260 0.8260 0.8280 0.8280 0.8280
1991.788625 0.8280 0.8300 0.8300 0.8340 0.8390
1998.632085 0.8410 0.8430 0.8430 0.8430 0.8440
2005.475546 0.8450 0.8440 0.8430 0.8420 0.8410
2012.319007 0.8410 0.8410 0.8400 0.8390 0.8390
2019.162467 0.8390 0.8400 0.8410 0.8410 0.8410
2026.005928 0.8410 0.8410 0.8410 0.8410 0.8410
2032.849389 0.8409 0.8399 0.8390 0.8390 0.8389
2039.692849 0.8379 0.8369 0.8364 0.8360 0.8360
2046.536310 0.8360 0.8360 0.8360 0.8360 0.8359
2053.379771 0.8348 0.8338 0.8328 0.8318 0.8308
2060.223231 0.8294 0.8259 0.8226 0.8206 0.8186
2067.066692 0.8166 0.8148 0.8138 0.8128 0.8118
2073.910153 0.8107 0.8092 0.8066 0.8001 0.7948
2080.753613 0.7938 0.7913 0.7848 0.7795 0.7775
2087.597074 0.7740 0.7665 0.7605 0.7584 0.7551
2094.440535 0.7480 0.7403 0.7308 0.7218 0.7143
2101.283995 0.7058 0.6947 0.6838 0.6733 0.6640
2108.127456 0.6574 0.6492 0.6382 0.6265 0.6134
2114.970916 0.6001 0.5860 0.5696 0.5491 0.5318
2121.814377 0.5203 0.5086 0.4965 0.4849 0.4738
2128.657838 0.4630 0.4525 0.4396 0.4231 0.4104
2135.501298 0.4038 0.3912 0.3707 0.3521 0.3360
2142.344759 0.3160 0.2910 0.2728 0.2633 0.2510
2149.188220 0.2355 0.2222 0.2117 0.2019 0.1928
2156.031680 0.1845 0.1770 0.1699 0.1634 0.1595
2162.875141 0.1585 0.1585 0.1595 0.1623 0.1668
2169.718602 0.1724 0.1789 0.1751 0.1621 0.1456
2176.562062 0.1260 0.1451 0.1973 0.2052 0.1761
2183.405523 0.1641 0.1661 0.1676 0.1686 0.1701
2190.248984 0.1722 0.1745 0.1770 0.1813 0.1868
2197.092444 0.2006 0.2196 0.2390 0.2585 0.2834
2203.935905 0.3114 0.3395 0.3676 0.3954 0.4229
2210.779366 0.4403 0.4519 0.4701 0.4922 0.5062
2217.622826 0.5159 0.5344 0.5570 0.5850 0.6156
2224.466287 0.6295 0.6360 0.6461 0.6576 0.6712
2231.309748 0.6858 0.6982 0.7097 0.7184 0.7259
2238.153208 0.7345 0.7435 0.7591 0.7772 0.7861
2244.996669 0.7917 0.7945 0.7965 0.7997 0.8032
2251.840130 0.8056 0.8076 0.8092 0.8107 0.8126
2258.683590 0.8146 0.8218 0.8303 0.8328 0.8338
2265.527051 0.8332 0.8322 0.8296 0.8266 0.8260
2272.370512 0.8260 0.8269 0.8279 0.8289 0.8299
2279.213972 0.8300 0.8300 0.8291 0.8281 0.8280
2286.057433 0.8280 0.8280 0.8280 0.8280 0.8280
2292.900894 0.8289 0.8299 0.8300 0.8300 0.8328
2299.744354 0.8358 0.8374 0.8389 0.8390 0.8390
2306.587815 0.8400 0.8410 0.8420 0.8430 0.8440
2313.431275 0.8450 0.8450 0.8450 0.8460 0.8470
2320.274736 0.8504 0.8539 0.8540 0.8540 0.8540
2327.118197 0.8540 0.8540 0.8540 0.8540 0.8540
2333.961657 0.8540 0.8540 0.8540 0.8540 0.8530
2340.805118 0.8520 0.8515 0.8510 0.8510 0.8510
2347.648579 0.8510 0.8510 0.8510 0.8510 0.8510
2354.492039 0.8508 0.8488 0.8467 0.8437 0.8408
2361.335500 0.8388 0.8370 0.8370 0.8369 0.8364
2368.178961 0.8360 0.8360 0.8360 0.8360 0.8360
2375.022421 0.8360 0.8357 0.8337 0.8315 0.8285
2381.865882 0.8260 0.8260 0.8258 0.8248 0.8240
2388.709343 0.8240 0.8240 0.8240 0.8242 0.8252
2395.552803 0.8260 0.8260 0.8260 0.8260 0.8262
2402.396264 0.8272 0.8280 0.8280 0.8280 0.8280
2409.239725 0.8280 0.8280 0.8286 0.8306 0.8320
2416.083185 0.8320 0.8311 0.8281 0.8252 0.8227
2422.926646 0.8210 0.8210 0.8218 0.8243 0.8260
2429.770107 0.8260 0.8263 0.8273 0.8283 0.8294
2436.613567 0.8293 0.8273 0.8260 0.8260 0.8260
2443.457028 0.8260 0.8260 0.8260 0.8260 0.8260
2450.300489 0.8256 0.8246 0.8240 0.8240 0.8240
2457.143949 0.8240 0.8238 0.8233 0.8230 0.8230
2463.987410 0.8230 0.8230 0.8230 0.8230 0.8230
2470.830871 0.8230 0.8230 0.8230 0.8225 0.8215
2477.674331 0.8215 0.8225 0.8230 0.8230 0.8230
2484.517792 0.8230 0.8230 0.8230 0.8225 0.8215
2491.361253 0.8210 0.8210 0.8215 0.8225 0.8230
2498.204713 0.8230 0.8230 0.8230 0.8230 0.8230
2505.048174 0.8230 0.8230 0.8230 0.8230 0.8224
2511.891635 0.8214 0.8204 0.8194 0.8190 0.8190
2518.735095 0.8190 0.8190 0.8190 0.8190 0.8190
2525.578556 0.8190 0.8190 0.8190 0.8190 0.8190
2532.422016 0.8190 0.8190 0.8190 0.8190 0.8183
2539.265477 0.8173 0.8170 0.8170 0.8177 0.8187
2546.108938 0.8190 0.8190 0.8197 0.8207 0.8210
2552.952398 0.8210 0.8203 0.8193 0.8190 0.8190
2559.795859 0.8190 0.8190 0.8197 0.8207 0.8203
2566.639320 0.8193 0.8190 0.8190 0.8182 0.8172
2573.482780 0.8170 0.8170 0.8170 0.8170 0.8170
2580.326241 0.8170 0.8170 0.8170 0.8178 0.8188
2587.169702 0.8190 0.8190 0.8174 0.8153 0.8150
2594.013162 0.8150 0.8150 0.8150 0.8150 0.8150
2600.856623 0.8150 0.8150 0.8150 0.8150 0.8159
2607.700084 0.8169 0.8161 0.8151 0.8150 0.8150
2614.543544 0.8132 0.8112 0.8110 0.8110 0.8128
2621.387005 0.8148 0.8150 0.8150 0.8159 0.8170
2628.230466 0.8170 0.8170 0.8160 0.8150 0.8150
2635.073926 0.8150 0.8150 0.8150 0.8150 0.8150
2641.917387 0.8150 0.8150 0.8150 0.8150 0.8140
2648.760848 0.8130 0.8130 0.8130 0.8130 0.8130
2655.604308 0.8140 0.8150 0.8150 0.8149 0.8139
2662.447769 0.8130 0.8130 0.8130 0.8130 0.8130
2669.291230 0.8130 0.8129 0.8119 0.8110 0.8110
2676.134690 0.8110 0.8105 0.8100 0.8100 0.8101
2682.978151 0.8106 0.8110 0.8110 0.8110 0.8110
2689.821612 0.8111 0.8122 0.8130 0.8130 0.8128
2696.665072 0.8118 0.8109 0.8104 0.8100 0.8100
2703.508533 0.8100 0.8100 0.8100 0.8100 0.8100
2710.351994 0.8100 0.8100 0.8100 0.8101 0.8106
2717.195454 0.8110 0.8110 0.8110 0.8110 0.8110
2724.038915 0.8110 0.8110 0.8110 0.8110 0.8110
2730.882376 0.8110 0.8110 0.8109 0.8104 0.8097
2737.725836 0.8087 0.8080 0.8080 0.8080 0.8080
2744.569297 0.8080 0.8080 0.8080 0.8080 0.8080
2751.412757 0.8080 0.8073 0.8053 0.8040 0.8040
2758.256218 0.8043 0.8053 0.8060 0.8060 0.8060
2765.099679 0.8060 0.8060 0.8060 0.8064 0.8074
2771.943139 0.8080 0.8080 0.8076 0.8066 0.8060
2778.786600 0.8060 0.8060 0.8060 0.8060 0.8060
2785.630061 0.8060 0.8060 0.8060 0.8060 0.8060
2792.473521 0.8060 0.8055 0.8045 0.8030 0.8010
2799.316982 0.8000 0.8000 0.7995 0.7985 0.7980
2806.160443 0.7980 0.7980 0.7980 0.7980 0.7980
2813.003903 0.7980 0.7980 0.7977 0.7972 0.7964
2819.847364 0.7954 0.7950 0.7950 0.7950 0.7950
2826.690825 0.7950 0.7950 0.7933 0.7903 0.7872
2833.534285 0.7842 0.7815 0.7790 0.7780 0.7780
2840.377746 0.7780 0.7780 0.7780 0.7780 0.7774
2847.221207 0.7764 0.7760 0.7760 0.7760 0.7760
2854.064667 0.7760 0.7760 0.7760 0.7760 0.7760
2860.908128 0.7760 0.7760 0.7760 0.7760 0.7760
2867.751589 0.7760 0.7760 0.7760 0.7760 0.7760
2874.595049 0.7760 0.7753 0.7743 0.7733 0.7723
2881.438510 0.7709 0.7694 0.7690 0.7690 0.7690
2888.281971 0.7690 0.7690 0.7690 0.7682 0.7672
2895.125431 0.7662 0.7652 0.7642 0.7632 0.7630
2901.968892 0.7630 0.7622 0.7612 0.7610 0.7610
2908.812353 0.7610 0.7610 0.7610 0.7610 0.7602
2915.655813 0.7592 0.7582 0.7571 0.7549 0.7524
2922.499274 0.7503 0.7483 0.7480 0.7480 0.7471
2929.342735 0.7461 0.7451 0.7441 0.7417 0.7392
2936.186195 0.7372 0.7352 0.7350 0.7350 0.7341
2943.029656 0.7331 0.7330 0.7330 0.7321 0.7311
2949.873117 0.7296 0.7281 0.7261 0.7240 0.7240
2956.716577 0.7240 0.7220 0.7200 0.7155 0.7110
2963.560038 0.7100 0.7090 0.7090 0.7090 0.7070
2970.403498 0.7050 0.7025 0.7000 0.6980 0.6959
2977.246959 0.6939 0.6922 0.6973 0.7023 0.7068
2984.090420 0.7111 0.7121 0.7131 0.7146 0.7163
2990.933880 0.7193 0.7222 0.7242 0.7261 0.7276
2997.777341 0.7292 0.7312 0.7330 0.7330 0.7331
3004.620802 0.7341 0.7355 0.7401 0.7445 0.7475
3011.464262 0.7503 0.7523 0.7542 0.7552 0.7561
3018.307723 0.7566 0.7572 0.7582 0.7594 0.7614
3025.151184 0.7632 0.7642 0.7655 0.7680 0.7704
3031.994644 0.7724 0.7742 0.7752 0.7760 0.7760
3038.838105 0.7762 0.7772 0.7783 0.7793 0.7804
3045.681566 0.7819 0.7833 0.7843 0.7853 0.7863
3052.525026 0.7875 0.7895 0.7910 0.7910 0.7907
3059.368487 0.7897 0.7887 0.7877 0.7867 0.7857
3066.211948 0.7850 0.7850 0.7850 0.7850 0.7847
3073.055408 0.7837 0.7830 0.7830 0.7830 0.7830
3079.898869 0.7830 0.7830 0.7828 0.7823 0.7820
3086.742330 0.7820 0.7826 0.7841 0.7850 0.7850
3093.585790 0.7846 0.7836 0.7828 0.7823 0.7820
3100.429251 0.7820 0.7820 0.7820 0.7820 0.7820
3107.272712 0.7816 0.7806 0.7800 0.7800 0.7800
3114.116172 0.7800 0.7800 0.7800 0.7800 0.7800
3120.959633 0.7800 0.7800 0.7800 0.7800 0.7800
3127.803094 0.7800 0.7800 0.7800 0.7805 0.7815
3134.646554 0.7823 0.7828 0.7835 0.7845 0.7850
3141.490015 0.7850 0.7856 0.7866 0.7870 0.7870
3148.333476 0.7876 0.7886 0.7890 0.7890 0.7890
3155.176936 0.7890 0.7884 0.7874 0.7870 0.7870
3162.020397 0.7864 0.7854 0.7844 0.7834 0.7827
3168.863857 0.7822 0.7820 0.7820 0.7830 0.7845
3175.707318 0.7863 0.7883 0.7897 0.7907 0.7910
3182.550779 0.7910 0.7910 0.7910 0.7917 0.7927
3189.394239 0.7930 0.7930 0.7930 0.7930 0.7923
3196.237700 0.7913 0.7903 0.7893 0.7890 0.7890
3203.081161 0.7890 0.7890 0.7898 0.7908 0.7918
3209.924621 0.7928 0.7930 0.7930 0.7922 0.7912
3216.768082 0.7910 0.7910 0.7910 0.7910 0.7910
3223.611543 0.7910 0.7910 0.7910 0.7910 0.7910
3230.455003 0.7910 0.7910 0.7918 0.7929 0.7930
3237.298464 0.7930 0.7930 0.7930 0.7930 0.7930
3244.141925 0.7930 0.7930 0.7930 0.7930 0.7930
3250.985385 0.7930 0.7930 0.7930 0.7930 0.7930
3257.828846 0.7930 0.7930 0.7930 0.7930 0.7930
3264.672307 0.7930 0.7921 0.7911 0.7910 0.7910
3271.515767 0.7910 0.7910 0.7910 0.7910 0.7910
3278.359228 0.7910 0.7910 0.7910 0.7910 0.7910
3285.202689 0.7910 0.7910 0.7910 0.7910 0.7910
3292.046149 0.7910 0.7910 0.7910 0.7900 0.7890
3298.889610 0.7890 0.7890 0.7890 0.7890 0.7890
3305.733071 0.7889 0.7879 0.7870 0.7870 0.7870
3312.576531 0.7870 0.7870 0.7870 0.7870 0.7870
3319.419992 0.7870 0.7870 0.7869 0.7859 0.7850
3326.263453 0.7850 0.7850 0.7850 0.7850 0.7850
3333.106913 0.7850 0.7850 0.7848 0.7838 0.7830
3339.950374 0.7830 0.7830 0.7830 0.7830 0.7830
3346.793835 0.7829 0.7824 0.7820 0.7820 0.7820
3353.637295 0.7820 0.7820 0.7820 0.7820 0.7820
3360.480756 0.7820 0.7820 0.7820 0.7820 0.7820
3367.324217 0.7820 0.7820 0.7820 0.7820 0.7820
3374.167677 0.7820 0.7820 0.7820 0.7820 0.7820
3381.011138 0.7820 0.7820 0.7820 0.7820 0.7820
3387.854598 0.7820 0.7820 0.7820 0.7820 0.7816
3394.698059 0.7806 0.7800 0.7800 0.7800 0.7800
3401.541520 0.7800 0.7800 0.7800 0.7800 0.7800
3408.384980 0.7800 0.7800 0.7800 0.7800 0.7800
3415.228441 0.7796 0.7786 0.7780 0.7780 0.7780
3422.071902 0.7780 0.7780 0.7780 0.7780 0.7780
3428.915362 0.7780 0.7780 0.7780 0.7780 0.7780
3435.758823 0.7780 0.7780 0.7780 0.7780 0.7780
3442.602284 0.7780 0.7780 0.7780 0.7780 0.7780
3449.445744 0.7780 0.7780 0.7780 0.7780 0.7780
3456.289205 0.7785 0.7795 0.7800 0.7800 0.7795
3463.132666 0.7784 0.7780 0.7780 0.7774 0.7764
3469.976126 0.7760 0.7760 0.7760 0.7760 0.7760
3476.819587 0.7760 0.7760 0.7760 0.7760 0.7760
3483.663048 0.7760 0.7760 0.7760 0.7760 0.7760
3490.506508 0.7760 0.7766 0.7776 0.7786 0.7796
3497.349969 0.7800 0.7800 0.7800 0.7800 0.7800
3504.193430 0.7800 0.7793 0.7783 0.7773 0.7763
3511.036890 0.7760 0.7760 0.7760 0.7760 0.7774
3517.880351 0.7794 0.7800 0.7800 0.7793 0.7783
3524.723812 0.7780 0.7780 0.7788 0.7798 0.7800
3531.567272 0.7800 0.7800 0.7800 0.7800 0.7800
3538.410733 0.7808 0.7818 0.7820 0.7820 0.7812
3545.254194 0.7802 0.7800 0.7800 0.7800 0.7800
3552.097654 0.7808 0.7819 0.7820 0.7820 0.7820
3558.941115 0.7820 0.7803 0.7783 0.7771 0.7761
3565.784576 0.7769 0.7779 0.7789 0.7799 0.7800
3572.628036 0.7800 0.7809 0.7819 0.7820 0.7820
3579.471497 0.7820 0.7820 0.7825 0.7830 0.7825
3586.314958 0.7820 0.7810 0.7800 0.7800 0.7800
3593.158418 0.7814 0.7830 0.7830 0.7830 0.7825
3600.001879 0.7820 0.7800 0.7780 0.7780 0.7780
3606.845339 0.7780 0.7780 0.7780 0.7780 0.7770
3613.688800 0.7760 0.7760 0.7760 0.7760 0.7760
3620.532261 0.7760 0.7760 0.7760 0.7761 0.7771
3627.375721 0.7780 0.7780 0.7780 0.7780 0.7780
3634.219182 0.7780 0.7780 0.7780 0.7780 0.7780
3641.062643 0.7778 0.7757 0.7739 0.7729 0.7721
3647.906103 0.7731 0.7741 0.7751 0.7760 0.7760
3654.749564 0.7763 0.7783 0.7800 0.7800 0.7797
3661.593025 0.7776 0.7760 0.7760 0.7758 0.7748
3668.436485 0.7738 0.7728 0.7720 0.7720 0.7722
3675.279946 0.7732 0.7742 0.7752 0.7760 0.7760
3682.123407 0.7760 0.7760 0.7760 0.7760 0.7760
3688.966867 0.7760 0.7763 0.7773 0.7780 0.7780
3695.810328 0.7780 0.7780 0.7780 0.7780 0.7777
3702.653789 0.7767 0.7757 0.7747 0.7740 0.7740
3709.497249 0.7740 0.7740 0.7740 0.7740 0.7743
3716.340710 0.7754 0.7760 0.7760 0.7756 0.7746
3723.184171 0.7740 0.7740 0.7736 0.7726 0.7716
3730.027631 0.7706 0.7698 0.7693 0.7682 0.7662
3736.871092 0.7658 0.7678 0.7700 0.7725 0.7740
3743.714553 0.7740 0.7729 0.7704 0.7690 0.7690
3750.558013 0.7697 0.7712 0.7720 0.7720 0.7725
3757.401474 0.7735 0.7740 0.7740 0.7728 0.7703
3764.244935 0.7690 0.7690 0.7692 0.7698 0.7700
3771.088395 0.7700 0.7700 0.7700 0.7700 0.7700
3777.931856 0.7700 0.7700 0.7700 0.7700 0.7700
3784.775317 0.7700 0.7700 0.7700 0.7700 0.7700
##END=
