##TITLE=2,3,3-TRICHLORO-N-(2-THIAZOLE) ACRYLAMIDE
##JCAMP-DX=4.24
##DATA TYPE=INFRARED SPECTRUM
##CLASS=COBLENTZ
##ORIGIN=DOW CHEMICAL COMPANY
##OWNER=COBLENTZ SOCIETY
Collection (C) 2018 copyright by the U.S. Secretary of Commerce
on behalf of the United States of America. All rights reserved.
##DATE=Not specified, most likely prior to 1970
##NAMES=2,3,3-trichloro-N-(1,3-thiazol-2-yl)acrylamide
##CAS REGISTRY NO=99516-00-4
##MOLFORM=C6 H3 Cl3 N2 O S
##SOURCE REFERENCE=COBLENTZ NO. 4112
##$NIST SOURCE=COBLENTZ
##$NIST IMAGE=cob4112
##SPECTROMETER/DATA SYSTEM=Not specified, most likely a prism, grating, or hybrid spectrometer.
##STATE=SOLID (MINERAL OIL MULL)
##PATH LENGTH=
$$SPECTRAL CONTAMINATION DUE TO OIL AROUND 2900 CM^-^1
##SAMPLING PROCEDURE=TRANSMISSION
##RESOLUTION=4
##DATA PROCESSING=DIGITIZED BY NIST FROM HARD COPY
##XUNITS=MICROMETERS
##YUNITS=TRANSMITTANCE
##XFACTOR=1.000000
##YFACTOR=1
##DELTAX=000.006520
##FIRSTX=2.016
##LASTX=16.0061
##FIRSTY=0.481
##MAXX=16.0061
##MINX=2.016
##MAXY=0.966
##MINY=0.08
##NPOINTS=2147
##XYDATA=(X++(Y..Y))
2.016000 0.4810 0.4810 0.4830 0.4830 0.4840
2.048613 0.4840 0.4860 0.4860 0.4890 0.4910
2.081000 0.4910 0.4940 0.4950 0.4970 0.4970
2.113613 0.4990 0.5000 0.5020 0.5040 0.5040
2.146000 0.5050 0.5070 0.5080 0.5080 0.5100
2.178613 0.5100 0.5120 0.5130 0.5150 0.5150
2.211000 0.5160 0.5160 0.5160 0.5160 0.5160
2.243613 0.5160 0.5160 0.5160 0.5160 0.5160
2.276000 0.5160 0.5160 0.5180 0.5180 0.5200
2.308613 0.5200 0.5210 0.5210 0.5230 0.5260
2.342000 0.5260 0.5280 0.5290 0.5310 0.5310
2.374613 0.5320 0.5340 0.5360 0.5360 0.5370
2.407000 0.5370 0.5390 0.5400 0.5420 0.5450
2.439613 0.5470 0.5480 0.5500 0.5500 0.5520
2.472000 0.5520 0.5520 0.5520 0.5530 0.5550
2.504613 0.5560 0.5560 0.5560 0.5560 0.5560
2.537000 0.5580 0.5580 0.5580 0.5600 0.5600
2.569613 0.5610 0.5610 0.5610 0.5630 0.5650
2.602000 0.5660 0.5690 0.5730 0.5740 0.5740
2.634613 0.5740 0.5740 0.5760 0.5760 0.5760
2.668000 0.5760 0.5770 0.5770 0.5810 0.5820
2.700613 0.5840 0.5840 0.5840 0.5850 0.5850
2.733000 0.5870 0.5890 0.5890 0.5900 0.5900
2.765613 0.5920 0.5920 0.5920 0.5930 0.5930
2.798000 0.5930 0.5930 0.5930 0.5930 0.5930
2.830613 0.5920 0.5920 0.5920 0.5920 0.5920
2.863000 0.5920 0.5920 0.5920 0.5900 0.5900
2.895613 0.5890 0.5890 0.5890 0.5890 0.5890
2.928000 0.5890 0.5890 0.5900 0.5920 0.5920
2.960613 0.5930 0.5950 0.5950 0.5950 0.5950
2.993000 0.5950 0.5970 0.5970 0.5980 0.5980
3.025613 0.6000 0.6000 0.6010 0.6010 0.6010
3.059000 0.6010 0.6010 0.6010 0.6010 0.6000
3.091613 0.6000 0.5980 0.5970 0.5950 0.5900
3.124000 0.5850 0.5810 0.5760 0.5730 0.5710
3.156613 0.5690 0.5690 0.5710 0.5710 0.5710
3.189000 0.5730 0.5730 0.5730 0.5690 0.5630
3.221613 0.5600 0.5580 0.5560 0.5580 0.5600
3.254000 0.5610 0.5630 0.5660 0.5680 0.5680
3.286613 0.5680 0.5660 0.5530 0.5440 0.5400
3.319000 0.5240 0.5130 0.4940 0.4680 0.4340
3.351613 0.3930 0.3350 0.2760 0.2100 0.1500
3.385000 0.1390 0.1170 0.0940 0.0850 0.0800
3.417613 0.0810 0.0880 0.0990 0.1280 0.1470
3.450000 0.1580 0.1650 0.1700 0.1710 0.1740
3.482613 0.1780 0.1870 0.2020 0.2240 0.2550
3.515000 0.3000 0.3730 0.4010 0.4250 0.4430
3.547613 0.4540 0.4600 0.4630 0.4670 0.4680
3.580000 0.4680 0.4680 0.4680 0.4680 0.4670
3.612613 0.4650 0.4650 0.4650 0.4630 0.4630
3.645000 0.4620 0.4620 0.4620 0.4620 0.4620
3.677613 0.4630 0.4670 0.4700 0.4750 0.4830
3.711000 0.4890 0.4940 0.4990 0.5040 0.5080
3.743613 0.5130 0.5160 0.5210 0.5260 0.5310
3.776000 0.5340 0.5340 0.5420 0.5470 0.5530
3.808613 0.5560 0.5580 0.5600 0.5600 0.5610
3.841000 0.5660 0.5710 0.5740 0.5790 0.5840
3.873613 0.5890 0.5920 0.5950 0.5980 0.6000
3.906000 0.6010 0.6030 0.6060 0.6080 0.6090
3.938613 0.6110 0.6130 0.6160 0.6190 0.6240
3.971000 0.6270 0.6300 0.6340 0.6370 0.6380
4.003613 0.6400 0.6430 0.6460 0.6480 0.6510
4.037000 0.6540 0.6560 0.6590 0.6610 0.6620
4.069613 0.6660 0.6690 0.6700 0.6720 0.6740
4.102000 0.6770 0.6780 0.6800 0.6800 0.6800
4.134613 0.6820 0.6820 0.6820 0.6820 0.6820
4.167000 0.6820 0.6820 0.6820 0.6820 0.6820
4.199613 0.6820 0.6820 0.6820 0.6830 0.6850
4.232000 0.6860 0.6900 0.6930 0.6980 0.7010
4.264613 0.7030 0.7040 0.7070 0.7090 0.7090
4.297000 0.7140 0.7190 0.7200 0.7200 0.7220
4.329613 0.7220 0.7230 0.7230 0.7250 0.7250
4.363000 0.7270 0.7270 0.7280 0.7280 0.7300
4.395613 0.7310 0.7330 0.7360 0.7380 0.7390
4.428000 0.7410 0.7410 0.7410 0.7410 0.7410
4.460613 0.7410 0.7430 0.7440 0.7460 0.7470
4.493000 0.7470 0.7490 0.7490 0.7510 0.7510
4.525613 0.7520 0.7520 0.7540 0.7540 0.7560
4.558000 0.7560 0.7560 0.7570 0.7570 0.7570
4.590613 0.7570 0.7570 0.7570 0.7590 0.7590
4.623000 0.7600 0.7600 0.7620 0.7620 0.7620
4.655613 0.7620 0.7640 0.7640 0.7650 0.7650
4.689000 0.7650 0.7650 0.7670 0.7670 0.7670
4.721613 0.7670 0.7700 0.7700 0.7700 0.7700
4.754000 0.7700 0.7720 0.7720 0.7720 0.7720
4.786613 0.7720 0.7730 0.7750 0.7750 0.7750
4.819000 0.7750 0.7750 0.7750 0.7750 0.7760
4.851613 0.7760 0.7760 0.7760 0.7780 0.7780
4.884000 0.7780 0.7800 0.7800 0.7800 0.7810
4.916613 0.7810 0.7810 0.7810 0.7810 0.7810
4.949000 0.7810 0.7830 0.7830 0.7840 0.7840
4.981613 0.7840 0.7860 0.7880 0.7890 0.7890
5.015000 0.7910 0.7920 0.7940 0.7940 0.7940
5.047613 0.7940 0.7960 0.7960 0.7960 0.7960
5.080000 0.7970 0.7990 0.7990 0.8000 0.7990
5.112613 0.7990 0.8000 0.8000 0.8000 0.8000
5.145000 0.8000 0.8020 0.8020 0.8020 0.8020
5.177613 0.8020 0.8020 0.8020 0.8020 0.8040
5.210000 0.8040 0.8040 0.8050 0.8050 0.8070
5.242613 0.8070 0.8080 0.8080 0.8080 0.8080
5.275000 0.8080 0.8080 0.8080 0.8080 0.8080
5.307613 0.8080 0.8070 0.8070 0.8070 0.8070
5.341000 0.8070 0.8070 0.8070 0.8050 0.8050
5.373613 0.8050 0.8050 0.8050 0.8070 0.8070
5.406000 0.8070 0.8070 0.8070 0.8080 0.8100
5.438613 0.8100 0.8120 0.8130 0.8130 0.8150
5.471000 0.8150 0.8150 0.8170 0.8170 0.8170
5.503613 0.8150 0.8150 0.8150 0.8150 0.8130
5.536000 0.8130 0.8130 0.8130 0.8130 0.8130
5.568613 0.8130 0.8130 0.8130 0.8130 0.8130
5.601000 0.8130 0.8130 0.8130 0.8130 0.8120
5.633613 0.8120 0.8120 0.8100 0.8100 0.8100
5.666000 0.8080 0.8080 0.8070 0.8070 0.8050
5.698613 0.8040 0.8040 0.8040 0.8050 0.8070
5.732000 0.8080 0.8100 0.8120 0.8120 0.8150
5.764613 0.8150 0.8180 0.8180 0.8180 0.8200
5.797000 0.8200 0.8180 0.8170 0.8170 0.8120
5.829613 0.8100 0.8080 0.8040 0.7970 0.7940
5.862000 0.7840 0.7780 0.7700 0.7560 0.7430
5.894613 0.7190 0.6930 0.6740 0.6530 0.6080
5.927000 0.5630 0.4990 0.4300 0.3730 0.3370
5.959613 0.3290 0.3210 0.3210 0.4020 0.4540
5.992000 0.4670 0.4990 0.5310 0.5630 0.5950
6.024613 0.6190 0.6240 0.6380 0.6500 0.6640
6.058000 0.6930 0.7010 0.7070 0.7070 0.7090
6.090613 0.7110 0.7110 0.7110 0.7090 0.7070
6.123000 0.7070 0.7030 0.7010 0.6990 0.6980
6.155613 0.6950 0.6880 0.6820 0.6700 0.6670
6.188000 0.6620 0.6430 0.6240 0.6060 0.5920
6.220613 0.5770 0.5630 0.5520 0.5390 0.5280
6.253000 0.5130 0.4940 0.4680 0.4540 0.4390
6.285613 0.4260 0.4090 0.3940 0.3730 0.3590
6.318000 0.3400 0.3320 0.3240 0.3080 0.2920
6.350613 0.2690 0.2580 0.2500 0.2480 0.2500
6.384000 0.2640 0.2740 0.3090 0.3880 0.4250
6.416613 0.4440 0.4630 0.4860 0.4990 0.5130
6.449000 0.5230 0.5340 0.5580 0.5730 0.5920
6.481613 0.6090 0.6260 0.6380 0.6500 0.6610
6.514000 0.6750 0.6780 0.6800 0.6830 0.6880
6.546613 0.6950 0.6980 0.7010 0.7040 0.7090
6.579000 0.7140 0.7190 0.7230 0.7280 0.7330
6.611613 0.7360 0.7390 0.7410 0.7410 0.7390
6.644000 0.7380 0.7360 0.7350 0.7330 0.7280
6.676613 0.7270 0.7250 0.7250 0.7270 0.7280
6.710000 0.7280 0.7280 0.7270 0.7190 0.7040
6.742613 0.6880 0.6770 0.6640 0.6340 0.6030
6.775000 0.5730 0.5440 0.5340 0.5050 0.4830
6.807613 0.4760 0.4700 0.4680 0.4700 0.4760
6.840000 0.4870 0.5020 0.5180 0.5290 0.5440
6.872613 0.5560 0.5690 0.5810 0.5930 0.5980
6.905000 0.6080 0.6190 0.6340 0.6480 0.6660
6.937613 0.7010 0.7170 0.7390 0.7540 0.7650
6.970000 0.7700 0.7730 0.7750 0.7780 0.7800
7.002613 0.7840 0.7860 0.7880 0.7880 0.7920
7.036000 0.7940 0.7960 0.7960 0.7970 0.7970
7.068613 0.7990 0.7990 0.7970 0.7960 0.7940
7.101000 0.7940 0.7910 0.7910 0.7910 0.7890
7.133613 0.7890 0.7880 0.7880 0.7860 0.7800
7.166000 0.7730 0.7640 0.7520 0.7470 0.7250
7.198613 0.6980 0.6770 0.6700 0.6640 0.6540
7.231000 0.6460 0.6400 0.6370 0.6400 0.6530
7.263613 0.6620 0.6950 0.7120 0.7230 0.7300
7.296000 0.7380 0.7440 0.7490 0.7590 0.7670
7.328613 0.7720 0.7750 0.7750 0.7750 0.7730
7.362000 0.7700 0.7670 0.7640 0.7600 0.7590
7.394613 0.7570 0.7560 0.7510 0.7470 0.7440
7.427000 0.7390 0.7330 0.7230 0.7060 0.6880
7.459613 0.6690 0.6590 0.6480 0.6290 0.6030
7.492000 0.5740 0.5390 0.5130 0.4920 0.4760
7.524613 0.4680 0.4670 0.4680 0.4910 0.5040
7.557000 0.5230 0.5390 0.5400 0.5310 0.5120
7.589613 0.4590 0.4150 0.3570 0.3560 0.3410
7.622000 0.3270 0.3030 0.2550 0.2520 0.2400
7.654613 0.2290 0.2260 0.2270 0.2350 0.2550
7.688000 0.2740 0.3130 0.3940 0.4230 0.4590
7.720613 0.4920 0.5240 0.5650 0.5950 0.6190
7.753000 0.6380 0.6580 0.6910 0.7030 0.7120
7.785613 0.7200 0.7300 0.7390 0.7490 0.7570
7.818000 0.7600 0.7670 0.7670 0.7700 0.7760
7.850613 0.7780 0.7810 0.7840 0.7880 0.7890
7.883000 0.7970 0.7990 0.8000 0.8070 0.8070
7.915613 0.8080 0.8100 0.8120 0.8120 0.8120
7.948000 0.8120 0.8100 0.8080 0.8070 0.8000
7.980613 0.7970 0.7940 0.7920 0.7910 0.7890
8.014000 0.7890 0.7940 0.7970 0.8000 0.8050
8.046613 0.8080 0.8130 0.8170 0.8180 0.8180
8.079000 0.8180 0.8180 0.8180 0.8170 0.8100
8.111613 0.8070 0.7990 0.7940 0.7910 0.7890
8.144000 0.7890 0.7890 0.7910 0.7970 0.8020
8.176613 0.8100 0.8150 0.8230 0.8290 0.8360
8.209000 0.8390 0.8390 0.8390 0.8410 0.8420
8.241613 0.8440 0.8450 0.8470 0.8490 0.8530
8.274000 0.8630 0.8660 0.8680 0.8680 0.8680
8.306613 0.8680 0.8680 0.8660 0.8660 0.8660
8.340000 0.8660 0.8680 0.8680 0.8680 0.8690
8.372613 0.8690 0.8690 0.8690 0.8710 0.8710
8.405000 0.8690 0.8680 0.8680 0.8660 0.8660
8.437613 0.8610 0.8600 0.8570 0.8500 0.8440
8.470000 0.8340 0.8210 0.8040 0.7830 0.7540
8.502613 0.7220 0.6820 0.6640 0.6450 0.6090
8.535000 0.5870 0.5680 0.5480 0.5450 0.5480
8.567613 0.5770 0.6080 0.6480 0.7070 0.7440
8.600000 0.7800 0.7920 0.8020 0.8080 0.8170
8.632613 0.8180 0.8250 0.8280 0.8290 0.8330
8.665000 0.8360 0.8370 0.8390 0.8410 0.8420
8.697613 0.8450 0.8470 0.8470 0.8490 0.8500
8.731000 0.8520 0.8550 0.8570 0.8580 0.8600
8.763613 0.8610 0.8610 0.8630 0.8660 0.8660
8.796000 0.8660 0.8680 0.8680 0.8680 0.8680
8.828613 0.8680 0.8690 0.8690 0.8690 0.8690
8.861000 0.8710 0.8710 0.8710 0.8710 0.8710
8.893613 0.8710 0.8710 0.8710 0.8710 0.8710
8.926000 0.8710 0.8710 0.8710 0.8710 0.8710
8.958613 0.8710 0.8710 0.8710 0.8710 0.8710
8.991000 0.8710 0.8710 0.8710 0.8710 0.8710
9.023613 0.8710 0.8710 0.8730 0.8730 0.8740
9.057000 0.8760 0.8760 0.8760 0.8760 0.8760
9.089613 0.8740 0.8730 0.8730 0.8730 0.8710
9.122000 0.8710 0.8690 0.8680 0.8680 0.8660
9.154613 0.8660 0.8610 0.8580 0.8530 0.8440
9.187000 0.8310 0.8230 0.8050 0.7910 0.7750
9.219613 0.7700 0.7650 0.7620 0.7620 0.7670
9.252000 0.7780 0.7880 0.7990 0.8130 0.8260
9.284613 0.8340 0.8390 0.8420 0.8440 0.8450
9.317000 0.8470 0.8470 0.8470 0.8470 0.8490
9.349613 0.8490 0.8490 0.8490 0.8490 0.8490
9.383000 0.8490 0.8490 0.8470 0.8450 0.8420
9.415613 0.8410 0.8390 0.8390 0.8390 0.8370
9.448000 0.8370 0.8370 0.8370 0.8370 0.8390
9.480613 0.8410 0.8440 0.8470 0.8490 0.8530
9.513000 0.8550 0.8570 0.8580 0.8600 0.8600
9.545613 0.8610 0.8610 0.8630 0.8630 0.8650
9.578000 0.8650 0.8650 0.8660 0.8660 0.8680
9.610613 0.8680 0.8690 0.8690 0.8690 0.8690
9.643000 0.8690 0.8690 0.8690 0.8710 0.8710
9.675613 0.8710 0.8730 0.8730 0.8730 0.8740
9.709000 0.8740 0.8740 0.8740 0.8740 0.8740
9.741613 0.8740 0.8740 0.8740 0.8740 0.8760
9.774000 0.8760 0.8760 0.8760 0.8780 0.8780
9.806613 0.8780 0.8790 0.8790 0.8810 0.8810
9.839000 0.8820 0.8820 0.8840 0.8840 0.8840
9.871613 0.8840 0.8840 0.8840 0.8860 0.8870
9.904000 0.8890 0.8890 0.8900 0.8920 0.8920
9.936613 0.8950 0.8950 0.8970 0.8970 0.8980
9.969000 0.9000 0.9000 0.9020 0.9020 0.9020
10.001613 0.9020 0.9030 0.9030 0.9030 0.9050
10.035000 0.9050 0.9050 0.9050 0.9050 0.9050
10.067613 0.9050 0.9050 0.9060 0.9060 0.9060
10.100000 0.9060 0.9060 0.9060 0.9060 0.9080
10.132613 0.9080 0.9080 0.9080 0.9100 0.9100
10.165000 0.9100 0.9100 0.9110 0.9110 0.9110
10.197613 0.9110 0.9110 0.9110 0.9110 0.9110
10.230000 0.9110 0.9110 0.9110 0.9130 0.9130
10.262613 0.9130 0.9140 0.9140 0.9140 0.9140
10.295000 0.9140 0.9140 0.9140 0.9140 0.9140
10.327613 0.9140 0.9140 0.9140 0.9140 0.9140
10.361000 0.9140 0.9140 0.9130 0.9130 0.9110
10.393613 0.9100 0.9100 0.9080 0.9080 0.9080
10.426000 0.9060 0.9050 0.9050 0.9030 0.9020
10.458613 0.8980 0.8980 0.8970 0.8950 0.8950
10.491000 0.8920 0.8870 0.8840 0.8760 0.8730
10.523613 0.8660 0.8650 0.8570 0.8490 0.8420
10.556000 0.8280 0.8170 0.8020 0.7920 0.7830
10.588613 0.7640 0.7440 0.7200 0.6950 0.6670
10.621000 0.6540 0.6420 0.6160 0.5920 0.5710
10.653613 0.5550 0.5420 0.5360 0.5340 0.5340
10.687000 0.5370 0.5520 0.5710 0.5870 0.6130
10.719613 0.6420 0.6640 0.7060 0.7250 0.7430
10.752000 0.7590 0.7730 0.7860 0.7990 0.8100
10.784613 0.8200 0.8290 0.8440 0.8520 0.8580
10.817000 0.8610 0.8660 0.8690 0.8740 0.8760
10.849613 0.8760 0.8780 0.8790 0.8790 0.8810
10.882000 0.8810 0.8810 0.8810 0.8810 0.8810
10.914613 0.8810 0.8810 0.8810 0.8810 0.8810
10.947000 0.8810 0.8810 0.8810 0.8810 0.8810
10.979613 0.8810 0.8810 0.8810 0.8810 0.8810
11.013000 0.8810 0.8810 0.8810 0.8810 0.8810
11.045613 0.8810 0.8810 0.8810 0.8790 0.8790
11.078000 0.8780 0.8780 0.8760 0.8760 0.8740
11.110613 0.8740 0.8730 0.8730 0.8690 0.8680
11.143000 0.8660 0.8650 0.8650 0.8610 0.8580
11.175613 0.8550 0.8530 0.8490 0.8420 0.8340
11.208000 0.8210 0.8020 0.7920 0.7720 0.7510
11.240613 0.7220 0.6980 0.6740 0.6640 0.6530
11.273000 0.6420 0.6260 0.6170 0.6190 0.6320
11.305613 0.6430 0.6930 0.7200 0.7360 0.7470
11.339000 0.7540 0.7540 0.7490 0.7470 0.7410
11.371613 0.7280 0.7220 0.7140 0.7090 0.7060
11.404000 0.7010 0.6990 0.6990 0.6980 0.6980
11.436613 0.6960 0.6950 0.6860 0.6780 0.6720
11.469000 0.6670 0.6620 0.6510 0.6370 0.6220
11.501613 0.6060 0.5930 0.5790 0.5680 0.5560
11.534000 0.5470 0.5370 0.5290 0.5260 0.5230
11.566613 0.5210 0.5200 0.5180 0.5200 0.5210
11.599000 0.5240 0.5290 0.5360 0.5470 0.5610
11.631613 0.5730 0.5820 0.5920 0.6010 0.6130
11.664000 0.6220 0.6290 0.6380 0.6460 0.6540
11.696613 0.6620 0.6750 0.6770 0.6850 0.6880
11.730000 0.6950 0.6980 0.7040 0.7060 0.7090
11.762613 0.7140 0.7150 0.7190 0.7220 0.7250
11.795000 0.7310 0.7390 0.7510 0.7520 0.7560
11.827613 0.7590 0.7650 0.7670 0.7700 0.7750
11.860000 0.7760 0.7800 0.7840 0.7860 0.7890
11.892613 0.7960 0.7960 0.7970 0.7990 0.8020
11.925000 0.8050 0.8080 0.8100 0.8100 0.8130
11.957613 0.8170 0.8180 0.8200 0.8210 0.8230
11.990000 0.8250 0.8260 0.8280 0.8290 0.8310
12.022613 0.8330 0.8330 0.8340 0.8340 0.8360
12.056000 0.8360 0.8370 0.8370 0.8390 0.8390
12.088613 0.8410 0.8410 0.8420 0.8420 0.8440
12.121000 0.8440 0.8450 0.8450 0.8450 0.8450
12.153613 0.8470 0.8470 0.8470 0.8470 0.8470
12.186000 0.8470 0.8490 0.8500 0.8500 0.8520
12.218613 0.8520 0.8520 0.8530 0.8530 0.8530
12.251000 0.8550 0.8550 0.8570 0.8570 0.8580
12.283613 0.8600 0.8600 0.8600 0.8610 0.8630
12.316000 0.8630 0.8650 0.8650 0.8650 0.8650
12.348613 0.8660 0.8660 0.8660 0.8660 0.8680
12.382000 0.8680 0.8680 0.8680 0.8680 0.8680
12.414613 0.8680 0.8680 0.8680 0.8680 0.8680
12.447000 0.8680 0.8680 0.8680 0.8660 0.8660
12.479613 0.8650 0.8650 0.8630 0.8610 0.8580
12.512000 0.8570 0.8550 0.8500 0.8490 0.8450
12.544613 0.8370 0.8280 0.8180 0.8050 0.7940
12.577000 0.7800 0.7670 0.7520 0.7310 0.7070
12.609613 0.6900 0.6780 0.6670 0.6640 0.6590
12.642000 0.6540 0.6480 0.6460 0.6480 0.6620
12.674613 0.6930 0.7140 0.7330 0.7520 0.7680
12.708000 0.7810 0.7920 0.8070 0.8180 0.8260
12.740613 0.8310 0.8370 0.8410 0.8440 0.8470
12.773000 0.8500 0.8530 0.8550 0.8570 0.8610
12.805613 0.8660 0.8690 0.8690 0.8740 0.8740
12.838000 0.8760 0.8780 0.8780 0.8790 0.8790
12.870613 0.8810 0.8820 0.8860 0.8860 0.8860
12.903000 0.8870 0.8870 0.8870 0.8890 0.8900
12.935613 0.8920 0.8940 0.8950 0.8950 0.8950
12.968000 0.8970 0.8970 0.8970 0.8980 0.8980
13.000613 0.8980 0.9000 0.9000 0.9000 0.9000
13.034000 0.9000 0.9000 0.9020 0.9020 0.9020
13.066613 0.9020 0.9030 0.9050 0.9050 0.9050
13.099000 0.9050 0.9050 0.9050 0.9050 0.9030
13.131613 0.9020 0.9000 0.8980 0.8970 0.8970
13.164000 0.8950 0.8940 0.8890 0.8870 0.8840
13.196613 0.8790 0.8730 0.8680 0.8630 0.8570
13.229000 0.8490 0.8420 0.8330 0.8180 0.8020
13.261613 0.7940 0.7810 0.7670 0.7510 0.7330
13.294000 0.7220 0.7070 0.6950 0.6850 0.6770
13.326613 0.6690 0.6660 0.6620 0.6580 0.6560
13.360000 0.6540 0.6540 0.6560 0.6740 0.6780
13.392613 0.6900 0.7030 0.7200 0.7310 0.7430
13.425000 0.7520 0.7640 0.7730 0.7830 0.7920
13.457613 0.8000 0.8070 0.8150 0.8180 0.8250
13.490000 0.8290 0.8360 0.8390 0.8410 0.8420
13.522613 0.8440 0.8470 0.8500 0.8520 0.8520
13.555000 0.8550 0.8550 0.8550 0.8550 0.8550
13.587613 0.8530 0.8500 0.8450 0.8390 0.8330
13.620000 0.8250 0.8150 0.8050 0.7960 0.7830
13.652613 0.7720 0.7560 0.7330 0.7170 0.7030
13.686000 0.6900 0.6670 0.6590 0.6510 0.6290
13.718613 0.6130 0.6010 0.5920 0.5810 0.5770
13.751000 0.5740 0.5730 0.5730 0.5760 0.5870
13.783613 0.6010 0.6080 0.6300 0.6510 0.6830
13.816000 0.6910 0.7010 0.7150 0.7230 0.7330
13.848613 0.7430 0.7470 0.7560 0.7600 0.7650
13.881000 0.7670 0.7670 0.7650 0.7600 0.7590
13.913613 0.7540 0.7470 0.7380 0.7280 0.7170
13.946000 0.7040 0.6900 0.6750 0.6690 0.6610
13.978613 0.6560 0.6420 0.6260 0.6060 0.5920
14.012000 0.5820 0.5730 0.5680 0.5660 0.5680
14.044613 0.5730 0.5760 0.5900 0.6010 0.6210
14.077000 0.6380 0.6560 0.6910 0.7090 0.7250
14.109613 0.7460 0.7620 0.7750 0.7880 0.8000
14.142000 0.8130 0.8230 0.8290 0.8370 0.8420
14.174613 0.8490 0.8520 0.8580 0.8650 0.8710
14.207000 0.8730 0.8740 0.8740 0.8740 0.8740
14.239613 0.8730 0.8710 0.8690 0.8680 0.8630
14.272000 0.8580 0.8520 0.8470 0.8420 0.8330
14.304613 0.8230 0.8150 0.8050 0.7920 0.7810
14.338000 0.7670 0.7540 0.7430 0.7310 0.7220
14.370613 0.7110 0.7010 0.6910 0.6850 0.6720
14.403000 0.6670 0.6620 0.6530 0.6500 0.6480
14.435613 0.6480 0.6480 0.6480 0.6500 0.6530
14.468000 0.6560 0.6660 0.6900 0.7030 0.7140
14.500613 0.7270 0.7380 0.7510 0.7620 0.7730
14.533000 0.7840 0.7940 0.8020 0.8120 0.8180
14.565613 0.8250 0.8280 0.8310 0.8330 0.8420
14.598000 0.8520 0.8520 0.8550 0.8600 0.8650
14.630613 0.8680 0.8690 0.8740 0.8760 0.8780
14.663000 0.8790 0.8860 0.8860 0.8890 0.8920
14.695613 0.8940 0.8950 0.8980 0.9000 0.9030
14.729000 0.9050 0.9060 0.9100 0.9110 0.9160
14.761613 0.9180 0.9190 0.9210 0.9210 0.9240
14.794000 0.9270 0.9290 0.9290 0.9300 0.9320
14.826613 0.9320 0.9320 0.9340 0.9350 0.9350
14.859000 0.9350 0.9350 0.9350 0.9350 0.9350
14.891613 0.9350 0.9350 0.9350 0.9350 0.9350
14.924000 0.9350 0.9350 0.9350 0.9350 0.9370
14.956613 0.9390 0.9390 0.9420 0.9430 0.9430
14.989000 0.9450 0.9470 0.9470 0.9480 0.9480
15.021613 0.9500 0.9510 0.9510 0.9530 0.9530
15.055000 0.9550 0.9560 0.9560 0.9560 0.9560
15.087613 0.9560 0.9580 0.9580 0.9580 0.9580
15.120000 0.9580 0.9580 0.9580 0.9590 0.9590
15.152613 0.9590 0.9590 0.9590 0.9590 0.9590
15.185000 0.9590 0.9590 0.9590 0.9590 0.9590
15.217613 0.9590 0.9590 0.9590 0.9590 0.9590
15.250000 0.9590 0.9610 0.9610 0.9610 0.9610
15.282613 0.9610 0.9610 0.9630 0.9630 0.9630
15.315000 0.9640 0.9640 0.9640 0.9660 0.9660
15.347613 0.9660 0.9660 0.9660 0.9660 0.9660
15.381000 0.9660 0.9660 0.9660 0.9660 0.9660
15.413613 0.9660 0.9660 0.9660 0.9660 0.9660
15.446000 0.9660 0.9660 0.9660 0.9660 0.9660
15.478613 0.9660 0.9660 0.9660 0.9660 0.9660
15.511000 0.9660 0.9660 0.9660 0.9660 0.9640
15.543613 0.9640 0.9630 0.9630 0.9630 0.9610
15.576000 0.9610 0.9610 0.9610 0.9610 0.9610
15.608613 0.9610 0.9610 0.9610 0.9590 0.9590
15.641000 0.9590 0.9580 0.9580 0.9560 0.9560
15.673613 0.9550 0.9550 0.9550 0.9510 0.9500
15.707000 0.9500 0.9480 0.9480 0.9480 0.9480
15.739613 0.9480 0.9470 0.9470 0.9470 0.9450
15.772000 0.9450 0.9450 0.9430 0.9430 0.9430
15.804613 0.9420 0.9420 0.9400 0.9400 0.9400
15.837000 0.9400 0.9390 0.9390 0.9370 0.9370
15.869613 0.9370 0.9370 0.9370 0.9370 0.9370
15.902000 0.9370 0.9370 0.9370 0.9370 0.9390
15.934613 0.9390 0.9400 0.9400 0.9420 0.9430
15.967000 0.9450 0.9450 0.9450 0.9450 0.9470
15.999613 0.9450 0.9450
##END=
