##TITLE=m-DINITROBENZENE
##JCAMP-DX=4.24
##DATA TYPE=INFRARED SPECTRUM
##CLASS=COBLENTZ
##ORIGIN=DOW CORNING CORP.
##OWNER=COBLENTZ SOCIETY
Collection (C) 2018 copyright by the U.S. Secretary of Commerce
on behalf of the United States of America. All rights reserved.
##DATE=Not specified, most likely prior to 1970
##NAMES=1,3-dinitrobenzene
##CAS REGISTRY NO=99-65-0
##MOLFORM=C6 H4 N2 O4
##SOURCE REFERENCE=COBLENTZ NO. 4836
##$NIST SOURCE=COBLENTZ
##$NIST IMAGE=cob4836
##SPECTROMETER/DATA SYSTEM=Not specified, most likely a grating or hybrid spectrometer.
##STATE=SOLID (MINERAL OIL MULL)
##SAMPLING PROCEDURE=TRANSMISSION
##RESOLUTION=4
##DATA PROCESSING=DIGITIZED BY NIST FROM HARD COPY (FROM TWO SEGMENTS)
##XUNITS=1/CM
##YUNITS=TRANSMITTANCE
##XFACTOR=1.000000
##YFACTOR=1
##DELTAX=0.983608
##FIRSTX=254.098
##LASTX=3795.09
##FIRSTY=0.907
##MAXX=3795.09
##MINX=254.098
##MAXY=1.026
##MINY=0.024
##NPOINTS=3601
##XYDATA=(X++(Y..Y))
254.098000 0.9070 0.9070 0.9090 0.9090 0.9110
259.016042 0.9110 0.9130 0.9180 0.9210 0.9230
263.934083 0.9270 0.9320 0.9350 0.9350 0.9350
268.852125 0.9390 0.9440 0.9470 0.9490 0.9510
273.770167 0.9530 0.9540 0.9540 0.9560 0.9560
278.688209 0.9560 0.9580 0.9580 0.9600 0.9600
283.606250 0.9610 0.9610 0.9610 0.9630 0.9650
288.524292 0.9670 0.9670 0.9670 0.9670 0.9680
293.442334 0.9680 0.9700 0.9720 0.9720 0.9720
298.360375 0.9730 0.9730 0.9730 0.9730 0.9730
303.278417 0.9730 0.9730 0.9750 0.9770 0.9770
308.196459 0.9770 0.9790 0.9790 0.9790 0.9800
313.114500 0.9800 0.9840 0.9870 0.9890 0.9890
318.032542 0.9930 0.9930 0.9940 0.9940 0.9940
322.950584 0.9940 0.9940 0.9940 0.9940 0.9940
327.868626 0.9940 0.9940 0.9940 0.9940 0.9940
332.786667 0.9940 0.9940 0.9940 0.9940 0.9940
337.704709 0.9940 0.9940 0.9940 0.9930 0.9930
342.622751 0.9930 0.9910 0.9910 0.9910 0.9910
347.540792 0.9890 0.9870 0.9870 0.9860 0.9860
352.458834 0.9840 0.9840 0.9820 0.9820 0.9840
357.376876 0.9860 0.9860 0.9890 0.9910 0.9910
362.294917 0.9910 0.9910 0.9930 0.9930 0.9930
367.212959 0.9930 0.9930 0.9930 0.9930 0.9910
372.131001 0.9910 0.9910 0.9910 0.9940 0.9940
377.049043 0.9910 0.9890 0.9890 0.9890 0.9890
381.967084 0.9890 0.9890 0.9910 0.9930 0.9940
386.885126 0.9960 1.0050 1.0060 1.0060 1.0050
391.803168 1.0030 1.0030 1.0010 1.0000 1.0000
396.721209 0.9980 0.9980 0.9960 0.9930 0.9910
401.639251 0.9890 0.9860 0.9840 0.9800 0.9750
406.557293 0.9680 0.9650 0.9630 0.9610 0.9610
411.475335 0.9630 0.9650 0.9650 0.9680 0.9720
416.393376 0.9730 0.9730 0.9730 0.9700 0.9680
421.311418 0.9680 0.9680 0.9700 0.9720 0.9750
426.229460 0.9770 0.9790 0.9790 0.9790 0.9770
431.147501 0.9770 0.9770 0.9750 0.9750 0.9730
436.065543 0.9720 0.9720 0.9720 0.9730 0.9750
440.983585 0.9770 0.9770 0.9770 0.9790 0.9790
445.901626 0.9790 0.9790 0.9790 0.9790 0.9790
450.819668 0.9730 0.9730 0.9730 0.9720 0.9730
455.737710 0.9730 0.9750 0.9790 0.9750 0.9790
460.655752 0.9820 0.9840 0.9870 0.9870 0.9890
465.573793 0.9910 0.9910 0.9890 0.9910 0.9930
470.491835 0.9960 0.9960 0.9960 0.9960 0.9960
475.409877 0.9960 0.9960 0.9960 0.9960 0.9960
480.327918 0.9960 0.9960 0.9980 0.9980 0.9980
485.245960 0.9980 0.9980 0.9980 0.9980 0.9980
490.164002 0.9980 0.9980 0.9980 1.0000 1.0000
495.082044 1.0000 1.0000 1.0000 1.0000 1.0000
500.000085 1.0000 1.0000 1.0000 1.0000 1.0000
504.918127 1.0010 1.0010 1.0010 1.0010 1.0010
509.836169 1.0010 1.0010 1.0010 1.0010 1.0010
514.754210 1.0010 1.0010 1.0030 1.0030 1.0030
519.672252 1.0030 1.0030 1.0030 1.0030 1.0050
524.590294 1.0050 1.0050 1.0050 1.0050 1.0050
529.508335 1.0050 1.0060 1.0060 1.0060 1.0060
534.426377 1.0060 1.0060 1.0060 1.0080 1.0080
539.344419 1.0080 1.0080 1.0080 1.0080 1.0080
544.262461 1.0080 1.0100 1.0100 1.0100 1.0100
549.180502 1.0100 1.0100 1.0100 1.0120 1.0120
554.098544 1.0120 1.0120 1.0120 1.0120 1.0120
559.016586 1.0130 1.0130 1.0130 1.0130 1.0130
563.934627 1.0130 1.0130 1.0150 1.0150 1.0150
568.852669 1.0150 1.0150 1.0150 1.0150 1.0150
573.770711 1.0150 1.0170 1.0170 1.0170 1.0170
578.688752 1.0170 1.0170 1.0170 1.0170 1.0190
583.606794 1.0190 1.0190 1.0190 1.0190 1.0190
588.524836 1.0190 1.0190 1.0200 1.0200 1.0200
593.442878 1.0200 1.0200 1.0200 1.0200 1.0200
598.360919 1.0220 1.0220 1.0220 1.0220 1.0220
603.278961 1.0220 1.0220 1.0220 1.0220 1.0220
608.197003 1.0220 1.0220 1.0220 1.0220 1.0220
613.115044 1.0220 1.0220 1.0220 1.0220 1.0220
618.033086 1.0220 1.0220 1.0220 1.0220 1.0220
622.951128 1.0220 1.0220 1.0220 1.0220 1.0220
627.869170 1.0220 1.0220 1.0220 1.0220 1.0220
632.787211 1.0220 1.0200 1.0200 1.0200 1.0200
637.705253 1.0200 1.0190 1.0190 1.0190 1.0190
642.623295 1.0190 1.0170 1.0170 1.0170 1.0170
647.541336 1.0170 1.0150 1.0120 1.0060 1.0010
652.459378 0.9960 0.9800 0.9601 0.9281 0.9131
657.377420 0.9010 0.9010 0.9070 0.9649 1.0029
662.295461 1.0060 1.0130 1.0150 1.0170 1.0190
667.213503 1.0200 1.0200 1.0220 1.0220 1.0240
672.131545 1.0260 1.0240 1.0240 1.0240 1.0240
677.049587 1.0240 1.0240 1.0240 1.0260 1.0260
681.967628 1.0260 1.0260 1.0240 1.0200 1.0190
686.885670 1.0170 1.0130 1.0120 1.0120 1.0100
691.803712 1.0100 1.0100 1.0100 1.0100 1.0080
696.721753 1.0060 1.0050 1.0010 0.9980 0.9910
701.639795 0.9870 0.9840 0.9820 0.9800 0.9790
706.557837 0.9770 0.9700 0.9650 0.9470 0.9350
711.475879 0.9011 0.8691 0.8291 0.7911 0.7203
716.393920 0.6179 0.4730 0.3780 0.3780 0.3990
721.311962 0.5916 0.7247 0.8018 0.8359 0.8360
726.230004 0.8350 0.8330 0.7960 0.7620 0.7111
731.148045 0.6262 0.5931 0.5930 0.6777 0.8344
736.066087 0.8970 0.9280 0.9440 0.9540 0.9540
740.984129 0.9600 0.9650 0.9670 0.9670 0.9680
745.902170 0.9680 0.9720 0.9730 0.9750 0.9800
750.820212 0.9860 0.9890 0.9910 0.9910 0.9910
755.738254 0.9930 0.9930 0.9930 0.9930 0.9940
760.656296 0.9930 0.9890 0.9840 0.9790 0.9750
765.574337 0.9680 0.9670 0.9680 0.9910 1.0010
770.492379 1.0050 1.0050 1.0050 1.0050 1.0060
775.410421 1.0060 1.0060 1.0060 1.0080 1.0080
780.328462 1.0080 1.0080 1.0080 1.0080 1.0080
785.246504 1.0080 1.0080 1.0100 1.0100 1.0100
790.164546 1.0100 1.0100 1.0100 1.0100 1.0100
795.082587 1.0100 1.0100 1.0100 1.0100 1.0100
800.000629 1.0100 1.0100 1.0100 1.0100 1.0080
804.918671 1.0080 1.0060 1.0050 1.0050 1.0030
809.836713 1.0030 1.0010 1.0000 0.9980 0.9940
814.754754 0.9930 0.9860 0.9790 0.9770 0.9351
819.672796 0.9130 0.7893 0.7890 0.8000 0.8239
824.590838 0.9160 0.9580 0.9770 0.9890 0.9910
829.508879 0.9890 0.9890 0.9890 0.9890 0.9860
834.426921 0.9820 0.9770 0.9650 0.9470 0.9280
839.344963 0.9090 0.8801 0.8292 0.8290 0.8400
844.263005 0.9350 0.9580 0.9750 0.9820 0.9870
849.181046 0.9930 1.0000 1.0010 1.0030 1.0030
854.099088 1.0030 1.0030 1.0030 1.0030 1.0050
859.017130 1.0050 1.0030 1.0030 1.0030 1.0030
863.935171 1.0030 1.0030 1.0010 1.0000 1.0000
868.853213 1.0000 0.9980 0.9980 0.9980 0.9980
873.771255 0.9980 0.9960 0.9960 0.9960 0.9960
878.689296 0.9960 0.9940 0.9930 0.9910 0.9910
883.607338 0.9890 0.9890 0.9890 0.9890 0.9890
888.525380 0.9870 0.9860 0.9840 0.9800 0.9770
893.443422 0.9750 0.9730 0.9730 0.9730 0.9720
898.361463 0.9720 0.9700 0.9670 0.9630 0.9600
903.279505 0.9560 0.9530 0.9370 0.9180 0.8881
908.197547 0.8591 0.8450 0.8291 0.8101 0.8100
913.115588 0.8660 0.8620 0.8500 0.8360 0.7252
918.033630 0.7250 0.7838 0.8657 0.9198 0.9509
922.951672 0.9600 0.9670 0.9700 0.9700 0.9700
927.869714 0.9680 0.9700 0.9720 0.9730 0.9730
932.787755 0.9730 0.9700 0.9720 0.9720 0.9720
937.705797 0.9700 0.9700 0.9700 0.9700 0.9700
942.623839 0.9700 0.9700 0.9700 0.9700 0.9700
947.541880 0.9700 0.9700 0.9680 0.9680 0.9720
952.459922 0.9720 0.9720 0.9720 0.9720 0.9700
957.377964 0.9700 0.9700 0.9720 0.9720 0.9720
962.296005 0.9720 0.9720 0.9720 0.9700 0.9700
967.214047 0.9700 0.9700 0.9680 0.9680 0.9680
972.132089 0.9680 0.9680 0.9680 0.9680 0.9680
977.050131 0.9680 0.9680 0.9720 0.9720 0.9680
981.968172 0.9670 0.9680 0.9700 0.9700 0.9700
986.886214 0.9700 0.9720 0.9720 0.9720 0.9700
991.804256 0.9700 0.9700 0.9700 0.9700 0.9680
996.722297 0.9670 0.9670 0.9670 0.9650 0.9610
1001.640339 0.9580 0.9540 0.9530 0.9510 0.9510
1006.558381 0.9530 0.9560 0.9600 0.9630 0.9680
1011.476422 0.9700 0.9700 0.9700 0.9700 0.9700
1016.394464 0.9680 0.9680 0.9680 0.9680 0.9700
1021.312506 0.9680 0.9680 0.9680 0.9680 0.9680
1026.230548 0.9680 0.9680 0.9680 0.9700 0.9650
1031.148589 0.9650 0.9670 0.9670 0.9650 0.9650
1036.066631 0.9650 0.9650 0.9650 0.9670 0.9670
1040.984673 0.9670 0.9650 0.9650 0.9650 0.9650
1045.902714 0.9650 0.9650 0.9630 0.9630 0.9630
1050.820756 0.9610 0.9580 0.9580 0.9540 0.9540
1055.738798 0.9540 0.9530 0.9530 0.9510 0.9470
1060.656840 0.9370 0.9280 0.9280 0.9160 0.9090
1065.574881 0.8940 0.8880 0.8750 0.8521 0.8361
1070.492923 0.8030 0.7840 0.7840 0.7880 0.8070
1075.410965 0.8210 0.8429 0.8590 0.8680 0.8899
1080.329006 0.9020 0.9250 0.9320 0.9370 0.9390
1085.247048 0.9390 0.9390 0.9370 0.9370 0.9350
1090.165090 0.9320 0.9250 0.9180 0.9140 0.9060
1095.083131 0.8900 0.8661 0.8570 0.8570 0.8749
1100.001173 0.9070 0.9300 0.9460 0.9530 0.9560
1104.919215 0.9560 0.9560 0.9580 0.9580 0.9580
1109.837257 0.9580 0.9560 0.9560 0.9560 0.9560
1114.755298 0.9560 0.9560 0.9540 0.9560 0.9560
1119.673340 0.9560 0.9540 0.9540 0.9540 0.9530
1124.591382 0.9530 0.9530 0.9530 0.9510 0.9510
1129.509423 0.9510 0.9510 0.9510 0.9510 0.9510
1134.427465 0.9510 0.9510 0.9510 0.9490 0.9490
1139.345507 0.9460 0.9470 0.9460 0.9440 0.9400
1144.263549 0.9370 0.9320 0.9230 0.9200 0.9130
1149.181590 0.9110 0.9130 0.9160 0.9230 0.9300
1154.099632 0.9350 0.9390 0.9400 0.9400 0.9420
1159.017674 0.9440 0.9440 0.9460 0.9460 0.9460
1163.935715 0.9440 0.9420 0.9420 0.9400 0.9390
1168.853757 0.9370 0.9350 0.9340 0.9340 0.9350
1173.771799 0.9370 0.9420 0.9440 0.9460 0.9460
1178.689840 0.9470 0.9510 0.9530 0.9530 0.9540
1183.607882 0.9540 0.9540 0.9540 0.9530 0.9530
1188.525924 0.9530 0.9510 0.9510 0.9510 0.9510
1193.443966 0.9530 0.9530 0.9530 0.9540 0.9530
1198.362007 0.9530 0.9510 0.9490 0.9470 0.9470
1203.280049 0.9470 0.9460 0.9460 0.9460 0.9460
1208.198091 0.9440 0.9460 0.9460 0.9440 0.9420
1213.116132 0.9440 0.9440 0.9440 0.9440 0.9460
1218.034174 0.9460 0.9460 0.9460 0.9440 0.9440
1222.952216 0.9420 0.9440 0.9420 0.9420 0.9400
1227.870257 0.9400 0.9390 0.9390 0.9400 0.9400
1232.788299 0.9390 0.9370 0.9340 0.9350 0.9340
1237.706341 0.9340 0.9340 0.9300 0.9300 0.9280
1242.624383 0.9270 0.9270 0.9270 0.9270 0.9250
1247.542424 0.9250 0.9250 0.9230 0.9210 0.9180
1252.460466 0.9180 0.9160 0.9160 0.9160 0.9160
1257.378508 0.9140 0.9140 0.9140 0.9140 0.9140
1262.296549 0.9140 0.9140 0.9130 0.9130 0.9130
1267.214591 0.9110 0.9110 0.9090 0.9060 0.8950
1272.132633 0.8920 0.8800 0.8590 0.8351 0.8101
1277.050675 0.7860 0.7861 0.8850 0.8970 0.9060
1281.968716 0.9060 0.9060 0.9040 0.9020 0.9010
1286.886758 0.9010 0.9010 0.9010 0.8990 0.8970
1291.804800 0.8940 0.8900 0.8880 0.8850 0.8850
1296.722841 0.8830 0.8830 0.8810 0.8810 0.8800
1301.640883 0.8780 0.8750 0.8730 0.8710 0.8710
1306.558925 0.8690 0.8690 0.8690 0.8660 0.8640
1311.476966 0.8610 0.8590 0.8570 0.8550 0.8540
1316.395008 0.8520 0.8500 0.8480 0.8450 0.8400
1321.313050 0.8380 0.8330 0.8290 0.8190 0.8030
1326.231092 0.7960 0.7930 0.7890 0.7880 0.7880
1331.149133 0.7860 0.7840 0.7810 0.7740 0.7630
1336.067175 0.7530 0.7390 0.7270 0.7100 0.6900
1340.985217 0.6471 0.6091 0.5811 0.5551 0.5171
1345.903258 0.4679 0.3759 0.3020 0.2600 0.2150
1350.821300 0.2110 0.2130 0.2180 0.2270 0.2340
1355.739342 0.2410 0.2550 0.2760 0.3210 0.3660
1360.657384 0.4439 0.5079 0.5708 0.6039 0.6229
1365.575425 0.6330 0.6370 0.6370 0.6380 0.6380
1370.493467 0.6370 0.6300 0.6260 0.6190 0.6021
1375.411509 0.5740 0.5690 0.5550 0.5550 0.5740
1380.329550 0.5950 0.6309 0.6559 0.6819 0.7109
1385.247592 0.7560 0.7720 0.7960 0.8190 0.8420
1390.165634 0.8640 0.8830 0.8970 0.9070 0.9130
1395.083675 0.9140 0.9200 0.9210 0.9230 0.9250
1400.001717 0.9250 0.9250 0.9250 0.9250 0.9230
1404.919759 0.9230 0.9230 0.9210 0.9210 0.9200
1409.837801 0.9200 0.9180 0.9180 0.9160 0.9140
1414.755842 0.9140 0.9140 0.9140 0.9130 0.9130
1419.673884 0.9110 0.9090 0.9090 0.9070 0.9060
1424.591926 0.9040 0.9040 0.9020 0.8970 0.8920
1429.509967 0.8810 0.8730 0.8680 0.8610 0.8520
1434.428009 0.8350 0.8150 0.8090 0.7950 0.7790
1439.346051 0.7650 0.7500 0.7370 0.7230 0.7100
1444.264092 0.6960 0.6840 0.6700 0.6560 0.6400
1449.182134 0.6280 0.6160 0.6050 0.5930 0.5830
1454.100176 0.5690 0.5550 0.5390 0.5200 0.5190
1459.018218 0.5060 0.5030 0.5010 0.4980 0.4980
1463.936259 0.4960 0.4960 0.4980 0.5000 0.5030
1468.854301 0.5080 0.5120 0.5410 0.5500 0.6108
1473.772343 0.6730 0.6990 0.7220 0.7360 0.7480
1478.690384 0.7670 0.7840 0.8000 0.8120 0.8220
1483.608426 0.8260 0.8280 0.8290 0.8330 0.8330
1488.526468 0.8330 0.8330 0.8310 0.8290 0.8280
1493.444510 0.8280 0.8260 0.8220 0.8190 0.8140
1498.362551 0.8120 0.8000 0.7880 0.7760 0.7620
1503.280593 0.7500 0.7360 0.7220 0.7060 0.6920
1508.198635 0.6750 0.6451 0.6141 0.5881 0.5651
1513.116676 0.5500 0.5410 0.5270 0.5100 0.5000
1518.034718 0.4930 0.4840 0.4750 0.4650 0.4530
1522.952760 0.4400 0.4250 0.3950 0.3590 0.3240
1527.870801 0.3000 0.2930 0.2760 0.2720 0.2740
1532.788843 0.3150 0.3330 0.3380 0.3380 0.3330
1537.706885 0.3140 0.2950 0.2701 0.2411 0.2131
1542.624927 0.2100 0.2100 0.2230 0.2370 0.2510
1547.542968 0.3759 0.4509 0.5099 0.6048 0.7177
1552.461010 0.7511 0.7770 0.7960 0.8240 0.8380
1557.379052 0.8470 0.8500 0.8640 0.8730 0.8810
1562.297093 0.8880 0.8900 0.8920 0.8920 0.8970
1567.215135 0.8990 0.9010 0.9010 0.9040 0.9040
1572.133177 0.9060 0.9070 0.9090 0.9090 0.9090
1577.051218 0.9090 0.9090 0.9070 0.9070 0.9070
1581.969260 0.9070 0.9070 0.9070 0.9060 0.9060
1586.887302 0.9010 0.8990 0.8940 0.8900 0.8880
1591.805344 0.8880 0.8800 0.8730 0.8710 0.8590
1596.723385 0.8330 0.8140 0.8000 0.7810 0.7511
1601.641427 0.7480 0.7500 0.7530 0.7580 0.7670
1606.559469 0.7720 0.7810 0.7840 0.7840 0.7790
1611.477510 0.7700 0.7620 0.7510 0.7430 0.7390
1616.395552 0.7390 0.7410 0.7620 0.7880 0.8279
1621.313594 0.8610 0.8850 0.8940 0.9130 0.9210
1626.231636 0.9230 0.9250 0.9300 0.9320 0.9340
1631.149677 0.9340 0.9350 0.9350 0.9350 0.9370
1636.067719 0.9370 0.9390 0.9400 0.9420 0.9420
1640.985761 0.9440 0.9440 0.9440 0.9440 0.9440
1645.903802 0.9420 0.9420 0.9420 0.9400 0.9400
1650.821844 0.9390 0.9390 0.9370 0.9370 0.9390
1655.739886 0.9390 0.9420 0.9420 0.9440 0.9460
1660.657927 0.9530 0.9560 0.9580 0.9580 0.9600
1665.575969 0.9610 0.9610 0.9610 0.9610 0.9610
1670.494011 0.9610 0.9610 0.9610 0.9610 0.9610
1675.412053 0.9610 0.9610 0.9610 0.9610 0.9610
1680.330094 0.9630 0.9600 0.9600 0.9610 0.9610
1685.248136 0.9610 0.9610 0.9600 0.9610 0.9610
1690.166178 0.9610 0.9610 0.9610 0.9610 0.9610
1695.084219 0.9610 0.9610 0.9610 0.9610 0.9610
1700.002261 0.9610 0.9600 0.9600 0.9600 0.9600
1704.920303 0.9600 0.9600 0.9600 0.9610 0.9610
1709.838345 0.9610 0.9610 0.9610 0.9630 0.9630
1714.756386 0.9630 0.9630 0.9630 0.9630 0.9630
1719.674428 0.9630 0.9630 0.9610 0.9610 0.9610
1724.592470 0.9610 0.9600 0.9600 0.9600 0.9600
1729.510511 0.9610 0.9610 0.9610 0.9600 0.9600
1734.428553 0.9600 0.9600 0.9600 0.9600 0.9600
1739.346595 0.9600 0.9600 0.9600 0.9610 0.9610
1744.264636 0.9610 0.9610 0.9610 0.9600 0.9600
1749.182678 0.9600 0.9600 0.9600 0.9580 0.9580
1754.100720 0.9580 0.9580 0.9580 0.9560 0.9560
1759.018762 0.9560 0.9560 0.9560 0.9540 0.9540
1763.936803 0.9540 0.9540 0.9530 0.9530 0.9530
1768.854845 0.9510 0.9510 0.9510 0.9510 0.9530
1773.772887 0.9530 0.9540 0.9580 0.9600 0.9600
1778.690928 0.9600 0.9610 0.9610 0.9610 0.9630
1783.608970 0.9650 0.9650 0.9650 0.9650 0.9650
1788.527012 0.9650 0.9650 0.9650 0.9650 0.9650
1793.445053 0.9650 0.9650 0.9630 0.9630 0.9630
1798.363095 0.9630 0.9630 0.9650 0.9650 0.9650
1803.281137 0.9650 0.9650 0.9650 0.9650 0.9650
1808.199179 0.9650 0.9650 0.9650 0.9630 0.9630
1813.117220 0.9610 0.9610 0.9600 0.9580 0.9580
1818.035262 0.9580 0.9580 0.9580 0.9560 0.9560
1822.953304 0.9560 0.9560 0.9560 0.9560 0.9580
1827.871345 0.9580 0.9580 0.9600 0.9600 0.9600
1832.789387 0.9610 0.9610 0.9610 0.9610 0.9630
1837.707429 0.9630 0.9630 0.9630 0.9630 0.9630
1842.625471 0.9630 0.9630 0.9650 0.9630 0.9630
1847.543512 0.9610 0.9610 0.9610 0.9610 0.9610
1852.461554 0.9610 0.9610 0.9610 0.9610 0.9630
1857.379596 0.9650 0.9650 0.9650 0.9650 0.9650
1862.297637 0.9650 0.9650 0.9650 0.9630 0.9630
1867.215679 0.9630 0.9630 0.9630 0.9630 0.9630
1872.133721 0.9630 0.9630 0.9630 0.9630 0.9630
1877.051762 0.9630 0.9610 0.9610 0.9610 0.9610
1881.969804 0.9610 0.9610 0.9610 0.9610 0.9610
1886.887846 0.9610 0.9610 0.9610 0.9610 0.9600
1891.805888 0.9600 0.9600 0.9600 0.9580 0.9580
1896.723929 0.9580 0.9580 0.9580 0.9600 0.9600
1901.641971 0.9600 0.9610 0.9610 0.9610 0.9630
1906.560013 0.9630 0.9630 0.9650 0.9650 0.9670
1911.478054 0.9680 0.9680 0.9680 0.9680 0.9670
1916.396096 0.9670 0.9670 0.9670 0.9630 0.9630
1921.314138 0.9610 0.9610 0.9610 0.9610 0.9610
1926.232180 0.9610 0.9610 0.9610 0.9610 0.9630
1931.150221 0.9630 0.9630 0.9630 0.9630 0.9630
1936.068263 0.9630 0.9630 0.9610 0.9610 0.9610
1940.986305 0.9610 0.9610 0.9610 0.9600 0.9600
1945.904346 0.9600 0.9600 0.9600 0.9600 0.9600
1950.822388 0.9600 0.9600 0.9600 0.9610 0.9610
1955.740430 0.9610 0.9610 0.9630 0.9630 0.9650
1960.658471 0.9650 0.9670 0.9680 0.9680 0.9680
1965.576513 0.9700 0.9700 0.9700 0.9700 0.9700
1970.494555 0.9700 0.9700 0.9700 0.9680 0.9680
1975.412597 0.9670 0.9670 0.9670 0.9670 0.9670
1980.330638 0.9670 0.9670 0.9670 0.9670 0.9670
1985.248680 0.9670 0.9670 0.9670 0.9680 0.9680
1990.166722 0.9700 0.9700 0.9700 0.9720 0.9720
1995.084763 0.9720 0.9720 0.9730 0.9770 0.9790
2000.002805 0.9820 0.9840 0.9860 0.9895 0.9929
2004.920847 0.9935 0.9940 0.9950 0.9960 0.9970
2009.838888 0.9980 0.9990 1.0000 1.0000 1.0000
2014.756930 1.0000 1.0000 1.0000 1.0000 1.0000
2019.674972 1.0000 0.9991 0.9981 0.9980 0.9980
2024.593014 0.9980 0.9980 0.9971 0.9961 0.9960
2029.511055 0.9960 0.9951 0.9941 0.9940 0.9940
2034.429097 0.9940 0.9940 0.9940 0.9940 0.9936
2039.347139 0.9931 0.9921 0.9911 0.9910 0.9910
2044.265180 0.9910 0.9910 0.9902 0.9892 0.9898
2049.183222 0.9908 0.9902 0.9892 0.9882 0.9872
2054.101264 0.9870 0.9870 0.9878 0.9888 0.9898
2059.019306 0.9908 0.9910 0.9910 0.9910 0.9910
2063.937347 0.9902 0.9892 0.9898 0.9908 0.9918
2068.855389 0.9928 0.9930 0.9930 0.9930 0.9930
2073.773431 0.9930 0.9930 0.9930 0.9930 0.9930
2078.691472 0.9930 0.9930 0.9930 0.9930 0.9930
2083.609514 0.9930 0.9930 0.9930 0.9930 0.9930
2088.527556 0.9930 0.9923 0.9913 0.9903 0.9893
2093.445597 0.9890 0.9890 0.9890 0.9890 0.9890
2098.363639 0.9890 0.9890 0.9890 0.9890 0.9890
2103.281681 0.9890 0.9890 0.9896 0.9906 0.9910
2108.199723 0.9910 0.9910 0.9910 0.9910 0.9910
2113.117764 0.9910 0.9910 0.9910 0.9910 0.9910
2118.035806 0.9910 0.9910 0.9910 0.9910 0.9910
2122.953848 0.9910 0.9910 0.9910 0.9910 0.9910
2127.871889 0.9910 0.9910 0.9910 0.9910 0.9910
2132.789931 0.9910 0.9910 0.9910 0.9910 0.9910
2137.707973 0.9910 0.9905 0.9895 0.9890 0.9890
2142.626015 0.9890 0.9890 0.9890 0.9890 0.9890
2147.544056 0.9890 0.9890 0.9890 0.9885 0.9875
2152.462098 0.9870 0.9870 0.9870 0.9870 0.9870
2157.380140 0.9870 0.9870 0.9870 0.9868 0.9863
2162.298181 0.9860 0.9860 0.9860 0.9860 0.9860
2167.216223 0.9860 0.9860 0.9860 0.9860 0.9860
2172.134265 0.9860 0.9860 0.9860 0.9860 0.9860
2177.052306 0.9860 0.9860 0.9860 0.9860 0.9860
2181.970348 0.9860 0.9860 0.9860 0.9860 0.9860
2186.888390 0.9860 0.9860 0.9860 0.9860 0.9860
2191.806432 0.9860 0.9860 0.9860 0.9860 0.9860
2196.724473 0.9860 0.9860 0.9860 0.9860 0.9860
2201.642515 0.9860 0.9860 0.9860 0.9860 0.9860
2206.560557 0.9860 0.9860 0.9860 0.9860 0.9860
2211.478598 0.9860 0.9860 0.9860 0.9860 0.9860
2216.396640 0.9860 0.9860 0.9860 0.9860 0.9860
2221.314682 0.9860 0.9860 0.9857 0.9848 0.9840
2226.232723 0.9840 0.9840 0.9840 0.9840 0.9840
2231.150765 0.9840 0.9840 0.9840 0.9840 0.9840
2236.068807 0.9840 0.9840 0.9840 0.9840 0.9840
2240.986849 0.9838 0.9828 0.9820 0.9820 0.9822
2245.904890 0.9832 0.9840 0.9840 0.9840 0.9840
2250.822932 0.9840 0.9840 0.9840 0.9840 0.9840
2255.740974 0.9840 0.9840 0.9840 0.9840 0.9840
2260.659015 0.9840 0.9840 0.9840 0.9840 0.9839
2265.577057 0.9829 0.9821 0.9831 0.9840 0.9840
2270.495099 0.9840 0.9840 0.9840 0.9840 0.9840
2275.413141 0.9840 0.9841 0.9851 0.9860 0.9860
2280.331182 0.9860 0.9860 0.9860 0.9860 0.9860
2285.249224 0.9860 0.9860 0.9865 0.9870 0.9870
2290.167266 0.9870 0.9870 0.9870 0.9865 0.9860
2295.085307 0.9860 0.9860 0.9875 0.9890 0.9890
2300.003349 0.9890 0.9890 0.9890 0.9890 0.9890
2304.921391 0.9890 0.9890 0.9890 0.9890 0.9890
2309.839432 0.9890 0.9890 0.9890 0.9890 0.9890
2314.757474 0.9890 0.9890 0.9890 0.9890 0.9890
2319.675516 0.9890 0.9890 0.9890 0.9890 0.9890
2324.593558 0.9890 0.9890 0.9881 0.9871 0.9870
2329.511599 0.9870 0.9866 0.9861 0.9860 0.9860
2334.429641 0.9860 0.9860 0.9860 0.9860 0.9860
2339.347683 0.9860 0.9860 0.9860 0.9860 0.9860
2344.265724 0.9860 0.9860 0.9860 0.9860 0.9860
2349.183766 0.9860 0.9860 0.9860 0.9860 0.9860
2354.101808 0.9860 0.9860 0.9860 0.9860 0.9852
2359.019850 0.9842 0.9840 0.9840 0.9832 0.9822
2363.937891 0.9820 0.9820 0.9812 0.9802 0.9800
2368.855933 0.9800 0.9796 0.9791 0.9790 0.9790
2373.773975 0.9783 0.9772 0.9770 0.9770 0.9763
2378.692016 0.9753 0.9750 0.9750 0.9750 0.9750
2383.610058 0.9750 0.9750 0.9743 0.9733 0.9727
2388.528100 0.9722 0.9720 0.9720 0.9720 0.9720
2393.446141 0.9720 0.9720 0.9720 0.9720 0.9720
2398.364183 0.9720 0.9713 0.9703 0.9700 0.9700
2403.282225 0.9700 0.9700 0.9700 0.9700 0.9700
2408.200267 0.9700 0.9694 0.9684 0.9680 0.9680
2413.118308 0.9680 0.9680 0.9680 0.9680 0.9680
2418.036350 0.9680 0.9680 0.9680 0.9680 0.9680
2422.954392 0.9686 0.9696 0.9700 0.9700 0.9700
2427.872433 0.9700 0.9700 0.9700 0.9700 0.9700
2432.790475 0.9700 0.9700 0.9700 0.9700 0.9700
2437.708517 0.9700 0.9692 0.9677 0.9670 0.9670
2442.626558 0.9670 0.9670 0.9670 0.9670 0.9673
2447.544600 0.9677 0.9685 0.9695 0.9700 0.9700
2452.462642 0.9700 0.9700 0.9700 0.9700 0.9700
2457.380684 0.9700 0.9700 0.9700 0.9700 0.9700
2462.298725 0.9700 0.9700 0.9700 0.9700 0.9696
2467.216767 0.9686 0.9680 0.9680 0.9678 0.9673
2472.134809 0.9666 0.9656 0.9646 0.9636 0.9630
2477.052850 0.9630 0.9634 0.9644 0.9650 0.9650
2481.970892 0.9650 0.9650 0.9646 0.9636 0.9630
2486.888934 0.9630 0.9630 0.9630 0.9630 0.9630
2491.806976 0.9630 0.9630 0.9630 0.9630 0.9633
2496.725017 0.9643 0.9650 0.9650 0.9650 0.9650
2501.643059 0.9647 0.9637 0.9630 0.9630 0.9630
2506.561101 0.9630 0.9630 0.9630 0.9630 0.9630
2511.479142 0.9630 0.9630 0.9630 0.9630 0.9630
2516.397184 0.9630 0.9627 0.9617 0.9610 0.9610
2521.315226 0.9610 0.9610 0.9610 0.9610 0.9610
2526.233267 0.9610 0.9612 0.9622 0.9630 0.9630
2531.151309 0.9630 0.9630 0.9628 0.9618 0.9610
2536.069351 0.9610 0.9610 0.9610 0.9609 0.9604
2540.987393 0.9598 0.9588 0.9580 0.9580 0.9580
2545.905434 0.9580 0.9580 0.9580 0.9580 0.9580
2550.823476 0.9579 0.9568 0.9560 0.9560 0.9560
2555.741518 0.9560 0.9559 0.9549 0.9540 0.9540
2560.659559 0.9539 0.9534 0.9530 0.9530 0.9529
2565.577601 0.9519 0.9510 0.9510 0.9510 0.9510
2570.495643 0.9509 0.9499 0.9490 0.9490 0.9490
2575.413684 0.9490 0.9490 0.9490 0.9490 0.9490
2580.331726 0.9490 0.9490 0.9490 0.9490 0.9490
2585.249768 0.9480 0.9470 0.9470 0.9470 0.9470
2590.167810 0.9470 0.9470 0.9470 0.9465 0.9460
2595.085851 0.9460 0.9460 0.9460 0.9460 0.9450
2600.003893 0.9440 0.9440 0.9440 0.9440 0.9440
2604.921935 0.9440 0.9440 0.9430 0.9420 0.9420
2609.839976 0.9420 0.9420 0.9420 0.9420 0.9420
2614.758018 0.9420 0.9420 0.9411 0.9401 0.9400
2619.676060 0.9400 0.9400 0.9400 0.9395 0.9390
2624.594102 0.9390 0.9390 0.9390 0.9390 0.9381
2629.512143 0.9371 0.9370 0.9370 0.9370 0.9370
2634.430185 0.9370 0.9370 0.9370 0.9370 0.9361
2639.348227 0.9351 0.9350 0.9350 0.9350 0.9350
2644.266268 0.9350 0.9350 0.9350 0.9350 0.9346
2649.184310 0.9341 0.9340 0.9340 0.9340 0.9340
2654.102352 0.9340 0.9340 0.9340 0.9340 0.9340
2659.020393 0.9340 0.9340 0.9340 0.9340 0.9340
2663.938435 0.9340 0.9340 0.9340 0.9340 0.9340
2668.856477 0.9340 0.9332 0.9322 0.9320 0.9320
2673.774519 0.9320 0.9320 0.9320 0.9320 0.9320
2678.692560 0.9320 0.9320 0.9320 0.9327 0.9337
2683.610602 0.9340 0.9340 0.9340 0.9340 0.9340
2688.528644 0.9340 0.9340 0.9340 0.9340 0.9340
2693.446685 0.9343 0.9348 0.9350 0.9350 0.9347
2698.364727 0.9342 0.9340 0.9340 0.9333 0.9324
2703.282769 0.9320 0.9320 0.9314 0.9304 0.9300
2708.200811 0.9300 0.9294 0.9284 0.9280 0.9280
2713.118852 0.9277 0.9272 0.9264 0.9254 0.9250
2718.036894 0.9250 0.9244 0.9234 0.9230 0.9230
2722.954936 0.9224 0.9214 0.9210 0.9210 0.9210
2727.872977 0.9210 0.9210 0.9210 0.9210 0.9210
2732.791019 0.9216 0.9226 0.9235 0.9245 0.9250
2737.709061 0.9250 0.9250 0.9250 0.9255 0.9265
2742.627102 0.9270 0.9270 0.9270 0.9270 0.9272
2747.545144 0.9277 0.9280 0.9280 0.9280 0.9280
2752.463186 0.9280 0.9280 0.9280 0.9280 0.9280
2757.381228 0.9280 0.9278 0.9273 0.9270 0.9270
2762.299269 0.9270 0.9270 0.9266 0.9256 0.9250
2767.217311 0.9250 0.9250 0.9250 0.9246 0.9236
2772.135353 0.9226 0.9216 0.9208 0.9203 0.9192
2777.053394 0.9172 0.9146 0.9111 0.9086 0.9076
2781.971436 0.9068 0.9063 0.9053 0.9033 0.9018
2786.889478 0.9013 0.9003 0.8983 0.8966 0.8956
2791.807519 0.8945 0.8930 0.8916 0.8907 0.8895
2796.725561 0.8880 0.8863 0.8843 0.8827 0.8817
2801.643603 0.8802 0.8777 0.8748 0.8708 0.8674
2806.561645 0.8654 0.8633 0.8607 0.8584 0.8564
2811.479686 0.8540 0.8505 0.8471 0.8441 0.8410
2816.397728 0.8375 0.8338 0.8293 0.8246 0.8191
2821.315770 0.8140 0.8100 0.8057 0.8002 0.7946
2826.233811 0.7886 0.7820 0.7735 0.7639 0.7509
2831.151853 0.7374 0.7220 0.7069 0.6929 0.6767
2836.069895 0.6524 0.6284 0.6060 0.5822 0.5528
2840.987937 0.5232 0.4923 0.4605 0.4241 0.3904
2845.905978 0.3695 0.3474 0.3192 0.2924 0.2720
2850.824020 0.2528 0.2399 0.2264 0.2100 0.1938
2855.742062 0.1788 0.1660 0.1660 0.1694 0.1953
2860.660103 0.2184 0.2219 0.2252 0.2272 0.2291
2865.578145 0.2296 0.2302 0.2322 0.2341 0.2351
2870.496187 0.2363 0.2387 0.2414 0.2459 0.2513
2875.414228 0.2667 0.2820 0.2960 0.3096 0.3191
2880.332270 0.3280 0.3280 0.3279 0.3259 0.3239
2885.250312 0.3214 0.3189 0.3169 0.3147 0.3082
2890.168354 0.3017 0.2927 0.2837 0.2728 0.2618
2895.086395 0.2493 0.2369 0.2239 0.2110 0.1981
2900.004437 0.1851 0.1722 0.1592 0.1487 0.1383
2904.922479 0.1288 0.1193 0.1132 0.1071 0.1046
2909.840520 0.1021 0.0977 0.0932 0.0882 0.0832
2914.758562 0.0821 0.0811 0.0787 0.0762 0.0681
2919.676604 0.0596 0.0493 0.0389 0.0330 0.0275
2924.594646 0.0256 0.0242 0.0240 0.0240 0.0249
2929.512687 0.0259 0.0282 0.0307 0.0323 0.0338
2934.430729 0.0411 0.0490 0.0544 0.0593 0.0833
2939.348771 0.1102 0.1200 0.1270 0.1293 0.1308
2944.266812 0.1310 0.1310 0.1310 0.1310 0.1306
2949.184854 0.1301 0.1300 0.1300 0.1300 0.1300
2954.102896 0.1304 0.1309 0.1318 0.1328 0.1366
2959.020937 0.1411 0.1487 0.1572 0.1692 0.1821
2963.938979 0.1923 0.2018 0.2137 0.2262 0.2438
2968.857021 0.2627 0.2855 0.3094 0.3336 0.3580
2973.775063 0.3809 0.4033 0.4205 0.4359 0.4719
2978.693104 0.5152 0.5498 0.5812 0.6061 0.6285
2983.611146 0.6460 0.6614 0.6752 0.6883 0.6995
2988.529188 0.7099 0.7204 0.7308 0.7382 0.7441
2993.447229 0.7532 0.7637 0.7721 0.7795 0.7863
2998.365271 0.7928 0.7983 0.8033 0.8079 0.8124
3003.283313 0.8162 0.8197 0.8232 0.8268 0.8290
3008.201354 0.8305 0.8332 0.8367 0.8396 0.8421
3013.119396 0.8436 0.8446 0.8459 0.8474 0.8492
3018.037438 0.8512 0.8535 0.8560 0.8576 0.8586
3022.955480 0.8590 0.8590 0.8584 0.8574 0.8564
3027.873521 0.8554 0.8550 0.8550 0.8550 0.8550
3032.791563 0.8556 0.8565 0.8570 0.8570 0.8570
3037.709605 0.8570 0.8565 0.8555 0.8547 0.8542
3042.627646 0.8530 0.8510 0.8495 0.8485 0.8472
3047.545688 0.8457 0.8445 0.8435 0.8435 0.8445
3052.463730 0.8462 0.8487 0.8510 0.8530 0.8557
3057.381772 0.8591 0.8622 0.8646 0.8660 0.8660
3062.299813 0.8649 0.8624 0.8606 0.8596 0.8581
3067.217855 0.8561 0.8548 0.8543 0.8536 0.8526
3072.135897 0.8520 0.8520 0.8512 0.8492 0.8480
3077.053938 0.8480 0.8478 0.8473 0.8466 0.8456
3081.971980 0.8423 0.8354 0.8284 0.8213 0.8151
3086.890022 0.8101 0.8030 0.7926 0.7816 0.7696
3091.808063 0.7595 0.7525 0.7471 0.7446 0.7427
3096.726105 0.7417 0.7392 0.7337 0.7284 0.7234
3101.644147 0.7186 0.7141 0.7087 0.7011 0.6918
3106.562189 0.6789 0.6646 0.6471 0.6350 0.6350
3111.480230 0.6444 0.6762 0.7107 0.7515 0.7895
3116.398272 0.8204 0.8481 0.8670 0.8822 0.8866
3121.316314 0.8911 0.8956 0.8994 0.9009 0.9023
3126.234355 0.9032 0.9044 0.9059 0.9072 0.9082
3131.152397 0.9092 0.9102 0.9112 0.9122 0.9131
3136.070439 0.9136 0.9140 0.9140 0.9142 0.9152
3140.988481 0.9160 0.9160 0.9162 0.9172 0.9180
3145.906522 0.9180 0.9182 0.9192 0.9200 0.9200
3150.824564 0.9201 0.9206 0.9210 0.9210 0.9210
3155.742606 0.9210 0.9211 0.9221 0.9230 0.9230
3160.660647 0.9230 0.9230 0.9231 0.9241 0.9250
3165.578689 0.9250 0.9250 0.9250 0.9251 0.9261
3170.496731 0.9270 0.9270 0.9270 0.9270 0.9270
3175.414772 0.9275 0.9280 0.9280 0.9280 0.9280
3180.332814 0.9280 0.9280 0.9280 0.9291 0.9300
3185.250856 0.9300 0.9300 0.9300 0.9300 0.9300
3190.168898 0.9300 0.9300 0.9300 0.9310 0.9320
3195.086939 0.9320 0.9320 0.9320 0.9320 0.9320
3200.004981 0.9320 0.9320 0.9320 0.9320 0.9320
3204.923023 0.9320 0.9320 0.9320 0.9320 0.9320
3209.841064 0.9320 0.9320 0.9320 0.9320 0.9320
3214.759106 0.9329 0.9339 0.9340 0.9340 0.9340
3219.677148 0.9340 0.9340 0.9340 0.9340 0.9340
3224.595189 0.9340 0.9340 0.9340 0.9340 0.9340
3229.513231 0.9340 0.9340 0.9340 0.9340 0.9340
3234.431273 0.9340 0.9340 0.9340 0.9340 0.9340
3239.349315 0.9340 0.9340 0.9340 0.9340 0.9340
3244.267356 0.9340 0.9340 0.9340 0.9340 0.9340
3249.185398 0.9340 0.9340 0.9340 0.9340 0.9340
3254.103440 0.9340 0.9340 0.9340 0.9340 0.9340
3259.021481 0.9340 0.9332 0.9322 0.9320 0.9320
3263.939523 0.9320 0.9320 0.9320 0.9320 0.9320
3268.857565 0.9320 0.9312 0.9302 0.9300 0.9300
3273.775607 0.9300 0.9300 0.9300 0.9300 0.9300
3278.693648 0.9300 0.9293 0.9283 0.9280 0.9280
3283.611690 0.9280 0.9280 0.9280 0.9280 0.9276
3288.529732 0.9271 0.9270 0.9270 0.9270 0.9270
3293.447773 0.9263 0.9253 0.9250 0.9250 0.9250
3298.365815 0.9250 0.9243 0.9233 0.9230 0.9230
3303.283857 0.9230 0.9230 0.9223 0.9214 0.9210
3308.201898 0.9210 0.9210 0.9210 0.9210 0.9210
3313.119940 0.9207 0.9202 0.9194 0.9184 0.9180
3318.037982 0.9180 0.9180 0.9180 0.9180 0.9180
3322.956024 0.9180 0.9180 0.9174 0.9164 0.9160
3327.874065 0.9160 0.9154 0.9144 0.9140 0.9140
3332.792107 0.9137 0.9132 0.9130 0.9130 0.9130
3337.710149 0.9130 0.9130 0.9130 0.9130 0.9130
3342.628190 0.9130 0.9130 0.9125 0.9115 0.9110
3347.546232 0.9110 0.9110 0.9110 0.9110 0.9110
3352.464274 0.9110 0.9110 0.9110 0.9110 0.9110
3357.382316 0.9110 0.9110 0.9110 0.9110 0.9110
3362.300357 0.9105 0.9095 0.9090 0.9090 0.9086
3367.218399 0.9076 0.9070 0.9070 0.9070 0.9070
3372.136441 0.9070 0.9070 0.9070 0.9070 0.9070
3377.054482 0.9070 0.9070 0.9070 0.9070 0.9070
3381.972524 0.9070 0.9070 0.9070 0.9070 0.9070
3386.890566 0.9070 0.9068 0.9063 0.9060 0.9060
3391.808607 0.9060 0.9060 0.9060 0.9060 0.9060
3396.726649 0.9060 0.9060 0.9060 0.9060 0.9060
3401.644691 0.9060 0.9060 0.9060 0.9060 0.9060
3406.562733 0.9060 0.9060 0.9060 0.9060 0.9060
3411.480774 0.9060 0.9060 0.9060 0.9060 0.9060
3416.398816 0.9060 0.9060 0.9060 0.9060 0.9060
3421.316858 0.9060 0.9060 0.9060 0.9060 0.9060
3426.234899 0.9060 0.9060 0.9060 0.9060 0.9060
3431.152941 0.9060 0.9060 0.9060 0.9060 0.9060
3436.070983 0.9060 0.9060 0.9060 0.9060 0.9060
3440.989024 0.9060 0.9060 0.9060 0.9060 0.9060
3445.907066 0.9060 0.9060 0.9060 0.9060 0.9060
3450.825108 0.9060 0.9060 0.9060 0.9060 0.9060
3455.743150 0.9060 0.9060 0.9060 0.9060 0.9060
3460.661191 0.9060 0.9060 0.9060 0.9060 0.9060
3465.579233 0.9060 0.9060 0.9060 0.9060 0.9060
3470.497275 0.9060 0.9060 0.9060 0.9060 0.9060
3475.415316 0.9060 0.9060 0.9060 0.9060 0.9060
3480.333358 0.9060 0.9060 0.9060 0.9060 0.9060
3485.251400 0.9060 0.9060 0.9060 0.9060 0.9060
3490.169442 0.9060 0.9060 0.9060 0.9060 0.9060
3495.087483 0.9060 0.9060 0.9060 0.9060 0.9060
3500.005525 0.9060 0.9060 0.9060 0.9060 0.9060
3504.923567 0.9060 0.9060 0.9060 0.9060 0.9060
3509.841608 0.9060 0.9060 0.9060 0.9060 0.9060
3514.759650 0.9060 0.9060 0.9060 0.9060 0.9060
3519.677692 0.9060 0.9060 0.9060 0.9060 0.9060
3524.595733 0.9060 0.9060 0.9060 0.9060 0.9060
3529.513775 0.9060 0.9060 0.9060 0.9060 0.9060
3534.431817 0.9060 0.9060 0.9051 0.9041 0.9040
3539.349859 0.9040 0.9040 0.9040 0.9040 0.9040
3544.267900 0.9040 0.9040 0.9040 0.9040 0.9040
3549.185942 0.9040 0.9040 0.9040 0.9040 0.9040
3554.103984 0.9040 0.9040 0.9040 0.9040 0.9040
3559.022025 0.9040 0.9040 0.9040 0.9040 0.9040
3563.940067 0.9040 0.9040 0.9040 0.9040 0.9040
3568.858109 0.9040 0.9040 0.9040 0.9032 0.9023
3573.776151 0.9020 0.9020 0.9020 0.9020 0.9020
3578.694192 0.9020 0.9020 0.9020 0.9020 0.9020
3583.612234 0.9020 0.9020 0.9020 0.9020 0.9027
3588.530276 0.9037 0.9033 0.9023 0.9020 0.9020
3593.448317 0.9020 0.9020 0.9020 0.9020 0.9020
3598.366359 0.9020 0.9020 0.9020 0.9020 0.9020
3603.284401 0.9020 0.9020 0.9020 0.9020 0.9020
3608.202442 0.9020 0.9020 0.9020 0.9017 0.9012
3613.120484 0.9010 0.9010 0.9010 0.9010 0.9010
3618.038526 0.9010 0.9010 0.9010 0.9010 0.9010
3622.956568 0.9010 0.9010 0.9010 0.9010 0.9010
3627.874609 0.9010 0.9013 0.9018 0.9017 0.9012
3632.792651 0.9010 0.9010 0.9010 0.9010 0.9005
3637.710693 0.8995 0.8990 0.8990 0.8990 0.8990
3642.628734 0.8990 0.8990 0.8990 0.8990 0.8990
3647.546776 0.8990 0.8990 0.8990 0.8990 0.8990
3652.464818 0.8990 0.8990 0.8990 0.8990 0.8990
3657.382859 0.8990 0.8990 0.8990 0.8985 0.8975
3662.300901 0.8970 0.8970 0.8970 0.8970 0.8970
3667.218943 0.8970 0.8970 0.8970 0.8970 0.8970
3672.136985 0.8970 0.8970 0.8970 0.8970 0.8970
3677.055026 0.8970 0.8970 0.8970 0.8974 0.8984
3681.973068 0.8990 0.8990 0.8990 0.8990 0.8990
3686.891110 0.8990 0.8986 0.8976 0.8970 0.8970
3691.809151 0.8970 0.8970 0.8970 0.8970 0.8967
3696.727193 0.8957 0.8950 0.8950 0.8950 0.8950
3701.645235 0.8950 0.8950 0.8950 0.8950 0.8950
3706.563277 0.8950 0.8950 0.8950 0.8953 0.8963
3711.481318 0.8970 0.8970 0.8970 0.8970 0.8967
3716.399360 0.8957 0.8950 0.8950 0.8950 0.8950
3721.317402 0.8949 0.8944 0.8940 0.8940 0.8940
3726.235443 0.8940 0.8938 0.8928 0.8920 0.8920
3731.153485 0.8920 0.8920 0.8920 0.8920 0.8920
3736.071527 0.8920 0.8920 0.8920 0.8920 0.8920
3740.989568 0.8920 0.8920 0.8920 0.8920 0.8920
3745.907610 0.8920 0.8920 0.8920 0.8920 0.8920
3750.825652 0.8918 0.8909 0.8900 0.8900 0.8900
3755.743694 0.8900 0.8900 0.8900 0.8900 0.8900
3760.661735 0.8900 0.8900 0.8900 0.8900 0.8900
3765.579777 0.8900 0.8900 0.8900 0.8900 0.8900
3770.497819 0.8901 0.8911 0.8920 0.8920 0.8919
3775.415860 0.8909 0.8900 0.8900 0.8899 0.8889
3780.333902 0.8880 0.8880 0.8880 0.8880 0.8880
3785.251944 0.8880 0.8880 0.8880 0.8880 0.8880
3790.169985 0.8880 0.8875 0.8870 0.8870 0.8870
3795.088027 0.8870
##END=
