##TITLE=N,N-DIETHYL-1,1,1-TRIMETHYLSILYLAMINE
##JCAMP-DX=4.24
##DATA TYPE=INFRARED SPECTRUM
##CLASS=COBLENTZ
##ORIGIN=PENINSULAR CHEMRESEARCH, INC., GAINESVILLE, FLORIDA
##OWNER=COBLENTZ SOCIETY
Collection (C) 2018 copyright by the U.S. Secretary of Commerce
on behalf of the United States of America. All rights reserved.
##DATE=Not specified, most likely prior to 1970
##NAMES=N,N-diethyl-N-(trimethylsilyl)amine
N,N-diethyl(trimethyl)silanamine
##CAS REGISTRY NO=996-50-9
##MOLFORM=C7 H19 N Si
##SOURCE REFERENCE=COBLENTZ NO. 4902
##$NIST SOURCE=COBLENTZ
##$NIST IMAGE=cob4902
##SPECTROMETER/DATA SYSTEM=BECKMAN IR-4 (HYBRID PRISM-GRATING)
##STATE=SOLID (BETWEEN SALTS)
##SAMPLING PROCEDURE=TRANSMISSION
##RESOLUTION=4
$$ MW 145.32
##DATA PROCESSING=DIGITIZED BY NIST FROM HARD COPY
##XUNITS=MICROMETERS
##YUNITS=TRANSMITTANCE
##XFACTOR=1.000000
##YFACTOR=1
##DELTAX=000.004996
##FIRSTX=2.015
##LASTX=15.014
##FIRSTY=0.91
##MAXX=15.014
##MINX=2.015
##MAXY=0.924
##MINY=0.07
##NPOINTS=2603
##XYDATA=(X++(Y..Y))
2.015000 0.9100 0.9100 0.9100 0.9100 0.9090
2.039989 0.9090 0.9060 0.9040 0.9040 0.9050
2.065000 0.9070 0.9090 0.9110 0.9120 0.9150
2.089989 0.9150 0.9140 0.9110 0.9090 0.9070
2.115000 0.9070 0.9090 0.9100 0.9100 0.9120
2.139989 0.9110 0.9100 0.9100 0.9070 0.9070
2.165000 0.9090 0.9090 0.9110 0.9110 0.9070
2.189989 0.9060 0.9050 0.9050 0.9020 0.9020
2.215000 0.9010 0.9010 0.9000 0.9000 0.8990
2.239989 0.8970 0.8970 0.8970 0.8970 0.8990
2.265000 0.8990 0.9010 0.9010 0.9040 0.9050
2.289989 0.9050 0.9060 0.9060 0.9070 0.9070
2.315000 0.9100 0.9100 0.9070 0.9050 0.9040
2.339989 0.9040 0.9050 0.9060 0.9070 0.9090
2.365000 0.9110 0.9110 0.9100 0.9090 0.9060
2.389989 0.9050 0.9050 0.9040 0.9040 0.9040
2.415000 0.9020 0.9020 0.9020 0.9010 0.9000
2.439989 0.9000 0.9010 0.9020 0.9070 0.9070
2.465000 0.9090 0.9090 0.9090 0.9090 0.9090
2.489989 0.9090 0.9090 0.9100 0.9100 0.9070
2.515000 0.9060 0.9040 0.9020 0.9020 0.9020
2.539989 0.9040 0.9040 0.9060 0.9070 0.9070
2.565000 0.9090 0.9090 0.9100 0.9100 0.9070
2.589989 0.9060 0.9040 0.9020 0.9000 0.8890
2.614000 0.8890 0.8910 0.9000 0.9020 0.9070
2.638989 0.9100 0.9100 0.9110 0.9110 0.9110
2.664000 0.9110 0.9100 0.9100 0.9090 0.9090
2.688989 0.9090 0.9090 0.9090 0.9100 0.9110
2.714000 0.9140 0.9160 0.9200 0.9210 0.9220
2.738989 0.9220 0.9240 0.9240 0.9240 0.9220
2.764000 0.9210 0.9210 0.9200 0.9190 0.9170
2.788989 0.9160 0.9140 0.9110 0.9110 0.9100
2.814000 0.9090 0.9090 0.9070 0.9070 0.9040
2.838989 0.9020 0.9010 0.9010 0.9000 0.9000
2.864000 0.8990 0.8970 0.8970 0.8960 0.8960
2.888989 0.8960 0.8970 0.8970 0.8970 0.8990
2.914000 0.8990 0.8990 0.8990 0.8990 0.8990
2.938989 0.8990 0.8990 0.8990 0.8990 0.8990
2.964000 0.8990 0.8970 0.8970 0.8970 0.8960
2.988989 0.8950 0.8940 0.8920 0.8920 0.8920
3.014000 0.8910 0.8900 0.8890 0.8870 0.8860
3.038989 0.8860 0.8850 0.8850 0.8850 0.8850
3.064000 0.8840 0.8840 0.8840 0.8810 0.8800
3.088989 0.8770 0.8770 0.8760 0.8760 0.8760
3.114000 0.8790 0.8790 0.8770 0.8720 0.8720
3.138989 0.8710 0.8710 0.8710 0.8700 0.8690
3.164000 0.8660 0.8650 0.8640 0.8640 0.8640
3.188989 0.8630 0.8630 0.8630 0.8630 0.8610
3.214000 0.8610 0.8600 0.8600 0.8590 0.8590
3.238989 0.8580 0.8580 0.8550 0.8530 0.8510
3.264000 0.8500 0.8500 0.8480 0.8430 0.8380
3.288989 0.8300 0.8280 0.8180 0.7980 0.7820
3.314000 0.7580 0.7310 0.7020 0.6790 0.6570
3.338989 0.5900 0.5160 0.5010 0.3990 0.3390
3.364000 0.3230 0.3060 0.3060 0.3770 0.4080
3.388989 0.4480 0.4980 0.5470 0.5790 0.5850
3.414000 0.6010 0.6120 0.6170 0.6170 0.6180
3.438989 0.6180 0.6210 0.6270 0.6310 0.6330
3.464000 0.6350 0.6350 0.6330 0.6260 0.6260
3.488989 0.6370 0.6480 0.6770 0.6880 0.7060
3.514000 0.7170 0.7320 0.7380 0.7480 0.7590
3.538989 0.7680 0.7780 0.7880 0.7950 0.8080
3.564000 0.8180 0.8280 0.8380 0.8490 0.8580
3.588989 0.8610 0.8640 0.8650 0.8670 0.8690
3.614000 0.8720 0.8720 0.8740 0.8750 0.8750
3.638989 0.8760 0.8760 0.8760 0.8790 0.8800
3.664000 0.8810 0.8810 0.8820 0.8820 0.8820
3.688989 0.8820 0.8840 0.8840 0.8860 0.8870
3.714000 0.8900 0.8900 0.8910 0.8910 0.8910
3.738989 0.8910 0.8910 0.8940 0.8940 0.8960
3.764000 0.8970 0.8990 0.8990 0.8990 0.8970
3.788989 0.8970 0.8990 0.9000 0.9020 0.9060
3.813000 0.9070 0.9070 0.9070 0.9050 0.9020
3.837989 0.9010 0.9010 0.9000 0.8990 0.8990
3.863000 0.9000 0.9010 0.9050 0.9060 0.9070
3.887989 0.9070 0.9070 0.9060 0.9050 0.9050
3.913000 0.9020 0.9050 0.9070 0.9070 0.9090
3.937989 0.9090 0.9090 0.9090 0.9070 0.9050
3.963000 0.9040 0.9040 0.9020 0.9040 0.9050
3.987989 0.9050 0.9050 0.9060 0.9060 0.9070
4.013000 0.9090 0.9070 0.9070 0.9060 0.9050
4.037989 0.9050 0.9040 0.9020 0.9040 0.9040
4.063000 0.9050 0.9060 0.9100 0.9100 0.9070
4.087989 0.9050 0.9010 0.9000 0.8990 0.8990
4.113000 0.9010 0.9020 0.9040 0.9050 0.9050
4.137989 0.9040 0.9000 0.8960 0.8910 0.8870
4.163000 0.8850 0.8820 0.8790 0.8790 0.8800
4.187989 0.8810 0.8840 0.8860 0.8870 0.8890
4.213000 0.8910 0.8940 0.8970 0.8990 0.8990
4.237989 0.9010 0.9040 0.9050 0.9060 0.9070
4.263000 0.9090 0.9100 0.9110 0.9160 0.9160
4.287989 0.9170 0.9170 0.9190 0.9190 0.9190
4.313000 0.9190 0.9170 0.9150 0.9110 0.9110
4.337989 0.9100 0.9090 0.9070 0.9060 0.9050
4.363000 0.9040 0.9020 0.9040 0.9040 0.9050
4.387989 0.9060 0.9050 0.9050 0.9040 0.9040
4.413000 0.9020 0.9000 0.9000 0.9010 0.9010
4.437989 0.9010 0.9020 0.9020 0.9010 0.9010
4.463000 0.9010 0.9000 0.8990 0.9000 0.9000
4.487989 0.9000 0.9010 0.9000 0.8990 0.8990
4.513000 0.8960 0.8910 0.8910 0.8970 0.8970
4.537989 0.8990 0.8990 0.9000 0.9000 0.9000
4.563000 0.9010 0.9040 0.9050 0.9060 0.9090
4.587989 0.9090 0.9090 0.9060 0.9050 0.9040
4.613000 0.9020 0.9040 0.9050 0.9060 0.9070
4.637989 0.9070 0.9070 0.9070 0.9060 0.9060
4.663000 0.9060 0.9050 0.9040 0.9020 0.9020
4.687989 0.9000 0.9000 0.8960 0.8960 0.8970
4.713000 0.8990 0.8990 0.9000 0.9000 0.8990
4.737989 0.8970 0.8970 0.8960 0.8960 0.8960
4.763000 0.8950 0.8950 0.8940 0.8940 0.8940
4.787989 0.8950 0.8960 0.8970 0.9020 0.9060
4.813000 0.9070 0.9090 0.9070 0.9050 0.9040
4.837989 0.9020 0.9010 0.8990 0.8990 0.9000
4.863000 0.9010 0.9010 0.9010 0.9010 0.9000
4.887989 0.9000 0.9000 0.9000 0.9000 0.9010
4.913000 0.9020 0.9070 0.9070 0.9020 0.9010
4.937989 0.9010 0.9010 0.9010 0.9000 0.9000
4.963000 0.9000 0.8970 0.8970 0.9010 0.9040
4.987989 0.9070 0.9070 0.9060 0.9020 0.9010
5.012000 0.9000 0.9000 0.9000 0.9000 0.9000
5.036989 0.8990 0.8970 0.8960 0.8960 0.8960
5.062000 0.8950 0.8940 0.8940 0.8940 0.8940
5.086989 0.8940 0.8920 0.8920 0.8920 0.8940
5.112000 0.8940 0.8940 0.8950 0.8950 0.8950
5.136989 0.8950 0.8950 0.8940 0.8940 0.8940
5.162000 0.8940 0.8950 0.8950 0.8970 0.9000
5.186989 0.9000 0.9010 0.9010 0.9010 0.9010
5.212000 0.9010 0.9000 0.9000 0.8990 0.8970
5.236989 0.8970 0.8950 0.8950 0.8970 0.8990
5.262000 0.8990 0.8990 0.8990 0.8970 0.8970
5.286989 0.8970 0.8910 0.8910 0.8870 0.8900
5.312000 0.8910 0.8960 0.8960 0.8990 0.8990
5.336989 0.8970 0.8960 0.8960 0.8950 0.8950
5.362000 0.8920 0.8910 0.8890 0.8890 0.8910
5.386989 0.8920 0.8940 0.8950 0.8950 0.8950
5.412000 0.8960 0.8970 0.9000 0.9020 0.9040
5.436989 0.9050 0.9060 0.9060 0.9050 0.9040
5.462000 0.9010 0.8950 0.8940 0.8950 0.8950
5.486989 0.8970 0.8970 0.8990 0.8970 0.8990
5.512000 0.8990 0.8990 0.8990 0.8990 0.9000
5.536989 0.9000 0.9010 0.9010 0.9010 0.9070
5.562000 0.9070 0.9010 0.9010 0.9000 0.8990
5.586989 0.8970 0.8960 0.8970 0.9000 0.9010
5.612000 0.9040 0.9050 0.9040 0.9020 0.9010
5.636989 0.9000 0.8990 0.8970 0.8960 0.8960
5.662000 0.8950 0.8940 0.8940 0.8920 0.8940
5.686989 0.8950 0.8960 0.8960 0.8970 0.8990
5.712000 0.8990 0.9010 0.9010 0.9020 0.9040
5.736989 0.9040 0.9020 0.9000 0.8990 0.8970
5.762000 0.8950 0.8920 0.8900 0.8890 0.8850
5.786989 0.8850 0.8870 0.8900 0.8920 0.8920
5.812000 0.8890 0.8870 0.8810 0.8810 0.8800
5.836989 0.8800 0.8810 0.8810 0.8840 0.8820
5.862000 0.8820 0.8800 0.8770 0.8770 0.8710
5.886989 0.8710 0.8770 0.8770 0.8790 0.8810
5.912000 0.8800 0.8790 0.8710 0.8710 0.8760
5.936989 0.8770 0.8770 0.8790 0.8770 0.8770
5.962000 0.8750 0.8720 0.8710 0.8700 0.8670
5.986989 0.8640 0.8640 0.8610 0.8610 0.8610
6.012000 0.8610 0.8610 0.8610 0.8630 0.8640
6.036989 0.8640 0.8640 0.8640 0.8630 0.8590
6.062000 0.8590 0.8560 0.8580 0.8600 0.8610
6.086989 0.8670 0.8690 0.8690 0.8670 0.8670
6.112000 0.8600 0.8600 0.8560 0.8560 0.8600
6.136989 0.8600 0.8670 0.8700 0.8720 0.8790
6.162000 0.8790 0.8770 0.8740 0.8720 0.8720
6.186989 0.8720 0.8720 0.8720 0.8760 0.8760
6.211000 0.8720 0.8710 0.8710 0.8710 0.8710
6.235989 0.8700 0.8710 0.8710 0.8720 0.8690
6.261000 0.8670 0.8590 0.8580 0.8530 0.8510
6.285989 0.8490 0.8460 0.8450 0.8460 0.8480
6.311000 0.8490 0.8500 0.8510 0.8510 0.8540
6.335989 0.8550 0.8560 0.8580 0.8590 0.8600
6.361000 0.8630 0.8630 0.8610 0.8600 0.8610
6.385989 0.8630 0.8690 0.8740 0.8760 0.8750
6.411000 0.8750 0.8710 0.8710 0.8700 0.8690
6.435989 0.8670 0.8670 0.8690 0.8690 0.8700
6.461000 0.8700 0.8690 0.8690 0.8690 0.8670
6.485989 0.8630 0.8610 0.8610 0.8610 0.8600
6.511000 0.8590 0.8580 0.8560 0.8560 0.8550
6.535989 0.8550 0.8560 0.8580 0.8590 0.8590
6.561000 0.8580 0.8560 0.8560 0.8540 0.8530
6.585989 0.8530 0.8530 0.8540 0.8540 0.8560
6.611000 0.8560 0.8580 0.8580 0.8580 0.8560
6.635989 0.8550 0.8550 0.8540 0.8540 0.8530
6.661000 0.8510 0.8500 0.8500 0.8510 0.8530
6.685989 0.8530 0.8510 0.8490 0.8430 0.8360
6.711000 0.8310 0.8300 0.8280 0.8090 0.7990
6.735989 0.7830 0.7780 0.7690 0.7680 0.7600
6.761000 0.7570 0.7520 0.7490 0.7440 0.7390
6.785989 0.7370 0.7340 0.7330 0.7330 0.7320
6.811000 0.7320 0.7320 0.7330 0.7330 0.7340
6.835989 0.7340 0.7350 0.7350 0.7370 0.7370
6.861000 0.7380 0.7390 0.7400 0.7420 0.7420
6.885989 0.7400 0.7390 0.7390 0.7390 0.7400
6.911000 0.7470 0.7580 0.7680 0.7780 0.7820
6.935989 0.7880 0.7880 0.7890 0.7920 0.7980
6.961000 0.7990 0.8000 0.8030 0.8030 0.8010
6.985989 0.7970 0.7920 0.7920 0.7970 0.7990
7.011000 0.7990 0.8040 0.8040 0.7990 0.7940
7.035989 0.7900 0.7890 0.7870 0.7850 0.7840
7.061000 0.7830 0.7820 0.7800 0.7780 0.7780
7.085989 0.7750 0.7740 0.7730 0.7730 0.7740
7.111000 0.7770 0.7820 0.7870 0.7880 0.7890
7.135989 0.7890 0.7890 0.7830 0.7740 0.7680
7.161000 0.7650 0.7620 0.7550 0.7540 0.7520
7.185989 0.7440 0.7370 0.7350 0.7230 0.6860
7.211000 0.6780 0.6670 0.6560 0.6430 0.6310
7.235989 0.6150 0.6000 0.5840 0.5820 0.5850
7.261000 0.5900 0.6010 0.6100 0.6320 0.6520
7.285989 0.6980 0.7090 0.7280 0.7480 0.7600
7.311000 0.7720 0.7770 0.7790 0.7790 0.7780
7.335989 0.7750 0.7740 0.7740 0.7730 0.7730
7.361000 0.7720 0.7720 0.7690 0.7670 0.7620
7.385989 0.7540 0.7370 0.7280 0.7210 0.7210
7.410000 0.7310 0.7480 0.7590 0.7690 0.7790
7.434989 0.7820 0.7880 0.7900 0.7920 0.7980
7.460000 0.8000 0.8010 0.8030 0.8030 0.8030
7.484989 0.8050 0.8080 0.8110 0.8140 0.8200
7.510000 0.8210 0.8210 0.8240 0.8280 0.8290
7.534989 0.8300 0.8300 0.8300 0.8300 0.8290
7.560000 0.8290 0.8290 0.8290 0.8290 0.8300
7.584989 0.8290 0.8290 0.8280 0.8260 0.8240
7.610000 0.8150 0.8100 0.8080 0.8060 0.8060
7.634989 0.8090 0.8090 0.8060 0.7990 0.7900
7.660000 0.7830 0.7780 0.7680 0.7630 0.7580
7.684989 0.7520 0.7480 0.7380 0.7370 0.7290
7.710000 0.7210 0.7210 0.7350 0.7380 0.7400
7.734989 0.7440 0.7470 0.7490 0.7520 0.7520
7.760000 0.7500 0.7490 0.7450 0.7440 0.7420
7.784989 0.7400 0.7310 0.7270 0.7170 0.7060
7.810000 0.7030 0.6980 0.6910 0.6890 0.6790
7.834989 0.6720 0.6660 0.6600 0.6410 0.6270
7.860000 0.6070 0.5810 0.5670 0.5470 0.5280
7.884989 0.5080 0.4850 0.4600 0.4380 0.4000
7.910000 0.3590 0.3390 0.3180 0.2880 0.2610
7.934989 0.2420 0.2210 0.2090 0.1980 0.1780
7.960000 0.1780 0.1810 0.1900 0.1960 0.2040
7.984989 0.2200 0.2420 0.2610 0.3000 0.3810
8.010000 0.4220 0.4480 0.4540 0.5180 0.5610
8.034989 0.5810 0.6210 0.6400 0.6600 0.6980
8.060000 0.7170 0.7320 0.7480 0.7590 0.7680
8.084989 0.7720 0.7790 0.7820 0.7900 0.7990
8.110000 0.8030 0.8040 0.8050 0.8060 0.8060
8.134989 0.8080 0.8080 0.8090 0.8090 0.8090
8.160000 0.8090 0.8080 0.8080 0.8080 0.8030
8.184989 0.7990 0.7890 0.7800 0.7700 0.7620
8.210000 0.7600 0.7580 0.7500 0.7390 0.7210
8.234989 0.6680 0.6670 0.6650 0.6470 0.6200
8.260000 0.6000 0.5860 0.5660 0.5450 0.5450
8.284989 0.5610 0.5800 0.5990 0.6110 0.6130
8.310000 0.6360 0.6580 0.6990 0.7090 0.7190
8.334989 0.7280 0.7370 0.7390 0.7390 0.7370
8.360000 0.7280 0.7210 0.7180 0.7170 0.7120
8.384989 0.7090 0.6990 0.6980 0.6780 0.6670
8.410000 0.6560 0.6380 0.6210 0.6080 0.5990
8.434989 0.5800 0.5670 0.5470 0.5260 0.5100
8.460000 0.5050 0.4940 0.4890 0.4600 0.4550
8.484989 0.4500 0.4420 0.4400 0.4420 0.4450
8.510000 0.4550 0.4710 0.5080 0.5230 0.5570
8.534989 0.5790 0.5990 0.6110 0.6380 0.6500
8.560000 0.6820 0.6980 0.7140 0.7210 0.7290
8.584989 0.7350 0.7430 0.7480 0.7550 0.7630
8.609000 0.7690 0.7700 0.7720 0.7730 0.7730
8.633989 0.7730 0.7730 0.7730 0.7730 0.7730
8.659000 0.7730 0.7730 0.7730 0.7720 0.7720
8.683989 0.7720 0.7700 0.7690 0.7680 0.7650
8.709000 0.7630 0.7630 0.7620 0.7620 0.7620
8.733989 0.7620 0.7620 0.7620 0.7620 0.7600
8.759000 0.7600 0.7600 0.7600 0.7600 0.7590
8.783989 0.7590 0.7590 0.7580 0.7580 0.7580
8.809000 0.7590 0.7600 0.7600 0.7620 0.7620
8.833989 0.7630 0.7630 0.7630 0.7630 0.7630
8.859000 0.7620 0.7620 0.7600 0.7600 0.7590
8.883989 0.7580 0.7530 0.7520 0.7520 0.7520
8.909000 0.7500 0.7500 0.7490 0.7480 0.7420
8.933989 0.7400 0.7390 0.7380 0.7380 0.7380
8.959000 0.7380 0.7380 0.7370 0.7370 0.7350
8.983989 0.7330 0.7320 0.7280 0.7240 0.7220
9.009000 0.7190 0.7180 0.7130 0.7090 0.7070
9.033989 0.6990 0.6920 0.6830 0.6820 0.6810
9.059000 0.6810 0.6810 0.6810 0.6790 0.6780
9.083989 0.6770 0.6720 0.6710 0.6710 0.6710
9.109000 0.6720 0.6720 0.6720 0.6720 0.6710
9.133989 0.6670 0.6650 0.6610 0.6600 0.6580
9.159000 0.6570 0.6510 0.6500 0.6470 0.6470
9.183989 0.6420 0.6380 0.6270 0.6200 0.6130
9.209000 0.6000 0.5910 0.5810 0.5690 0.5570
9.233989 0.5500 0.5470 0.5370 0.5290 0.5200
9.259000 0.5180 0.5030 0.4910 0.4780 0.4590
9.283989 0.4400 0.4380 0.4190 0.4080 0.3990
9.309000 0.3880 0.3720 0.3680 0.3580 0.3480
9.333989 0.3330 0.3310 0.3280 0.3130 0.3080
9.359000 0.2980 0.2880 0.2780 0.2680 0.2600
9.383989 0.2520 0.2460 0.2370 0.2270 0.2170
9.409000 0.2150 0.2090 0.2070 0.2070 0.2090
9.433989 0.2100 0.2110 0.2120 0.2160 0.2170
9.459000 0.2190 0.2240 0.2290 0.2310 0.2410
9.483989 0.2590 0.2700 0.2800 0.2900 0.2980
9.509000 0.3000 0.3070 0.3120 0.3200 0.3580
9.533989 0.3680 0.3880 0.3990 0.4090 0.4230
9.559000 0.4300 0.4380 0.4480 0.4570 0.4590
9.583989 0.4630 0.4710 0.4790 0.4880 0.4940
9.609000 0.4990 0.4990 0.5010 0.5010 0.4990
9.633989 0.4980 0.4880 0.4780 0.4680 0.4600
9.659000 0.4600 0.4570 0.4500 0.4480 0.4450
9.683989 0.4370 0.4320 0.4180 0.4170 0.4100
9.709000 0.4090 0.4090 0.4100 0.4130 0.4220
9.733989 0.4290 0.4390 0.4500 0.4680 0.4860
9.759000 0.5000 0.5280 0.5470 0.5570 0.5690
9.783989 0.5800 0.5990 0.6070 0.6180 0.6300
9.808000 0.6330 0.6400 0.6470 0.6510 0.6600
9.832989 0.6780 0.6880 0.6980 0.6990 0.7070
9.858000 0.7080 0.7120 0.7180 0.7210 0.7280
9.882989 0.7310 0.7390 0.7480 0.7500 0.7580
9.908000 0.7600 0.7620 0.7680 0.7690 0.7720
9.932989 0.7780 0.7790 0.7820 0.7880 0.7890
9.958000 0.7920 0.7990 0.8000 0.8060 0.8060
9.982989 0.8090 0.8100 0.8130 0.8140 0.8150
10.008000 0.8160 0.8180 0.8190 0.8200 0.8230
10.032989 0.8250 0.8250 0.8250 0.8260 0.8260
10.058000 0.8260 0.8280 0.8280 0.8280 0.8290
10.082989 0.8290 0.8290 0.8300 0.8300 0.8300
10.108000 0.8300 0.8310 0.8310 0.8340 0.8350
10.132989 0.8360 0.8360 0.8380 0.8390 0.8390
10.158000 0.8400 0.8400 0.8400 0.8400 0.8400
10.182989 0.8400 0.8410 0.8410 0.8410 0.8410
10.208000 0.8410 0.8430 0.8430 0.8430 0.8410
10.232989 0.8410 0.8410 0.8430 0.8430 0.8440
10.258000 0.8450 0.8450 0.8450 0.8450 0.8440
10.282989 0.8440 0.8430 0.8430 0.8430 0.8430
10.308000 0.8450 0.8460 0.8460 0.8460 0.8460
10.332989 0.8460 0.8460 0.8450 0.8450 0.8450
10.358000 0.8440 0.8440 0.8430 0.8430 0.8430
10.382989 0.8430 0.8430 0.8430 0.8430 0.8430
10.408000 0.8410 0.8410 0.8410 0.8400 0.8390
10.432989 0.8350 0.8350 0.8330 0.8330 0.8330
10.458000 0.8330 0.8330 0.8330 0.8330 0.8330
10.482989 0.8330 0.8310 0.8310 0.8310 0.8300
10.508000 0.8280 0.8280 0.8280 0.8280 0.8280
10.532989 0.8280 0.8260 0.8240 0.8210 0.8160
10.558000 0.8110 0.8110 0.8100 0.8090 0.8060
10.582989 0.8010 0.7990 0.7920 0.7850 0.7800
10.608000 0.7770 0.7730 0.7680 0.7670 0.7580
10.632989 0.7570 0.7520 0.7490 0.7470 0.7370
10.658000 0.7270 0.7170 0.7070 0.6980 0.6890
10.682989 0.6870 0.6780 0.6670 0.6620 0.6570
10.708000 0.6370 0.6180 0.6010 0.5790 0.5610
10.732989 0.5470 0.5250 0.5160 0.4930 0.4890
10.758000 0.4850 0.4690 0.4490 0.4450 0.4350
10.782989 0.4240 0.4140 0.4030 0.4020 0.4030
10.808000 0.4080 0.4190 0.4270 0.4300 0.4420
10.832989 0.4580 0.4690 0.4880 0.4990 0.5100
10.858000 0.5280 0.5470 0.5600 0.5770 0.5870
10.882989 0.5990 0.6070 0.6080 0.6120 0.6170
10.908000 0.6220 0.6280 0.6310 0.6370 0.6400
10.932989 0.6470 0.6500 0.6560 0.6570 0.6580
10.958000 0.6580 0.6600 0.6610 0.6620 0.6710
10.982989 0.6770 0.6780 0.6810 0.6820 0.6830
11.007000 0.6870 0.6910 0.6940 0.6990 0.6990
11.031989 0.7010 0.7020 0.7030 0.7040 0.7040
11.057000 0.7060 0.7070 0.7070 0.7090 0.7110
11.081989 0.7110 0.7120 0.7120 0.7110 0.7110
11.107000 0.7110 0.7110 0.7110 0.7090 0.7090
11.131989 0.7110 0.7110 0.7110 0.7090 0.7090
11.157000 0.7080 0.7080 0.7070 0.7040 0.7010
11.181989 0.7010 0.7010 0.7010 0.6990 0.6980
11.207000 0.6970 0.6970 0.6970 0.6980 0.6980
11.231989 0.6980 0.6980 0.6970 0.6970 0.6970
11.257000 0.6970 0.6970 0.6960 0.6960 0.6960
11.281989 0.6940 0.6940 0.6930 0.6920 0.6910
11.307000 0.6880 0.6870 0.6870 0.6860 0.6840
11.331989 0.6830 0.6820 0.6810 0.6780 0.6760
11.357000 0.6730 0.6710 0.6710 0.6710 0.6690
11.381989 0.6670 0.6670 0.6660 0.6620 0.6600
11.407000 0.6580 0.6560 0.6550 0.6480 0.6470
11.431989 0.6410 0.6400 0.6380 0.6370 0.6320
11.457000 0.6270 0.6210 0.6180 0.6110 0.6080
11.481989 0.6020 0.5970 0.5970 0.5890 0.5810
11.507000 0.5720 0.5670 0.5590 0.5490 0.5460
11.531989 0.5400 0.5360 0.5280 0.5210 0.5160
11.557000 0.5090 0.5060 0.4990 0.4880 0.4780
11.581989 0.4690 0.4680 0.4520 0.4380 0.4190
11.607000 0.4030 0.4000 0.3940 0.3870 0.3770
11.631989 0.3580 0.3380 0.3300 0.3210 0.3100
11.657000 0.3010 0.2980 0.2880 0.2780 0.2700
11.681989 0.2590 0.2490 0.2310 0.2210 0.2170
11.707000 0.2070 0.1990 0.1800 0.1690 0.1580
11.731989 0.1400 0.1330 0.1280 0.1200 0.1180
11.757000 0.1120 0.1080 0.1000 0.0900 0.0830
11.781989 0.0820 0.0780 0.0740 0.0720 0.0720
11.807000 0.0700 0.0700 0.0700 0.0700 0.0700
11.831989 0.0720 0.0720 0.0730 0.0730 0.0730
11.857000 0.0730 0.0740 0.0740 0.0750 0.0750
11.881989 0.0770 0.0780 0.0780 0.0790 0.0790
11.907000 0.0800 0.0800 0.0800 0.0800 0.0820
11.931989 0.0830 0.0830 0.0830 0.0840 0.0840
11.957000 0.0850 0.0870 0.0880 0.0890 0.0900
11.981989 0.0900 0.0920 0.0930 0.0950 0.0980
12.007000 0.1030 0.1100 0.1190 0.1240 0.1290
12.031989 0.1320 0.1390 0.1410 0.1490 0.1510
12.057000 0.1580 0.1600 0.1630 0.1700 0.1830
12.081989 0.1910 0.2000 0.2090 0.2190 0.2220
12.107000 0.2320 0.2400 0.2470 0.2520 0.2620
12.131989 0.2680 0.2770 0.2810 0.2970 0.3010
12.157000 0.3080 0.3200 0.3300 0.3520 0.3590
12.181989 0.3710 0.3790 0.3960 0.4070 0.4170
12.206000 0.4220 0.4300 0.4390 0.4480 0.4570
12.230989 0.4680 0.4860 0.4960 0.4980 0.5010
12.256000 0.5060 0.5090 0.5180 0.5260 0.5300
12.280989 0.5370 0.5490 0.5570 0.5670 0.5770
12.306000 0.5860 0.5870 0.5970 0.6010 0.6060
12.330989 0.6100 0.6160 0.6180 0.6200 0.6220
12.356000 0.6260 0.6280 0.6320 0.6370 0.6460
12.380989 0.6500 0.6520 0.6560 0.6570 0.6620
12.406000 0.6710 0.6740 0.6770 0.6780 0.6790
12.430989 0.6820 0.6860 0.6880 0.6910 0.6920
12.456000 0.6930 0.6930 0.6930 0.6940 0.6940
12.480989 0.6960 0.6960 0.6970 0.6970 0.6970
12.506000 0.6970 0.6970 0.6970 0.6980 0.6990
12.530989 0.7030 0.7040 0.7040 0.7040 0.7020
12.556000 0.7020 0.7010 0.6990 0.6980 0.6970
12.580989 0.6970 0.6960 0.6940 0.6940 0.6920
12.606000 0.6880 0.6840 0.6810 0.6810 0.6770
12.630989 0.6760 0.6740 0.6730 0.6710 0.6680
12.656000 0.6660 0.6630 0.6620 0.6610 0.6600
12.680989 0.6570 0.6560 0.6550 0.6550 0.6560
12.706000 0.6570 0.6600 0.6610 0.6630 0.6690
12.730989 0.6710 0.6760 0.6780 0.6870 0.6870
12.756000 0.6920 0.6920 0.6930 0.6940 0.6940
12.780989 0.6960 0.6960 0.7010 0.7040 0.7040
12.806000 0.7060 0.7070 0.7070 0.7070 0.7070
12.830989 0.7070 0.7070 0.7080 0.7080 0.7090
12.856000 0.7090 0.7090 0.7090 0.7110 0.7110
12.880989 0.7160 0.7160 0.7170 0.7170 0.7170
12.906000 0.7170 0.7160 0.7160 0.7160 0.7120
12.930989 0.7110 0.7110 0.7110 0.7080 0.7060
12.956000 0.7060 0.7040 0.7020 0.6990 0.6980
12.980989 0.6980 0.6960 0.6940 0.6930 0.6890
13.006000 0.6840 0.6790 0.6760 0.6710 0.6680
13.030989 0.6670 0.6650 0.6610 0.6600 0.6570
13.056000 0.6510 0.6500 0.6470 0.6460 0.6370
13.080989 0.6320 0.6270 0.6170 0.6080 0.5990
13.106000 0.5870 0.5770 0.5660 0.5560 0.5470
13.130989 0.5410 0.5400 0.5360 0.5290 0.5260
13.156000 0.5180 0.5060 0.4990 0.4890 0.4790
13.180989 0.4760 0.4680 0.4620 0.4590 0.4520
13.206000 0.4490 0.4480 0.4470 0.4470 0.4480
13.230989 0.4520 0.4530 0.4550 0.4590 0.4600
13.256000 0.4660 0.4690 0.4780 0.4850 0.4860
13.280989 0.4930 0.4980 0.5030 0.5100 0.5160
13.306000 0.5190 0.5260 0.5260 0.5350 0.5360
13.330989 0.5390 0.5390 0.5410 0.5440 0.5470
13.356000 0.5490 0.5510 0.5520 0.5520 0.5520
13.380989 0.5520 0.5540 0.5570 0.5620 0.5640
13.405000 0.5660 0.5710 0.5760 0.5800 0.5850
13.429989 0.5860 0.5890 0.5900 0.5970 0.6000
13.455000 0.6060 0.6070 0.6110 0.6160 0.6220
13.479989 0.6280 0.6330 0.6430 0.6460 0.6480
13.505000 0.6510 0.6550 0.6570 0.6570 0.6600
13.529989 0.6620 0.6770 0.6820 0.6870 0.6910
13.555000 0.6910 0.6940 0.6960 0.6960 0.6970
13.579989 0.6980 0.6990 0.7010 0.7040 0.7060
13.605000 0.7060 0.7070 0.7090 0.7110 0.7120
13.629989 0.7120 0.7120 0.7120 0.7120 0.7120
13.655000 0.7130 0.7140 0.7140 0.7160 0.7170
13.679989 0.7180 0.7190 0.7210 0.7220 0.7230
13.705000 0.7230 0.7230 0.7260 0.7260 0.7260
13.729989 0.7260 0.7240 0.7230 0.7220 0.7180
13.755000 0.7160 0.7160 0.7170 0.7210 0.7220
13.779989 0.7230 0.7240 0.7260 0.7280 0.7290
13.805000 0.7310 0.7310 0.7310 0.7310 0.7310
13.829989 0.7320 0.7320 0.7330 0.7340 0.7340
13.855000 0.7340 0.7350 0.7350 0.7350 0.7370
13.879989 0.7370 0.7370 0.7370 0.7370 0.7370
13.905000 0.7370 0.7370 0.7370 0.7370 0.7370
13.929989 0.7370 0.7370 0.7370 0.7370 0.7370
13.955000 0.7370 0.7370 0.7350 0.7350 0.7340
13.979989 0.7340 0.7350 0.7370 0.7350 0.7350
14.005000 0.7340 0.7340 0.7340 0.7340 0.7350
14.029989 0.7370 0.7370 0.7370 0.7380 0.7380
14.055000 0.7380 0.7380 0.7380 0.7380 0.7380
14.079989 0.7380 0.7380 0.7380 0.7390 0.7380
14.105000 0.7380 0.7380 0.7370 0.7370 0.7350
14.129989 0.7350 0.7340 0.7320 0.7290 0.7290
14.155000 0.7290 0.7280 0.7280 0.7270 0.7260
14.179989 0.7260 0.7260 0.7240 0.7240 0.7230
14.205000 0.7220 0.7220 0.7210 0.7180 0.7180
14.229989 0.7180 0.7170 0.7140 0.7120 0.7120
14.255000 0.7110 0.7090 0.7080 0.7080 0.7070
14.279989 0.7070 0.7060 0.7040 0.7030 0.7020
14.305000 0.7010 0.6990 0.6980 0.6960 0.6960
14.329989 0.6940 0.6930 0.6920 0.6910 0.6870
14.355000 0.6810 0.6790 0.6770 0.6770 0.6720
14.379989 0.6710 0.6710 0.6710 0.6690 0.6670
14.405000 0.6660 0.6630 0.6600 0.6570 0.6560
14.429989 0.6550 0.6520 0.6510 0.6500 0.6480
14.455000 0.6470 0.6410 0.6380 0.6370 0.6320
14.479989 0.6310 0.6280 0.6260 0.6250 0.6250
14.505000 0.6220 0.6220 0.6220 0.6210 0.6210
14.529989 0.6200 0.6170 0.6120 0.6110 0.6100
14.555000 0.6070 0.6070 0.6030 0.6020 0.6010
14.579989 0.6010 0.6010 0.6010 0.6020 0.6030
14.604000 0.6030 0.6050 0.6050 0.6050 0.6030
14.628989 0.6030 0.6030 0.6020 0.6000 0.6000
14.654000 0.5990 0.5990 0.5990 0.5990 0.5990
14.678989 0.6000 0.6010 0.6020 0.6030 0.6050
14.704000 0.6050 0.6060 0.6060 0.6070 0.6070
14.728989 0.6070 0.6060 0.6050 0.6050 0.6030
14.754000 0.6020 0.6000 0.5970 0.5970 0.5960
14.778989 0.5960 0.5960 0.5960 0.5960 0.5950
14.804000 0.5950 0.5950 0.5940 0.5940 0.5940
14.828989 0.5940 0.5940 0.5940 0.5920 0.5920
14.854000 0.5910 0.5910 0.5910 0.5910 0.5900
14.878989 0.5900 0.5900 0.5900 0.5890 0.5890
14.904000 0.5870 0.5870 0.5870 0.5870 0.5890
14.928989 0.5890 0.5870 0.5870 0.5890 0.5890
14.954000 0.5890 0.5890 0.5900 0.5900 0.5900
14.978989 0.5910 0.5910 0.5910 0.5910 0.5900
15.004000 0.5900 0.5900 0.5900
##END=
