##TITLE=1-METHYL-4-ISOPROPYL BENZENE
##JCAMP-DX=4.24
##DATA TYPE=INFRARED SPECTRUM
##CLASS=COBLENTZ
##ORIGIN=STANDARD OIL OF OHIO
##OWNER=COBLENTZ SOCIETY
Collection (C) 2018 copyright by the U.S. Secretary of Commerce
on behalf of the United States of America. All rights reserved.
##DATE=Not specified, most likely prior to 1970
##NAMES=1-isopropyl-4-methylbenzene
##CAS REGISTRY NO=99-87-6
##MOLFORM=C10 H14
##SOURCE REFERENCE=COBLENTZ NO. 3602
##$NIST SOURCE=COBLENTZ
##$NIST IMAGE=cob3602
##SPECTROMETER/DATA SYSTEM=PERKIN-ELMER
##STATE=LIQUID
##PATH LENGTH=0.0024 CM
##SAMPLING PROCEDURE=TRANSMISSION
##RESOLUTION=4
##DATA PROCESSING=DIGITIZED BY NIST FROM HARD COPY (FROM TWO SEGMENTS)
##XUNITS=1/CM
##YUNITS=TRANSMITTANCE
##XFACTOR=1.000000
##YFACTOR=1
##DELTAX=1.689189
##FIRSTX=614.994
##LASTX=3941.01
##FIRSTY=0.544
##MAXX=3941.01
##MINX=614.994
##MAXY=0.945
##MINY=0.01
##NPOINTS=1970
##XYDATA=(X++(Y..Y))
614.994000 0.5440 0.5440 0.5450 0.5450 0.5450
623.439945 0.5470 0.5470 0.5470 0.5499 0.5500
631.885890 0.5500 0.5520 0.5540 0.5589 0.5590
640.331835 0.5610 0.5639 0.5669 0.5709 0.5836
648.777780 0.5938 0.6008 0.6059 0.6109 0.6158
657.223725 0.6218 0.6249 0.6298 0.6329 0.6416
665.669670 0.6468 0.6470 0.6470 0.6518 0.6683
674.115615 0.6871 0.6890 0.6890 0.6909 0.7005
682.561560 0.7029 0.7059 0.7079 0.7127 0.7149
691.007505 0.7197 0.7228 0.7296 0.7366 0.7417
699.453450 0.7495 0.7538 0.7549 0.7587 0.7618
707.899395 0.7620 0.7620 0.7611 0.7555 0.7504
716.345340 0.7342 0.7144 0.6657 0.5778 0.4898
724.791285 0.4048 0.3980 0.5015 0.6325 0.7315
733.237230 0.7685 0.7894 0.8002 0.8092 0.8146
741.683175 0.8195 0.8218 0.8247 0.8268 0.8279
750.129120 0.8298 0.8318 0.8329 0.8330 0.8330
758.575065 0.8330 0.8348 0.8350 0.8350 0.8332
767.021010 0.8330 0.8330 0.8321 0.8320 0.8302
775.466955 0.8282 0.8280 0.8271 0.8252 0.8232
783.912900 0.8203 0.8182 0.8154 0.8106 0.8056
792.358845 0.8015 0.7835 0.7618 0.7486 0.7305
800.804790 0.7018 0.6700 0.6521 0.6239 0.5949
809.250735 0.5409 0.4632 0.3824 0.2939 0.1784
817.696680 0.0963 0.0377 0.0197 0.0283 0.0565
826.142625 0.1386 0.2498 0.4137 0.5263 0.5816
834.588570 0.6154 0.6472 0.6639 0.6804 0.7024
843.034515 0.7203 0.7473 0.7662 0.7857 0.7990
851.480460 0.8128 0.8234 0.8275 0.8338 0.8392
859.926405 0.8417 0.8445 0.8491 0.8500 0.8516
868.372350 0.8520 0.8537 0.8565 0.8570 0.8570
876.818295 0.8570 0.8570 0.8570 0.8570 0.8554
885.264240 0.8542 0.8507 0.8435 0.8339 0.8247
893.710185 0.8165 0.8150 0.8158 0.8176 0.8340
902.156130 0.8428 0.8480 0.8514 0.8520 0.8520
910.602075 0.8504 0.8500 0.8460 0.8410 0.8345
919.048020 0.8251 0.8150 0.8051 0.8014 0.8026
927.493965 0.8085 0.8124 0.8200 0.8243 0.8250
935.939910 0.8226 0.8173 0.8082 0.7998 0.7949
944.385855 0.7986 0.8062 0.8172 0.8300 0.8345
952.831800 0.8350 0.8350 0.8335 0.8307 0.8285
961.277745 0.8280 0.8280 0.8295 0.8315 0.8328
969.723690 0.8368 0.8426 0.8463 0.8470 0.8470
978.169635 0.8470 0.8455 0.8450 0.8443 0.8440
986.615580 0.8425 0.8420 0.8420 0.8420 0.8420
995.061525 0.8420 0.8420 0.8420 0.8420 0.8420
1003.507470 0.8420 0.8405 0.8385 0.8358 0.8313
1011.953415 0.8285 0.8222 0.8077 0.7929 0.7724
1020.399360 0.7253 0.6533 0.5725 0.4879 0.4640
1028.845305 0.5638 0.6645 0.7161 0.7270 0.7150
1037.291250 0.7050 0.6872 0.6689 0.6498 0.6327
1045.737195 0.6223 0.6172 0.6153 0.6017 0.5751
1054.183140 0.5350 0.4896 0.4339 0.3656 0.3140
1062.629085 0.3010 0.3294 0.3993 0.5124 0.5925
1071.075030 0.6511 0.6940 0.7278 0.7497 0.7646
1079.520975 0.7772 0.7858 0.7900 0.7910 0.7910
1087.966920 0.7890 0.7832 0.7776 0.7713 0.7575
1096.412865 0.7507 0.7285 0.6953 0.6614 0.6274
1104.858810 0.5939 0.5689 0.5553 0.5453 0.5354
1113.304755 0.5307 0.5300 0.5353 0.5603 0.5975
1121.750700 0.6446 0.6759 0.6981 0.7185 0.7328
1130.196645 0.7403 0.7472 0.7513 0.7578 0.7693
1138.642590 0.7740 0.7708 0.7671 0.7647 0.7653
1147.088535 0.7679 0.7779 0.7957 0.8106 0.8226
1155.534480 0.8340 0.8425 0.8463 0.8489 0.8500
1163.980425 0.8500 0.8494 0.8478 0.8470 0.8458
1172.426370 0.8450 0.8444 0.8428 0.8389 0.8345
1180.872315 0.8281 0.8176 0.8057 0.7803 0.7567
1189.318260 0.7500 0.7605 0.7774 0.7986 0.8153
1197.764205 0.8218 0.8200 0.8168 0.8130 0.8050
1206.210150 0.7902 0.7685 0.7428 0.7320 0.7368
1214.656095 0.7513 0.7708 0.7920 0.8063 0.8147
1223.102040 0.8233 0.8317 0.8391 0.8432 0.8440
1231.547985 0.8440 0.8428 0.8397 0.8363 0.8321
1239.993930 0.8283 0.8270 0.8270 0.8276 0.8303
1248.439875 0.8337 0.8378 0.8428 0.8478 0.8511
1256.885820 0.8520 0.8503 0.8490 0.8467 0.8433
1265.331765 0.8392 0.8359 0.8306 0.8231 0.8134
1273.777710 0.7930 0.7665 0.7383 0.7128 0.6909
1282.223655 0.6810 0.6865 0.7079 0.7475 0.7863
1290.669600 0.8021 0.8019 0.8010 0.7901 0.7783
1299.115545 0.7550 0.7140 0.6716 0.6313 0.6130
1307.561490 0.6263 0.6557 0.6891 0.7209 0.7456
1316.007435 0.7634 0.7773 0.7846 0.7860 0.7860
1324.453380 0.7824 0.7753 0.7678 0.7578 0.7448
1332.899325 0.7287 0.7113 0.6928 0.6744 0.6650
1341.345270 0.6640 0.6640 0.6640 0.6640 0.6640
1349.791215 0.6640 0.6630 0.6605 0.6565 0.6456
1358.237160 0.6215 0.5713 0.5055 0.4571 0.4400
1366.683105 0.4543 0.4940 0.5415 0.5820 0.5962
1375.129050 0.5720 0.5279 0.4712 0.4210 0.3875
1383.574995 0.3618 0.3674 0.4174 0.4968 0.5733
1392.020940 0.6241 0.6560 0.6738 0.6800 0.6767
1400.466885 0.6682 0.6593 0.6465 0.6310 0.6193
1408.912830 0.5992 0.5721 0.5527 0.5364 0.5291
1417.358775 0.5289 0.5300 0.5309 0.5320 0.5311
1425.804720 0.5277 0.5181 0.5100 0.5299 0.5522
1434.250665 0.5473 0.5413 0.5336 0.5223 0.5045
1442.696610 0.4822 0.4634 0.4420 0.4177 0.3959
1451.142555 0.3633 0.3271 0.3095 0.3033 0.2967
1459.588500 0.2828 0.2537 0.2218 0.2011 0.1786
1468.034445 0.1660 0.1846 0.2163 0.2539 0.3223
1476.480390 0.3913 0.4735 0.5308 0.5345 0.5518
1484.926335 0.5801 0.6012 0.6200 0.6349 0.6542
1493.372280 0.6777 0.6860 0.6852 0.6840 0.6812
1501.818225 0.6758 0.6700 0.6580 0.6415 0.6139
1510.264170 0.5494 0.4272 0.3119 0.2603 0.2188
1518.710115 0.1803 0.1271 0.0770 0.1359 0.2728
1527.156060 0.4313 0.6036 0.6585 0.6905 0.7250
1535.602005 0.7376 0.7484 0.7596 0.7709 0.7740
1544.047950 0.7912 0.8329 0.8551 0.8570 0.8570
1552.493895 0.8570 0.8585 0.8614 0.8620 0.8645
1560.939840 0.8719 0.8777 0.8790 0.8790 0.8790
1569.385785 0.8790 0.8790 0.8783 0.8766 0.8753
1577.831730 0.8729 0.8692 0.8621 0.8539 0.8513
1586.277675 0.8500 0.8507 0.8602 0.8787 0.8864
1594.723620 0.8920 0.8947 0.8960 0.8960 0.8960
1603.169565 0.8960 0.8953 0.8930 0.8910 0.8903
1611.615510 0.8887 0.8880 0.8880 0.8880 0.8880
1620.061455 0.8883 0.8890 0.8890 0.8890 0.8887
1628.507400 0.8874 0.8854 0.8830 0.8804 0.8784
1636.953345 0.8761 0.8724 0.8638 0.8514 0.8485
1645.399290 0.8413 0.8296 0.8171 0.8008 0.7860
1653.845235 0.7781 0.7760 0.7805 0.8117 0.8625
1662.291180 0.8663 0.8676 0.8720 0.8805 0.8866
1670.737125 0.8950 0.9000 0.9014 0.9078 0.9153
1679.183070 0.9160 0.9160 0.9166 0.9180 0.9180
1687.629015 0.9186 0.9200 0.9200 0.9200 0.9200
1696.074960 0.9200 0.9200 0.9200 0.9200 0.9200
1704.520905 0.9195 0.9180 0.9180 0.9180 0.9180
1712.966850 0.9180 0.9180 0.9180 0.9180 0.9180
1721.412795 0.9180 0.9175 0.9160 0.9160 0.9160
1729.858740 0.9160 0.9160 0.9160 0.9158 0.9150
1738.304685 0.9140 0.9110 0.9110 0.9108 0.9095
1746.750630 0.9080 0.9075 0.9060 0.9048 0.9008
1755.196575 0.9000 0.9000 0.9000 0.9000 0.9007
1763.642520 0.9046 0.9102 0.9110 0.9110 0.9110
1772.088465 0.9110 0.9110 0.9110 0.9108 0.9100
1780.534410 0.9096 0.9069 0.9026 0.9008 0.8974
1788.980355 0.8865 0.8781 0.8635 0.8494 0.8460
1797.426300 0.8434 0.8503 0.8596 0.8809 0.8974
1805.872245 0.9040 0.9096 0.9174 0.9240 0.9288
1814.318190 0.9320 0.9320 0.9320 0.9320 0.9320
1822.764135 0.9320 0.9320 0.9320 0.9320 0.9320
1831.210080 0.9320 0.9320 0.9320 0.9316 0.9300
1839.656025 0.9300 0.9300 0.9300 0.9300 0.9297
1848.101970 0.9280 0.9278 0.9267 0.9245 0.9217
1856.547915 0.9197 0.9180 0.9177 0.9160 0.9158
1864.993860 0.9150 0.9150 0.9147 0.9130 0.9125
1873.439805 0.9094 0.9052 0.9008 0.9000 0.8987
1881.885750 0.8907 0.8885 0.8849 0.8780 0.8705
1890.331695 0.8606 0.8493 0.8305 0.8113 0.7854
1898.777640 0.7665 0.7454 0.7177 0.7160 0.7190
1907.223585 0.7419 0.7724 0.8134 0.8524 0.8711
1915.669530 0.8877 0.9007 0.9056 0.9104 0.9132
1924.115475 0.9151 0.9162 0.9182 0.9203 0.9232
1932.561420 0.9252 0.9274 0.9302 0.9321 0.9332
1941.007365 0.9350 0.9350 0.9350 0.9350 0.9350
1949.453310 0.9350 0.9350 0.9348 0.9330 0.9329
1957.899255 0.9320 0.9318 0.9300 0.9300 0.9300
1966.345200 0.9300 0.9305 0.9350 0.9350 0.9350
1974.791145 0.9350 0.9350 0.9350 0.9350 0.9350
1983.237090 0.9350 0.9350 0.9350 0.9350 0.9350
1991.683035 0.9350 0.9350 0.9350 0.9350 0.9350
2000.128980 0.9350 0.9352 0.9370 0.9371 0.9381
2008.574925 0.9400 0.9400 0.9400 0.9400 0.9401
2017.020870 0.9420 0.9420 0.9420 0.9420 0.9420
2025.466815 0.9420 0.9420 0.9420 0.9420 0.9420
2033.912760 0.9420 0.9420 0.9420 0.9420 0.9421
2042.358705 0.9440 0.9440 0.9440 0.9440 0.9440
2050.804650 0.9440 0.9440 0.9440 0.9440 0.9440
2059.250595 0.9440 0.9439 0.9420 0.9420 0.9420
2067.696540 0.9418 0.9400 0.9399 0.9380 0.9381
2076.142485 0.9400 0.9401 0.9421 0.9440 0.9440
2084.588430 0.9440 0.9440 0.9441 0.9450 0.9450
2093.034375 0.9450 0.9450 0.9450 0.9450 0.9450
2101.480320 0.9450 0.9450 0.9450 0.9449 0.9440
2109.926265 0.9440 0.9440 0.9440 0.9440 0.9440
2118.372210 0.9440 0.9440 0.9440 0.9440 0.9440
2126.818155 0.9440 0.9440 0.9440 0.9440 0.9440
2135.264100 0.9440 0.9440 0.9440 0.9440 0.9440
2143.710045 0.9440 0.9440 0.9440 0.9440 0.9440
2152.155990 0.9440 0.9440 0.9439 0.9420 0.9420
2160.601935 0.9420 0.9420 0.9420 0.9420 0.9420
2169.047880 0.9420 0.9420 0.9420 0.9420 0.9419
2177.493825 0.9400 0.9400 0.9400 0.9399 0.9380
2185.939770 0.9380 0.9380 0.9381 0.9400 0.9400
2194.385715 0.9400 0.9400 0.9400 0.9400 0.9400
2202.831660 0.9400 0.9400 0.9400 0.9400 0.9400
2211.277605 0.9400 0.9400 0.9400 0.9400 0.9400
2219.723550 0.9400 0.9398 0.9380 0.9380 0.9380
2228.169495 0.9379 0.9370 0.9370 0.9370 0.9370
2236.615440 0.9368 0.9350 0.9350 0.9350 0.9350
2245.061385 0.9349 0.9330 0.9329 0.9319 0.9298
2253.507330 0.9270 0.9268 0.9250 0.9250 0.9251
2261.953275 0.9271 0.9280 0.9280 0.9280 0.9280
2270.399220 0.9280 0.9279 0.9270 0.9270 0.9269
2278.845165 0.9250 0.9250 0.9250 0.9250 0.9250
2287.291110 0.9248 0.9230 0.9230 0.9230 0.9229
2295.737055 0.9220 0.9220 0.9221 0.9230 0.9230
2304.183000 0.9230 0.9230 0.9231 0.9251 0.9271
2312.628945 0.9280 0.9280 0.9280 0.9280 0.9280
2321.074890 0.9280 0.9280 0.9281 0.9300 0.9300
2329.520835 0.9300 0.9301 0.9320 0.9320 0.9320
2337.966780 0.9320 0.9320 0.9320 0.9320 0.9320
2346.412725 0.9320 0.9319 0.9300 0.9300 0.9300
2354.858670 0.9298 0.9280 0.9280 0.9280 0.9280
2363.304615 0.9280 0.9280 0.9280 0.9279 0.9270
2371.750560 0.9270 0.9270 0.9270 0.9270 0.9270
2380.196505 0.9270 0.9269 0.9250 0.9250 0.9250
2388.642450 0.9250 0.9250 0.9250 0.9250 0.9250
2397.088395 0.9250 0.9250 0.9250 0.9250 0.9250
2405.534340 0.9250 0.9250 0.9250 0.9249 0.9231
2413.980285 0.9250 0.9250 0.9250 0.9250 0.9250
2422.426230 0.9250 0.9250 0.9250 0.9250 0.9251
2430.872175 0.9270 0.9270 0.9270 0.9269 0.9250
2439.318120 0.9250 0.9250 0.9250 0.9249 0.9230
2447.764065 0.9231 0.9250 0.9250 0.9249 0.9230
2456.210010 0.9229 0.9220 0.9220 0.9220 0.9220
2464.655955 0.9219 0.9201 0.9220 0.9220 0.9220
2473.101900 0.9220 0.9220 0.9220 0.9220 0.9220
2481.547845 0.9219 0.9200 0.9200 0.9201 0.9220
2489.993790 0.9220 0.9220 0.9221 0.9231 0.9250
2498.439735 0.9250 0.9250 0.9250 0.9249 0.9230
2506.885680 0.9229 0.9220 0.9220 0.9219 0.9200
2515.331625 0.9200 0.9200 0.9200 0.9200 0.9200
2523.777570 0.9202 0.9220 0.9220 0.9220 0.9220
2532.223515 0.9220 0.9220 0.9220 0.9219 0.9200
2540.669460 0.9200 0.9200 0.9199 0.9180 0.9179
2549.115405 0.9160 0.9160 0.9160 0.9160 0.9160
2557.561350 0.9159 0.9150 0.9150 0.9149 0.9130
2566.007295 0.9130 0.9130 0.9130 0.9130 0.9129
2574.453240 0.9109 0.9098 0.9079 0.9056 0.9009
2582.899185 0.9000 0.8996 0.8936 0.8889 0.8877
2591.345130 0.8838 0.8807 0.8770 0.8769 0.8761
2599.791075 0.8771 0.8790 0.8791 0.8810 0.8813
2608.237020 0.8864 0.8912 0.8944 0.9000 0.9001
2616.682965 0.9015 0.9081 0.9101 0.9110 0.9111
2625.128910 0.9130 0.9130 0.9130 0.9129 0.9110
2633.574855 0.9110 0.9110 0.9110 0.9110 0.9110
2642.020800 0.9110 0.9110 0.9110 0.9110 0.9110
2650.466745 0.9110 0.9109 0.9100 0.9100 0.9100
2658.912690 0.9098 0.9080 0.9080 0.9080 0.9080
2667.358635 0.9080 0.9080 0.9079 0.9060 0.9061
2675.804580 0.9080 0.9080 0.9080 0.9080 0.9079
2684.250525 0.9060 0.9060 0.9060 0.9060 0.9060
2692.696470 0.9060 0.9059 0.9050 0.9050 0.9050
2701.142415 0.9049 0.9030 0.9028 0.9000 0.8996
2709.588360 0.8939 0.8926 0.8875 0.8806 0.8755
2718.034305 0.8685 0.8619 0.8607 0.8569 0.8547
2726.480250 0.8499 0.8486 0.8437 0.8396 0.8345
2734.926195 0.8278 0.8250 0.8250 0.8251 0.8272
2743.372140 0.8308 0.8409 0.8527 0.8624 0.8671
2751.818085 0.8690 0.8689 0.8670 0.8670 0.8671
2760.264030 0.8690 0.8692 0.8711 0.8723 0.8761
2768.709975 0.8771 0.8790 0.8789 0.8770 0.8770
2777.155920 0.8770 0.8770 0.8770 0.8769 0.8759
2785.601865 0.8739 0.8719 0.8707 0.8669 0.8657
2794.047810 0.8607 0.8566 0.8520 0.8515 0.8445
2802.493755 0.8376 0.8316 0.8265 0.8195 0.8124
2810.939700 0.8047 0.8010 0.8010 0.8009 0.8000
2819.385645 0.7999 0.7977 0.7938 0.7907 0.7855
2827.831590 0.7784 0.7707 0.7666 0.7616 0.7565
2836.277535 0.7496 0.7441 0.7322 0.7217 0.7171
2844.723480 0.7039 0.6908 0.6860 0.6589 0.6304
2853.169425 0.6078 0.5769 0.5479 0.5178 0.4856
2861.615370 0.4513 0.4151 0.3759 0.3349 0.3050
2870.061315 0.2641 0.2252 0.1982 0.1587 0.1261
2878.507260 0.0995 0.0936 0.1017 0.1106 0.1190
2886.953205 0.1333 0.1512 0.1678 0.1793 0.1841
2895.399150 0.1860 0.1860 0.1860 0.1860 0.1860
2903.845095 0.1860 0.1859 0.1840 0.1839 0.1829
2912.291040 0.1808 0.1788 0.1759 0.1735 0.1663
2920.736985 0.1565 0.1491 0.1360 0.1085 0.0883
2929.182930 0.0777 0.0616 0.0570 0.0570 0.0571
2937.628875 0.0591 0.0616 0.0694 0.0742 0.0773
2946.074820 0.0812 0.0842 0.0859 0.0839 0.0827
2954.520765 0.0784 0.0701 0.0584 0.0485 0.0270
2962.966710 0.0128 0.0109 0.0100 0.0100 0.0101
2971.412655 0.0110 0.0110 0.0111 0.0131 0.0151
2979.858600 0.0163 0.0210 0.0343 0.0537 0.1033
2988.304545 0.1345 0.1706 0.2191 0.2347 0.2584
2996.750490 0.2784 0.2971 0.3106 0.3181 0.3197
3005.196435 0.3156 0.3094 0.3000 0.2850 0.2704
3013.642380 0.2619 0.2611 0.2623 0.2661 0.2670
3022.088325 0.2669 0.2655 0.2578 0.2410 0.2270
3030.534270 0.2274 0.2333 0.2507 0.2744 0.3075
3038.980215 0.3419 0.3690 0.3975 0.4183 0.4233
3047.426160 0.4280 0.4278 0.4243 0.4154 0.4075
3055.872105 0.4009 0.4001 0.4013 0.4057 0.4157
3064.318050 0.4265 0.4453 0.4635 0.4981 0.5517
3072.763995 0.5897 0.6396 0.6621 0.6785 0.6997
3081.209940 0.7225 0.7282 0.7301 0.7319 0.7300
3089.655885 0.7299 0.7276 0.7226 0.7171 0.7039
3098.101830 0.6880 0.6747 0.6585 0.6520 0.6537
3106.547775 0.6790 0.7222 0.7787 0.8022 0.8188
3114.993720 0.8306 0.8385 0.8444 0.8490 0.8490
3123.439665 0.8489 0.8470 0.8468 0.8439 0.8419
3131.885610 0.8398 0.8370 0.8370 0.8371 0.8381
3140.331555 0.8404 0.8453 0.8492 0.8523 0.8571
3148.777500 0.8592 0.8623 0.8662 0.8692 0.8721
3157.223445 0.8741 0.8760 0.8760 0.8761 0.8770
3165.669390 0.8770 0.8770 0.8770 0.8770 0.8771
3174.115335 0.8790 0.8790 0.8790 0.8790 0.8790
3182.561280 0.8790 0.8792 0.8810 0.8810 0.8810
3191.007225 0.8810 0.8811 0.8830 0.8830 0.8830
3199.453170 0.8830 0.8830 0.8831 0.8840 0.8840
3207.899115 0.8840 0.8840 0.8841 0.8860 0.8860
3216.345060 0.8862 0.8880 0.8881 0.8890 0.8891
3224.791005 0.8911 0.8930 0.8930 0.8931 0.8941
3233.236950 0.8962 0.8980 0.8981 0.9000 0.9000
3241.682895 0.9000 0.9000 0.9000 0.9001 0.9010
3250.128840 0.9010 0.9010 0.9011 0.9030 0.9030
3258.574785 0.9030 0.9030 0.9030 0.9030 0.9031
3267.020730 0.9051 0.9060 0.9060 0.9060 0.9060
3275.466675 0.9060 0.9061 0.9080 0.9080 0.9080
3283.912620 0.9080 0.9080 0.9080 0.9080 0.9080
3292.358565 0.9080 0.9080 0.9080 0.9080 0.9080
3300.804510 0.9080 0.9080 0.9080 0.9080 0.9080
3309.250455 0.9080 0.9080 0.9080 0.9080 0.9080
3317.696400 0.9080 0.9080 0.9080 0.9080 0.9080
3326.142345 0.9080 0.9080 0.9080 0.9080 0.9080
3334.588290 0.9080 0.9080 0.9080 0.9079 0.9060
3343.034235 0.9060 0.9060 0.9061 0.9079 0.9060
3351.480180 0.9060 0.9060 0.9060 0.9060 0.9060
3359.926125 0.9060 0.9060 0.9060 0.9060 0.9060
3368.372070 0.9060 0.9060 0.9060 0.9060 0.9060
3376.818015 0.9060 0.9060 0.9060 0.9059 0.9050
3385.263960 0.9050 0.9050 0.9049 0.9030 0.9030
3393.709905 0.9029 0.9010 0.9010 0.9010 0.9010
3402.155850 0.9010 0.9010 0.9010 0.9010 0.9010
3410.601795 0.9010 0.9010 0.9010 0.9010 0.9010
3419.047740 0.9010 0.9010 0.9010 0.9010 0.9010
3427.493685 0.9010 0.9010 0.9010 0.9010 0.9010
3435.939630 0.9010 0.9010 0.9010 0.9010 0.9010
3444.385575 0.9010 0.9010 0.9010 0.9010 0.9010
3452.831520 0.9009 0.9000 0.9000 0.9000 0.9000
3461.277465 0.9000 0.9000 0.9000 0.9000 0.9000
3469.723410 0.9000 0.9000 0.9000 0.9000 0.8999
3478.169355 0.8980 0.8980 0.8980 0.8980 0.8980
3486.615300 0.8980 0.8980 0.8980 0.8980 0.8980
3495.061245 0.8980 0.8980 0.8980 0.8980 0.8980
3503.507190 0.8980 0.8980 0.8980 0.8980 0.8980
3511.953135 0.8980 0.8981 0.9000 0.9000 0.9000
3520.399080 0.9000 0.9000 0.9000 0.9000 0.9000
3528.845025 0.9000 0.9000 0.9000 0.9001 0.9010
3537.290970 0.9010 0.9010 0.9010 0.9010 0.9010
3545.736915 0.9010 0.9010 0.9011 0.9029 0.9010
3554.182860 0.9010 0.9010 0.9010 0.9010 0.9010
3562.628805 0.9010 0.9010 0.9010 0.9010 0.9010
3571.074750 0.9010 0.9009 0.9000 0.9001 0.9010
3579.520695 0.9009 0.9000 0.9000 0.9000 0.9000
3587.966640 0.9000 0.9001 0.9010 0.9010 0.9010
3596.412585 0.9010 0.9010 0.9010 0.9010 0.9010
3604.858530 0.9010 0.9010 0.9009 0.9000 0.9000
3613.304475 0.9000 0.9000 0.9000 0.9000 0.9000
3621.750420 0.9000 0.9000 0.9000 0.9000 0.9000
3630.196365 0.9000 0.9000 0.9000 0.9000 0.9000
3638.642310 0.9000 0.9000 0.9000 0.9000 0.9000
3647.088255 0.9000 0.9000 0.8999 0.8979 0.8960
3655.534200 0.8958 0.8930 0.8930 0.8929 0.8910
3663.980145 0.8910 0.8911 0.8931 0.8941 0.8961
3672.426090 0.8980 0.8982 0.9000 0.9000 0.9000
3680.872035 0.9000 0.9000 0.9000 0.9000 0.9000
3689.317980 0.9000 0.9000 0.9000 0.9000 0.9000
3697.763925 0.9000 0.9000 0.9000 0.9000 0.9000
3706.209870 0.9000 0.9000 0.9000 0.9000 0.9000
3714.655815 0.9000 0.9000 0.9000 0.9000 0.9000
3723.101760 0.9000 0.9000 0.9000 0.9000 0.9000
3731.547705 0.9000 0.9000 0.9001 0.9009 0.9000
3739.993650 0.9000 0.9000 0.9000 0.9000 0.8999
3748.439595 0.8980 0.8980 0.8979 0.8960 0.8960
3756.885540 0.8960 0.8960 0.8960 0.8960 0.8960
3765.331485 0.8960 0.8960 0.8960 0.8960 0.8960
3773.777430 0.8958 0.8940 0.8940 0.8940 0.8940
3782.223375 0.8940 0.8939 0.8930 0.8930 0.8930
3790.669320 0.8930 0.8930 0.8930 0.8929 0.8910
3799.115265 0.8910 0.8910 0.8909 0.8890 0.8890
3807.561210 0.8889 0.8880 0.8880 0.8880 0.8880
3816.007155 0.8880 0.8880 0.8880 0.8880 0.8880
3824.453100 0.8880 0.8878 0.8860 0.8860 0.8860
3832.899045 0.8860 0.8860 0.8860 0.8860 0.8860
3841.344990 0.8860 0.8860 0.8860 0.8860 0.8860
3849.790935 0.8860 0.8860 0.8860 0.8860 0.8860
3858.236880 0.8860 0.8860 0.8860 0.8860 0.8860
3866.682825 0.8860 0.8860 0.8860 0.8860 0.8860
3875.128770 0.8860 0.8860 0.8860 0.8860 0.8860
3883.574715 0.8860 0.8860 0.8860 0.8860 0.8860
3892.020660 0.8860 0.8860 0.8860 0.8860 0.8860
3900.466605 0.8860 0.8859 0.8840 0.8840 0.8840
3908.912550 0.8840 0.8840 0.8840 0.8840 0.8840
3917.358495 0.8840 0.8841 0.8859 0.8840 0.8840
3925.804440 0.8842 0.8860 0.8860 0.8859 0.8840
3934.250385 0.8840 0.8840 0.8841 0.8860 0.8860
##END=
