##TITLE=TRIBUTYLSILANE
##JCAMP-DX=4.24
##DATA TYPE=INFRARED SPECTRUM
##CLASS=COBLENTZ
##ORIGIN=PENINSULAR CHEMRESEARCH, INC., GAINESVILLE, FLORIDA
##OWNER=COBLENTZ SOCIETY
Collection (C) 2018 copyright by the U.S. Secretary of Commerce
on behalf of the United States of America. All rights reserved.
##DATE=Not specified, most likely prior to 1970
##CAS REGISTRY NO=998-41-4
##MOLFORM=C12 H28 Si
##SOURCE REFERENCE=COBLENTZ NO. 4910
##$NIST SOURCE=COBLENTZ
##$NIST IMAGE=cob4910
##SPECTROMETER/DATA SYSTEM=BECKMAN IR-4 (HYBRID PRISM-GRATING)
##STATE=SOLID (BETWEEN SALTS)
##SAMPLING PROCEDURE=TRANSMISSION
##RESOLUTION=4
$$ MW 200.44
##DATA PROCESSING=DIGITIZED BY NIST FROM HARD COPY
##XUNITS=MICROMETERS
##YUNITS=TRANSMITTANCE
##XFACTOR=1.000000
##YFACTOR=1
##DELTAX=000.005000
##FIRSTX=2.03
##LASTX=15.02
##FIRSTY=0.969
##MAXX=15.02
##MINX=2.03
##MAXY=0.969
##MINY=0.1
##NPOINTS=2599
##XYDATA=(X++(Y..Y))
2.030000 0.9690 0.9690 0.9680 0.9670 0.9670
2.055010 0.9670 0.9660 0.9660 0.9640 0.9640
2.080000 0.9640 0.9640 0.9660 0.9660 0.9670
2.105010 0.9670 0.9680 0.9690 0.9690 0.9690
2.130000 0.9680 0.9680 0.9680 0.9680 0.9670
2.155010 0.9680 0.9670 0.9670 0.9670 0.9660
2.180000 0.9660 0.9630 0.9620 0.9610 0.9580
2.205010 0.9560 0.9530 0.9510 0.9490 0.9490
2.230000 0.9470 0.9430 0.9390 0.9330 0.9270
2.255010 0.9240 0.9260 0.9280 0.9310 0.9330
2.280000 0.9330 0.9340 0.9340 0.9360 0.9370
2.305010 0.9380 0.9390 0.9470 0.9490 0.9510
2.330000 0.9510 0.9480 0.9470 0.9460 0.9420
2.355010 0.9410 0.9390 0.9390 0.9390 0.9410
2.380000 0.9410 0.9420 0.9440 0.9460 0.9460
2.405010 0.9470 0.9470 0.9480 0.9480 0.9490
2.430000 0.9520 0.9520 0.9520 0.9530 0.9530
2.455010 0.9530 0.9530 0.9520 0.9510 0.9510
2.480000 0.9490 0.9470 0.9470 0.9480 0.9480
2.505010 0.9480 0.9480 0.9440 0.9430 0.9430
2.530000 0.9420 0.9440 0.9440 0.9430 0.9420
2.555010 0.9410 0.9410 0.9410 0.9410 0.9390
2.580000 0.9380 0.9380 0.9370 0.9360 0.9330
2.605010 0.9330 0.9310 0.9290 0.9290 0.9290
2.630000 0.9310 0.9370 0.9380 0.9390 0.9420
2.655010 0.9430 0.9430 0.9430 0.9430 0.9430
2.680000 0.9430 0.9430 0.9430 0.9420 0.9420
2.705010 0.9410 0.9390 0.9390 0.9430 0.9480
2.730000 0.9490 0.9510 0.9520 0.9540 0.9540
2.755010 0.9530 0.9530 0.9530 0.9530 0.9530
2.780000 0.9520 0.9520 0.9510 0.9510 0.9490
2.805010 0.9490 0.9490 0.9490 0.9490 0.9490
2.830000 0.9480 0.9480 0.9490 0.9490 0.9490
2.855010 0.9480 0.9480 0.9470 0.9480 0.9490
2.880000 0.9520 0.9540 0.9560 0.9560 0.9570
2.905010 0.9570 0.9570 0.9560 0.9560 0.9540
2.930000 0.9520 0.9520 0.9490 0.9490 0.9480
2.955010 0.9480 0.9470 0.9470 0.9460 0.9440
2.980000 0.9440 0.9460 0.9470 0.9470 0.9480
3.005010 0.9480 0.9480 0.9470 0.9470 0.9460
3.030000 0.9460 0.9430 0.9410 0.9370 0.9330
3.055010 0.9330 0.9330 0.9330 0.9320 0.9310
3.080000 0.9310 0.9310 0.9310 0.9290 0.9290
3.105010 0.9280 0.9230 0.9220 0.9220 0.9210
3.130000 0.9210 0.9210 0.9210 0.9190 0.9190
3.155010 0.9190 0.9190 0.9180 0.9130 0.9130
3.180000 0.9120 0.9120 0.9110 0.9110 0.9090
3.205010 0.9080 0.9080 0.9040 0.9020 0.9020
3.230000 0.9010 0.8990 0.8900 0.8830 0.8780
3.255010 0.8690 0.8600 0.8520 0.8400 0.8300
3.280000 0.8200 0.8090 0.7800 0.7600 0.7400
3.305010 0.7100 0.6710 0.6220 0.5720 0.5110
3.330000 0.4520 0.4030 0.3530 0.2900 0.2100
3.355010 0.1620 0.1250 0.1250 0.1400 0.1400
3.380000 0.1390 0.1350 0.1200 0.1160 0.1000
3.405010 0.1000 0.1190 0.1400 0.1650 0.1720
3.430000 0.2000 0.2210 0.2380 0.2390 0.2390
3.455010 0.2390 0.2400 0.2480 0.2590 0.2800
3.480000 0.3190 0.3500 0.3890 0.5320 0.5910
3.505010 0.6620 0.7000 0.7290 0.7500 0.7630
3.530000 0.7710 0.7740 0.7790 0.7890 0.8000
3.555010 0.8130 0.8290 0.8390 0.8590 0.8680
3.580000 0.8780 0.8800 0.8830 0.8840 0.8840
3.605010 0.8870 0.8870 0.8820 0.8800 0.8820
3.630000 0.8880 0.8920 0.8940 0.8990 0.9040
3.655010 0.9090 0.9110 0.9120 0.9180 0.9130
3.680000 0.9120 0.9080 0.9080 0.9080 0.9080
3.705010 0.9070 0.9070 0.9080 0.9080 0.9080
3.730000 0.9080 0.9080 0.9070 0.9030 0.9030
3.755010 0.9070 0.9080 0.9080 0.9090 0.9110
3.780000 0.9110 0.9110 0.9110 0.9110 0.9090
3.805010 0.9080 0.9110 0.9140 0.9180 0.9190
3.830000 0.9210 0.9240 0.9290 0.9320 0.9320
3.855010 0.9330 0.9330 0.9330 0.9330 0.9330
3.880000 0.9320 0.9310 0.9310 0.9310 0.9320
3.905010 0.9330 0.9330 0.9370 0.9380 0.9380
3.930000 0.9380 0.9370 0.9360 0.9360 0.9360
3.955010 0.9340 0.9330 0.9330 0.9330 0.9330
3.980000 0.9330 0.9330 0.9330 0.9330 0.9330
4.005010 0.9330 0.9330 0.9330 0.9330 0.9330
4.030000 0.9330 0.9330 0.9330 0.9330 0.9330
4.055010 0.9330 0.9340 0.9360 0.9360 0.9380
4.080000 0.9380 0.9380 0.9380 0.9380 0.9380
4.105010 0.9380 0.9370 0.9330 0.9330 0.9330
4.130000 0.9330 0.9330 0.9320 0.9280 0.9210
4.155010 0.9180 0.9140 0.9130 0.9130 0.9130
4.180000 0.9140 0.9170 0.9180 0.9190 0.9210
4.205010 0.9240 0.9280 0.9290 0.9290 0.9290
4.230000 0.9290 0.9290 0.9290 0.9310 0.9310
4.255010 0.9320 0.9320 0.9320 0.9320 0.9320
4.280000 0.9320 0.9320 0.9310 0.9280 0.9280
4.305010 0.9290 0.9310 0.9320 0.9320 0.9320
4.330000 0.9320 0.9320 0.9320 0.9310 0.9280
4.355010 0.9220 0.9210 0.9190 0.9190 0.9180
4.380000 0.9180 0.9170 0.9140 0.9130 0.9120
4.405010 0.9110 0.9110 0.9120 0.9120 0.9130
4.430000 0.9160 0.9180 0.9180 0.9180 0.9190
4.455010 0.9190 0.9190 0.9190 0.9190 0.9190
4.480000 0.9190 0.9180 0.9180 0.9170 0.9160
4.505010 0.9160 0.9130 0.9110 0.9030 0.9020
4.530000 0.9010 0.9010 0.9010 0.8990 0.8990
4.555010 0.8990 0.8980 0.8980 0.8950 0.8950
4.580000 0.8920 0.8900 0.8820 0.8800 0.8720
4.605010 0.8670 0.8590 0.8500 0.8430 0.8400
4.630000 0.8300 0.8190 0.8000 0.7880 0.7690
4.655010 0.7500 0.7300 0.7010 0.6600 0.6390
4.680000 0.5920 0.5610 0.5200 0.4790 0.4590
4.705010 0.4390 0.4010 0.3320 0.3000 0.2700
4.730000 0.2490 0.2300 0.2210 0.2210 0.2590
4.755010 0.2690 0.3000 0.3400 0.3880 0.4190
4.780000 0.5610 0.6100 0.6500 0.7090 0.7440
4.805010 0.7710 0.7990 0.8100 0.8290 0.8450
4.830000 0.8490 0.8590 0.8680 0.8720 0.8730
4.855010 0.8780 0.8820 0.8900 0.8980 0.8990
4.880000 0.9030 0.9040 0.9040 0.9040 0.9060
4.905010 0.9060 0.9060 0.9060 0.9060 0.9060
4.930000 0.9080 0.9080 0.9090 0.9090 0.9110
4.955010 0.9110 0.9110 0.9140 0.9140 0.9110
4.980000 0.9080 0.9060 0.9040 0.9040 0.9060
5.005010 0.9070 0.9090 0.9110 0.9120 0.9110
5.030000 0.9110 0.9110 0.9110 0.9090 0.9090
5.055010 0.9090 0.9110 0.9180 0.9180 0.9110
5.080000 0.9110 0.9090 0.9090 0.9090 0.9090
5.105010 0.9090 0.9090 0.9110 0.9110 0.9110
5.130000 0.9140 0.9110 0.9110 0.9110 0.9120
5.155010 0.9120 0.9120 0.9140 0.9110 0.9090
5.180000 0.9090 0.9090 0.9090 0.9080 0.9080
5.205010 0.9080 0.9090 0.9090 0.9090 0.9090
5.230000 0.9090 0.9110 0.9110 0.9110 0.9110
5.255010 0.9110 0.9110 0.9090 0.9090 0.9090
5.280000 0.9090 0.9110 0.9090 0.9090 0.9080
5.305010 0.9070 0.9080 0.9110 0.9120 0.9160
5.330000 0.9180 0.9180 0.9120 0.9110 0.9090
5.355010 0.9090 0.9090 0.9090 0.9090 0.9080
5.380000 0.9080 0.9080 0.9070 0.9070 0.9080
5.405010 0.9110 0.9110 0.9090 0.9090 0.9070
5.430000 0.9060 0.9030 0.9030 0.9040 0.9060
5.455010 0.9080 0.9090 0.9090 0.9090 0.9090
5.480000 0.9080 0.9080 0.9080 0.9080 0.9080
5.505010 0.9080 0.9080 0.9080 0.9030 0.9020
5.530000 0.9020 0.9010 0.9010 0.9020 0.9040
5.555010 0.9070 0.9080 0.9080 0.9080 0.9080
5.580000 0.9080 0.9080 0.9080 0.9070 0.9030
5.605010 0.9020 0.9010 0.9020 0.9030 0.9030
5.630000 0.9060 0.9080 0.9080 0.9040 0.9020
5.655010 0.9020 0.9010 0.9010 0.9010 0.9010
5.680000 0.8990 0.8990 0.8980 0.8990 0.8990
5.705010 0.9020 0.9020 0.9020 0.9020 0.9030
5.730000 0.9030 0.9030 0.9030 0.9030 0.9070
5.755010 0.9070 0.9010 0.9010 0.8990 0.8970
5.780000 0.8950 0.8930 0.8930 0.8930 0.8930
5.805010 0.8970 0.8970 0.8930 0.8930 0.8920
5.830000 0.8880 0.8830 0.8820 0.8820 0.8800
5.855010 0.8790 0.8790 0.8800 0.8820 0.8840
5.880000 0.8840 0.8830 0.8820 0.8820 0.8820
5.905010 0.8800 0.8800 0.8820 0.8830 0.8850
5.930000 0.8880 0.8890 0.8890 0.8890 0.8880
5.955010 0.8830 0.8880 0.8880 0.8890 0.8900
5.980000 0.8900 0.8890 0.8890 0.8890 0.8880
6.005010 0.8850 0.8840 0.8830 0.8800 0.8820
6.030000 0.8830 0.8880 0.8900 0.8920 0.8920
6.055010 0.8920 0.8920 0.8900 0.8890 0.8880
6.080000 0.8830 0.8830 0.8870 0.8880 0.8890
6.105010 0.8900 0.8890 0.8870 0.8830 0.8820
6.130000 0.8830 0.8850 0.8880 0.8900 0.8920
6.155010 0.8920 0.8920 0.8900 0.8890 0.8890
6.180000 0.8890 0.8890 0.8920 0.8920 0.8930
6.205010 0.8940 0.8940 0.8930 0.8930 0.8920
6.230000 0.8900 0.8900 0.8900 0.8900 0.8920
6.255010 0.8920 0.8920 0.8930 0.8930 0.8930
6.280000 0.8920 0.8920 0.8880 0.8880 0.8850
6.305010 0.8830 0.8830 0.8880 0.8890 0.8900
6.330000 0.8900 0.8900 0.8900 0.8890 0.8820
6.355010 0.8800 0.8800 0.8780 0.8730 0.8720
6.380000 0.8720 0.8700 0.8700 0.8700 0.8700
6.405010 0.8700 0.8700 0.8700 0.8700 0.8700
6.430000 0.8690 0.8690 0.8670 0.8630 0.8620
6.455010 0.8600 0.8580 0.8580 0.8570 0.8570
6.480000 0.8550 0.8550 0.8540 0.8530 0.8530
6.505010 0.8520 0.8520 0.8520 0.8500 0.8500
6.530000 0.8490 0.8490 0.8490 0.8490 0.8480
6.555010 0.8450 0.8440 0.8440 0.8430 0.8430
6.580000 0.8430 0.8430 0.8430 0.8430 0.8430
6.605010 0.8440 0.8450 0.8470 0.8470 0.8470
6.630000 0.8440 0.8440 0.8430 0.8420 0.8420
6.655010 0.8400 0.8400 0.8380 0.8320 0.8320
6.680000 0.8230 0.8200 0.8180 0.8130 0.8120
6.705010 0.8100 0.8020 0.8000 0.7930 0.7810
6.730000 0.7690 0.7490 0.7200 0.6820 0.6410
6.755010 0.5920 0.5620 0.5420 0.5210 0.5100
6.780000 0.4890 0.4810 0.4690 0.4560 0.4420
6.805010 0.4320 0.4320 0.4390 0.4490 0.4820
6.830000 0.5010 0.5300 0.5480 0.5580 0.5680
6.855010 0.5730 0.5820 0.5980 0.6090 0.6190
6.880000 0.6290 0.6390 0.6500 0.6590 0.6620
6.905010 0.6700 0.6810 0.7010 0.7100 0.7310
6.930000 0.7500 0.7630 0.7730 0.7790 0.7810
6.955010 0.7810 0.7830 0.7830 0.7800 0.7780
6.980000 0.7740 0.7700 0.7680 0.7550 0.7400
7.005010 0.7240 0.7110 0.6970 0.6790 0.6510
7.030000 0.6410 0.6240 0.6190 0.6090 0.5980
7.055010 0.5920 0.5880 0.5850 0.5850 0.5970
7.080000 0.6190 0.6320 0.6540 0.6790 0.7000
7.105010 0.7110 0.7200 0.7330 0.7490 0.7590
7.130000 0.7700 0.7790 0.7810 0.7850 0.7860
7.155010 0.7860 0.7860 0.7850 0.7840 0.7800
7.180000 0.7640 0.7590 0.7490 0.7360 0.7230
7.205010 0.7090 0.6790 0.6390 0.5910 0.5720
7.230000 0.5600 0.5600 0.6110 0.6240 0.6520
7.255010 0.7010 0.7290 0.7630 0.7730 0.7840
7.280000 0.7900 0.7990 0.8080 0.8100 0.8130
7.305010 0.8140 0.8140 0.8130 0.8130 0.8130
7.330000 0.8120 0.8090 0.8080 0.8040 0.7990
7.355010 0.7940 0.7930 0.7910 0.7910 0.7900
7.380000 0.7900 0.7830 0.7800 0.7650 0.7440
7.405010 0.7300 0.7260 0.7210 0.6950 0.6950
7.430000 0.7110 0.7200 0.7400 0.7540 0.7730
7.455010 0.7890 0.8000 0.8090 0.8180 0.8240
7.480000 0.8300 0.8320 0.8330 0.8380 0.8400
7.505010 0.8420 0.8430 0.8440 0.8470 0.8480
7.530000 0.8480 0.8480 0.8480 0.8480 0.8470
7.555010 0.8470 0.8470 0.8450 0.8450 0.8440
7.580000 0.8440 0.8430 0.8400 0.8390 0.8380
7.605010 0.8330 0.8290 0.8280 0.8190 0.8170
7.630000 0.8100 0.8000 0.7890 0.7790 0.7610
7.655010 0.7490 0.7290 0.7110 0.6890 0.6710
7.680000 0.6610 0.6590 0.6590 0.6710 0.6790
7.705010 0.6890 0.7030 0.7300 0.7490 0.7590
7.730000 0.7710 0.7890 0.7990 0.8080 0.8100
7.755010 0.8200 0.8230 0.8270 0.8270 0.8250
7.780000 0.8240 0.8230 0.8220 0.8200 0.8100
7.805010 0.7990 0.7880 0.7850 0.7810 0.7800
7.830000 0.7760 0.7750 0.7750 0.7760 0.7780
7.855010 0.7810 0.7860 0.7900 0.7990 0.8020
7.880000 0.8090 0.8180 0.8220 0.8280 0.8290
7.905010 0.8320 0.8370 0.8380 0.8440 0.8500
7.930000 0.8530 0.8540 0.8540 0.8550 0.8550
7.955010 0.8540 0.8540 0.8540 0.8530 0.8530
7.980000 0.8520 0.8520 0.8540 0.8550 0.8550
8.005010 0.8550 0.8570 0.8570 0.8570 0.8550
8.030000 0.8550 0.8550 0.8540 0.8540 0.8530
8.055010 0.8530 0.8530 0.8530 0.8530 0.8530
8.080000 0.8530 0.8530 0.8520 0.8500 0.8490
8.105010 0.8470 0.8470 0.8450 0.8470 0.8480
8.130000 0.8490 0.8490 0.8480 0.8470 0.8450
8.155010 0.8430 0.8400 0.8340 0.8330 0.8330
8.180000 0.8330 0.8290 0.8220 0.8220 0.8140
8.205010 0.8090 0.8020 0.7960 0.7890 0.7810
8.230000 0.7740 0.7640 0.7540 0.7410 0.7310
8.255010 0.7240 0.7140 0.7030 0.6900 0.6700
8.280000 0.6600 0.6500 0.6320 0.6200 0.6010
8.305010 0.5830 0.5720 0.5700 0.5610 0.5510
8.330000 0.5420 0.5350 0.5310 0.5230 0.5220
8.355010 0.5200 0.5180 0.5170 0.5170 0.5180
8.380000 0.5230 0.5310 0.5400 0.5500 0.5600
8.405010 0.5730 0.5830 0.5960 0.6110 0.6190
8.430000 0.6220 0.6240 0.6240 0.6220 0.6210
8.455010 0.6190 0.6170 0.6150 0.6110 0.6100
8.480000 0.6110 0.6200 0.6270 0.6300 0.6470
8.505010 0.6540 0.6560 0.6700 0.6820 0.6950
8.530000 0.7130 0.7310 0.7500 0.7590 0.7690
8.555010 0.7710 0.7800 0.7890 0.7910 0.8000
8.580000 0.8030 0.8100 0.8130 0.8180 0.8190
8.605010 0.8200 0.8230 0.8250 0.8280 0.8300
8.630000 0.8300 0.8320 0.8320 0.8320 0.8320
8.655010 0.8320 0.8320 0.8320 0.8320 0.8320
8.680000 0.8320 0.8320 0.8320 0.8320 0.8320
8.705010 0.8330 0.8330 0.8330 0.8340 0.8370
8.730000 0.8390 0.8390 0.8380 0.8390 0.8390
8.755010 0.8390 0.8390 0.8400 0.8400 0.8400
8.780000 0.8400 0.8400 0.8400 0.8400 0.8400
8.805010 0.8400 0.8400 0.8390 0.8390 0.8390
8.830000 0.8400 0.8400 0.8400 0.8400 0.8390
8.855010 0.8390 0.8330 0.8330 0.8390 0.8390
8.880000 0.8400 0.8420 0.8420 0.8420 0.8420
8.905010 0.8420 0.8400 0.8370 0.8340 0.8330
8.930000 0.8330 0.8330 0.8320 0.8320 0.8320
8.955010 0.8300 0.8300 0.8300 0.8300 0.8290
8.980000 0.8290 0.8280 0.8270 0.8230 0.8230
9.005010 0.8230 0.8200 0.8190 0.8150 0.8130
9.030000 0.8130 0.8120 0.8090 0.8090 0.8020
9.055010 0.8000 0.7910 0.7900 0.7890 0.7880
9.080000 0.7840 0.7830 0.7810 0.7790 0.7730
9.105010 0.7640 0.7590 0.7500 0.7400 0.7340
9.130000 0.7290 0.7200 0.7130 0.7090 0.6940
9.155010 0.6800 0.6610 0.6500 0.6300 0.6020
9.180000 0.5810 0.5700 0.5420 0.5230 0.4880
9.205010 0.4690 0.4610 0.4540 0.4480 0.4360
9.230000 0.4290 0.4220 0.4210 0.4230 0.4320
9.255010 0.4390 0.4440 0.4480 0.4640 0.4730
9.280000 0.4820 0.5010 0.5100 0.5230 0.5400
9.305010 0.5530 0.5700 0.5810 0.6010 0.6140
9.330000 0.6200 0.6310 0.6510 0.6600 0.6690
9.355010 0.6710 0.6790 0.6810 0.6820 0.6890
9.380000 0.6900 0.6920 0.6940 0.6950 0.6950
9.405010 0.6960 0.6970 0.6970 0.7000 0.7010
9.430000 0.7030 0.7060 0.7080 0.7080 0.7090
9.455010 0.7090 0.7090 0.7060 0.7030 0.7000
9.480000 0.6990 0.6990 0.6970 0.6960 0.6960
9.505010 0.6970 0.6970 0.6970 0.6990 0.7000
9.530000 0.7030 0.7090 0.7140 0.7180 0.7190
9.555010 0.7200 0.7200 0.7200 0.7180 0.7160
9.580000 0.7150 0.7130 0.7110 0.7110 0.7100
9.605010 0.7080 0.7010 0.7000 0.6860 0.6810
9.630000 0.6720 0.6640 0.6590 0.6520 0.6420
9.655010 0.6320 0.6300 0.6200 0.6110 0.6010
9.680000 0.5920 0.5910 0.5870 0.5870 0.5860
9.705010 0.5860 0.5870 0.5880 0.5900 0.5910
9.730000 0.5920 0.5960 0.5980 0.6040 0.6110
9.755010 0.6170 0.6240 0.6310 0.6320 0.6400
9.780000 0.6500 0.6590 0.6660 0.6710 0.6790
9.805010 0.6810 0.6840 0.6900 0.6960 0.7030
9.830000 0.7040 0.7090 0.7110 0.7140 0.7200
9.855010 0.7230 0.7240 0.7290 0.7310 0.7330
9.880000 0.7330 0.7350 0.7350 0.7340 0.7300
9.905010 0.7290 0.7240 0.7200 0.7110 0.7040
9.930000 0.7000 0.6940 0.6800 0.6720 0.6610
9.955010 0.6590 0.6500 0.6410 0.6320 0.6240
9.980000 0.6220 0.6220 0.6250 0.6300 0.6320
10.005010 0.6370 0.6460 0.6550 0.6600 0.6650
10.030000 0.6700 0.6760 0.6810 0.6900 0.7000
10.055010 0.7030 0.7100 0.7190 0.7230 0.7290
10.080000 0.7350 0.7410 0.7500 0.7510 0.7590
10.105010 0.7640 0.7690 0.7710 0.7730 0.7800
10.130000 0.7850 0.7890 0.7900 0.7990 0.8020
10.155010 0.8020 0.8020 0.8030 0.8030 0.8030
10.180000 0.8030 0.8030 0.8030 0.8030 0.8030
10.205010 0.8030 0.8030 0.8020 0.8020 0.8020
10.230000 0.8020 0.8000 0.7990 0.7900 0.7890
10.255010 0.7850 0.7840 0.7830 0.7830 0.7790
10.280000 0.7710 0.7630 0.7630 0.7590 0.7500
10.305010 0.7400 0.7300 0.7210 0.7130 0.7090
10.330000 0.7000 0.6800 0.6600 0.6400 0.6200
10.355010 0.6090 0.5910 0.5810 0.5760 0.5720
10.380000 0.5700 0.5680 0.5670 0.5680 0.5710
10.405010 0.5880 0.6110 0.6290 0.6420 0.6610
10.430000 0.6700 0.6800 0.6910 0.7010 0.7130
10.455010 0.7290 0.7390 0.7490 0.7510 0.7600
10.480000 0.7630 0.7640 0.7690 0.7730 0.7810
10.505010 0.7890 0.7910 0.7930 0.7940 0.7990
10.530000 0.8000 0.8020 0.8040 0.8090 0.8120
10.555010 0.8130 0.8130 0.8130 0.8140 0.8140
10.580000 0.8130 0.8130 0.8130 0.8130 0.8130
10.605010 0.8130 0.8130 0.8130 0.8130 0.8130
10.630000 0.8130 0.8130 0.8130 0.8130 0.8130
10.655010 0.8130 0.8130 0.8130 0.8130 0.8130
10.680000 0.8130 0.8120 0.8090 0.8090 0.8040
10.705010 0.8030 0.8020 0.8020 0.7990 0.7980
10.730000 0.7980 0.7950 0.7950 0.7940 0.7940
10.755010 0.7940 0.7930 0.7910 0.7900 0.7880
10.780000 0.7840 0.7830 0.7830 0.7810 0.7810
10.805010 0.7810 0.7800 0.7790 0.7790 0.7740
10.830000 0.7730 0.7730 0.7710 0.7690 0.7630
10.855010 0.7610 0.7590 0.7530 0.7510 0.7500
10.880000 0.7490 0.7430 0.7400 0.7340 0.7310
10.905010 0.7290 0.7230 0.7210 0.7140 0.7130
10.930000 0.7110 0.7090 0.7030 0.7000 0.7000
10.955010 0.6900 0.6800 0.6720 0.6700 0.6640
10.980000 0.6520 0.6400 0.6320 0.6310 0.6150
11.005010 0.6020 0.5900 0.5800 0.5620 0.5460
11.030000 0.5310 0.5210 0.5060 0.4840 0.4720
11.055010 0.4610 0.4510 0.4410 0.4120 0.3970
11.080000 0.3720 0.3500 0.3270 0.3030 0.2900
11.105010 0.2690 0.2400 0.2210 0.2090 0.1900
11.130000 0.1760 0.1600 0.1460 0.1390 0.1290
11.155010 0.1200 0.1150 0.1110 0.1070 0.1060
11.180000 0.1050 0.1050 0.1060 0.1110 0.1160
11.205010 0.1190 0.1320 0.1420 0.1440 0.1460
11.230000 0.1500 0.1510 0.1600 0.1710 0.1800
11.255010 0.1900 0.2010 0.2100 0.2200 0.2300
11.280000 0.2500 0.2650 0.2790 0.2890 0.2910
11.305010 0.3090 0.3190 0.3220 0.3390 0.3500
11.330000 0.3600 0.3690 0.3800 0.3890 0.3920
11.355010 0.4010 0.4090 0.4180 0.4190 0.4220
11.380000 0.4230 0.4270 0.4310 0.4390 0.4410
11.405010 0.4440 0.4490 0.4530 0.4560 0.4580
11.430000 0.4590 0.4610 0.4630 0.4720 0.4790
11.455010 0.4830 0.4880 0.4890 0.4940 0.4960
11.480000 0.4970 0.4980 0.5020 0.5030 0.5080
11.505010 0.5110 0.5110 0.5120 0.5130 0.5150
11.530000 0.5160 0.5160 0.5170 0.5170 0.5180
11.555010 0.5220 0.5250 0.5280 0.5310 0.5330
11.580000 0.5400 0.5410 0.5480 0.5510 0.5580
11.605010 0.5660 0.5700 0.5730 0.5800 0.5850
11.630000 0.5870 0.5880 0.5910 0.5930 0.5950
11.655010 0.5980 0.6000 0.6010 0.6020 0.6090
11.680000 0.6120 0.6190 0.6190 0.6210 0.6220
11.705010 0.6290 0.6310 0.6320 0.6320 0.6340
11.730000 0.6350 0.6360 0.6370 0.6420 0.6470
11.755010 0.6490 0.6500 0.6500 0.6540 0.6550
11.780000 0.6560 0.6560 0.6590 0.6590 0.6590
11.805010 0.6590 0.6590 0.6590 0.6570 0.6570
11.830000 0.6570 0.6560 0.6550 0.6540 0.6520
11.855010 0.6510 0.6500 0.6490 0.6470 0.6450
11.880000 0.6440 0.6420 0.6410 0.6350 0.6290
11.905010 0.6220 0.6210 0.6190 0.6110 0.6050
11.930000 0.6020 0.6000 0.5910 0.5810 0.5780
11.955010 0.5700 0.5610 0.5560 0.5500 0.5480
11.980000 0.5410 0.5320 0.5260 0.5210 0.5070
12.005010 0.4940 0.4790 0.4760 0.4670 0.4620
12.030000 0.4540 0.4470 0.4430 0.4390 0.4320
12.055010 0.4180 0.4020 0.3920 0.3730 0.3690
12.080000 0.3590 0.3500 0.3490 0.3420 0.3390
12.105010 0.3300 0.3200 0.3120 0.3050 0.2960
12.130000 0.2900 0.2800 0.2710 0.2690 0.2630
12.155010 0.2560 0.2500 0.2490 0.2460 0.2450
12.180000 0.2430 0.2400 0.2380 0.2340 0.2330
12.205010 0.2290 0.2280 0.2260 0.2240 0.2230
12.230000 0.2210 0.2190 0.2180 0.2160 0.2140
12.255010 0.2140 0.2130 0.2110 0.2100 0.2100
12.280000 0.2090 0.2080 0.2060 0.2060 0.2050
12.305010 0.2040 0.2040 0.2040 0.2040 0.2040
12.330000 0.2030 0.2030 0.2030 0.2030 0.2040
12.355010 0.2040 0.2050 0.2050 0.2060 0.2090
12.380000 0.2100 0.2110 0.2140 0.2180 0.2190
12.405010 0.2210 0.2230 0.2250 0.2280 0.2340
12.430000 0.2390 0.2440 0.2450 0.2490 0.2540
12.455010 0.2650 0.2730 0.2810 0.2900 0.3000
12.480000 0.3030 0.3090 0.3100 0.3140 0.3190
12.505010 0.3200 0.3220 0.3280 0.3330 0.3400
12.530000 0.3550 0.3690 0.3700 0.3790 0.3890
12.555010 0.3990 0.4010 0.4110 0.4190 0.4230
12.580000 0.4360 0.4390 0.4460 0.4560 0.4660
12.605010 0.4720 0.4860 0.4960 0.5030 0.5120
12.630000 0.5160 0.5160 0.5220 0.5300 0.5360
12.655010 0.5410 0.5510 0.5560 0.5610 0.5680
12.680000 0.5680 0.5760 0.5800 0.5860 0.5880
12.705010 0.5910 0.5920 0.5930 0.5980 0.6000
12.730000 0.6010 0.6020 0.6020 0.6040 0.6050
12.755010 0.6060 0.6070 0.6090 0.6090 0.6100
12.780000 0.6110 0.6120 0.6160 0.6190 0.6190
12.805010 0.6220 0.6220 0.6240 0.6250 0.6250
12.830000 0.6240 0.6240 0.6240 0.6220 0.6210
12.855010 0.6210 0.6220 0.6240 0.6240 0.6240
12.880000 0.6250 0.6250 0.6240 0.6240 0.6240
12.905010 0.6240 0.6220 0.6220 0.6220 0.6220
12.930000 0.6210 0.6210 0.6200 0.6200 0.6190
12.955010 0.6190 0.6190 0.6190 0.6200 0.6210
12.980000 0.6220 0.6240 0.6250 0.6260 0.6270
13.005010 0.6270 0.6290 0.6290 0.6290 0.6290
13.030000 0.6290 0.6290 0.6270 0.6270 0.6260
13.055010 0.6250 0.6240 0.6210 0.6210 0.6200
13.080000 0.6190 0.6190 0.6190 0.6170 0.6170
13.105010 0.6160 0.6150 0.6140 0.6090 0.6090
13.130000 0.6020 0.6010 0.6000 0.5960 0.5900
13.155010 0.5860 0.5810 0.5800 0.5780 0.5780
13.180000 0.5710 0.5700 0.5680 0.5660 0.5620
13.205010 0.5560 0.5530 0.5520 0.5510 0.5500
13.230000 0.5480 0.5470 0.5450 0.5430 0.5420
13.255010 0.5410 0.5410 0.5410 0.5400 0.5400
13.280000 0.5380 0.5380 0.5380 0.5380 0.5380
13.305010 0.5380 0.5370 0.5370 0.5370 0.5370
13.330000 0.5370 0.5370 0.5370 0.5370 0.5370
13.355010 0.5370 0.5380 0.5380 0.5380 0.5380
13.380000 0.5370 0.5370 0.5360 0.5330 0.5330
13.405010 0.5320 0.5320 0.5310 0.5310 0.5310
13.430000 0.5300 0.5280 0.5270 0.5260 0.5220
13.455010 0.5180 0.5180 0.5130 0.5120 0.5110
13.480000 0.5080 0.5080 0.5030 0.5020 0.5020
13.505010 0.5010 0.5000 0.5000 0.5000 0.4970
13.530000 0.4970 0.4960 0.4960 0.4930 0.4920
13.555010 0.4910 0.4890 0.4880 0.4840 0.4820
13.580000 0.4820 0.4810 0.4810 0.4790 0.4780
13.605010 0.4780 0.4770 0.4770 0.4760 0.4760
13.630000 0.4760 0.4740 0.4740 0.4730 0.4730
13.655010 0.4730 0.4730 0.4720 0.4710 0.4710
13.680000 0.4710 0.4690 0.4690 0.4690 0.4690
13.705010 0.4680 0.4670 0.4670 0.4670 0.4670
13.730000 0.4670 0.4670 0.4670 0.4670 0.4660
13.755010 0.4660 0.4640 0.4640 0.4640 0.4640
13.780000 0.4640 0.4640 0.4630 0.4630 0.4630
13.805010 0.4630 0.4620 0.4620 0.4620 0.4620
13.830000 0.4620 0.4620 0.4620 0.4620 0.4620
13.855010 0.4620 0.4620 0.4620 0.4620 0.4620
13.880000 0.4620 0.4620 0.4630 0.4630 0.4630
13.905010 0.4640 0.4640 0.4640 0.4660 0.4670
13.930000 0.4670 0.4690 0.4710 0.4720 0.4720
13.955010 0.4720 0.4730 0.4730 0.4730 0.4730
13.980000 0.4730 0.4740 0.4760 0.4760 0.4770
14.005010 0.4770 0.4770 0.4780 0.4780 0.4780
14.030000 0.4790 0.4790 0.4790 0.4810 0.4810
14.055010 0.4820 0.4820 0.4840 0.4890 0.4910
14.080000 0.4920 0.4960 0.4980 0.4980 0.5010
14.105010 0.5020 0.5030 0.5050 0.5100 0.5100
14.130000 0.5120 0.5130 0.5150 0.5160 0.5180
14.155010 0.5200 0.5210 0.5250 0.5280 0.5300
14.180000 0.5310 0.5320 0.5370 0.5400 0.5420
14.205010 0.5500 0.5520 0.5530 0.5550 0.5560
14.230000 0.5580 0.5600 0.5630 0.5650 0.5680
14.255010 0.5720 0.5760 0.5770 0.5780 0.5780
14.280000 0.5800 0.5810 0.5820 0.5820 0.5850
14.305010 0.5860 0.5870 0.5910 0.5950 0.5970
14.330000 0.5980 0.5980 0.6000 0.6010 0.6010
14.355010 0.6010 0.6010 0.6010 0.6020 0.6020
14.380000 0.6020 0.6020 0.6020 0.6020 0.6020
14.405010 0.6040 0.6040 0.6050 0.6050 0.6060
14.430000 0.6060 0.6070 0.6070 0.6090 0.6090
14.455010 0.6100 0.6100 0.6100 0.6100 0.6090
14.480000 0.6090 0.6090 0.6070 0.6070 0.6060
14.505010 0.6040 0.6040 0.6020 0.6020 0.6010
14.530000 0.6010 0.6010 0.6010 0.6010 0.6020
14.555010 0.6020 0.6040 0.6050 0.6050 0.6060
14.580000 0.6060 0.6070 0.6070 0.6090 0.6090
14.605010 0.6090 0.6090 0.6070 0.6070 0.6070
14.630000 0.6070 0.6070 0.6060 0.6060 0.6050
14.655010 0.6050 0.6010 0.6010 0.6010 0.6000
14.680000 0.6000 0.5980 0.5970 0.5960 0.5960
14.705010 0.5950 0.5950 0.5930 0.5930 0.5930
14.730000 0.5930 0.5930 0.5930 0.5950 0.5950
14.755010 0.5950 0.5930 0.5930 0.5930 0.5930
14.780000 0.5930 0.5920 0.5920 0.5920 0.5910
14.805010 0.5880 0.5880 0.5880 0.5860 0.5860
14.830000 0.5850 0.5850 0.5830 0.5830 0.5830
14.855010 0.5820 0.5800 0.5780 0.5770 0.5760
14.880000 0.5750 0.5730 0.5710 0.5700 0.5680
14.905010 0.5660 0.5650 0.5600 0.5580 0.5560
14.930000 0.5530 0.5520 0.5510 0.5500 0.5450
14.955010 0.5420 0.5410 0.5380 0.5370 0.5360
14.980000 0.5360 0.5370 0.5370 0.5370 0.5380
15.005010 0.5380 0.5400 0.5400 0.5400
##END=
