##TITLE=TRI-N-PROPYL SILANE
##JCAMP-DX=4.24
##DATA TYPE=INFRARED SPECTRUM
##CLASS=COBLENTZ
##ORIGIN=MATERIALS LAB, WPAFB, OHIO
##OWNER=COBLENTZ SOCIETY
Collection (C) 2018 copyright by the U.S. Secretary of Commerce
on behalf of the United States of America. All rights reserved.
##DATE=1960
##NAMES=tripropylsilane
##CAS REGISTRY NO=998-29-8
##MOLFORM=C9 H22 Si
##SOURCE REFERENCE=COBLENTZ NO. 900
##$NIST SOURCE=COBLENTZ
##$NIST IMAGE=cob900
##SPECTROMETER/DATA SYSTEM=Not specified, most likely a prism, grating, or hybrid spectrometer.
##STATE=LIQUID
##PATH LENGTH=0.001 CM
##SAMPLING PROCEDURE=TRANSMISSION
##RESOLUTION=4
##DATA PROCESSING=DIGITIZED BY NIST FROM HARD COPY
##XUNITS=MICROMETERS
##YUNITS=TRANSMITTANCE
##XFACTOR=1.000000
##YFACTOR=1
##DELTAX=000.007263
##FIRSTX=1.978
##LASTX=15.9656
##FIRSTY=0.938
##MAXX=15.9656
##MINX=1.978
##MAXY=1.007
##MINY=0.03
##NPOINTS=1927
##XYDATA=(X++(Y..Y))
1.978000 0.9380 0.9380 0.9400 0.9380 0.9380
2.014332 0.9380 0.9380 0.9400 0.9380 0.9380
2.051000 0.9370 0.9370 0.9380 0.9380 0.9380
2.087332 0.9380 0.9400 0.9400 0.9400 0.9400
2.123000 0.9400 0.9400 0.9380 0.9380 0.9400
2.159332 0.9400 0.9400 0.9400 0.9420 0.9400
2.196000 0.9420 0.9460 0.9490 0.9490 0.9510
2.232332 0.9510 0.9530 0.9530 0.9510 0.9510
2.269000 0.9490 0.9490 0.9460 0.9400 0.9370
2.305332 0.9350 0.9310 0.9220 0.9150 0.9100
2.341000 0.9020 0.9010 0.9010 0.9010 0.9010
2.377332 0.9010 0.9020 0.9040 0.9080 0.9100
2.414000 0.9100 0.9130 0.9130 0.9130 0.9130
2.450332 0.9130 0.9150 0.9150 0.9130 0.9130
2.487000 0.9150 0.9200 0.9260 0.9330 0.9380
2.523332 0.9400 0.9400 0.9420 0.9420 0.9420
2.559000 0.9420 0.9420 0.9420 0.9420 0.9400
2.595332 0.9400 0.9420 0.9460 0.9510 0.9530
2.632000 0.9530 0.9550 0.9560 0.9550 0.9560
2.668332 0.9560 0.9580 0.9600 0.9600 0.9620
2.704000 0.9620 0.9640 0.9650 0.9650 0.9650
2.740332 0.9640 0.9640 0.9640 0.9640 0.9640
2.777000 0.9640 0.9640 0.9650 0.9670 0.9670
2.813332 0.9640 0.9640 0.9620 0.9620 0.9620
2.850000 0.9600 0.9620 0.9600 0.9600 0.9580
2.886332 0.9580 0.9580 0.9580 0.9580 0.9560
2.922000 0.9580 0.9580 0.9580 0.9580 0.9600
2.958332 0.9600 0.9620 0.9620 0.9620 0.9640
2.995000 0.9620 0.9620 0.9620 0.9600 0.9600
3.031332 0.9600 0.9580 0.9560 0.9560 0.9550
3.068000 0.9550 0.9550 0.9550 0.9550 0.9550
3.104332 0.9530 0.9550 0.9530 0.9530 0.9530
3.140000 0.9530 0.9530 0.9490 0.9460 0.9440
3.176332 0.9380 0.9370 0.9350 0.9350 0.9350
3.213000 0.9350 0.9350 0.9350 0.9330 0.9290
3.249332 0.9290 0.9290 0.9280 0.9280 0.9260
3.285000 0.9260 0.9220 0.9150 0.9060 0.8950
3.321332 0.8840 0.8700 0.8470 0.7930 0.7620
3.358000 0.7300 0.6940 0.6040 0.5520 0.4220
3.394332 0.3450 0.1870 0.0910 0.0680 0.0590
3.431000 0.0530 0.0520 0.0520 0.0500 0.0500
3.467332 0.0500 0.0500 0.0500 0.0480 0.0480
3.503000 0.0480 0.0480 0.0480 0.0480 0.0520
3.539332 0.1520 0.2510 0.3880 0.5230 0.6580
3.576000 0.6580 0.6520 0.6470 0.6470 0.6510
3.612332 0.6720 0.6920 0.7780 0.8210 0.8630
3.649000 0.8840 0.8860 0.8860 0.8860 0.8880
3.685332 0.8930 0.9060 0.9260 0.9380 0.9440
3.721000 0.9490 0.9510 0.9490 0.9470 0.9380
3.757332 0.9260 0.9220 0.9200 0.9190 0.9200
3.794000 0.9290 0.9370 0.9400 0.9380 0.9380
3.830332 0.9380 0.9380 0.9370 0.9350 0.9350
3.866000 0.9420 0.9550 0.9640 0.9670 0.9690
3.902332 0.9710 0.9760 0.9830 0.9890 0.9910
3.939000 0.9890 0.9910 0.9910 0.9910 0.9920
3.975332 0.9920 0.9920 0.9910 0.9910 0.9910
4.012000 0.9910 0.9890 0.9910 0.9910 0.9910
4.048332 0.9910 0.9910 0.9910 0.9910 0.9910
4.084000 0.9920 0.9920 0.9920 0.9920 0.9920
4.120332 0.9920 0.9910 0.9910 0.9910 0.9910
4.157000 0.9910 0.9910 0.9910 0.9920 0.9940
4.193332 0.9920 0.9920 0.9920 0.9920 0.9920
4.230000 0.9920 0.9920 0.9920 0.9940 0.9940
4.266332 0.9940 0.9940 0.9960 0.9960 0.9960
4.302000 0.9960 0.9980 0.9980 1.0000 1.0000
4.338332 1.0010 1.0030 1.0030 1.0030 1.0030
4.375000 1.0050 1.0050 1.0050 1.0050 1.0050
4.411332 1.0050 1.0050 1.0030 1.0010 1.0010
4.447000 1.0000 0.9980 0.9940 0.9920 0.9920
4.483332 0.9920 0.9920 0.9940 0.9920 0.9910
4.520000 0.9910 0.9890 0.9850 0.9780 0.9760
4.556332 0.9760 0.9740 0.9740 0.9710 0.9650
4.593000 0.9560 0.9490 0.9400 0.9370 0.9290
4.629332 0.9150 0.9020 0.8880 0.8740 0.8570
4.665000 0.8410 0.7930 0.7600 0.7280 0.6880
4.701332 0.6000 0.5530 0.5070 0.4170 0.3750
4.738000 0.2190 0.1810 0.0980 0.0680 0.0530
4.774332 0.0460 0.0440 0.0460 0.0480 0.1520
4.811000 0.2550 0.3300 0.4060 0.4460 0.5520
4.847332 0.6580 0.7640 0.8000 0.8290 0.8390
4.883000 0.8500 0.8570 0.8680 0.8840 0.9010
4.919332 0.9420 0.9470 0.9490 0.9510 0.9530
4.956000 0.9530 0.9600 0.9690 0.9710 0.9800
4.992332 0.9850 0.9890 0.9910 0.9910 0.9910
5.028000 0.9920 0.9920 0.9920 0.9920 0.9920
5.064332 0.9920 0.9920 0.9920 0.9920 0.9920
5.101000 0.9920 0.9920 0.9920 0.9920 0.9920
5.137332 0.9920 0.9920 0.9940 0.9940 0.9940
5.174000 0.9940 0.9940 0.9940 0.9940 0.9940
5.210332 0.9960 0.9960 0.9960 0.9960 0.9960
5.246000 0.9960 0.9960 0.9960 0.9960 0.9960
5.282332 0.9960 0.9940 0.9940 0.9940 0.9940
5.319000 0.9940 0.9940 0.9940 0.9940 0.9940
5.355332 0.9940 0.9940 0.9980 0.9980 0.9980
5.392000 0.9980 0.9980 0.9980 1.0000 1.0000
5.428332 1.0000 1.0000 1.0000 1.0000 1.0000
5.464000 1.0000 1.0010 1.0010 1.0010 1.0010
5.500332 1.0010 1.0030 1.0030 1.0030 1.0030
5.537000 1.0030 1.0050 1.0050 1.0050 1.0050
5.573332 1.0070 1.0070 1.0070 1.0070 1.0070
5.609000 1.0070 1.0070 1.0070 1.0070 1.0070
5.645332 1.0070 1.0070 1.0070 1.0070 1.0070
5.682000 1.0070 1.0070 1.0070 1.0070 1.0050
5.718332 1.0050 1.0050 1.0030 1.0030 1.0010
5.755000 1.0010 1.0000 1.0000 1.0000 0.9920
5.791332 0.9910 0.9910 0.9890 0.9910 0.9910
5.827000 0.9910 0.9890 0.9890 0.9850 0.9820
5.863332 0.9820 0.9820 0.9820 0.9820 0.9800
5.900000 0.9800 0.9780 0.9760 0.9740 0.9740
5.936332 0.9740 0.9730 0.9730 0.9730 0.9730
5.973000 0.9730 0.9730 0.9730 0.9760 0.9780
6.009332 0.9780 0.9780 0.9780 0.9780 0.9780
6.045000 0.9780 0.9780 0.9780 0.9780 0.9780
6.081332 0.9800 0.9800 0.9800 0.9800 0.9800
6.118000 0.9800 0.9800 0.9800 0.9800 0.9780
6.154332 0.9780 0.9760 0.9760 0.9780 0.9760
6.191000 0.9760 0.9760 0.9760 0.9760 0.9760
6.227332 0.9760 0.9760 0.9780 0.9800 0.9800
6.263000 0.9800 0.9800 0.9800 0.9780 0.9780
6.299332 0.9780 0.9780 0.9780 0.9780 0.9780
6.336000 0.9780 0.9780 0.9780 0.9780 0.9780
6.372332 0.9780 0.9780 0.9780 0.9780 0.9780
6.408000 0.9780 0.9760 0.9760 0.9690 0.9650
6.444332 0.9650 0.9670 0.9690 0.9710 0.9690
6.481000 0.9650 0.9650 0.9640 0.9640 0.9620
6.517332 0.9580 0.9550 0.9530 0.9550 0.9550
6.554000 0.9530 0.9530 0.9510 0.9490 0.9420
6.590332 0.9310 0.9280 0.9280 0.9280 0.9280
6.626000 0.9260 0.9220 0.9130 0.9040 0.9010
6.662332 0.8990 0.8970 0.8900 0.8790 0.8750
6.699000 0.8740 0.8700 0.8610 0.8470 0.8050
6.735332 0.7910 0.7730 0.7510 0.7420 0.7230
6.772000 0.7030 0.6720 0.5620 0.5010 0.4060
6.808332 0.3700 0.2350 0.2030 0.1830 0.1780
6.844000 0.1780 0.1880 0.2010 0.2150 0.2260
6.880332 0.2420 0.2820 0.3770 0.4710 0.4940
6.917000 0.5160 0.5500 0.5840 0.6200 0.6430
6.953332 0.6580 0.6720 0.6870 0.6920 0.6970
6.989000 0.6990 0.6990 0.6990 0.6960 0.6810
7.025332 0.6700 0.6490 0.6310 0.5970 0.5590
7.062000 0.5210 0.4490 0.4200 0.3950 0.3790
7.098332 0.3720 0.3720 0.3770 0.4690 0.5030
7.135000 0.5350 0.5800 0.6090 0.6560 0.6690
7.171332 0.6790 0.6970 0.7120 0.7140 0.7150
7.207000 0.7140 0.7100 0.6900 0.6160 0.5800
7.243332 0.5230 0.4470 0.3990 0.3830 0.3790
7.280000 0.3860 0.4820 0.5750 0.6400 0.7030
7.316332 0.7480 0.7780 0.8020 0.8160 0.8290
7.353000 0.8340 0.8390 0.8450 0.8480 0.8500
7.389332 0.8520 0.8520 0.8500 0.8410 0.8090
7.425000 0.7960 0.7800 0.7570 0.7280 0.6900
7.461332 0.5700 0.5190 0.4010 0.3380 0.2600
7.498000 0.2620 0.3250 0.3880 0.4640 0.5370
7.534332 0.6250 0.6540 0.6830 0.7410 0.7760
7.570000 0.8030 0.8120 0.8300 0.8320 0.8340
7.606332 0.8450 0.8560 0.8660 0.8750 0.8830
7.643000 0.8900 0.8920 0.8930 0.8920 0.8900
7.679332 0.8880 0.8880 0.8880 0.8880 0.8880
7.716000 0.8880 0.8880 0.8880 0.8880 0.8920
7.752332 0.8950 0.9020 0.9060 0.9100 0.9130
7.788000 0.9130 0.9150 0.9150 0.9150 0.9170
7.824332 0.9150 0.9080 0.9020 0.9010 0.8990
7.861000 0.8990 0.8970 0.8930 0.8900 0.8860
7.897332 0.8790 0.8700 0.8680 0.8700 0.8740
7.934000 0.8810 0.8880 0.8950 0.9010 0.9020
7.970332 0.9060 0.9060 0.9060 0.9040 0.9040
8.006000 0.9040 0.9020 0.9010 0.9010 0.8990
8.042332 0.8930 0.8830 0.8720 0.8650 0.8570
8.079000 0.8500 0.8430 0.8340 0.8070 0.7940
8.115332 0.7760 0.7570 0.7260 0.6990 0.6760
8.151000 0.6060 0.5730 0.5260 0.4440 0.4190
8.187332 0.3810 0.3540 0.3360 0.3070 0.3070
8.224000 0.3110 0.3230 0.3340 0.3540 0.3810
8.260332 0.3830 0.3830 0.3770 0.3450 0.2930
8.297000 0.2640 0.2580 0.2580 0.2620 0.2940
8.333332 0.3230 0.3520 0.3920 0.4290 0.4710
8.369000 0.5010 0.5300 0.6160 0.6420 0.6670
8.405332 0.6970 0.7320 0.7570 0.7780 0.7850
8.442000 0.8000 0.8180 0.8290 0.8320 0.8340
8.478332 0.8360 0.8380 0.8390 0.8410 0.8450
8.515000 0.8520 0.8610 0.8650 0.8650 0.8610
8.551332 0.8480 0.8470 0.8480 0.8480 0.8520
8.587000 0.8520 0.8520 0.8520 0.8520 0.8520
8.623332 0.8500 0.8500 0.8500 0.8500 0.8480
8.660000 0.8500 0.8480 0.8480 0.8430 0.8390
8.696332 0.8360 0.8360 0.8380 0.8360 0.8360
8.732000 0.8340 0.8230 0.8210 0.8210 0.8180
8.768332 0.8140 0.8110 0.8090 0.8070 0.8030
8.805000 0.8020 0.8020 0.8020 0.8000 0.7980
8.841332 0.7960 0.7940 0.7940 0.7910 0.7850
8.878000 0.7820 0.7800 0.7760 0.7750 0.7750
8.914332 0.7730 0.7730 0.7710 0.7690 0.7690
8.950000 0.7660 0.7660 0.7620 0.7600 0.7600
8.986332 0.7600 0.7750 0.7750 0.7640 0.7570
9.023000 0.7530 0.7480 0.7440 0.7420 0.7370
9.059332 0.7330 0.7280 0.7240 0.7190 0.7150
9.096000 0.7060 0.7010 0.6900 0.6810 0.6740
9.132332 0.6670 0.6450 0.6340 0.6220 0.6090
9.168000 0.5950 0.5800 0.5660 0.5500 0.5340
9.204332 0.5140 0.4710 0.4470 0.4190 0.3880
9.241000 0.3540 0.2890 0.2580 0.2260 0.1880
9.277332 0.1040 0.1020 0.0950 0.0840 0.0800
9.313000 0.0750 0.0700 0.0660 0.0640 0.0640
9.349332 0.0640 0.0640 0.0640 0.0640 0.0660
9.386000 0.0700 0.0790 0.0970 0.1130 0.1270
9.422332 0.1430 0.1630 0.1780 0.1920 0.2320
9.459000 0.2840 0.3180 0.3500 0.3860 0.4010
9.495332 0.4190 0.4260 0.4330 0.4380 0.4460
9.531000 0.4530 0.4580 0.4730 0.4910 0.4980
9.567332 0.4980 0.5000 0.5000 0.5000 0.4670
9.604000 0.4530 0.4440 0.4350 0.4260 0.4100
9.640332 0.4020 0.4010 0.4020 0.4060 0.4080
9.677000 0.4130 0.4200 0.4310 0.4420 0.4510
9.713332 0.4600 0.4650 0.4690 0.4670 0.4650
9.749000 0.4600 0.4530 0.4400 0.4240 0.4100
9.785332 0.3920 0.3570 0.2910 0.2440 0.2080
9.822000 0.1870 0.1700 0.1450 0.1250 0.1130
9.858332 0.1020 0.0950 0.0930 0.0930 0.0930
9.894000 0.0930 0.0950 0.0970 0.1000 0.1060
9.930332 0.1160 0.1360 0.1420 0.1600 0.1700
9.967000 0.1810 0.2030 0.2240 0.2460 0.2690
10.003332 0.3380 0.4060 0.4350 0.4650 0.4870
10.040000 0.4960 0.5030 0.5120 0.5260 0.5370
10.076332 0.5430 0.5480 0.5550 0.5710 0.5980
10.112000 0.6310 0.6630 0.6740 0.6850 0.6990
10.148332 0.7120 0.7280 0.7420 0.7530 0.7640
10.185000 0.7750 0.7840 0.7930 0.8030 0.8120
10.221332 0.8230 0.8270 0.8300 0.8340 0.8360
10.258000 0.8390 0.8410 0.8430 0.8480 0.8520
10.294332 0.8520 0.8520 0.8540 0.8540 0.8560
10.330000 0.8570 0.8610 0.8630 0.8650 0.8660
10.366332 0.8700 0.8700 0.8700 0.8720 0.8740
10.403000 0.8770 0.8770 0.8770 0.8770 0.8790
10.439332 0.8790 0.8790 0.8810 0.8830 0.8830
10.475000 0.8830 0.8810 0.8790 0.8790 0.8790
10.511332 0.8790 0.8790 0.8790 0.8790 0.8790
10.548000 0.8810 0.8830 0.8830 0.8830 0.8830
10.584332 0.8810 0.8810 0.8830 0.8830 0.8830
10.621000 0.8830 0.8840 0.8840 0.8840 0.8840
10.657332 0.8840 0.8840 0.8840 0.8840 0.8840
10.693000 0.8840 0.8840 0.8830 0.8830 0.8830
10.729332 0.8830 0.8830 0.8830 0.8840 0.8830
10.766000 0.8790 0.8790 0.8790 0.8770 0.8770
10.802332 0.8720 0.8720 0.8700 0.8680 0.8660
10.839000 0.8650 0.8650 0.8630 0.8610 0.8540
10.875332 0.8500 0.8480 0.8450 0.8410 0.8390
10.911000 0.8390 0.8380 0.8380 0.8380 0.8250
10.947332 0.8210 0.8210 0.8090 0.8070 0.7980
10.984000 0.7870 0.7780 0.7690 0.7620 0.7530
11.020332 0.7460 0.7390 0.7300 0.7190 0.7080
11.056000 0.6940 0.6780 0.6340 0.6070 0.5840
11.092332 0.5590 0.5320 0.4710 0.4420 0.4040
11.129000 0.3810 0.3410 0.2780 0.2530 0.2350
11.165332 0.2260 0.2140 0.2120 0.2140 0.2240
11.202000 0.2240 0.2390 0.2620 0.2890 0.3200
11.238332 0.3320 0.3450 0.3630 0.3900 0.3920
11.274000 0.3920 0.3900 0.3900 0.3790 0.3750
11.310332 0.3740 0.3590 0.3570 0.3570 0.3570
11.347000 0.3590 0.3750 0.3830 0.3860 0.3930
11.383332 0.4100 0.4110 0.4110 0.4110 0.4110
11.420000 0.4110 0.4110 0.4110 0.4110 0.4100
11.456332 0.3930 0.3880 0.3810 0.3700 0.3570
11.492000 0.3450 0.3140 0.2960 0.2780 0.2600
11.528332 0.2420 0.2230 0.2050 0.1850 0.1670
11.565000 0.1330 0.1160 0.1000 0.0880 0.0750
11.601332 0.0660 0.0570 0.0500 0.0480 0.0480
11.637000 0.0460 0.0430 0.0410 0.0390 0.0370
11.673332 0.0370 0.0370 0.0370 0.0350 0.0350
11.710000 0.0350 0.0340 0.0340 0.0320 0.0320
11.746332 0.0320 0.0300 0.0300 0.0300 0.0300
11.783000 0.0300 0.0300 0.0300 0.0300 0.0300
11.819332 0.0300 0.0300 0.0300 0.0300 0.0300
11.855000 0.0320 0.0320 0.0320 0.0320 0.0340
11.891332 0.0340 0.0340 0.0340 0.0340 0.0340
11.928000 0.0340 0.0340 0.0350 0.0350 0.0350
11.964332 0.0370 0.0410 0.0430 0.0440 0.0460
12.001000 0.0500 0.0570 0.0620 0.0700 0.0790
12.037332 0.0890 0.1000 0.1110 0.1200 0.1240
12.073000 0.1310 0.1420 0.1520 0.1600 0.1670
12.109332 0.1810 0.1940 0.2060 0.2170 0.2240
12.146000 0.2320 0.2390 0.2480 0.2550 0.2600
12.182332 0.2670 0.2750 0.2800 0.2840 0.2850
12.218000 0.2940 0.3030 0.3090 0.3090 0.3090
12.254332 0.3090 0.3110 0.3090 0.3090 0.3090
12.291000 0.3090 0.3090 0.3070 0.3050 0.3050
12.327332 0.3030 0.2980 0.2940 0.2930 0.2930
12.364000 0.2910 0.2870 0.2870 0.2820 0.2800
12.400332 0.2800 0.2800 0.2760 0.2760 0.2760
12.436000 0.2760 0.2760 0.2760 0.2760 0.2760
12.472332 0.2760 0.2750 0.2750 0.2710 0.2670
12.509000 0.2660 0.2640 0.2620 0.2620 0.2600
12.545332 0.2530 0.2510 0.2510 0.2510 0.2530
12.582000 0.2530 0.2530 0.2510 0.2510 0.2510
12.618332 0.2510 0.2510 0.2510 0.2510 0.2510
12.654000 0.2510 0.2510 0.2510 0.2510 0.2510
12.690332 0.2530 0.2550 0.2580 0.2620 0.2620
12.727000 0.2620 0.2620 0.2660 0.2670 0.2670
12.763332 0.2670 0.2670 0.2670 0.2690 0.2690
12.799000 0.2690 0.2710 0.2710 0.2710 0.2710
12.835332 0.2710 0.2710 0.2710 0.2690 0.2670
12.872000 0.2670 0.2670 0.2660 0.2640 0.2620
12.908332 0.2550 0.2500 0.2440 0.2410 0.2410
12.945000 0.2370 0.2350 0.2320 0.2210 0.2140
12.981332 0.2080 0.2060 0.2050 0.2030 0.2010
13.017000 0.1990 0.1970 0.1970 0.1960 0.1960
13.053332 0.1960 0.1940 0.1940 0.1940 0.1960
13.090000 0.1970 0.1970 0.1990 0.1990 0.2010
13.126332 0.2060 0.2240 0.2390 0.2510 0.2580
13.163000 0.2660 0.2750 0.2840 0.2930 0.3000
13.199332 0.3050 0.3070 0.3090 0.3120 0.3200
13.235000 0.3270 0.3300 0.3300 0.3300 0.3320
13.271332 0.3320 0.3300 0.3300 0.3290 0.3290
13.308000 0.3290 0.3290 0.3290 0.3270 0.3230
13.344332 0.3200 0.3110 0.3030 0.2980 0.2940
13.380000 0.2910 0.2870 0.2800 0.2730 0.2670
13.416332 0.2640 0.2640 0.2620 0.2580 0.2530
13.453000 0.2510 0.2500 0.2390 0.2300 0.2190
13.489332 0.2170 0.2170 0.2170 0.2150 0.2140
13.526000 0.2140 0.2140 0.2140 0.2140 0.2140
13.562332 0.2120 0.2120 0.2120 0.2120 0.2120
13.598000 0.2120 0.2120 0.2120 0.2120 0.2120
13.634332 0.2120 0.2120 0.2100 0.2100 0.2100
13.671000 0.2100 0.2100 0.2100 0.2080 0.2080
13.707332 0.2080 0.2050 0.2050 0.2050 0.2030
13.744000 0.2030 0.2030 0.2030 0.2030 0.2030
13.780332 0.2030 0.2030 0.2060 0.2060 0.2100
13.816000 0.2190 0.2190 0.2210 0.2230 0.2240
13.852332 0.2240 0.2240 0.2240 0.2240 0.2240
13.889000 0.2240 0.2240 0.2240 0.2260 0.2260
13.925332 0.2280 0.2280 0.2260 0.2280 0.2280
13.961000 0.2300 0.2300 0.2300 0.2300 0.2300
13.997332 0.2300 0.2300 0.2300 0.2300 0.2300
14.034000 0.2320 0.2320 0.2330 0.2370 0.2420
14.070332 0.2460 0.2500 0.2530 0.2570 0.2580
14.107000 0.2660 0.2800 0.2850 0.2930 0.2980
14.143332 0.3030 0.3070 0.3110 0.3200 0.3270
14.179000 0.3320 0.3360 0.3410 0.3480 0.3540
14.215332 0.3630 0.3680 0.3720 0.3750 0.3830
14.252000 0.3840 0.3880 0.3990 0.3990 0.4110
14.288332 0.4190 0.4220 0.4220 0.4260 0.4260
14.325000 0.4280 0.4330 0.4420 0.4490 0.4560
14.361332 0.4600 0.4580 0.4600 0.4600 0.4640
14.397000 0.4690 0.4740 0.4760 0.4780 0.4820
14.433332 0.4830 0.4830 0.4850 0.4850 0.4850
14.470000 0.4850 0.4870 0.4870 0.4910 0.4940
14.506332 0.4960 0.4980 0.4980 0.4980 0.5000
14.542000 0.5000 0.5000 0.5010 0.5010 0.5010
14.578332 0.5010 0.5010 0.5010 0.5010 0.5010
14.615000 0.5010 0.5050 0.5080 0.5170 0.5230
14.651332 0.5260 0.5260 0.5260 0.5260 0.5280
14.688000 0.5280 0.5280 0.5280 0.5280 0.5300
14.724332 0.5340 0.5370 0.5390 0.5440 0.5500
14.760000 0.5520 0.5550 0.5590 0.5590 0.5610
14.796332 0.5610 0.5610 0.5610 0.5620 0.5620
14.833000 0.5640 0.5640 0.5640 0.5660 0.5660
14.869332 0.5660 0.5660 0.5680 0.5730 0.5770
14.906000 0.5770 0.5770 0.5790 0.5790 0.5800
14.942332 0.5880 0.5910 0.6020 0.6040 0.6110
14.978000 0.6160 0.6200 0.6200 0.6220 0.6220
15.014332 0.6220 0.6220 0.6200 0.6220 0.6220
15.051000 0.6240 0.6240 0.6240 0.6240 0.6240
15.087332 0.6240 0.6240 0.6240 0.6240 0.6250
15.123000 0.6240 0.6240 0.6250 0.6250 0.6250
15.159332 0.6270 0.6270 0.6270 0.6290 0.6290
15.196000 0.6290 0.6290 0.6290 0.6290 0.6290
15.232332 0.6290 0.6290 0.6290 0.6290 0.6290
15.269000 0.6310 0.6310 0.6310 0.6310 0.6310
15.305332 0.6310 0.6310 0.6310 0.6310 0.6310
15.341000 0.6310 0.6310 0.6310 0.6330 0.6330
15.377332 0.6330 0.6330 0.6330 0.6330 0.6330
15.414000 0.6330 0.6330 0.6330 0.6330 0.6330
15.450332 0.6340 0.6340 0.6340 0.6340 0.6340
15.487000 0.6340 0.6360 0.6380 0.6380 0.6380
15.523332 0.6380 0.6380 0.6400 0.6420 0.6470
15.559000 0.6520 0.6540 0.6540 0.6560 0.6580
15.595332 0.6580 0.6580 0.6600 0.6600 0.6600
15.632000 0.6600 0.6600 0.6630 0.6630 0.6650
15.668332 0.6670 0.6670 0.6650 0.6650 0.6670
15.704000 0.6670 0.6670 0.6670 0.6670 0.6670
15.740332 0.6670 0.6670 0.6670 0.6670 0.6690
15.777000 0.6690 0.6690 0.6700 0.6700 0.6700
15.813332 0.6700 0.6720 0.6720 0.6720 0.6720
15.850000 0.6720 0.6720 0.6720 0.6720 0.6720
15.886332 0.6740 0.6720 0.6740 0.6740 0.6740
15.922000 0.6740 0.6740 0.6780 0.6790 0.6810
15.958332 0.6830 0.6850
##END=
