##TITLE=BENZENE, 1-METHYL-4(1-METHYLETHYL)-
##JCAMP-DX=4.24
##DATA TYPE=INFRARED SPECTRUM
##CLASS=COBLENTZ III
##ORIGIN=DOW CORNING CORP.
##OWNER=COBLENTZ SOCIETY
Collection (C) 2018 copyright by the U.S. Secretary of Commerce
on behalf of the United States of America. All rights reserved.
##DATE=1966/09/13
##NAMES=1-isopropyl-4-methylbenzene
p-CYMENE
##CAS REGISTRY NO=99-87-6
##MOLFORM=C10 H14
##SOURCE REFERENCE=COBLENTZ NO. 4772
##$NIST SOURCE=COBLENTZ
##$NIST IMAGE=cob4772
##SPECTROMETER/DATA SYSTEM=PERKIN-ELMER 521 (GRATING)
##INSTRUMENT PARAMETERS=FILTERS AT 3150, 2500, 2000, 1150, 700, 410; GRATING CHANGES AT 2000, 630 CM^-^1
##STATE=SOLUTION (10% IN CCl4 FOR 3800-1300, 10% IN CS2 FOR 1300-650, AND 10% CCl4 FPR 650-230 CM^-^1) VERSUS SOLVENT
##PATH LENGTH=0.011, 0.010, AND 0.010 CM (CsBr CELL)
$$PURITY 99%
##SAMPLING PROCEDURE=TRANSMISSION
##RESOLUTION=4
##DATA PROCESSING=DIGITIZED BY NIST FROM HARD COPY (FROM TWO SEGMENTS)
##XUNITS=1/CM
##YUNITS=TRANSMITTANCE
##XFACTOR=1.000000
##YFACTOR=1
##DELTAX=1.277505
##FIRSTX=216.608
##LASTX=3791.07
##FIRSTY=0.891
##MAXX=3791.07
##MINX=216.608
##MAXY=0.935
##MINY=0.0221739
##NPOINTS=2799
##XYDATA=(X++(Y..Y))
216.608000 0.8910 0.8890 0.8810 0.8790 0.8790
222.995527 0.8770 0.8750 0.8740 0.8740 0.8740
229.383054 0.8680 0.8670 0.8670 0.8650 0.8630
235.770581 0.8610 0.8610 0.8610 0.8600 0.8580
242.158108 0.8580 0.8560 0.8540 0.8540 0.8530
248.545634 0.8530 0.8530 0.8530 0.8530 0.8490
254.933161 0.8490 0.8470 0.8470 0.8470 0.8470
261.320688 0.8470 0.8470 0.8470 0.8470 0.8470
267.708215 0.8460 0.8460 0.8460 0.8460 0.8460
274.095742 0.8460 0.8440 0.8440 0.8440 0.8440
280.483269 0.8440 0.8440 0.8440 0.8440 0.8440
286.870796 0.8440 0.8440 0.8440 0.8440 0.8440
293.258323 0.8440 0.8440 0.8440 0.8440 0.8460
299.645849 0.8470 0.8470 0.8470 0.8470 0.8470
306.033376 0.8470 0.8460 0.8460 0.8460 0.8460
312.420903 0.8460 0.8440 0.8440 0.8440 0.8440
318.808430 0.8440 0.8440 0.8460 0.8460 0.8460
325.195957 0.8460 0.8440 0.8440 0.8420 0.8420
331.583484 0.8420 0.8420 0.8420 0.8420 0.8400
337.971011 0.8400 0.8370 0.8370 0.8370 0.8370
344.358538 0.8350 0.8330 0.8330 0.8330 0.8320
350.746065 0.8300 0.8300 0.8300 0.8280 0.8280
357.133591 0.8280 0.8280 0.8260 0.8260 0.8260
363.521118 0.8250 0.8250 0.8250 0.8250 0.8230
369.908645 0.8210 0.8190 0.8180 0.8160 0.8140
376.296172 0.8120 0.8110 0.8040 0.8000 0.7980
382.683699 0.7970 0.7970 0.7970 0.7970 0.7970
389.071226 0.7980 0.8000 0.8000 0.8020 0.8040
395.458753 0.8050 0.8070 0.8090 0.8110 0.8120
401.846280 0.8120 0.8140 0.8160 0.8160 0.8160
408.233806 0.8180 0.8180 0.8190 0.8190 0.8210
414.621333 0.8210 0.8210 0.8210 0.8190 0.8190
421.008860 0.8180 0.8180 0.8180 0.8160 0.8140
427.396387 0.8140 0.8140 0.8140 0.8120 0.8120
433.783914 0.8120 0.8120 0.8120 0.8120 0.8120
440.171441 0.8120 0.8120 0.8110 0.8110 0.8110
446.558968 0.8120 0.8120 0.8120 0.8110 0.8110
452.946495 0.8110 0.8110 0.8090 0.8090 0.8090
459.334021 0.8070 0.8070 0.8070 0.8050 0.8050
465.721548 0.8040 0.8020 0.8000 0.7970 0.7950
472.109075 0.7900 0.7860 0.7810 0.7770 0.7670
478.496602 0.7670 0.7700 0.7859 0.7930 0.7970
484.884129 0.7980 0.7980 0.7970 0.7950 0.7930
491.271656 0.7900 0.7880 0.7880 0.7860 0.7860
497.659183 0.7840 0.7830 0.7810 0.7810 0.7790
504.046710 0.7790 0.7790 0.7770 0.7770 0.7770
510.434237 0.7740 0.7740 0.7720 0.7700 0.7670
516.821763 0.7670 0.7630 0.7600 0.7550 0.7500
523.209290 0.7440 0.7340 0.7290 0.7200 0.7110
529.596817 0.6851 0.6671 0.6521 0.6361 0.6062
535.984344 0.5680 0.5220 0.4770 0.4540 0.4280
542.371871 0.3961 0.3960 0.4309 0.4350 0.4867
548.759398 0.5411 0.6220 0.6740 0.7110 0.7290
555.146925 0.7480 0.7699 0.7810 0.7999 0.8090
561.534452 0.8180 0.8180 0.8210 0.8250 0.8280
567.921978 0.8320 0.8320 0.8390 0.8390 0.8400
574.309505 0.8400 0.8400 0.8420 0.8420 0.8440
580.697032 0.8440 0.8440 0.8440 0.8460 0.8470
587.084559 0.8490 0.8540 0.8560 0.8610 0.8610
593.472086 0.8630 0.8630 0.8630 0.8630 0.8630
599.859613 0.8610 0.8610 0.8600 0.8600 0.8600
606.247140 0.8610 0.8630 0.8650 0.8650 0.8650
612.634667 0.8650 0.8670 0.8670 0.8670 0.8680
619.022194 0.8720 0.8750 0.8790 0.8959 0.8980
625.409720 0.8980 0.8980 0.8960 0.8950 0.8950
631.797247 0.8930 0.8930 0.8910 0.8890 0.8890
638.184774 0.8880 0.8880 0.8880 0.8880 0.8890
644.572301 0.8890 0.8890 0.8890 0.8930 0.8960
650.959828 0.9050 0.9070 0.9070 0.9070 0.9070
657.347355 0.9070 0.9070 0.9070 0.9120 0.9120
663.734882 0.9140 0.9140 0.9140 0.9160 0.9210
670.122409 0.9230 0.9240 0.9260 0.9260 0.9230
676.509935 0.9230 0.9230 0.9230 0.9210 0.9210
682.897462 0.9210 0.9190 0.9190 0.9190 0.9190
689.284989 0.9210 0.9210 0.9210 0.9210 0.9230
695.672516 0.9230 0.9240 0.9240 0.9240 0.9240
702.060043 0.9240 0.9240 0.9230 0.9210 0.9190
708.447570 0.9160 0.9120 0.9100 0.9070 0.8961
714.835097 0.8860 0.8750 0.8629 0.6241 0.6180
721.222624 0.5611 0.5610 0.7195 0.7718 0.8158
727.610151 0.8860 0.9000 0.9120 0.9170 0.9300
733.997677 0.9330 0.9350 0.9350 0.9350 0.9350
740.385204 0.9350 0.9350 0.9350 0.9350 0.9350
746.772731 0.9350 0.9350 0.9350 0.9330 0.9330
753.160258 0.9310 0.9300 0.9280 0.9260 0.9260
759.547785 0.9260 0.9260 0.9260 0.9260 0.9260
765.935312 0.9260 0.9260 0.9260 0.9240 0.9210
772.322839 0.9210 0.9190 0.9170 0.9170 0.9160
778.710366 0.9140 0.9120 0.9100 0.9090 0.9070
785.097892 0.9020 0.8980 0.8950 0.8890 0.8860
791.485419 0.8750 0.8680 0.8630 0.8490 0.8470
797.872946 0.8300 0.8160 0.8000 0.7811 0.7671
804.260473 0.7479 0.7200 0.6990 0.6110 0.5191
810.648000 0.5060 0.3933 0.2843 0.1535 0.0226
817.035527 0.0222 0.1101 0.1500 0.1900 0.3818
823.423054 0.5078 0.6128 0.6688 0.7079 0.7229
829.810581 0.7691 0.7950 0.7980 0.8070 0.8180
836.198107 0.8210 0.8260 0.8370 0.8470 0.8719
842.585634 0.8840 0.8860 0.8960 0.8980 0.8980
848.973161 0.9000 0.9000 0.9000 0.9000 0.8980
855.360688 0.8980 0.8960 0.8950 0.8880 0.8790
861.748215 0.8790 0.8930 0.8950 0.8950 0.8960
868.135742 0.8960 0.8980 0.8980 0.9000 0.8980
874.523269 0.8980 0.8950 0.8950 0.8910 0.8860
880.910796 0.8770 0.8740 0.8650 0.8540 0.8460
887.298323 0.8400 0.8400 0.8440 0.8510 0.8560
893.685849 0.8610 0.8650 0.8680 0.8700 0.8700
900.073376 0.8700 0.8680 0.8670 0.8650 0.8650
906.460903 0.8630 0.8630 0.8560 0.8530 0.8510
912.848430 0.8470 0.8460 0.8440 0.8440 0.8440
919.235957 0.8440 0.8440 0.8420 0.8420 0.8420
925.623484 0.8420 0.8420 0.8420 0.8420 0.8400
932.011011 0.8400 0.8400 0.8400 0.8400 0.8400
938.398538 0.8390 0.8390 0.8390 0.8370 0.8370
944.786064 0.8370 0.8350 0.8300 0.8300 0.8280
951.173591 0.8280 0.8280 0.8280 0.8300 0.8350
957.561118 0.8390 0.8470 0.8560 0.8600 0.8610
963.948645 0.8630 0.8630 0.8650 0.8650 0.8650
970.336172 0.8650 0.8650 0.8670 0.8670 0.8670
976.723699 0.8650 0.8650 0.8650 0.8630 0.8630
983.111226 0.8610 0.8610 0.8600 0.8600 0.8600
989.498753 0.8600 0.8580 0.8580 0.8560 0.8560
995.886280 0.8560 0.8530 0.8490 0.8440 0.8420
1002.273806 0.8390 0.8370 0.8350 0.8330 0.8320
1008.661333 0.8320 0.8140 0.7900 0.7810 0.7770
1015.048860 0.7720 0.7630 0.7480 0.6663 0.5734
1021.436387 0.4720 0.4723 0.7390 0.7440 0.7360
1027.823914 0.7320 0.7160 0.7130 0.6971 0.6801
1034.211441 0.6670 0.6530 0.6480 0.6380 0.6340
1040.598968 0.6320 0.6270 0.6250 0.6220 0.6180
1046.986495 0.6130 0.6030 0.5870 0.5400 0.5060
1053.374021 0.4751 0.4441 0.4211 0.4090 0.4090
1059.761548 0.4331 0.4931 0.5990 0.6130 0.6320
1066.149075 0.6500 0.6590 0.6640 0.6670 0.6740
1072.536602 0.6780 0.6780 0.6800 0.6810 0.6810
1078.924129 0.6830 0.6850 0.6850 0.6870 0.6880
1085.311656 0.6900 0.6900 0.6880 0.6830 0.6740
1091.699183 0.6660 0.6600 0.6550 0.6480 0.6410
1098.086710 0.6340 0.6240 0.6130 0.6080 0.6060
1104.474236 0.6080 0.6100 0.6150 0.6200 0.6250
1110.861763 0.6310 0.6340 0.6410 0.6550 0.6780
1117.249290 0.6880 0.7080 0.7160 0.7300 0.7429
1123.636817 0.7480 0.7510 0.7530 0.7550 0.7560
1130.024344 0.7580 0.7580 0.7600 0.7600 0.7600
1136.411871 0.7600 0.7600 0.7620 0.7620 0.7630
1142.799398 0.7630 0.7690 0.7720 0.7740 0.7760
1149.186925 0.7770 0.7770 0.7770 0.7770 0.7770
1155.574452 0.7770 0.7760 0.7760 0.7760 0.7740
1161.961978 0.7720 0.7720 0.7700 0.7700 0.7700
1168.349505 0.7700 0.7700 0.7700 0.7690 0.7690
1174.737032 0.7690 0.7690 0.7670 0.7670 0.7650
1181.124559 0.7650 0.7650 0.7670 0.7700 0.7740
1187.512086 0.7830 0.7970 0.8000 0.8020 0.8020
1193.899613 0.8020 0.8020 0.8020 0.8020 0.8000
1200.287140 0.7980 0.7930 0.7880 0.7830 0.7810
1206.674667 0.7790 0.7810 0.7970 0.8050 0.8189
1213.062193 0.8230 0.8260 0.8330 0.8350 0.8370
1219.449720 0.8400 0.8440 0.8460 0.8460 0.8460
1225.837247 0.8460 0.8460 0.8470 0.8490 0.8490
1232.224774 0.8510 0.8510 0.8510 0.8510 0.8510
1238.612301 0.8510 0.8530 0.8530 0.8530 0.8530
1244.999828 0.8530 0.8530 0.8510 0.8490 0.8470
1251.387355 0.8460 0.8460 0.8420 0.8390 0.8350
1257.774882 0.8330 0.8210 0.8180 0.8110 0.8110
1264.162409 0.8120 0.8140 0.8180 0.8210 0.8210
1270.549935 0.8160 0.8020 0.7930 0.7810 0.7690
1276.937462 0.7600 0.7510 0.7601 0.8000 0.8230
1283.324989 0.8370 0.8530 0.8540 0.8490 0.8460
1289.712516 0.8350 0.8300 0.8210 0.8110 0.7980
1296.100043 0.7900 0.7720 0.7441 0.6802 0.6342
1302.487570 0.6341 0.6641 0.7040 0.7270 0.7550
1308.875097 0.7670 0.7770 0.7790 0.7810 0.7810
1315.262624 0.7810 0.7810 0.7770 0.7760 0.7690
1321.650150 0.7620 0.7550 0.7510 0.7500 0.7480
1328.037677 0.7440 0.7390 0.7320 0.7270 0.7230
1334.425204 0.7180 0.7130 0.7110 0.7130 0.7130
1340.812731 0.7130 0.7110 0.7110 0.7010 0.6990
1347.200258 0.6970 0.6970 0.6970 0.6950 0.6940
1353.587785 0.6940 0.6880 0.6829 0.6270 0.5900
1359.975312 0.5540 0.4521 0.4520 0.5078 0.5748
1366.362839 0.5941 0.6290 0.6480 0.6570 0.6590
1372.750366 0.6520 0.6360 0.6130 0.5990 0.5761
1379.137892 0.4170 0.4170 0.4381 0.4720 0.4980
1385.525419 0.5120 0.5829 0.6708 0.6949 0.7339
1391.912946 0.7360 0.7370 0.7360 0.7320 0.7290
1398.300473 0.7220 0.7180 0.7110 0.7040 0.6950
1404.688000 0.6870 0.6800 0.6640 0.6570 0.6500
1411.075527 0.6410 0.6380 0.6360 0.6360 0.6340
1417.463054 0.6340 0.6360 0.6360 0.6360 0.6360
1423.850581 0.6340 0.6340 0.6320 0.6310 0.6200
1430.238107 0.6060 0.5960 0.5920 0.5820 0.5680
1436.625634 0.5570 0.5550 0.5410 0.5270 0.5120
1443.013161 0.4859 0.4699 0.4490 0.4350 0.4260
1449.400688 0.4210 0.4120 0.4070 0.3960 0.3910
1455.788215 0.3750 0.3610 0.3460 0.3250 0.3070
1462.175742 0.2950 0.2760 0.2760 0.3159 0.3559
1468.563269 0.4002 0.4451 0.4891 0.5550 0.5780
1474.950796 0.6060 0.6220 0.6380 0.6520 0.6670
1481.338322 0.6800 0.6900 0.6950 0.7020 0.7040
1487.725849 0.7040 0.7020 0.7020 0.6990 0.6950
1494.113376 0.6940 0.6900 0.6880 0.6870 0.6850
1500.500903 0.6740 0.6620 0.6520 0.6410 0.5573
1506.888430 0.5269 0.4939 0.4399 0.4068 0.2720
1513.275957 0.2160 0.1570 0.0991 0.0990 0.2147
1519.663484 0.3258 0.5403 0.6501 0.6881 0.7270
1526.051011 0.7440 0.7600 0.7690 0.7740 0.7770
1532.438538 0.7790 0.7790 0.7830 0.7970 0.8050
1538.826064 0.8180 0.8250 0.8280 0.8320 0.8320
1545.213591 0.8350 0.8350 0.8350 0.8350 0.8400
1551.601118 0.8420 0.8440 0.8440 0.8420 0.8400
1557.988645 0.8350 0.8330 0.8320 0.8320 0.8320
1564.376172 0.8320 0.8300 0.8260 0.8250 0.8230
1570.763699 0.8230 0.8210 0.8210 0.8190 0.8190
1577.151226 0.8190 0.8210 0.8230 0.8260 0.8260
1583.538753 0.8260 0.8260 0.8260 0.8260 0.8260
1589.926279 0.8250 0.8250 0.8210 0.8210 0.8210
1596.313806 0.8190 0.8190 0.8180 0.8160 0.8120
1602.701333 0.8040 0.8000 0.7980 0.7970 0.7980
1609.088860 0.8020 0.8040 0.8070 0.8110 0.8120
1615.476387 0.8140 0.8140 0.8140 0.8160 0.8160
1621.863914 0.8140 0.8140 0.8140 0.8120 0.8090
1628.251441 0.8090 0.8070 0.8050 0.8000 0.7980
1634.638968 0.7970 0.7970 0.7950 0.7810 0.7760
1641.026495 0.7690 0.7600 0.7560 0.7530 0.7291
1647.414021 0.7220 0.7220 0.7390 0.7620 0.7700
1653.801548 0.7790 0.7860 0.7950 0.7970 0.7970
1660.189075 0.7970 0.7970 0.7970 0.7950 0.7950
1666.576602 0.7930 0.7900 0.7860 0.7830 0.7830
1672.964129 0.7810 0.7790 0.7770 0.7760 0.7700
1679.351656 0.7670 0.7630 0.7600 0.7560 0.7500
1685.739183 0.7390 0.7320 0.7230 0.7160 0.7080
1692.126710 0.7080 0.7160 0.7270 0.7370 0.7619
1698.514236 0.7670 0.7690 0.7790 0.7790 0.7790
1704.901763 0.7770 0.7770 0.7770 0.7790 0.7810
1711.289290 0.7830 0.7840 0.7840 0.7840 0.7860
1717.676817 0.7880 0.7900 0.7910 0.7930 0.7950
1724.064344 0.7950 0.7970 0.7970 0.7970 0.7970
1730.451871 0.7980 0.7980 0.7980 0.7980 0.7980
1736.839398 0.7980 0.7980 0.7970 0.7970 0.7980
1743.226925 0.8040 0.8070 0.8120 0.8140 0.8160
1749.614452 0.8190 0.8210 0.8230 0.8250 0.8280
1756.001978 0.8320 0.8330 0.8330 0.8330 0.8350
1762.389505 0.8350 0.8350 0.8350 0.8350 0.8350
1768.777032 0.8350 0.8350 0.8350 0.8350 0.8330
1775.164559 0.8330 0.8320 0.8320 0.8300 0.8260
1781.552086 0.8250 0.8210 0.8120 0.8040 0.7930
1787.939613 0.7880 0.7860 0.7880 0.8040 0.8140
1794.327140 0.8250 0.8350 0.8400 0.8460 0.8510
1800.714667 0.8530 0.8540 0.8540 0.8540 0.8560
1807.102193 0.8560 0.8560 0.8560 0.8560 0.8560
1813.489720 0.8560 0.8560 0.8580 0.8580 0.8580
1819.877247 0.8580 0.8580 0.8580 0.8580 0.8580
1826.264774 0.8580 0.8580 0.8580 0.8580 0.8580
1832.652301 0.8560 0.8560 0.8560 0.8560 0.8560
1839.039828 0.8560 0.8560 0.8560 0.8560 0.8560
1845.427355 0.8560 0.8560 0.8560 0.8560 0.8540
1851.814882 0.8540 0.8540 0.8540 0.8540 0.8540
1858.202408 0.8540 0.8540 0.8530 0.8530 0.8510
1864.589935 0.8490 0.8470 0.8470 0.8460 0.8460
1870.977462 0.8420 0.8400 0.8400 0.8370 0.8350
1877.364989 0.8330 0.8300 0.8250 0.8230 0.8180
1883.752516 0.8160 0.8050 0.7970 0.7860 0.7720
1890.140043 0.7600 0.7480 0.7410 0.7370 0.7370
1896.527570 0.7390 0.7560 0.7740 0.7880 0.8070
1902.915097 0.8231 0.8420 0.8440 0.8460 0.8510
1909.302624 0.8530 0.8530 0.8540 0.8540 0.8560
1915.690150 0.8560 0.8560 0.8560 0.8580 0.8580
1922.077677 0.8580 0.8580 0.8600 0.8610 0.8610
1928.465204 0.8610 0.8610 0.8630 0.8630 0.8630
1934.852731 0.8630 0.8630 0.8630 0.8630 0.8630
1941.240258 0.8630 0.8650 0.8650 0.8650 0.8650
1947.627785 0.8650 0.8650 0.8630 0.8630 0.8610
1954.015312 0.8610 0.8610 0.8630 0.8630 0.8630
1960.402839 0.8650 0.8670 0.8670 0.8680 0.8680
1966.790365 0.8680 0.8680 0.8700 0.8700 0.8680
1973.177892 0.8680 0.8680 0.8680 0.8680 0.8680
1979.565419 0.8680 0.8700 0.8700 0.8700 0.8720
1985.952946 0.8720 0.8740 0.8750 0.8750 0.8770
1992.340473 0.8790 0.8790 0.8790 0.8810 0.8810
1998.728000 0.8820 0.8860 0.8875 0.8890 0.8890
2005.115527 0.8890 0.8900 0.8910 0.8910 0.8910
2011.503054 0.8910 0.8910 0.8910 0.8910 0.8910
2017.890581 0.8910 0.8910 0.8910 0.8920 0.8930
2024.278107 0.8930 0.8930 0.8930 0.8930 0.8930
2030.665634 0.8930 0.8930 0.8930 0.8930 0.8930
2037.053161 0.8930 0.8930 0.8930 0.8930 0.8930
2043.440688 0.8930 0.8930 0.8930 0.8930 0.8930
2049.828215 0.8930 0.8930 0.8930 0.8930 0.8930
2056.215742 0.8930 0.8930 0.8930 0.8930 0.8930
2062.603269 0.8930 0.8930 0.8930 0.8930 0.8930
2068.990796 0.8930 0.8930 0.8930 0.8930 0.8930
2075.378322 0.8930 0.8930 0.8930 0.8930 0.8930
2081.765849 0.8930 0.8930 0.8930 0.8921 0.8911
2088.153376 0.8910 0.8910 0.8910 0.8910 0.8910
2094.540903 0.8910 0.8910 0.8910 0.8910 0.8910
2100.928430 0.8910 0.8910 0.8910 0.8910 0.8910
2107.315957 0.8910 0.8910 0.8910 0.8910 0.8910
2113.703484 0.8910 0.8910 0.8910 0.8910 0.8901
2120.091011 0.8891 0.8890 0.8890 0.8890 0.8890
2126.478538 0.8890 0.8890 0.8890 0.8890 0.8885
2132.866064 0.8880 0.8880 0.8880 0.8880 0.8880
2139.253591 0.8880 0.8880 0.8880 0.8880 0.8880
2145.641118 0.8880 0.8880 0.8880 0.8880 0.8880
2152.028645 0.8880 0.8880 0.8880 0.8880 0.8880
2158.416172 0.8880 0.8880 0.8880 0.8880 0.8880
2164.803699 0.8880 0.8880 0.8880 0.8880 0.8880
2171.191226 0.8880 0.8880 0.8880 0.8871 0.8861
2177.578753 0.8860 0.8860 0.8860 0.8860 0.8860
2183.966279 0.8860 0.8860 0.8860 0.8860 0.8860
2190.353806 0.8860 0.8860 0.8860 0.8860 0.8860
2196.741333 0.8860 0.8869 0.8879 0.8880 0.8880
2203.128860 0.8880 0.8880 0.8880 0.8880 0.8871
2209.516387 0.8861 0.8860 0.8860 0.8860 0.8860
2215.903914 0.8860 0.8860 0.8860 0.8860 0.8860
2222.291441 0.8860 0.8860 0.8860 0.8860 0.8860
2228.678968 0.8860 0.8860 0.8860 0.8860 0.8851
2235.066494 0.8841 0.8840 0.8840 0.8840 0.8840
2241.454021 0.8840 0.8840 0.8840 0.8840 0.8840
2247.841548 0.8840 0.8840 0.8840 0.8840 0.8840
2254.229075 0.8840 0.8840 0.8840 0.8840 0.8840
2260.616602 0.8840 0.8840 0.8840 0.8848 0.8858
2267.004129 0.8860 0.8860 0.8860 0.8860 0.8860
2273.391656 0.8860 0.8860 0.8860 0.8860 0.8860
2279.779183 0.8868 0.8878 0.8880 0.8880 0.8880
2286.166710 0.8880 0.8880 0.8880 0.8884 0.8889
2292.554236 0.8890 0.8890 0.8890 0.8890 0.8890
2298.941763 0.8890 0.8890 0.8890 0.8890 0.8890
2305.329290 0.8890 0.8890 0.8890 0.8890 0.8898
2311.716817 0.8908 0.8910 0.8910 0.8910 0.8910
2318.104344 0.8910 0.8910 0.8910 0.8910 0.8918
2324.491871 0.8928 0.8930 0.8930 0.8930 0.8930
2330.879398 0.8930 0.8930 0.8930 0.8930 0.8930
2337.266925 0.8930 0.8930 0.8930 0.8930 0.8930
2343.654451 0.8930 0.8930 0.8930 0.8930 0.8922
2350.041978 0.8912 0.8910 0.8910 0.8910 0.8910
2356.429505 0.8902 0.8892 0.8890 0.8890 0.8890
2362.817032 0.8890 0.8886 0.8881 0.8880 0.8880
2369.204559 0.8872 0.8862 0.8860 0.8860 0.8852
2375.592086 0.8842 0.8840 0.8840 0.8832 0.8822
2381.979613 0.8820 0.8820 0.8820 0.8820 0.8820
2388.367140 0.8820 0.8820 0.8820 0.8820 0.8820
2394.754667 0.8820 0.8820 0.8816 0.8811 0.8810
2401.142193 0.8810 0.8810 0.8810 0.8810 0.8810
2407.529720 0.8810 0.8810 0.8814 0.8819 0.8820
2413.917247 0.8820 0.8820 0.8820 0.8820 0.8820
2420.304774 0.8816 0.8811 0.8810 0.8810 0.8810
2426.692301 0.8810 0.8810 0.8810 0.8810 0.8810
2433.079828 0.8810 0.8810 0.8810 0.8810 0.8814
2439.467355 0.8819 0.8820 0.8820 0.8820 0.8820
2445.854882 0.8820 0.8820 0.8809 0.8794 0.8790
2452.242408 0.8790 0.8790 0.8790 0.8790 0.8790
2458.629935 0.8790 0.8790 0.8790 0.8790 0.8790
2465.017462 0.8790 0.8790 0.8790 0.8790 0.8790
2471.404989 0.8783 0.8773 0.8770 0.8770 0.8759
2477.792516 0.8744 0.8740 0.8740 0.8744 0.8749
2484.180043 0.8750 0.8750 0.8757 0.8767 0.8770
2490.567570 0.8770 0.8770 0.8770 0.8770 0.8770
2496.955097 0.8770 0.8770 0.8763 0.8753 0.8746
2503.342623 0.8741 0.8740 0.8740 0.8740 0.8740
2509.730150 0.8740 0.8740 0.8740 0.8740 0.8740
2516.117677 0.8740 0.8740 0.8740 0.8740 0.8740
2522.505204 0.8740 0.8740 0.8740 0.8740 0.8740
2528.892731 0.8740 0.8740 0.8740 0.8740 0.8740
2535.280258 0.8740 0.8740 0.8740 0.8740 0.8733
2541.667785 0.8723 0.8720 0.8720 0.8713 0.8703
2548.055312 0.8700 0.8700 0.8700 0.8700 0.8700
2554.442839 0.8700 0.8693 0.8683 0.8677 0.8672
2560.830365 0.8670 0.8670 0.8670 0.8670 0.8663
2567.217892 0.8653 0.8636 0.8616 0.8607 0.8602
2573.605419 0.8593 0.8583 0.8573 0.8563 0.8553
2579.992946 0.8543 0.8540 0.8540 0.8537 0.8532
2586.380473 0.8523 0.8513 0.8510 0.8510 0.8510
2592.768000 0.8510 0.8517 0.8527 0.8547 0.8572
2599.155527 0.8590 0.8605 0.8617 0.8627 0.8643
2605.543054 0.8663 0.8673 0.8678 0.8680 0.8680
2611.930580 0.8680 0.8680 0.8680 0.8680 0.8680
2618.318107 0.8680 0.8680 0.8680 0.8677 0.8672
2624.705634 0.8670 0.8670 0.8670 0.8670 0.8670
2631.093161 0.8670 0.8670 0.8670 0.8670 0.8670
2637.480688 0.8670 0.8670 0.8670 0.8670 0.8670
2643.868215 0.8670 0.8670 0.8670 0.8670 0.8670
2650.255742 0.8664 0.8654 0.8650 0.8650 0.8650
2656.643269 0.8650 0.8650 0.8650 0.8644 0.8634
2663.030796 0.8630 0.8630 0.8630 0.8630 0.8630
2669.418322 0.8630 0.8630 0.8630 0.8630 0.8630
2675.805849 0.8630 0.8630 0.8630 0.8630 0.8624
2682.193376 0.8614 0.8610 0.8610 0.8610 0.8610
2688.580903 0.8607 0.8602 0.8600 0.8600 0.8600
2694.968430 0.8600 0.8594 0.8584 0.8559 0.8524
2701.355957 0.8504 0.8494 0.8490 0.8490 0.8484
2707.743484 0.8474 0.8467 0.8462 0.8448 0.8428
2714.131011 0.8420 0.8420 0.8405 0.8380 0.8358
2720.518537 0.8338 0.8330 0.8330 0.8327 0.8322
2726.906064 0.8320 0.8320 0.8323 0.8328 0.8336
2733.293591 0.8346 0.8362 0.8381 0.8410 0.8445
2739.681118 0.8469 0.8484 0.8496 0.8506 0.8510
2746.068645 0.8510 0.8510 0.8510 0.8510 0.8510
2752.456172 0.8510 0.8510 0.8510 0.8510 0.8516
2758.843699 0.8526 0.8530 0.8530 0.8530 0.8530
2765.231226 0.8530 0.8530 0.8524 0.8514 0.8510
2771.618753 0.8510 0.8510 0.8510 0.8504 0.8494
2778.006279 0.8482 0.8467 0.8449 0.8429 0.8401
2784.393806 0.8366 0.8342 0.8327 0.8301 0.8266
2790.781333 0.8245 0.8234 0.8210 0.8175 0.8135
2797.168860 0.8090 0.8051 0.8016 0.7992 0.7977
2803.556387 0.7959 0.7939 0.7930 0.7930 0.7925
2809.943914 0.7915 0.7907 0.7902 0.7884 0.7854
2816.331441 0.7832 0.7817 0.7766 0.7686 0.7617
2822.718968 0.7557 0.7506 0.7461 0.7402 0.7333
2829.106494 0.7268 0.7208 0.7172 0.7157 0.7140
2835.494021 0.7120 0.7055 0.6951 0.6838 0.6718
2841.881548 0.6608 0.6507 0.6390 0.6261 0.6157
2848.269075 0.6078 0.5963 0.5819 0.5648 0.5453
2854.656602 0.5293 0.5163 0.4920 0.4571 0.4252
2861.044129 0.3963 0.3617 0.3218 0.2950 0.2810
2867.431656 0.2621 0.2383 0.2239 0.2179 0.2150
2873.819183 0.2150 0.2194 0.2278 0.2391 0.2531
2880.206709 0.2714 0.2938 0.3073 0.3117 0.3145
2886.594236 0.3155 0.3167 0.3182 0.3183 0.3168
2892.981763 0.3148 0.3122 0.3100 0.3080 0.3062
2899.369290 0.3047 0.3030 0.3010 0.2988 0.2963
2905.756817 0.2923 0.2868 0.2833 0.2818 0.2771
2912.144344 0.2692 0.2597 0.2488 0.2366 0.2231
2918.531871 0.2115 0.2019 0.1893 0.1739 0.1626
2924.919398 0.1556 0.1476 0.1387 0.1340 0.1340
2931.306925 0.1450 0.1679 0.1802 0.1807 0.1840
2937.694451 0.1905 0.1991 0.2101 0.2160 0.2160
2944.081978 0.2105 0.1983 0.1843 0.1684 0.1531
2950.469505 0.1386 0.1251 0.1126 0.0971 0.0782
2956.857032 0.0615 0.0476 0.0368 0.0298 0.0255
2963.244559 0.0245 0.0244 0.0254 0.0307 0.0412
2969.632086 0.0501 0.0572 0.0698 0.0888 0.1098
2976.019613 0.1333 0.1588 0.1867 0.2278 0.2847
2982.407140 0.3218 0.3348 0.3498 0.3672 0.3878
2988.794666 0.4122 0.4286 0.4346 0.4389 0.4409
2995.182193 0.4420 0.4420 0.4415 0.4406 0.4384
3001.569720 0.4349 0.4310 0.4265 0.4233 0.4218
3007.957247 0.4206 0.4196 0.4186 0.4176 0.4159
3014.344774 0.4134 0.4114 0.4099 0.4067 0.4012
3020.732301 0.3980 0.3980 0.4068 0.4267 0.4441
3027.119828 0.4580 0.4744 0.4938 0.5126 0.5306
3033.507355 0.5439 0.5509 0.5562 0.5592 0.5610
3039.894882 0.5610 0.5602 0.5582 0.5560 0.5535
3046.282408 0.5516 0.5506 0.5500 0.5500 0.5504
3052.669935 0.5514 0.5541 0.5591 0.5663 0.5768
3059.057462 0.5913 0.6118 0.6373 0.6702 0.6932
3065.444989 0.7012 0.7107 0.7227 0.7321 0.7376
3071.832516 0.7420 0.7445 0.7468 0.7488 0.7496
3078.220043 0.7486 0.7476 0.7466 0.7442 0.7397
3084.607570 0.7341 0.7266 0.7195 0.7130 0.7084
3090.995097 0.7069 0.7060 0.7060 0.7129 0.7314
3097.382623 0.7501 0.7694 0.7848 0.7942 0.8035
3103.770150 0.8125 0.8209 0.8284 0.8330 0.8330
3110.157677 0.8334 0.8344 0.8350 0.8350 0.8354
3116.545204 0.8364 0.8366 0.8356 0.8346 0.8336
3122.932731 0.8328 0.8323 0.8320 0.8320 0.8322
3129.320258 0.8327 0.8334 0.8344 0.8354 0.8364
3135.707785 0.8375 0.8390 0.8404 0.8414 0.8424
3142.095312 0.8434 0.8444 0.8453 0.8460 0.8460
3148.482839 0.8460 0.8460 0.8460 0.8460 0.8460
3154.870365 0.8460 0.8460 0.8460 0.8462 0.8467
3161.257892 0.8470 0.8470 0.8470 0.8470 0.8473
3167.645419 0.8483 0.8490 0.8490 0.8493 0.8503
3174.032946 0.8510 0.8510 0.8510 0.8510 0.8503
3180.420473 0.8483 0.8473 0.8483 0.8490 0.8490
3186.808000 0.8490 0.8490 0.8490 0.8490 0.8490
3193.195527 0.8490 0.8493 0.8503 0.8510 0.8510
3199.583054 0.8513 0.8523 0.8530 0.8530 0.8532
3205.970580 0.8537 0.8540 0.8540 0.8540 0.8540
3212.358107 0.8540 0.8540 0.8540 0.8540 0.8540
3218.745634 0.8540 0.8540 0.8540 0.8540 0.8540
3225.133161 0.8540 0.8540 0.8543 0.8553 0.8560
3231.520688 0.8560 0.8557 0.8547 0.8543 0.8553
3237.908215 0.8563 0.8573 0.8580 0.8580 0.8580
3244.295742 0.8580 0.8577 0.8567 0.8557 0.8547
3250.683269 0.8540 0.8540 0.8546 0.8566 0.8580
3257.070795 0.8580 0.8577 0.8567 0.8560 0.8560
3263.458322 0.8560 0.8560 0.8560 0.8560 0.8560
3269.845849 0.8560 0.8560 0.8560 0.8560 0.8560
3276.233376 0.8560 0.8560 0.8560 0.8560 0.8560
3282.620903 0.8560 0.8557 0.8547 0.8540 0.8540
3289.008430 0.8540 0.8540 0.8540 0.8540 0.8540
3295.395957 0.8540 0.8540 0.8540 0.8540 0.8540
3301.783484 0.8539 0.8534 0.8530 0.8530 0.8530
3308.171011 0.8530 0.8527 0.8517 0.8510 0.8510
3314.558537 0.8510 0.8510 0.8510 0.8510 0.8510
3320.946064 0.8510 0.8510 0.8510 0.8510 0.8510
3327.333591 0.8510 0.8510 0.8510 0.8510 0.8510
3333.721118 0.8510 0.8510 0.8510 0.8507 0.8497
3340.108645 0.8490 0.8490 0.8490 0.8490 0.8490
3346.496172 0.8490 0.8490 0.8490 0.8490 0.8490
3352.883699 0.8490 0.8490 0.8493 0.8503 0.8510
3359.271226 0.8510 0.8508 0.8498 0.8490 0.8490
3365.658752 0.8490 0.8490 0.8490 0.8490 0.8492
3372.046279 0.8502 0.8510 0.8510 0.8510 0.8510
3378.433806 0.8510 0.8510 0.8510 0.8510 0.8510
3384.821333 0.8510 0.8510 0.8510 0.8510 0.8510
3391.208860 0.8510 0.8510 0.8510 0.8510 0.8512
3397.596387 0.8522 0.8530 0.8530 0.8530 0.8530
3403.983914 0.8530 0.8530 0.8530 0.8530 0.8531
3410.371441 0.8536 0.8540 0.8540 0.8540 0.8540
3416.758968 0.8540 0.8540 0.8540 0.8540 0.8540
3423.146494 0.8540 0.8540 0.8540 0.8540 0.8540
3429.534021 0.8540 0.8540 0.8542 0.8552 0.8560
3435.921548 0.8560 0.8562 0.8572 0.8580 0.8580
3442.309075 0.8576 0.8556 0.8540 0.8540 0.8540
3448.696602 0.8540 0.8540 0.8540 0.8540 0.8540
3455.084129 0.8542 0.8552 0.8562 0.8572 0.8580
3461.471656 0.8580 0.8580 0.8580 0.8582 0.8592
3467.859183 0.8600 0.8600 0.8600 0.8600 0.8600
3474.246709 0.8600 0.8600 0.8600 0.8600 0.8600
3480.634236 0.8600 0.8600 0.8600 0.8600 0.8600
3487.021763 0.8600 0.8600 0.8600 0.8600 0.8600
3493.409290 0.8600 0.8600 0.8601 0.8606 0.8612
3499.796817 0.8622 0.8632 0.8642 0.8651 0.8661
3506.184344 0.8671 0.8676 0.8679 0.8674 0.8671
3512.571871 0.8676 0.8680 0.8680 0.8680 0.8680
3518.959398 0.8680 0.8680 0.8681 0.8691 0.8700
3525.346924 0.8700 0.8700 0.8700 0.8700 0.8700
3531.734451 0.8700 0.8700 0.8700 0.8700 0.8702
3538.121978 0.8711 0.8720 0.8720 0.8719 0.8709
3544.509505 0.8700 0.8700 0.8700 0.8700 0.8701
3550.897032 0.8711 0.8720 0.8720 0.8720 0.8720
3557.284559 0.8721 0.8731 0.8740 0.8740 0.8740
3563.672086 0.8740 0.8740 0.8740 0.8740 0.8740
3570.059613 0.8740 0.8740 0.8740 0.8740 0.8740
3576.447140 0.8740 0.8740 0.8740 0.8740 0.8740
3582.834666 0.8740 0.8740 0.8739 0.8729 0.8720
3589.222193 0.8720 0.8718 0.8698 0.8679 0.8674
3595.609720 0.8668 0.8648 0.8630 0.8630 0.8631
3601.997247 0.8641 0.8651 0.8661 0.8670 0.8675
3608.384774 0.8682 0.8702 0.8721 0.8731 0.8741
3614.772301 0.8746 0.8752 0.8772 0.8791 0.8806
3621.159828 0.8820 0.8820 0.8820 0.8820 0.8821
3627.547355 0.8831 0.8840 0.8840 0.8842 0.8867
3633.934881 0.8891 0.8901 0.8910 0.8910 0.8911
3640.322408 0.8921 0.8930 0.8930 0.8930 0.8930
3646.709935 0.8930 0.8930 0.8930 0.8930 0.8930
3653.097462 0.8930 0.8930 0.8930 0.8931 0.8941
3659.484989 0.8952 0.8977 0.9001 0.9011 0.9020
3665.872516 0.9020 0.9020 0.9025 0.9030 0.9030
3672.260043 0.9030 0.9030 0.9030 0.9030 0.9030
3678.647570 0.9030 0.9030 0.9030 0.9030 0.9030
3685.035097 0.9030 0.9030 0.9030 0.9030 0.9030
3691.422623 0.9030 0.9030 0.9030 0.9031 0.9041
3697.810150 0.9051 0.9061 0.9070 0.9060 0.9050
3704.197677 0.9050 0.9050 0.9050 0.9050 0.9050
3710.585204 0.9050 0.9050 0.9050 0.9050 0.9050
3716.972731 0.9050 0.9050 0.9060 0.9070 0.9060
3723.360258 0.9050 0.9050 0.9050 0.9050 0.9050
3729.747785 0.9040 0.9030 0.9030 0.9030 0.9030
3736.135312 0.9030 0.9030 0.9030 0.9040 0.9050
3742.522838 0.9060 0.9070 0.9070 0.9070 0.9070
3748.910365 0.9070 0.9070 0.9070 0.9070 0.9070
3755.297892 0.9070 0.9070 0.9080 0.9090 0.9090
3761.685419 0.9090 0.9080 0.9070 0.9070 0.9070
3768.072946 0.9080 0.9090 0.9080 0.9070 0.9070
3774.460473 0.9070 0.9070 0.9070 0.9070 0.9070
3780.848000 0.9070 0.9070 0.9070 0.9070 0.9070
3787.235527 0.9070 0.9070 0.9070 0.9070
##END=
