##TITLE=IMIDAZOLE-5(4)-SULFONANILIDE, 4(5)-BROMO-
##JCAMP-DX=4.24
##DATA TYPE=INFRARED SPECTRUM
##CLASS=COBLENTZ III
##ORIGIN=SOUTHERN RESEARCH INSTITUTE
##OWNER=COBLENTZ SOCIETY
Collection (C) 2018 copyright by the U.S. Secretary of Commerce
on behalf of the United States of America. All rights reserved.
##DATE=1956/02/23
##NAMES=4-bromo-N-phenyl-1H-imidazole-5-sulfonamide
##CAS REGISTRY NO=99903-07-8
##MOLFORM=C9 H8 Br N3 O2 S
##SOURCE REFERENCE=COBLENTZ NO. 6922
##$NIST SOURCE=COBLENTZ
##$NIST IMAGE=cob6922
##SPECTROMETER/DATA SYSTEM=PERKIN-ELMER 21 (GRATING)
##INSTRUMENT PARAMETERS=FILTER CHANGE ABOUT 1070 CM^-^1
##STATE=SOLID (1.0 mg / 650 mg KBr DISC)
##SAMPLING PROCEDURE=TRANSMISSION
##RESOLUTION=4
##DATA PROCESSING=DIGITIZED BY NIST FROM HARD COPY (FROM TWO SEGMENTS)
##XUNITS=1/CM
##YUNITS=TRANSMITTANCE
##XFACTOR=1.000000
##YFACTOR=1
##DELTAX=1.211305
##FIRSTX=618.325
##LASTX=3902.17
##FIRSTY=0.432
##MAXX=3902.17
##MINX=618.325
##MAXY=0.907
##MINY=0.14
##NPOINTS=2712
##XYDATA=(X++(Y..Y))
618.325000 0.4320 0.4330 0.4350 0.4360 0.4360
624.381525 0.4408 0.4467 0.4704 0.4905 0.5002
630.438050 0.5092 0.5263 0.5343 0.5359 0.5378
636.494575 0.5406 0.5513 0.5530 0.5530 0.5530
642.551100 0.5530 0.5530 0.5530 0.5530 0.5530
648.607625 0.5546 0.5573 0.5580 0.5595 0.5600
654.664150 0.5615 0.5672 0.5959 0.6204 0.6331
660.720675 0.6409 0.6478 0.6568 0.6640 0.6740
666.777200 0.6885 0.6953 0.6960 0.6954 0.6869
672.833725 0.6783 0.6730 0.6644 0.6465 0.5884
678.890250 0.5375 0.5101 0.4773 0.4445 0.4132
684.946775 0.3731 0.3202 0.2628 0.2159 0.1945
691.003300 0.1920 0.1964 0.2019 0.2086 0.2273
697.059825 0.2483 0.2879 0.4291 0.5802 0.6110
703.116350 0.6271 0.6480 0.6840 0.7253 0.7574
709.172875 0.7815 0.7979 0.8097 0.8183 0.8257
715.229400 0.8286 0.8333 0.8360 0.8363 0.8370
721.285925 0.8367 0.8360 0.8360 0.8350 0.8315
727.342450 0.8286 0.8219 0.8143 0.8112 0.8054
733.398975 0.7931 0.7819 0.7560 0.6865 0.6172
739.455500 0.5805 0.5429 0.5046 0.4881 0.4812
745.512025 0.4727 0.4500 0.4110 0.3892 0.3660
751.568550 0.3400 0.3418 0.3775 0.5386 0.6657
757.625075 0.7169 0.7534 0.7830 0.7920 0.7930
763.681600 0.7930 0.7920 0.7901 0.7871 0.7861
769.738125 0.7832 0.7765 0.7742 0.7731 0.7703
775.794650 0.7664 0.7607 0.7529 0.7476 0.7435
781.851175 0.7396 0.7348 0.7240 0.7121 0.7075
787.907700 0.7046 0.7040 0.7008 0.6992 0.6967
793.964225 0.6952 0.6942 0.6932 0.6900 0.6853
800.020750 0.6833 0.6823 0.6813 0.6789 0.6773
806.077275 0.6756 0.6723 0.6670 0.6624 0.6604
812.133800 0.6594 0.6584 0.6567 0.6548 0.6540
818.190325 0.6528 0.6502 0.6473 0.6449 0.6434
824.246850 0.6424 0.6370 0.6281 0.6176 0.6073
830.303375 0.6014 0.5964 0.5900 0.5841 0.5743
836.359900 0.5618 0.5537 0.5482 0.5400 0.5291
842.416425 0.5170 0.5022 0.4868 0.5075 0.6406
848.472950 0.7784 0.7794 0.7796 0.7790 0.7779
854.529475 0.7753 0.7733 0.7704 0.7660 0.7631
860.586000 0.7598 0.7552 0.7481 0.7402 0.7366
866.642525 0.7296 0.7162 0.7028 0.6953 0.6923
872.699050 0.6896 0.6830 0.6590 0.6337 0.6056
878.755575 0.5929 0.5811 0.5701 0.5589 0.5522
884.812100 0.5432 0.5143 0.4857 0.4686 0.4633
890.868625 0.4463 0.4300 0.4316 0.4531 0.4698
896.925150 0.4836 0.4966 0.5116 0.5280 0.5270
902.981675 0.5260 0.5220 0.5161 0.5101 0.4925
909.038200 0.4506 0.4061 0.3859 0.3586 0.3458
915.094725 0.3311 0.3172 0.3024 0.3010 0.3152
921.151250 0.3337 0.3403 0.3540 0.3672 0.3809
927.207775 0.3956 0.4096 0.4613 0.4720 0.4712
933.264300 0.4702 0.4676 0.4662 0.4521 0.4335
939.320825 0.4093 0.3888 0.3781 0.3614 0.3057
945.377350 0.2725 0.2670 0.2788 0.3406 0.5061
951.433875 0.6069 0.6465 0.6743 0.7004 0.7322
957.490400 0.7600 0.7745 0.7811 0.7842 0.7880
963.546925 0.7912 0.8001 0.8105 0.8196 0.8245
969.603450 0.8272 0.8290 0.8290 0.8280 0.8270
975.659975 0.8255 0.8215 0.8166 0.8135 0.8130
981.716500 0.8116 0.8087 0.8052 0.8008 0.7950
987.773025 0.7885 0.7813 0.7724 0.7627 0.7518
993.829550 0.7405 0.7283 0.7147 0.6994 0.6832
999.886075 0.6660 0.6478 0.6287 0.6083 0.5862
1005.942600 0.5625 0.5362 0.4955 0.4373 0.4261
1011.999125 0.4138 0.4095 0.4078 0.4072 0.4084
1018.055650 0.4110 0.4177 0.4316 0.4441 0.4516
1024.112175 0.4660 0.4912 0.5772 0.6123 0.7174
1030.168700 0.7279 0.7356 0.7418 0.7494 0.7534
1036.225225 0.7583 0.7621 0.7630 0.7630 0.7630
1042.281750 0.7620 0.7610 0.7610 0.7580 0.7570
1048.338275 0.7530 0.7510 0.7490 0.7451 0.7431
1054.394800 0.7411 0.7344 0.7284 0.7234 0.7184
1060.451325 0.7125 0.7102 0.7073 0.7044 0.6996
1066.507850 0.6964 0.6900 0.6146 0.6010 0.6210
1072.564375 0.6729 0.6952 0.7004 0.7042 0.7058
1078.620900 0.7068 0.7070 0.7055 0.7042 0.7032
1084.677425 0.7008 0.6985 0.6937 0.6863 0.6791
1090.733950 0.6742 0.6723 0.6706 0.6666 0.6610
1096.790475 0.6551 0.6472 0.6389 0.6303 0.6220
1102.847000 0.6129 0.6042 0.5909 0.5758 0.5595
1108.903525 0.5468 0.5374 0.5120 0.4917 0.4740
1114.960050 0.4505 0.4307 0.4088 0.3573 0.3021
1121.016575 0.2723 0.2537 0.2396 0.2216 0.2031
1127.073100 0.1751 0.1541 0.1543 0.1627 0.1790
1133.129625 0.1946 0.2046 0.2066 0.2049 0.2008
1139.186150 0.1949 0.1875 0.1783 0.1717 0.1651
1145.242675 0.1564 0.1553 0.1581 0.1650 0.1731
1151.299200 0.1824 0.1884 0.1978 0.2092 0.2229
1157.355725 0.2390 0.2561 0.2735 0.2885 0.3014
1163.412250 0.3186 0.3381 0.3616 0.3882 0.4145
1169.468775 0.4420 0.4689 0.4963 0.5232 0.5625
1175.525300 0.5774 0.6072 0.6089 0.6077 0.6039
1181.581825 0.6013 0.5917 0.5852 0.5686 0.5567
1187.638350 0.5445 0.5178 0.4920 0.4702 0.4561
1193.694875 0.4550 0.4463 0.4085 0.3270 0.3004
1199.751400 0.2738 0.2480 0.2213 0.1945 0.1685
1205.807925 0.1481 0.1407 0.1400 0.1539 0.1723
1211.864450 0.1852 0.1937 0.2058 0.2220 0.2545
1217.920975 0.2919 0.3584 0.4230 0.4446 0.4617
1223.977500 0.4660 0.4668 0.4670 0.4670 0.4670
1230.034025 0.4706 0.4749 0.4760 0.4760 0.4739
1236.090550 0.4710 0.4680 0.4644 0.4610 0.4606
1242.147075 0.4880 0.5505 0.5980 0.6623 0.6956
1248.203600 0.6960 0.6942 0.6907 0.6884 0.6874
1254.260125 0.6870 0.6875 0.6885 0.6895 0.6910
1260.316650 0.6925 0.6935 0.6940 0.6935 0.6901
1266.373175 0.6827 0.6701 0.6524 0.6286 0.5880
1272.429700 0.5540 0.5500 0.5614 0.5924 0.6242
1278.486225 0.6501 0.6706 0.6780 0.6776 0.6763
1284.542750 0.6736 0.6670 0.6561 0.6481 0.6415
1290.599275 0.6320 0.6156 0.5914 0.5725 0.5631
1296.655800 0.5519 0.5380 0.5185 0.4994 0.4798
1302.712325 0.4604 0.4402 0.4260 0.4266 0.4305
1308.768850 0.4391 0.4538 0.4816 0.5013 0.5038
1314.825375 0.5098 0.5159 0.5234 0.5341 0.5349
1320.881900 0.5328 0.5193 0.4974 0.4751 0.4604
1326.938425 0.4481 0.4298 0.4004 0.3508 0.2588
1332.994950 0.2419 0.2261 0.2102 0.1954 0.1612
1339.051475 0.1600 0.1791 0.1923 0.2052 0.2190
1345.108000 0.2439 0.2496 0.2653 0.3276 0.3959
1351.164525 0.6154 0.6457 0.6495 0.6611 0.7094
1357.221050 0.7405 0.7723 0.8033 0.8098 0.8100
1363.277575 0.8100 0.8076 0.8031 0.7966 0.7927
1369.334100 0.7920 0.7905 0.7878 0.7841 0.7752
1375.390625 0.7663 0.7584 0.7484 0.7299 0.7115
1381.447150 0.6953 0.6815 0.6666 0.6514 0.6378
1387.503675 0.6236 0.5914 0.5579 0.5308 0.5046
1393.560200 0.4812 0.4577 0.4436 0.4299 0.4074
1399.616725 0.3944 0.3877 0.3783 0.3714 0.3660
1405.673250 0.3625 0.3625 0.3654 0.3750 0.3982
1411.729775 0.4314 0.4617 0.4945 0.5538 0.6073
1417.786300 0.6342 0.6612 0.6634 0.6640 0.6640
1423.842825 0.6640 0.6640 0.6640 0.6640 0.6643
1429.899350 0.6657 0.6683 0.6729 0.6791 0.6916
1435.955875 0.7197 0.7476 0.7597 0.7673 0.7677
1442.012400 0.7668 0.7655 0.7633 0.7599 0.7513
1448.068925 0.7318 0.7180 0.6771 0.6575 0.6447
1454.125450 0.6362 0.6260 0.6158 0.5836 0.5350
1460.181975 0.4878 0.4535 0.4392 0.4116 0.3750
1466.238500 0.3308 0.3134 0.2748 0.2379 0.2360
1472.295025 0.2361 0.2383 0.2503 0.2672 0.2880
1478.351550 0.3712 0.3887 0.3890 0.3861 0.3793
1484.408075 0.3479 0.3309 0.3225 0.3137 0.2993
1490.464600 0.2944 0.2940 0.2984 0.3209 0.4160
1496.521125 0.4609 0.6057 0.6298 0.6300 0.6292
1502.577650 0.6274 0.6254 0.6242 0.6169 0.6087
1508.634175 0.6047 0.6032 0.6022 0.6020 0.6013
1514.690700 0.6017 0.6020 0.6034 0.6104 0.6137
1520.747225 0.6147 0.6184 0.6234 0.6371 0.6549
1526.803750 0.6760 0.6949 0.7086 0.7180 0.7241
1532.860275 0.7278 0.7320 0.7376 0.7441 0.7528
1538.916800 0.7576 0.7597 0.7621 0.7679 0.7831
1544.973325 0.8008 0.8132 0.8206 0.8240 0.8255
1551.029850 0.8265 0.8284 0.8314 0.8339 0.8350
1557.086375 0.8350 0.8350 0.8341 0.8330 0.8326
1563.142900 0.8312 0.8281 0.8231 0.8182 0.8143
1569.199425 0.8119 0.8100 0.8093 0.8007 0.7854
1575.255950 0.7802 0.7690 0.7549 0.7291 0.7004
1581.312475 0.6809 0.6662 0.6276 0.5840 0.5642
1587.369000 0.5442 0.5276 0.5262 0.5352 0.5720
1593.425525 0.5921 0.6184 0.6886 0.7487 0.7769
1599.482050 0.7993 0.8077 0.8123 0.8140 0.8139
1605.538575 0.8130 0.8130 0.8130 0.8130 0.8131
1611.595100 0.8141 0.8150 0.8150 0.8150 0.8160
1617.651625 0.8180 0.8190 0.8210 0.8230 0.8250
1623.708150 0.8270 0.8318 0.8320 0.8329 0.8349
1629.764675 0.8350 0.8359 0.8369 0.8370 0.8379
1635.821200 0.8398 0.8409 0.8419 0.8429 0.8421
1641.877725 0.8428 0.8455 0.8468 0.8478 0.8513
1647.934250 0.8528 0.8530 0.8530 0.8530 0.8530
1653.990775 0.8530 0.8530 0.8530 0.8523 0.8491
1660.047300 0.8473 0.8470 0.8463 0.8467 0.8463
1666.103825 0.8460 0.8440 0.8423 0.8413 0.8410
1672.160350 0.8410 0.8410 0.8404 0.8376 0.8360
1678.216875 0.8354 0.8338 0.8324 0.8314 0.8304
1684.273400 0.8283 0.8259 0.8245 0.8235 0.8220
1690.329925 0.8210 0.8210 0.8220 0.8235 0.8264
1696.386450 0.8299 0.8315 0.8325 0.8339 0.8350
1702.442975 0.8354 0.8360 0.8364 0.8366 0.8356
1708.499500 0.8350 0.8339 0.8316 0.8310 0.8303
1714.556025 0.8280 0.8244 0.8200 0.8170 0.8147
1720.612550 0.8140 0.8137 0.8130 0.8127 0.8112
1726.669075 0.8085 0.8063 0.8038 0.8030 0.8028
1732.725600 0.8018 0.8008 0.7996 0.7980 0.7978
1738.782125 0.7970 0.7970 0.7968 0.7959 0.7943
1744.838650 0.7893 0.7848 0.7827 0.7799 0.7789
1750.895175 0.7777 0.7749 0.7739 0.7727 0.7689
1756.951700 0.7670 0.7660 0.7659 0.7630 0.7610
1763.008225 0.7610 0.7600 0.7600 0.7580 0.7551
1769.064750 0.7531 0.7520 0.7511 0.7510 0.7501
1775.121275 0.7463 0.7442 0.7431 0.7412 0.7401
1781.177800 0.7391 0.7381 0.7363 0.7343 0.7332
1787.234325 0.7305 0.7284 0.7272 0.7246 0.7232
1793.290850 0.7222 0.7212 0.7210 0.7210 0.7210
1799.347375 0.7210 0.7210 0.7210 0.7217 0.7220
1805.403900 0.7220 0.7227 0.7230 0.7230 0.7237
1811.460425 0.7240 0.7240 0.7234 0.7230 0.7230
1817.516950 0.7236 0.7240 0.7252 0.7260 0.7260
1823.573475 0.7260 0.7266 0.7276 0.7286 0.7306
1829.630000 0.7331 0.7351 0.7370 0.7385 0.7395
1835.686525 0.7400 0.7405 0.7419 0.7430 0.7435
1841.743050 0.7445 0.7450 0.7459 0.7479 0.7498
1847.799575 0.7514 0.7524 0.7542 0.7564 0.7581
1853.856100 0.7604 0.7617 0.7634 0.7650 0.7677
1859.912625 0.7700 0.7723 0.7733 0.7743 0.7750
1865.969150 0.7753 0.7766 0.7785 0.7803 0.7817
1872.025675 0.7845 0.7862 0.7874 0.7896 0.7926
1878.082200 0.7952 0.7960 0.7962 0.7970 0.7972
1884.138725 0.7983 0.8003 0.8023 0.8045 0.8083
1890.195250 0.8102 0.8121 0.8130 0.8131 0.8141
1896.251775 0.8152 0.8181 0.8191 0.8211 0.8241
1902.308300 0.8270 0.8270 0.8290 0.8300 0.8310
1908.364825 0.8320 0.8330 0.8349 0.8369 0.8370
1914.421350 0.8370 0.8379 0.8380 0.8371 0.8370
1920.477875 0.8370 0.8361 0.8360 0.8360 0.8360
1926.534400 0.8360 0.8369 0.8370 0.8395 0.8408
1932.590925 0.8410 0.8418 0.8420 0.8420 0.8420
1938.647450 0.8420 0.8420 0.8420 0.8420 0.8420
1944.703975 0.8420 0.8420 0.8427 0.8437 0.8461
1950.760500 0.8491 0.8514 0.8520 0.8527 0.8537
1956.817025 0.8546 0.8556 0.8579 0.8596 0.8606
1962.873550 0.8628 0.8640 0.8646 0.8662 0.8681
1968.930075 0.8696 0.8706 0.8710 0.8715 0.8720
1974.986600 0.8725 0.8730 0.8740 0.8755 0.8760
1981.043125 0.8765 0.8775 0.8789 0.8804 0.8814
1987.099650 0.8820 0.8820 0.8820 0.8820 0.8824
1993.156175 0.8830 0.8830 0.8830 0.8834 0.8840
1999.212700 0.8840 0.8840 0.8840 0.8840 0.8840
2005.269225 0.8840 0.8840 0.8840 0.8840 0.8840
2011.325750 0.8837 0.8827 0.8820 0.8823 0.8830
2017.382275 0.8827 0.8820 0.8820 0.8820 0.8820
2023.438800 0.8820 0.8820 0.8820 0.8817 0.8810
2029.495325 0.8810 0.8810 0.8810 0.8810 0.8810
2035.551850 0.8810 0.8810 0.8810 0.8813 0.8820
2041.608375 0.8817 0.8810 0.8810 0.8807 0.8803
2047.664900 0.8810 0.8807 0.8793 0.8777 0.8767
2053.721425 0.8760 0.8757 0.8750 0.8750 0.8750
2059.777950 0.8753 0.8757 0.8750 0.8753 0.8760
2065.834475 0.8760 0.8760 0.8760 0.8757 0.8743
2071.891000 0.8723 0.8710 0.8707 0.8700 0.8703
2077.947525 0.8710 0.8707 0.8700 0.8700 0.8700
2084.004050 0.8700 0.8700 0.8700 0.8697 0.8690
2090.060575 0.8683 0.8670 0.8670 0.8670 0.8667
2096.117100 0.8660 0.8660 0.8660 0.8657 0.8647
2102.173625 0.8630 0.8607 0.8597 0.8590 0.8590
2108.230150 0.8590 0.8590 0.8590 0.8590 0.8590
2114.286675 0.8587 0.8573 0.8560 0.8553 0.8540
2120.343200 0.8537 0.8527 0.8520 0.8510 0.8490
2126.399725 0.8490 0.8490 0.8490 0.8490 0.8487
2132.456250 0.8480 0.8477 0.8470 0.8467 0.8450
2138.512775 0.8423 0.8407 0.8393 0.8380 0.8373
2144.569300 0.8360 0.8357 0.8350 0.8343 0.8330
2150.625825 0.8327 0.8320 0.8320 0.8320 0.8320
2156.682350 0.8317 0.8310 0.8307 0.8297 0.8283
2162.738875 0.8267 0.8260 0.8260 0.8260 0.8260
2168.795400 0.8257 0.8250 0.8247 0.8230 0.8207
2174.851925 0.8200 0.8197 0.8187 0.8173 0.8157
2180.908450 0.8147 0.8136 0.8120 0.8097 0.8087
2186.964975 0.8073 0.8053 0.8037 0.8027 0.8013
2193.021500 0.8000 0.8000 0.7990 0.7970 0.7970
2199.078025 0.7967 0.7960 0.7960 0.7957 0.7950
2205.134550 0.7950 0.7943 0.7927 0.7903 0.7860
2211.191075 0.7837 0.7823 0.7807 0.7800 0.7797
2217.247600 0.7790 0.7786 0.7773 0.7760 0.7757
2223.304125 0.7747 0.7726 0.7697 0.7687 0.7680
2229.360650 0.7666 0.7630 0.7607 0.7590 0.7567
2235.417175 0.7557 0.7550 0.7550 0.7543 0.7530
2241.473700 0.7530 0.7527 0.7520 0.7517 0.7510
2247.530225 0.7510 0.7510 0.7510 0.7507 0.7500
2253.586750 0.7497 0.7483 0.7463 0.7447 0.7440
2259.643275 0.7430 0.7389 0.7340 0.7313 0.7297
2265.699800 0.7290 0.7287 0.7277 0.7260 0.7237
2271.756325 0.7227 0.7217 0.7207 0.7193 0.7180
2277.812850 0.7177 0.7167 0.7146 0.7103 0.7070
2283.869375 0.7067 0.7057 0.7043 0.7023 0.7003
2289.925900 0.6980 0.6956 0.6943 0.6920 0.6893
2295.982425 0.6873 0.6850 0.6820 0.6790 0.6763
2302.038950 0.6740 0.6713 0.6690 0.6663 0.6643
2308.095475 0.6602 0.6529 0.6473 0.6433 0.6413
2314.152000 0.6390 0.6366 0.6357 0.6336 0.6307
2320.208525 0.6297 0.6290 0.6290 0.6283 0.6270
2326.265050 0.6270 0.6267 0.6260 0.6250 0.6220
2332.321575 0.6197 0.6187 0.6173 0.6160 0.6157
2338.378100 0.6150 0.6143 0.6120 0.6093 0.6077
2344.434625 0.6067 0.6060 0.6050 0.6030 0.6030
2350.491150 0.6030 0.6030 0.6027 0.6020 0.6020
2356.547675 0.6020 0.6017 0.6010 0.6010 0.6010
2362.604200 0.6007 0.6000 0.6000 0.5993 0.5980
2368.660725 0.5977 0.5967 0.5957 0.5940 0.5917
2374.717250 0.5903 0.5890 0.5883 0.5870 0.5870
2380.773775 0.5867 0.5853 0.5837 0.5823 0.5803
2386.830300 0.5780 0.5753 0.5733 0.5710 0.5680
2392.886825 0.5646 0.5613 0.5593 0.5577 0.5570
2398.943350 0.5563 0.5540 0.5513 0.5500 0.5497
2404.999875 0.5483 0.5470 0.5467 0.5457 0.5450
2411.056400 0.5447 0.5436 0.5420 0.5397 0.5380
2417.112925 0.5360 0.5360 0.5357 0.5347 0.5340
2423.169450 0.5337 0.5330 0.5327 0.5320 0.5313
2429.225975 0.5300 0.5297 0.5290 0.5287 0.5280
2435.282500 0.5280 0.5280 0.5280 0.5280 0.5280
2441.339025 0.5280 0.5277 0.5270 0.5267 0.5260
2447.395550 0.5253 0.5236 0.5227 0.5217 0.5210
2453.452075 0.5207 0.5200 0.5190 0.5170 0.5170
2459.508600 0.5163 0.5140 0.5117 0.5107 0.5097
2465.565125 0.5090 0.5076 0.5047 0.5037 0.5020
2471.621650 0.4997 0.4980 0.4950 0.4916 0.4883
2477.678175 0.4860 0.4833 0.4813 0.4772 0.4703
2483.734700 0.4663 0.4643 0.4623 0.4600 0.4580
2489.791225 0.4573 0.4553 0.4537 0.4527 0.4510
2495.847750 0.4487 0.4476 0.4460 0.4440 0.4437
2501.904275 0.4423 0.4400 0.4373 0.4357 0.4343
2507.960800 0.4327 0.4316 0.4307 0.4297 0.4283
2514.017325 0.4267 0.4260 0.4257 0.4250 0.4247
2520.073850 0.4240 0.4240 0.4240 0.4240 0.4243
2526.130375 0.4250 0.4250 0.4250 0.4250 0.4250
2532.186900 0.4253 0.4260 0.4263 0.4270 0.4270
2538.243425 0.4270 0.4267 0.4260 0.4260 0.4257
2544.299950 0.4247 0.4240 0.4237 0.4230 0.4223
2550.356475 0.4207 0.4197 0.4190 0.4187 0.4180
2556.413000 0.4180 0.4173 0.4160 0.4160 0.4157
2562.469525 0.4150 0.4150 0.4147 0.4140 0.4140
2568.526050 0.4137 0.4126 0.4110 0.4090 0.4090
2574.582575 0.4090 0.4083 0.4070 0.4070 0.4067
2580.639100 0.4060 0.4060 0.4053 0.4040 0.4033
2586.695625 0.4020 0.4017 0.4000 0.3980 0.3977
2592.752150 0.3970 0.3967 0.3963 0.3970 0.3973
2598.808675 0.3980 0.3980 0.3987 0.4003 0.4017
2604.865200 0.4030 0.4040 0.4060 0.4063 0.4080
2610.921725 0.4107 0.4123 0.4133 0.4140 0.4147
2616.978250 0.4177 0.4220 0.4261 0.4317 0.4353
2623.034775 0.4360 0.4374 0.4403 0.4413 0.4423
2629.091300 0.4433 0.4447 0.4463 0.4470 0.4470
2635.147825 0.4473 0.4480 0.4480 0.4477 0.4467
2641.204350 0.4460 0.4453 0.4437 0.4427 0.4420
2647.260875 0.4417 0.4410 0.4410 0.4407 0.4400
2653.317400 0.4400 0.4393 0.4380 0.4380 0.4380
2659.373925 0.4380 0.4380 0.4380 0.4380 0.4380
2665.430450 0.4377 0.4370 0.4370 0.4370 0.4370
2671.486975 0.4370 0.4370 0.4370 0.4367 0.4360
2677.543500 0.4357 0.4343 0.4330 0.4327 0.4320
2683.600025 0.4317 0.4307 0.4297 0.4290 0.4283
2689.656550 0.4267 0.4256 0.4250 0.4250 0.4250
2695.713075 0.4250 0.4250 0.4253 0.4260 0.4260
2701.769600 0.4260 0.4260 0.4260 0.4260 0.4260
2707.826125 0.4260 0.4260 0.4260 0.4260 0.4260
2713.882650 0.4257 0.4250 0.4250 0.4250 0.4250
2719.939175 0.4250 0.4250 0.4247 0.4240 0.4240
2725.995700 0.4237 0.4223 0.4210 0.4207 0.4197
2732.052225 0.4187 0.4170 0.4147 0.4126 0.4086
2738.108750 0.4053 0.4033 0.4020 0.4013 0.3993
2744.165275 0.3980 0.3973 0.3957 0.3936 0.3907
2750.221800 0.3900 0.3886 0.3857 0.3850 0.3843
2756.278325 0.3820 0.3797 0.3787 0.3780 0.3773
2762.334850 0.3760 0.3757 0.3750 0.3750 0.3750
2768.391375 0.3750 0.3750 0.3753 0.3760 0.3767
2774.447900 0.3783 0.3793 0.3810 0.3840 0.3870
2780.504425 0.3897 0.3910 0.3924 0.3960 0.4011
2786.560950 0.4098 0.4192 0.4301 0.4381 0.4437
2792.617475 0.4487 0.4527 0.4554 0.4587 0.4614
2798.674000 0.4650 0.4684 0.4710 0.4717 0.4737
2804.730525 0.4753 0.4774 0.4807 0.4823 0.4830
2810.787050 0.4833 0.4840 0.4840 0.4840 0.4837
2816.843575 0.4830 0.4827 0.4813 0.4790 0.4767
2822.900100 0.4750 0.4720 0.4690 0.4663 0.4643
2828.956625 0.4613 0.4566 0.4533 0.4513 0.4497
2835.013150 0.4487 0.4473 0.4450 0.4423 0.4407
2841.069675 0.4393 0.4380 0.4377 0.4370 0.4373
2847.126200 0.4380 0.4387 0.4400 0.4403 0.4413
2853.182725 0.4423 0.4444 0.4477 0.4504 0.4554
2859.239250 0.4610 0.4630 0.4637 0.4653 0.4670
2865.295775 0.4718 0.4791 0.4847 0.4887 0.4910
2871.352300 0.4937 0.4953 0.4967 0.4987 0.5014
2877.408825 0.5057 0.5104 0.5140 0.5167 0.5190
2883.465350 0.5213 0.5227 0.5268 0.5344 0.5407
2889.521875 0.5468 0.5541 0.5608 0.5674 0.5714
2895.578400 0.5743 0.5754 0.5760 0.5767 0.5780
2901.634925 0.5780 0.5780 0.5773 0.5757 0.5743
2907.691450 0.5720 0.5696 0.5673 0.5630 0.5600
2913.747975 0.5577 0.5556 0.5527 0.5510 0.5476
2919.804500 0.5436 0.5403 0.5376 0.5347 0.5323
2925.861025 0.5269 0.5213 0.5170 0.5133 0.5090
2931.917550 0.5063 0.5043 0.5020 0.4972 0.4882
2937.974075 0.4779 0.4710 0.4669 0.4623 0.4603
2944.030600 0.4580 0.4553 0.4526 0.4493 0.4477
2950.087125 0.4467 0.4453 0.4437 0.4430 0.4427
2956.143650 0.4420 0.4420 0.4420 0.4423 0.4430
2962.200175 0.4433 0.4447 0.4463 0.4480 0.4510
2968.256700 0.4540 0.4588 0.4647 0.4670 0.4697
2974.313225 0.4724 0.4760 0.4797 0.4840 0.4867
2980.369750 0.4887 0.4911 0.4937 0.4960 0.4990
2986.426275 0.5024 0.5053 0.5063 0.5077 0.5093
2992.482800 0.5100 0.5100 0.5100 0.5100 0.5100
2998.539325 0.5097 0.5090 0.5083 0.5070 0.5067
3004.595850 0.5057 0.5050 0.5047 0.5037 0.5023
3010.652375 0.5007 0.4997 0.4987 0.4970 0.4947
3016.708900 0.4937 0.4916 0.4880 0.4853 0.4830
3022.765425 0.4800 0.4780 0.4773 0.4750 0.4706
3028.821950 0.4657 0.4647 0.4637 0.4630 0.4630
3034.878475 0.4623 0.4610 0.4603 0.4580 0.4560
3040.935000 0.4560 0.4557 0.4550 0.4547 0.4540
3046.991525 0.4540 0.4540 0.4543 0.4550 0.4560
3053.048050 0.4580 0.4587 0.4603 0.4610 0.4617
3059.104575 0.4630 0.4633 0.4640 0.4643 0.4653
3065.161100 0.4670 0.4704 0.4737 0.4753 0.4760
3071.217625 0.4763 0.4773 0.4801 0.4847 0.4863
3077.274150 0.4873 0.4883 0.4907 0.4947 0.4967
3083.330675 0.4980 0.4983 0.4993 0.5014 0.5043
3089.387200 0.5053 0.5060 0.5060 0.5063 0.5070
3095.443725 0.5077 0.5093 0.5100 0.5103 0.5110
3101.500250 0.5110 0.5113 0.5120 0.5120 0.5120
3107.556775 0.5120 0.5117 0.5110 0.5110 0.5110
3113.613300 0.5110 0.5110 0.5110 0.5110 0.5107
3119.669825 0.5100 0.5100 0.5097 0.5090 0.5083
3125.726350 0.5070 0.5070 0.5070 0.5067 0.5057
3131.782875 0.5043 0.5023 0.5003 0.4987 0.4970
3137.839400 0.4947 0.4933 0.4913 0.4893 0.4856
3143.895925 0.4800 0.4756 0.4696 0.4656 0.4599
3149.952450 0.4519 0.4473 0.4450 0.4420 0.4362
3156.008975 0.4262 0.4186 0.4119 0.4059 0.3999
3162.065500 0.3939 0.3879 0.3819 0.3759 0.3692
3168.122025 0.3612 0.3522 0.3447 0.3437 0.3392
3174.178550 0.3285 0.3182 0.3082 0.2995 0.2906
3180.235075 0.2829 0.2746 0.2679 0.2619 0.2563
3186.291600 0.2509 0.2456 0.2420 0.2386 0.2350
3192.348125 0.2323 0.2303 0.2273 0.2226 0.2186
3198.404650 0.2146 0.2110 0.2090 0.2090 0.2093
3204.461175 0.2107 0.2127 0.2147 0.2167 0.2183
3210.517700 0.2207 0.2240 0.2243 0.2257 0.2298
3216.574225 0.2367 0.2410 0.2454 0.2514 0.2554
3222.630750 0.2587 0.2621 0.2695 0.2788 0.2857
3228.687275 0.2911 0.2964 0.3011 0.3067 0.3121
3234.743800 0.3188 0.3282 0.3395 0.3491 0.3557
3240.800325 0.3608 0.3704 0.3778 0.3844 0.3887
3246.856850 0.3934 0.3974 0.4010 0.4040 0.4074
3252.913375 0.4114 0.4157 0.4211 0.4271 0.4327
3258.969900 0.4367 0.4401 0.4447 0.4474 0.4552
3265.026425 0.4685 0.4774 0.4841 0.4897 0.4947
3271.082950 0.4990 0.5027 0.5091 0.5157 0.5191
3277.139475 0.5251 0.5311 0.5371 0.5458 0.5574
3283.196000 0.5641 0.5694 0.5734 0.5770 0.5804
3289.252525 0.5840 0.5870 0.5893 0.5924 0.5991
3295.309050 0.6054 0.6131 0.6214 0.6274 0.6310
3301.365575 0.6337 0.6357 0.6387 0.6437 0.6473
3307.422100 0.6497 0.6540 0.6574 0.6614 0.6650
3313.478625 0.6684 0.6724 0.6767 0.6814 0.6850
3319.535150 0.6873 0.6887 0.6907 0.6923 0.6930
3325.591675 0.6933 0.6943 0.6953 0.6960 0.6967
3331.648200 0.6980 0.6980 0.6983 0.6990 0.6990
3337.704725 0.6993 0.7000 0.7000 0.7000 0.7000
3343.761250 0.7000 0.7000 0.7000 0.7000 0.7000
3349.817775 0.7000 0.7000 0.7000 0.7000 0.7000
3355.874300 0.7000 0.7000 0.7000 0.7000 0.7000
3361.930825 0.7003 0.7010 0.7010 0.7010 0.7010
3367.987350 0.7017 0.7030 0.7030 0.7030 0.7030
3374.043875 0.7033 0.7040 0.7040 0.7040 0.7040
3380.100400 0.7040 0.7044 0.7050 0.7050 0.7050
3386.156925 0.7050 0.7050 0.7050 0.7050 0.7053
3392.213450 0.7060 0.7064 0.7070 0.7070 0.7077
3398.269975 0.7090 0.7090 0.7093 0.7100 0.7100
3404.326500 0.7103 0.7110 0.7110 0.7113 0.7120
3410.383025 0.7123 0.7137 0.7150 0.7150 0.7153
3416.439550 0.7160 0.7160 0.7160 0.7160 0.7160
3422.496075 0.7163 0.7173 0.7187 0.7203 0.7210
3428.552600 0.7213 0.7220 0.7220 0.7223 0.7233
3434.609125 0.7247 0.7267 0.7283 0.7290 0.7290
3440.665650 0.7293 0.7300 0.7307 0.7320 0.7327
3446.722175 0.7343 0.7353 0.7360 0.7360 0.7367
3452.778700 0.7383 0.7390 0.7397 0.7410 0.7417
3458.835225 0.7433 0.7443 0.7450 0.7450 0.7453
3464.891750 0.7463 0.7480 0.7507 0.7520 0.7520
3470.948275 0.7523 0.7530 0.7537 0.7550 0.7557
3477.004800 0.7573 0.7587 0.7603 0.7613 0.7627
3483.061325 0.7650 0.7673 0.7694 0.7723 0.7733
3489.117850 0.7743 0.7753 0.7767 0.7783 0.7793
3495.174375 0.7803 0.7817 0.7837 0.7864 0.7893
3501.230900 0.7900 0.7903 0.7910 0.7910 0.7910
3507.287425 0.7910 0.7910 0.7913 0.7920 0.7920
3513.343950 0.7923 0.7937 0.7950 0.7950 0.7953
3519.400475 0.7963 0.7973 0.7980 0.7990 0.8013
3525.457000 0.8023 0.8033 0.8050 0.8073 0.8094
3531.513525 0.8120 0.8123 0.8130 0.8137 0.8164
3537.570050 0.8197 0.8217 0.8230 0.8233 0.8243
3543.626575 0.8253 0.8260 0.8270 0.8293 0.8300
3549.683100 0.8303 0.8313 0.8320 0.8330 0.8357
3555.739625 0.8373 0.8390 0.8413 0.8423 0.8430
3561.796150 0.8433 0.8447 0.8460 0.8467 0.8483
3567.852675 0.8493 0.8507 0.8520 0.8523 0.8533
3573.909200 0.8543 0.8560 0.8583 0.8593 0.8610
3579.965725 0.8637 0.8653 0.8670 0.8693 0.8700
3586.022250 0.8700 0.8703 0.8710 0.8713 0.8720
3592.078775 0.8730 0.8753 0.8760 0.8763 0.8773
3598.135300 0.8790 0.8820 0.8847 0.8867 0.8880
3604.191825 0.8883 0.8890 0.8893 0.8900 0.8900
3610.248350 0.8900 0.8900 0.8900 0.8900 0.8900
3616.304875 0.8900 0.8900 0.8900 0.8907 0.8920
3622.361400 0.8920 0.8924 0.8930 0.8930 0.8933
3628.417925 0.8940 0.8943 0.8953 0.8960 0.8960
3634.474450 0.8967 0.8984 0.8990 0.8990 0.8993
3640.530975 0.9000 0.9000 0.9000 0.9000 0.9000
3646.587500 0.9000 0.9000 0.9000 0.9000 0.9000
3652.644025 0.9000 0.9000 0.9000 0.9000 0.9003
3658.700550 0.9017 0.9030 0.9030 0.9033 0.9040
3664.757075 0.9040 0.9043 0.9050 0.9050 0.9050
3670.813600 0.9050 0.9053 0.9060 0.9060 0.9063
3676.870125 0.9067 0.9060 0.9060 0.9060 0.9057
3682.926650 0.9050 0.9050 0.9047 0.9040 0.9040
3688.983175 0.9040 0.9037 0.9030 0.9030 0.9023
3695.039700 0.9010 0.9010 0.9010 0.9010 0.9010
3701.096225 0.9010 0.9010 0.9007 0.9000 0.9000
3707.152750 0.9000 0.9000 0.9000 0.9000 0.9000
3713.209275 0.9000 0.9000 0.9000 0.9000 0.9000
3719.265800 0.9003 0.9010 0.9010 0.9010 0.9010
3725.322325 0.9010 0.9017 0.9030 0.9030 0.9030
3731.378850 0.9030 0.9023 0.9010 0.9010 0.9010
3737.435375 0.9010 0.9010 0.9010 0.9010 0.9017
3743.491900 0.9030 0.9030 0.9030 0.9030 0.9030
3749.548425 0.9037 0.9053 0.9063 0.9070 0.9070
3755.604950 0.9070 0.9067 0.9060 0.9060 0.9060
3761.661475 0.9063 0.9067 0.9060 0.9060 0.9060
3767.718000 0.9060 0.9060 0.9060 0.9060 0.9057
3773.774525 0.9050 0.9050 0.9047 0.9040 0.9040
3779.831050 0.9040 0.9037 0.9030 0.9030 0.9030
3785.887575 0.9030 0.9030 0.9030 0.9030 0.9030
3791.944100 0.9030 0.9030 0.9030 0.9030 0.9030
3798.000625 0.9023 0.9017 0.9023 0.9010 0.9010
3804.057150 0.9010 0.9010 0.9010 0.9007 0.9000
3810.113675 0.8997 0.8990 0.8987 0.8980 0.8980
3816.170200 0.8980 0.8980 0.8980 0.8980 0.8973
3822.226725 0.8960 0.8960 0.8960 0.8960 0.8957
3828.283250 0.8950 0.8950 0.8950 0.8950 0.8950
3834.339775 0.8950 0.8950 0.8950 0.8950 0.8950
3840.396300 0.8950 0.8950 0.8950 0.8950 0.8950
3846.452825 0.8950 0.8950 0.8950 0.8950 0.8950
3852.509350 0.8950 0.8950 0.8950 0.8947 0.8940
3858.565875 0.8940 0.8937 0.8930 0.8927 0.8920
3864.622400 0.8920 0.8920 0.8920 0.8920 0.8920
3870.678925 0.8923 0.8930 0.8930 0.8927 0.8920
3876.735450 0.8920 0.8920 0.8920 0.8920 0.8923
3882.791975 0.8930 0.8930 0.8930 0.8930 0.8930
3888.848500 0.8930 0.8930 0.8930 0.8933 0.8940
3894.905025 0.8940 0.8940 0.8937 0.8930 0.8930
3900.961550 0.8927 0.8920
##END=
