##TITLE=p-AMINOACETOPHENONE
##JCAMP-DX=4.24
##DATA TYPE=INFRARED SPECTRUM
##CLASS=COBLENTZ III
##ORIGIN=WESTERN REGIONAL RES. USDA
##OWNER=COBLENTZ SOCIETY
Collection (C) 2018 copyright by the U.S. Secretary of Commerce
on behalf of the United States of America. All rights reserved.
##DATE=1964/05/13
##NAMES=1-(4-aminophenyl)ethanone
##CAS REGISTRY NO=99-92-3
##MOLFORM=C8 H9 N O
##MP=106 C
##SOURCE REFERENCE=COBLENTZ NO. 6190
##$NIST SOURCE=COBLENTZ
##$NIST IMAGE=cob6190
##SPECTROMETER/DATA SYSTEM=BECKMAN IR-7 (GRATING)
##INSTRUMENT PARAMETERS=GRATING CHANGES AT 3000, 2200, 1150 CM^-^1
##STATE=SOLID (NUJOL MULL)
##PATH LENGTH=
$$SPECTRAL CONTAMINATIN DUE TO OIL AROUND 2900, AND 1460 CM^-^1
##SAMPLING PROCEDURE=TRANSMISSION
##RESOLUTION=4
##DATA PROCESSING=DIGITIZED BY NIST FROM HARD COPY (FROM TWO SEGMENTS)
##XUNITS=1/CM
##YUNITS=TRANSMITTANCE
##XFACTOR=1.000000
##YFACTOR=1
##DELTAX=0.649351
##FIRSTX=600.649
##LASTX=4000
##FIRSTY=0.461
##MAXX=4000
##MINX=600.649
##MAXY=0.874
##MINY=0.051
##NPOINTS=5236
##XYDATA=(X++(Y..Y))
600.649000 0.4610 0.4630 0.4640 0.4660 0.4680
603.895757 0.4700 0.4720 0.4770 0.4840 0.4920
607.142514 0.4950 0.4990 0.5040 0.5070 0.5090
610.389271 0.5110 0.5160 0.5160 0.5170 0.5170
613.636028 0.5180 0.5190 0.5190 0.5190 0.5190
616.882785 0.5180 0.5180 0.5180 0.5180 0.5180
620.129542 0.5170 0.5170 0.5170 0.5160 0.5150
623.376299 0.5150 0.5140 0.5130 0.5130 0.5130
626.623056 0.5130 0.5120 0.5120 0.5110 0.5110
629.869813 0.5110 0.5110 0.5110 0.5110 0.5110
633.116570 0.5110 0.5110 0.5110 0.5110 0.5110
636.363327 0.5110 0.5110 0.5120 0.5120 0.5130
639.610084 0.5130 0.5130 0.5140 0.5150 0.5150
642.856841 0.5150 0.5170 0.5170 0.5180 0.5190
646.103598 0.5210 0.5230 0.5230 0.5240 0.5240
649.350355 0.5260 0.5270 0.5290 0.5310 0.5350
652.597112 0.5350 0.5360 0.5390 0.5410 0.5430
655.843869 0.5460 0.5470 0.5490 0.5490 0.5520
659.090626 0.5550 0.5560 0.5600 0.5650 0.5670
662.337383 0.5680 0.5690 0.5730 0.5780 0.5810
665.584140 0.5870 0.5880 0.5900 0.5920 0.5930
668.830897 0.5940 0.5960 0.5980 0.6010 0.6080
672.077654 0.6120 0.6160 0.6190 0.6240 0.6260
675.324411 0.6290 0.6310 0.6340 0.6350 0.6370
678.571168 0.6400 0.6440 0.6490 0.6540 0.6580
681.817925 0.6630 0.6660 0.6680 0.6750 0.6800
685.064682 0.6820 0.6830 0.6850 0.6850 0.6840
688.311439 0.6790 0.6750 0.6670 0.6551 0.6450
691.558196 0.6350 0.6280 0.6220 0.6170 0.6130
694.804953 0.6120 0.6120 0.6120 0.6120 0.6130
698.051710 0.6140 0.6140 0.6140 0.6150 0.6150
701.298467 0.6150 0.6170 0.6170 0.6180 0.6190
704.545224 0.6190 0.6220 0.6220 0.6240 0.6260
707.791981 0.6260 0.6270 0.6280 0.6290 0.6300
711.038737 0.6310 0.6320 0.6330 0.6330 0.6340
714.285494 0.6350 0.6360 0.6360 0.6370 0.6370
717.532251 0.6370 0.6380 0.6390 0.6390 0.6390
720.779008 0.6400 0.6400 0.6400 0.6410 0.6410
724.025765 0.6440 0.6460 0.6480 0.6490 0.6550
727.272522 0.6570 0.6660 0.6670 0.6690 0.6690
730.519279 0.6690 0.6690 0.6690 0.6690 0.6690
733.766036 0.6700 0.6700 0.6700 0.6710 0.6710
737.012793 0.6710 0.6740 0.6760 0.6780 0.6810
740.259550 0.6840 0.6840 0.6860 0.6870 0.6890
743.506307 0.6890 0.6920 0.6940 0.6960 0.6970
746.753064 0.6980 0.7000 0.7010 0.7030 0.7040
749.999821 0.7060 0.7080 0.7100 0.7130 0.7140
753.246578 0.7160 0.7160 0.7180 0.7180 0.7190
756.493335 0.7190 0.7210 0.7230 0.7250 0.7260
759.740092 0.7270 0.7280 0.7280 0.7290 0.7300
762.986849 0.7300 0.7320 0.7320 0.7340 0.7340
766.233606 0.7340 0.7350 0.7360 0.7360 0.7370
769.480363 0.7380 0.7390 0.7400 0.7410 0.7420
772.727120 0.7430 0.7440 0.7450 0.7450 0.7460
775.973877 0.7460 0.7470 0.7480 0.7500 0.7510
779.220634 0.7520 0.7540 0.7550 0.7560 0.7570
782.467391 0.7580 0.7590 0.7590 0.7590 0.7600
785.714148 0.7600 0.7610 0.7610 0.7620 0.7630
788.960905 0.7630 0.7630 0.7640 0.7640 0.7660
792.207662 0.7660 0.7660 0.7670 0.7670 0.7670
795.454419 0.7670 0.7680 0.7680 0.7680 0.7680
798.701176 0.7680 0.7690 0.7690 0.7690 0.7690
801.947933 0.7680 0.7680 0.7680 0.7680 0.7670
805.194690 0.7670 0.7660 0.7660 0.7660 0.7650
808.441447 0.7640 0.7630 0.7590 0.7490 0.7430
811.688204 0.7370 0.7320 0.7200 0.6921 0.6602
814.934961 0.6420 0.6280 0.5950 0.5620 0.5291
818.181718 0.4971 0.4970 0.5827 0.5830 0.5870
821.428475 0.5900 0.5990 0.6050 0.6170 0.6310
824.675232 0.6440 0.6589 0.6739 0.6889 0.6960
827.921989 0.6960 0.6940 0.6920 0.6570 0.6231
831.168746 0.5831 0.5361 0.5091 0.4821 0.4531
834.415503 0.4360 0.4190 0.4000 0.3790 0.3601
837.662260 0.3600 0.4417 0.4440 0.4440 0.4430
840.909017 0.4270 0.4120 0.3970 0.3840 0.3840
844.155774 0.4040 0.4249 0.4559 0.4889 0.5239
847.402531 0.5300 0.5929 0.6329 0.6340 0.6450
850.649288 0.6560 0.6650 0.6660 0.6730 0.6790
853.896045 0.6870 0.6930 0.6980 0.7010 0.7030
857.142802 0.7050 0.7080 0.7110 0.7150 0.7180
860.389559 0.7200 0.7220 0.7230 0.7250 0.7250
863.636316 0.7250 0.7260 0.7260 0.7270 0.7270
866.883073 0.7270 0.7270 0.7270 0.7270 0.7270
870.129830 0.7270 0.7280 0.7280 0.7280 0.7280
873.376587 0.7280 0.7280 0.7280 0.7290 0.7290
876.623344 0.7300 0.7320 0.7320 0.7330 0.7340
879.870101 0.7350 0.7360 0.7360 0.7360 0.7360
883.116858 0.7360 0.7360 0.7350 0.7350 0.7340
886.363615 0.7340 0.7330 0.7320 0.7320 0.7320
889.610372 0.7310 0.7300 0.7300 0.7300 0.7290
892.857129 0.7290 0.7280 0.7280 0.7280 0.7280
896.103886 0.7280 0.7280 0.7280 0.7280 0.7280
899.350643 0.7280 0.7280 0.7280 0.7270 0.7270
902.597400 0.7260 0.7250 0.7250 0.7240 0.7230
905.844157 0.7230 0.7220 0.7210 0.7200 0.7190
909.090914 0.7180 0.7180 0.7160 0.7160 0.7140
912.337671 0.7140 0.7120 0.7110 0.7100 0.7100
915.584428 0.7090 0.7070 0.7060 0.7040 0.7030
918.831185 0.7010 0.7000 0.6980 0.6980 0.6970
922.077942 0.6960 0.6950 0.6950 0.6940 0.6920
925.324699 0.6910 0.6900 0.6870 0.6850 0.6840
928.571455 0.6820 0.6800 0.6780 0.6770 0.6760
931.818212 0.6740 0.6720 0.6710 0.6680 0.6660
935.064969 0.6630 0.6590 0.6550 0.6490 0.6440
938.311726 0.6430 0.6400 0.6390 0.6390 0.6390
941.558483 0.6370 0.6370 0.6370 0.6350 0.6330
944.805240 0.6300 0.6240 0.6160 0.6120 0.5990
948.051997 0.5850 0.5631 0.5411 0.5310 0.5290
951.298754 0.5150 0.5010 0.4870 0.4730 0.4590
954.545511 0.4520 0.4450 0.4301 0.4111 0.4010
957.792268 0.3910 0.3740 0.3730 0.3720 0.3730
961.039025 0.3780 0.4568 0.4849 0.5398 0.5619
964.285782 0.5790 0.6010 0.6300 0.6320 0.6330
967.532539 0.6330 0.6360 0.6370 0.6380 0.6390
970.779296 0.6400 0.6410 0.6420 0.6480 0.6580
974.026053 0.6660 0.6730 0.6770 0.6820 0.6850
977.272810 0.6880 0.6920 0.6960 0.6960 0.6970
980.519567 0.6980 0.6980 0.6980 0.6990 0.6990
983.766324 0.6990 0.6990 0.6980 0.6980 0.6980
987.013081 0.6980 0.6980 0.6980 0.6970 0.6960
990.259838 0.6950 0.6950 0.6940 0.6940 0.6940
993.506595 0.6920 0.6920 0.6910 0.6910 0.6910
996.753352 0.6900 0.6890 0.6870 0.6850 0.6830
1000.000109 0.6820 0.6800 0.6800 0.6800 0.6790
1003.246866 0.6780 0.6780 0.6780 0.6770 0.6760
1006.493623 0.6750 0.6730 0.6710 0.6680 0.6660
1009.740380 0.6650 0.6640 0.6620 0.6620 0.6610
1012.987137 0.6600 0.6600 0.6590 0.6580 0.6570
1016.233894 0.6560 0.6540 0.6520 0.6490 0.6460
1019.480651 0.6420 0.6370 0.6330 0.6300 0.6270
1022.727408 0.6240 0.6220 0.6220 0.6220 0.6240
1025.974165 0.6240 0.6260 0.6280 0.6300 0.6320
1029.220922 0.6330 0.6330 0.6330 0.6330 0.6340
1032.467679 0.6340 0.6340 0.6330 0.6330 0.6330
1035.714436 0.6330 0.6320 0.6310 0.6300 0.6300
1038.961193 0.6290 0.6280 0.6280 0.6280 0.6270
1042.207950 0.6270 0.6270 0.6270 0.6260 0.6260
1045.454707 0.6260 0.6260 0.6250 0.6240 0.6230
1048.701464 0.6210 0.6200 0.6190 0.6180 0.6170
1051.948221 0.6150 0.6150 0.6130 0.6110 0.6090
1055.194978 0.6080 0.6060 0.6040 0.6020 0.5990
1058.441735 0.5970 0.5950 0.5920 0.5890 0.5850
1061.688492 0.5810 0.5780 0.5720 0.5670 0.5610
1064.935249 0.5550 0.5480 0.5400 0.5320 0.5220
1068.182006 0.5070 0.5040 0.5020 0.5030 0.5040
1071.428763 0.5130 0.5250 0.5409 0.5559 0.5719
1074.675520 0.5880 0.6030 0.6100 0.6130 0.6140
1077.922277 0.6140 0.6140 0.6130 0.6120 0.6110
1081.169034 0.6100 0.6090 0.6080 0.6070 0.6060
1084.415791 0.6060 0.6050 0.6040 0.6030 0.6030
1087.662548 0.6030 0.6030 0.6020 0.6020 0.6010
1090.909305 0.6010 0.6000 0.5990 0.5990 0.5990
1094.156062 0.5990 0.5990 0.5980 0.5980 0.5970
1097.402819 0.5970 0.5960 0.5950 0.5940 0.5940
1100.649576 0.5940 0.5930 0.5930 0.5920 0.5920
1103.896333 0.5910 0.5910 0.5900 0.5900 0.5890
1107.143090 0.5870 0.5860 0.5840 0.5820 0.5810
1110.389847 0.5800 0.5790 0.5790 0.5780 0.5770
1113.636604 0.5760 0.5760 0.5750 0.5740 0.5740
1116.883361 0.5730 0.5720 0.5710 0.5690 0.5670
1120.130118 0.5650 0.5620 0.5590 0.5560 0.5530
1123.376875 0.5510 0.5480 0.5450 0.5430 0.5400
1126.623632 0.5360 0.5320 0.5270 0.5220 0.5150
1129.870389 0.5120 0.5090 0.5060 0.5040 0.5020
1133.117146 0.5020 0.5020 0.5030 0.5050 0.5070
1136.363903 0.5090 0.5130 0.5140 0.5160 0.5200
1139.610660 0.5240 0.5270 0.5290 0.5300 0.5310
1142.857417 0.5310 0.5310 0.5310 0.5310 0.5310
1146.104173 0.5300 0.5300 0.5290 0.5290 0.5280
1149.350930 0.5280 0.5260 0.5240 0.5220 0.5190
1152.597687 0.5160 0.5150 0.5150 0.5140 0.5120
1155.844444 0.5110 0.5080 0.5040 0.4950 0.4880
1159.091201 0.4820 0.4770 0.4730 0.4690 0.4660
1162.337958 0.4630 0.4590 0.4550 0.4500 0.4470
1165.584715 0.4440 0.4360 0.4270 0.4160 0.4020
1168.831472 0.3860 0.3670 0.3570 0.3480 0.3101
1172.078229 0.2930 0.2760 0.2580 0.2420 0.2240
1175.324986 0.2070 0.1900 0.1890 0.1900 0.2169
1178.571743 0.2431 0.2891 0.5060 0.5510 0.5670
1181.818500 0.5980 0.6349 0.6709 0.6999 0.7140
1185.065257 0.7160 0.7190 0.7240 0.7250 0.7270
1188.312014 0.7250 0.7240 0.7190 0.7150 0.7120
1191.558771 0.7070 0.7010 0.6950 0.6890 0.6820
1194.805528 0.6760 0.6700 0.6640 0.6580 0.6560
1198.052285 0.6530 0.6490 0.6460 0.6420 0.6380
1201.299042 0.6340 0.6300 0.6270 0.6240 0.6210
1204.545799 0.6170 0.6130 0.6100 0.6060 0.6030
1207.792556 0.5990 0.5970 0.5940 0.5910 0.5880
1211.039313 0.5850 0.5830 0.5800 0.5780 0.5750
1214.286070 0.5720 0.5700 0.5670 0.5650 0.5610
1217.532827 0.5590 0.5560 0.5530 0.5500 0.5470
1220.779584 0.5430 0.5400 0.5360 0.5320 0.5270
1224.026341 0.5240 0.5180 0.5130 0.5090 0.5090
1227.273098 0.5060 0.5030 0.5020 0.5010 0.5000
1230.519855 0.4990 0.4970 0.4960 0.4940 0.4930
1233.766612 0.4910 0.4890 0.4860 0.4830 0.4790
1237.013369 0.4750 0.4720 0.4680 0.4640 0.4600
1240.260126 0.4560 0.4520 0.4500 0.4480 0.4450
1243.506883 0.4410 0.4380 0.4340 0.4280 0.4210
1246.753640 0.4160 0.4090 0.4040 0.3980 0.3930
1250.000397 0.3880 0.3840 0.3780 0.3740 0.3690
1253.247154 0.3640 0.3590 0.3550 0.3500 0.3450
1256.493911 0.3400 0.3350 0.3290 0.3240 0.3170
1259.740668 0.3120 0.3050 0.2990 0.2920 0.2840
1262.987425 0.2760 0.2680 0.2600 0.2500 0.2400
1266.234182 0.2300 0.2200 0.2100 0.2060 0.1990
1269.480939 0.1930 0.1700 0.1620 0.1520 0.1410
1272.727696 0.1310 0.1210 0.1110 0.1000 0.0900
1275.974453 0.0800 0.0700 0.0600 0.0590 0.0580
1279.221210 0.0580 0.0590 0.0680 0.0770 0.0860
1282.467967 0.0950 0.1030 0.1190 0.1480 0.1759
1285.714724 0.2099 0.2469 0.2889 0.3298 0.3708
1288.961481 0.4110 0.4770 0.4780 0.4790 0.4770
1292.208238 0.4760 0.4700 0.4520 0.4360 0.4201
1295.454995 0.3750 0.3560 0.3360 0.3140 0.2920
1298.701752 0.2710 0.2491 0.2271 0.2051 0.1841
1301.948509 0.1830 0.1840 0.1840 0.2010 0.2170
1305.195266 0.2340 0.2500 0.2670 0.3049 0.3110
1308.442023 0.3190 0.3500 0.3800 0.4090 0.4609
1311.688780 0.4829 0.5029 0.5189 0.5310 0.5400
1314.935537 0.5430 0.5600 0.5760 0.5920 0.6060
1318.182294 0.6200 0.6330 0.6450 0.6560 0.6660
1321.429051 0.6760 0.6850 0.6920 0.7000 0.7060
1324.675808 0.7110 0.7160 0.7190 0.7220 0.7240
1327.922565 0.7250 0.7250 0.7250 0.7240 0.7210
1331.169322 0.7180 0.7130 0.7070 0.7010 0.6960
1334.416079 0.6890 0.6820 0.6750 0.6680 0.6540
1337.662836 0.6420 0.6330 0.6260 0.6190 0.6150
1340.909593 0.6100 0.6060 0.6020 0.5970 0.5920
1344.156350 0.5850 0.5760 0.5560 0.5371 0.5350
1347.403107 0.5350 0.5040 0.4630 0.4560 0.4490
1350.649864 0.4380 0.4250 0.4140 0.3712 0.3531
1353.896621 0.3340 0.3150 0.2960 0.2780 0.2580
1357.143378 0.2400 0.2380 0.2380 0.2380 0.2400
1360.390135 0.2580 0.2760 0.2940 0.3120 0.3300
1363.636891 0.3300 0.3709 0.3959 0.4149 0.4250
1366.883648 0.4340 0.4540 0.4680 0.4810 0.4820
1370.130405 0.4820 0.4770 0.4730 0.4680 0.4660
1373.377162 0.4660 0.4660 0.4660 0.4670 0.4800
1376.623919 0.4990 0.5150 0.5280 0.5400 0.5510
1379.870676 0.5600 0.5690 0.5760 0.5830 0.5900
1383.117433 0.5970 0.6040 0.6110 0.6190 0.6270
1386.364190 0.6370 0.6480 0.6600 0.6670 0.6730
1389.610947 0.6750 0.6760 0.6760 0.6770 0.6770
1392.857704 0.6780 0.6780 0.6780 0.6780 0.6780
1396.104461 0.6780 0.6770 0.6750 0.6730 0.6710
1399.351218 0.6690 0.6670 0.6640 0.6620 0.6590
1402.597975 0.6570 0.6550 0.6520 0.6490 0.6480
1405.844732 0.6460 0.6440 0.6390 0.6330 0.6290
1409.091489 0.6250 0.6210 0.6170 0.6140 0.6100
1412.338246 0.6070 0.6040 0.6010 0.5980 0.5960
1415.585003 0.5920 0.5890 0.5830 0.5760 0.5700
1418.831760 0.5630 0.5580 0.5520 0.5450 0.5400
1422.078517 0.5330 0.5270 0.5200 0.5130 0.5050
1425.325274 0.4970 0.4880 0.4790 0.4690 0.4580
1428.572031 0.4520 0.4470 0.4340 0.4200 0.4051
1431.818788 0.3900 0.3730 0.3550 0.3350 0.3210
1435.065545 0.3110 0.3030 0.3010 0.3000 0.3010
1438.312302 0.3010 0.3040 0.3130 0.3240 0.3360
1441.559059 0.3480 0.3610 0.3730 0.3850 0.3940
1444.805816 0.4000 0.4060 0.4070 0.4070 0.4080
1448.052573 0.4090 0.4080 0.4070 0.4030 0.4000
1451.299330 0.3960 0.3920 0.3870 0.3840 0.3790
1454.546087 0.3750 0.3710 0.3660 0.3630 0.3590
1457.792844 0.3570 0.3530 0.3530 0.3520 0.3510
1461.039601 0.3510 0.3520 0.3520 0.3550 0.3590
1464.286358 0.3620 0.3670 0.3680 0.3750 0.3820
1467.533115 0.3900 0.4090 0.4120 0.4160 0.4230
1470.779872 0.4540 0.4650 0.4750 0.4820 0.4880
1474.026629 0.4920 0.4960 0.4990 0.5010 0.5040
1477.273386 0.5060 0.5090 0.5130 0.5150 0.5150
1480.520143 0.5160 0.5160 0.5160 0.5160 0.5150
1483.766900 0.5150 0.5150 0.5140 0.5130 0.5120
1487.013657 0.5110 0.5100 0.5060 0.5020 0.5000
1490.260414 0.4980 0.4970 0.4970 0.4960 0.4940
1493.507171 0.4920 0.4890 0.4840 0.4770 0.4670
1496.753928 0.4580 0.4540 0.4500 0.4460 0.4380
1500.000685 0.4300 0.4220 0.4140 0.4070 0.3980
1503.247442 0.3910 0.3850 0.3850 0.3910 0.3970
1506.494199 0.4030 0.4100 0.4210 0.4210 0.3522
1509.740956 0.3169 0.2820 0.2820 0.3030 0.3250
1512.987713 0.3470 0.3690 0.3910 0.3930 0.4040
1516.234470 0.4210 0.4570 0.4580 0.4590 0.4600
1519.481227 0.4600 0.4590 0.4580 0.4550 0.4530
1522.727984 0.4510 0.4480 0.4440 0.4390 0.4350
1525.974741 0.4300 0.4260 0.4210 0.4160 0.4120
1529.221498 0.4070 0.4030 0.3980 0.3940 0.3890
1532.468255 0.3850 0.3810 0.3770 0.3730 0.3690
1535.715012 0.3650 0.3610 0.3510 0.3420 0.3350
1538.961769 0.3280 0.3230 0.3180 0.3140 0.3110
1542.208526 0.3080 0.3050 0.3030 0.3000 0.2970
1545.455283 0.2940 0.2900 0.2860 0.2810 0.2740
1548.702040 0.2670 0.2590 0.2490 0.2370 0.2240
1551.948797 0.2200 0.2190 0.2110 0.2040 0.1960
1555.195554 0.1890 0.1790 0.1680 0.1570 0.1470
1558.442311 0.1370 0.1270 0.1140 0.1130 0.1140
1561.689068 0.1140 0.1260 0.1380 0.1510 0.1630
1564.935825 0.1750 0.1770 0.1860 0.2000 0.2130
1568.182582 0.2270 0.2370 0.2400 0.2400 0.2380
1571.429339 0.2360 0.2320 0.2180 0.2060 0.1901
1574.676096 0.1760 0.1630 0.1490 0.1300 0.1220
1577.922852 0.1140 0.1070 0.1000 0.0930 0.0860
1581.169609 0.0780 0.0710 0.0670 0.0620 0.0610
1584.416366 0.0600 0.0600 0.0610 0.0610 0.0620
1587.663123 0.0640 0.0700 0.0750 0.0800 0.0860
1590.909880 0.0910 0.0980 0.1050 0.1140 0.1240
1594.156637 0.1370 0.1510 0.1690 0.1790 0.1820
1597.403394 0.1840 0.1880 0.2189 0.2240 0.2330
1600.650151 0.2400 0.2490 0.2740 0.3030 0.3160
1603.896908 0.3300 0.3450 0.3600 0.3760 0.3910
1607.143665 0.4070 0.4230 0.4540 0.4680 0.4820
1610.390422 0.4950 0.5080 0.5180 0.5290 0.5370
1613.637179 0.5440 0.5510 0.5550 0.5580 0.5580
1616.883936 0.5590 0.5590 0.5580 0.5560 0.5510
1620.130693 0.5420 0.5310 0.5220 0.5150 0.5040
1623.377450 0.4910 0.4750 0.4570 0.4470 0.4360
1626.624207 0.4130 0.3890 0.3620 0.3120 0.2500
1629.870964 0.2460 0.2370 0.2260 0.2140 0.2020
1633.117721 0.1900 0.1790 0.1670 0.1550 0.1400
1636.364478 0.1340 0.1290 0.1240 0.1180 0.1170
1639.611235 0.1180 0.1200 0.1240 0.1280 0.1340
1642.857992 0.1340 0.1340 0.1330 0.1290 0.1250
1646.104749 0.1220 0.1090 0.0960 0.0880 0.0820
1649.351506 0.0810 0.0800 0.0810 0.0930 0.1050
1652.598263 0.1160 0.1230 0.1360 0.1630 0.1630
1655.845020 0.1860 0.2100 0.2330 0.2540 0.2680
1659.091777 0.2920 0.3320 0.3730 0.3940 0.4140
1662.338534 0.4540 0.4720 0.4900 0.5070 0.5240
1665.585291 0.5400 0.5550 0.5700 0.5840 0.5970
1668.832048 0.6110 0.6230 0.6350 0.6470 0.6580
1672.078805 0.6690 0.6790 0.6890 0.6980 0.7070
1675.325562 0.7150 0.7230 0.7310 0.7380 0.7450
1678.572319 0.7520 0.7570 0.7630 0.7690 0.7740
1681.819076 0.7790 0.7840 0.7880 0.7920 0.7960
1685.065833 0.8000 0.8030 0.8060 0.8090 0.8120
1688.312590 0.8150 0.8170 0.8200 0.8220 0.8240
1691.559347 0.8260 0.8280 0.8300 0.8310 0.8330
1694.806104 0.8350 0.8360 0.8380 0.8400 0.8410
1698.052861 0.8430 0.8440 0.8460 0.8470 0.8490
1701.299618 0.8510 0.8530 0.8550 0.8570 0.8590
1704.546375 0.8620 0.8640 0.8640 0.8650 0.8650
1707.793132 0.8660 0.8670 0.8670 0.8670 0.8670
1711.039889 0.8670 0.8670 0.8680 0.8680 0.8680
1714.286646 0.8690 0.8690 0.8700 0.8700 0.8710
1717.533403 0.8710 0.8720 0.8720 0.8720 0.8730
1720.780160 0.8730 0.8730 0.8740 0.8740 0.8740
1724.026917 0.8740 0.8740 0.8740 0.8740 0.8740
1727.273674 0.8730 0.8730 0.8720 0.8720 0.8710
1730.520431 0.8700 0.8690 0.8680 0.8660 0.8650
1733.767188 0.8640 0.8640 0.8630 0.8630 0.8630
1737.013945 0.8620 0.8620 0.8610 0.8610 0.8610
1740.260702 0.8600 0.8590 0.8590 0.8580 0.8580
1743.507459 0.8580 0.8570 0.8560 0.8560 0.8560
1746.754216 0.8560 0.8560 0.8560 0.8550 0.8540
1750.000973 0.8540 0.8520 0.8520 0.8510 0.8500
1753.247730 0.8500 0.8500 0.8500 0.8510 0.8510
1756.494487 0.8520 0.8520 0.8520 0.8520 0.8520
1759.741244 0.8530 0.8530 0.8540 0.8540 0.8550
1762.988001 0.8550 0.8560 0.8560 0.8560 0.8570
1766.234758 0.8570 0.8570 0.8570 0.8560 0.8560
1769.481515 0.8560 0.8560 0.8550 0.8550 0.8550
1772.728272 0.8550 0.8550 0.8550 0.8550 0.8550
1775.975029 0.8550 0.8540 0.8540 0.8540 0.8540
1779.221786 0.8540 0.8530 0.8530 0.8520 0.8520
1782.468543 0.8520 0.8510 0.8510 0.8500 0.8500
1785.715300 0.8500 0.8490 0.8490 0.8490 0.8490
1788.962057 0.8490 0.8490 0.8490 0.8490 0.8480
1792.208814 0.8480 0.8480 0.8480 0.8470 0.8470
1795.455570 0.8470 0.8470 0.8470 0.8470 0.8460
1798.702327 0.8460 0.8450 0.8450 0.8450 0.8450
1801.949084 0.8440 0.8440 0.8440 0.8430 0.8430
1805.195841 0.8430 0.8430 0.8420 0.8420 0.8420
1808.442598 0.8420 0.8410 0.8400 0.8400 0.8390
1811.689355 0.8390 0.8380 0.8380 0.8380 0.8380
1814.936112 0.8380 0.8380 0.8370 0.8370 0.8370
1818.182869 0.8370 0.8370 0.8360 0.8360 0.8360
1821.429626 0.8360 0.8360 0.8350 0.8350 0.8340
1824.676383 0.8340 0.8340 0.8340 0.8330 0.8330
1827.923140 0.8320 0.8310 0.8310 0.8300 0.8290
1831.169897 0.8290 0.8280 0.8280 0.8270 0.8270
1834.416654 0.8260 0.8260 0.8250 0.8250 0.8240
1837.663411 0.8240 0.8240 0.8230 0.8230 0.8230
1840.910168 0.8220 0.8220 0.8220 0.8220 0.8210
1844.156925 0.8210 0.8200 0.8200 0.8200 0.8200
1847.403682 0.8190 0.8190 0.8180 0.8180 0.8180
1850.650439 0.8180 0.8180 0.8180 0.8170 0.8170
1853.897196 0.8160 0.8160 0.8160 0.8150 0.8150
1857.143953 0.8150 0.8150 0.8140 0.8140 0.8130
1860.390710 0.8130 0.8120 0.8110 0.8110 0.8110
1863.637467 0.8100 0.8090 0.8090 0.8090 0.8080
1866.884224 0.8070 0.8070 0.8070 0.8060 0.8060
1870.130981 0.8060 0.8050 0.8050 0.8050 0.8040
1873.377738 0.8040 0.8020 0.8020 0.8010 0.8000
1876.624495 0.7990 0.7980 0.7980 0.7970 0.7970
1879.871252 0.7970 0.7960 0.7960 0.7960 0.7970
1883.118009 0.7970 0.7970 0.7980 0.7980 0.7980
1886.364766 0.7990 0.7990 0.8000 0.8000 0.8000
1889.611523 0.8010 0.8010 0.8020 0.8020 0.8020
1892.858280 0.8020 0.8020 0.8020 0.8020 0.8020
1896.105037 0.8020 0.8010 0.8010 0.8000 0.8000
1899.351794 0.8000 0.7990 0.7980 0.7980 0.7970
1902.598551 0.7950 0.7950 0.7950 0.7940 0.7930
1905.845308 0.7930 0.7920 0.7920 0.7910 0.7910
1909.092065 0.7900 0.7890 0.7870 0.7860 0.7840
1912.338822 0.7840 0.7830 0.7820 0.7820 0.7820
1915.585579 0.7820 0.7820 0.7820 0.7820 0.7820
1918.832336 0.7820 0.7820 0.7820 0.7820 0.7820
1922.079093 0.7820 0.7820 0.7820 0.7820 0.7820
1925.325850 0.7820 0.7820 0.7810 0.7810 0.7810
1928.572607 0.7800 0.7800 0.7800 0.7790 0.7790
1931.819364 0.7790 0.7770 0.7760 0.7740 0.7730
1935.066121 0.7710 0.7700 0.7690 0.7680 0.7670
1938.312878 0.7660 0.7660 0.7650 0.7650 0.7650
1941.559635 0.7640 0.7640 0.7640 0.7630 0.7630
1944.806392 0.7630 0.7630 0.7630 0.7630 0.7630
1948.053149 0.7630 0.7630 0.7630 0.7640 0.7640
1951.299906 0.7640 0.7640 0.7640 0.7640 0.7650
1954.546663 0.7660 0.7660 0.7660 0.7660 0.7660
1957.793420 0.7660 0.7650 0.7650 0.7640 0.7640
1961.040177 0.7640 0.7630 0.7620 0.7610 0.7590
1964.286934 0.7590 0.7570 0.7570 0.7570 0.7560
1967.533691 0.7560 0.7550 0.7550 0.7550 0.7550
1970.780448 0.7550 0.7540 0.7540 0.7540 0.7540
1974.027205 0.7540 0.7540 0.7540 0.7540 0.7540
1977.273962 0.7540 0.7540 0.7540 0.7540 0.7540
1980.520719 0.7540 0.7540 0.7540 0.7540 0.7530
1983.767476 0.7530 0.7530 0.7530 0.7530 0.7530
1987.014233 0.7530 0.7530 0.7520 0.7520 0.7520
1990.260990 0.7520 0.7520 0.7520 0.7520 0.7520
1993.507747 0.7510 0.7510 0.7510 0.7500 0.7500
1996.754504 0.7500 0.7500 0.7500 0.7500 0.7490
2000.001261 0.7490 0.7487 0.7485 0.7482 0.7480
2003.248018 0.7480 0.7480 0.7480 0.7480 0.7480
2006.494775 0.7480 0.7480 0.7480 0.7480 0.7480
2009.741532 0.7480 0.7479 0.7477 0.7474 0.7472
2012.988288 0.7469 0.7467 0.7464 0.7462 0.7460
2016.235045 0.7460 0.7460 0.7460 0.7460 0.7460
2019.481802 0.7460 0.7460 0.7460 0.7460 0.7460
2022.728559 0.7460 0.7458 0.7456 0.7453 0.7451
2025.975316 0.7450 0.7450 0.7450 0.7450 0.7450
2029.222073 0.7450 0.7450 0.7450 0.7450 0.7450
2032.468830 0.7450 0.7450 0.7448 0.7445 0.7443
2035.715587 0.7440 0.7440 0.7440 0.7440 0.7440
2038.962344 0.7437 0.7435 0.7432 0.7430 0.7430
2042.209101 0.7430 0.7430 0.7430 0.7430 0.7430
2045.455858 0.7430 0.7430 0.7430 0.7430 0.7430
2048.702615 0.7430 0.7430 0.7430 0.7430 0.7430
2051.949372 0.7430 0.7430 0.7430 0.7430 0.7430
2055.196129 0.7430 0.7430 0.7430 0.7430 0.7430
2058.442886 0.7430 0.7430 0.7430 0.7430 0.7430
2061.689643 0.7430 0.7430 0.7430 0.7430 0.7430
2064.936400 0.7430 0.7430 0.7430 0.7430 0.7430
2068.183157 0.7430 0.7430 0.7430 0.7430 0.7430
2071.429914 0.7430 0.7430 0.7430 0.7430 0.7430
2074.676671 0.7433 0.7435 0.7438 0.7440 0.7440
2077.923428 0.7440 0.7440 0.7440 0.7443 0.7446
2081.170185 0.7448 0.7450 0.7450 0.7450 0.7450
2084.416942 0.7450 0.7450 0.7450 0.7450 0.7450
2087.663699 0.7450 0.7450 0.7450 0.7450 0.7450
2090.910456 0.7450 0.7450 0.7450 0.7450 0.7450
2094.157213 0.7450 0.7450 0.7450 0.7450 0.7450
2097.403970 0.7450 0.7450 0.7450 0.7450 0.7448
2100.650727 0.7446 0.7443 0.7440 0.7440 0.7440
2103.897484 0.7440 0.7440 0.7438 0.7435 0.7433
2107.144241 0.7430 0.7430 0.7430 0.7430 0.7430
2110.390998 0.7430 0.7430 0.7430 0.7430 0.7427
2113.637755 0.7425 0.7422 0.7420 0.7417 0.7415
2116.884512 0.7412 0.7410 0.7410 0.7410 0.7410
2120.131269 0.7410 0.7410 0.7410 0.7410 0.7409
2123.378026 0.7407 0.7404 0.7402 0.7400 0.7400
2126.624783 0.7400 0.7400 0.7399 0.7396 0.7394
2129.871540 0.7391 0.7390 0.7390 0.7390 0.7390
2133.118297 0.7390 0.7390 0.7390 0.7390 0.7390
2136.365054 0.7390 0.7390 0.7390 0.7388 0.7385
2139.611811 0.7383 0.7380 0.7378 0.7375 0.7373
2142.858568 0.7370 0.7370 0.7370 0.7370 0.7370
2146.105325 0.7370 0.7370 0.7370 0.7370 0.7370
2149.352082 0.7370 0.7370 0.7370 0.7367 0.7365
2152.598839 0.7362 0.7360 0.7360 0.7360 0.7360
2155.845596 0.7360 0.7360 0.7360 0.7360 0.7360
2159.092353 0.7360 0.7360 0.7360 0.7360 0.7360
2162.339110 0.7360 0.7360 0.7360 0.7360 0.7360
2165.585867 0.7360 0.7360 0.7360 0.7360 0.7360
2168.832624 0.7360 0.7360 0.7360 0.7360 0.7358
2172.079381 0.7356 0.7353 0.7351 0.7350 0.7350
2175.326138 0.7350 0.7350 0.7348 0.7345 0.7343
2178.572895 0.7340 0.7340 0.7340 0.7340 0.7340
2181.819652 0.7338 0.7335 0.7332 0.7330 0.7325
2185.066409 0.7320 0.7315 0.7310 0.7307 0.7305
2188.313166 0.7302 0.7299 0.7291 0.7283 0.7276
2191.559923 0.7266 0.7251 0.7236 0.7221 0.7205
2194.806680 0.7190 0.7175 0.7160 0.7144 0.7129
2198.053437 0.7114 0.7099 0.7071 0.7028 0.6985
2201.300194 0.6942 0.6915 0.6905 0.6894 0.6884
2204.546951 0.6874 0.6864 0.6853 0.6843 0.6831
2207.793708 0.6819 0.6806 0.6793 0.6786 0.6781
2211.040465 0.6776 0.6771 0.6768 0.6765 0.6763
2214.287222 0.6760 0.6758 0.6755 0.6753 0.6750
2217.533979 0.6750 0.6750 0.6750 0.6750 0.6750
2220.780736 0.6750 0.6750 0.6750 0.6750 0.6750
2224.027493 0.6750 0.6750 0.6747 0.6745 0.6742
2227.274250 0.6740 0.6740 0.6740 0.6740 0.6739
2230.521006 0.6737 0.6734 0.6732 0.6730 0.6730
2233.767763 0.6730 0.6730 0.6730 0.6730 0.6730
2237.014520 0.6730 0.6729 0.6726 0.6724 0.6721
2240.261277 0.6720 0.6720 0.6720 0.6720 0.6720
2243.508034 0.6720 0.6720 0.6720 0.6720 0.6720
2246.754791 0.6720 0.6720 0.6720 0.6720 0.6720
2250.001548 0.6720 0.6720 0.6720 0.6720 0.6720
2253.248305 0.6720 0.6720 0.6720 0.6720 0.6717
2256.495062 0.6715 0.6712 0.6710 0.6710 0.6710
2259.741819 0.6710 0.6710 0.6710 0.6710 0.6710
2262.988576 0.6709 0.6707 0.6704 0.6702 0.6699
2266.235333 0.6697 0.6694 0.6692 0.6690 0.6690
2269.482090 0.6690 0.6690 0.6689 0.6686 0.6684
2272.728847 0.6681 0.6679 0.6676 0.6674 0.6671
2275.975604 0.6669 0.6666 0.6664 0.6661 0.6658
2279.222361 0.6656 0.6653 0.6651 0.6648 0.6646
2282.469118 0.6643 0.6641 0.6636 0.6631 0.6626
2285.715875 0.6621 0.6616 0.6611 0.6606 0.6600
2288.962632 0.6598 0.6595 0.6593 0.6590 0.6588
2292.209389 0.6585 0.6582 0.6580 0.6580 0.6580
2295.456146 0.6580 0.6580 0.6580 0.6580 0.6580
2298.702903 0.6580 0.6577 0.6574 0.6572 0.6569
2301.949660 0.6567 0.6564 0.6562 0.6559 0.6557
2305.196417 0.6554 0.6551 0.6549 0.6546 0.6544
2308.443174 0.6541 0.6539 0.6536 0.6534 0.6531
2311.689931 0.6530 0.6530 0.6530 0.6530 0.6528
2314.936688 0.6526 0.6523 0.6521 0.6518 0.6516
2318.183445 0.6513 0.6511 0.6508 0.6506 0.6503
2321.430202 0.6500 0.6498 0.6495 0.6493 0.6490
2324.676959 0.6490 0.6490 0.6490 0.6490 0.6488
2327.923716 0.6485 0.6483 0.6480 0.6480 0.6480
2331.170473 0.6480 0.6479 0.6474 0.6469 0.6464
2334.417230 0.6460 0.6460 0.6460 0.6460 0.6459
2337.663987 0.6457 0.6454 0.6452 0.6449 0.6447
2340.910744 0.6444 0.6442 0.6440 0.6440 0.6440
2344.157501 0.6440 0.6439 0.6436 0.6434 0.6431
2347.404258 0.6430 0.6430 0.6430 0.6430 0.6429
2350.651015 0.6426 0.6423 0.6421 0.6420 0.6420
2353.897772 0.6420 0.6420 0.6418 0.6416 0.6413
2357.144529 0.6410 0.6408 0.6405 0.6403 0.6400
2360.391286 0.6400 0.6400 0.6400 0.6400 0.6398
2363.638043 0.6395 0.6392 0.6390 0.6390 0.6390
2366.884800 0.6390 0.6390 0.6390 0.6390 0.6390
2370.131557 0.6390 0.6387 0.6385 0.6382 0.6379
2373.378314 0.6377 0.6374 0.6372 0.6370 0.6370
2376.625071 0.6370 0.6370 0.6369 0.6367 0.6364
2379.871828 0.6361 0.6359 0.6356 0.6354 0.6351
2383.118585 0.6350 0.6350 0.6350 0.6350 0.6348
2386.365342 0.6346 0.6343 0.6341 0.6338 0.6336
2389.612099 0.6333 0.6331 0.6330 0.6330 0.6330
2392.858856 0.6330 0.6330 0.6330 0.6330 0.6330
2396.105613 0.6330 0.6330 0.6330 0.6330 0.6328
2399.352370 0.6325 0.6323 0.6320 0.6320 0.6320
2402.599127 0.6320 0.6320 0.6317 0.6315 0.6312
2405.845884 0.6310 0.6310 0.6310 0.6310 0.6310
2409.092641 0.6310 0.6310 0.6310 0.6309 0.6307
2412.339398 0.6304 0.6302 0.6300 0.6300 0.6300
2415.586155 0.6300 0.6299 0.6296 0.6294 0.6291
2418.832912 0.6289 0.6286 0.6284 0.6281 0.6279
2422.079669 0.6276 0.6274 0.6271 0.6268 0.6266
2425.326426 0.6263 0.6261 0.6260 0.6260 0.6260
2428.573183 0.6260 0.6258 0.6256 0.6253 0.6250
2431.819940 0.6248 0.6245 0.6243 0.6240 0.6240
2435.066697 0.6240 0.6240 0.6240 0.6237 0.6235
2438.313454 0.6232 0.6230 0.6230 0.6230 0.6230
2441.560211 0.6230 0.6227 0.6225 0.6222 0.6220
2444.806968 0.6220 0.6220 0.6220 0.6220 0.6220
2448.053724 0.6220 0.6220 0.6219 0.6217 0.6214
2451.300481 0.6212 0.6210 0.6210 0.6210 0.6210
2454.547238 0.6210 0.6210 0.6210 0.6210 0.6209
2457.793995 0.6206 0.6204 0.6201 0.6200 0.6200
2461.040752 0.6200 0.6200 0.6198 0.6196 0.6193
2464.287509 0.6191 0.6190 0.6190 0.6190 0.6190
2467.534266 0.6190 0.6190 0.6190 0.6190 0.6190
2470.781023 0.6190 0.6190 0.6190 0.6188 0.6185
2474.027780 0.6182 0.6180 0.6180 0.6180 0.6180
2477.274537 0.6180 0.6177 0.6175 0.6172 0.6169
2480.521294 0.6164 0.6159 0.6154 0.6149 0.6147
2483.768051 0.6144 0.6142 0.6139 0.6137 0.6134
2487.014808 0.6132 0.6129 0.6126 0.6124 0.6121
2490.261565 0.6119 0.6116 0.6114 0.6111 0.6110
2493.508322 0.6110 0.6110 0.6110 0.6108 0.6106
2496.755079 0.6103 0.6101 0.6098 0.6096 0.6093
2500.001836 0.6091 0.6088 0.6086 0.6083 0.6081
2503.248593 0.6078 0.6075 0.6073 0.6070 0.6068
2506.495350 0.6065 0.6063 0.6060 0.6058 0.6055
2509.742107 0.6052 0.6050 0.6050 0.6050 0.6050
2512.988864 0.6050 0.6047 0.6045 0.6042 0.6040
2516.235621 0.6037 0.6034 0.6032 0.6030 0.6030
2519.482378 0.6030 0.6030 0.6030 0.6030 0.6030
2522.729135 0.6030 0.6029 0.6027 0.6024 0.6021
2525.975892 0.6019 0.6016 0.6014 0.6011 0.6009
2529.222649 0.6006 0.6004 0.6001 0.6000 0.6000
2532.469406 0.6000 0.6000 0.5998 0.5996 0.5993
2535.716163 0.5991 0.5988 0.5986 0.5983 0.5980
2538.962920 0.5978 0.5975 0.5973 0.5970 0.5968
2542.209677 0.5965 0.5963 0.5960 0.5955 0.5950
2545.456434 0.5945 0.5940 0.5935 0.5930 0.5925
2548.703191 0.5920 0.5917 0.5915 0.5912 0.5910
2551.949948 0.5907 0.5905 0.5902 0.5899 0.5894
2555.196705 0.5889 0.5884 0.5880 0.5880 0.5880
2558.443462 0.5880 0.5879 0.5877 0.5874 0.5871
2561.690219 0.5870 0.5870 0.5870 0.5870 0.5869
2564.936976 0.5866 0.5864 0.5861 0.5860 0.5860
2568.183733 0.5860 0.5860 0.5858 0.5856 0.5853
2571.430490 0.5851 0.5848 0.5846 0.5843 0.5841
2574.677247 0.5838 0.5836 0.5833 0.5830 0.5830
2577.924004 0.5830 0.5830 0.5830 0.5828 0.5825
2581.170761 0.5823 0.5820 0.5818 0.5815 0.5812
2584.417518 0.5810 0.5805 0.5800 0.5794 0.5790
2587.664275 0.5790 0.5790 0.5790 0.5789 0.5787
2590.911032 0.5784 0.5782 0.5780 0.5780 0.5780
2594.157789 0.5780 0.5780 0.5780 0.5780 0.5780
2597.404546 0.5779 0.5776 0.5774 0.5771 0.5770
2600.651303 0.5770 0.5770 0.5770 0.5766 0.5758
2603.898060 0.5751 0.5743 0.5735 0.5728 0.5720
2607.144817 0.5713 0.5708 0.5706 0.5703 0.5701
2610.391574 0.5698 0.5696 0.5693 0.5690 0.5684
2613.638331 0.5676 0.5668 0.5661 0.5660 0.5660
2616.885088 0.5660 0.5660 0.5658 0.5655 0.5652
2620.131845 0.5650 0.5650 0.5650 0.5650 0.5650
2623.378602 0.5647 0.5645 0.5642 0.5640 0.5637
2626.625359 0.5634 0.5632 0.5630 0.5630 0.5630
2629.872116 0.5630 0.5629 0.5627 0.5624 0.5622
2633.118873 0.5618 0.5613 0.5608 0.5603 0.5599
2636.365630 0.5596 0.5594 0.5591 0.5589 0.5586
2639.612387 0.5584 0.5581 0.5578 0.5576 0.5573
2642.859144 0.5571 0.5568 0.5566 0.5563 0.5561
2646.105901 0.5558 0.5556 0.5553 0.5550 0.5548
2649.352658 0.5545 0.5543 0.5540 0.5538 0.5535
2652.599415 0.5533 0.5530 0.5528 0.5525 0.5523
2655.846172 0.5520 0.5520 0.5520 0.5520 0.5520
2659.092929 0.5517 0.5515 0.5512 0.5510 0.5507
2662.339686 0.5505 0.5502 0.5500 0.5500 0.5500
2665.586442 0.5500 0.5499 0.5497 0.5494 0.5492
2668.833199 0.5490 0.5490 0.5490 0.5490 0.5489
2672.079956 0.5486 0.5484 0.5481 0.5480 0.5480
2675.326713 0.5480 0.5480 0.5479 0.5476 0.5473
2678.573470 0.5471 0.5470 0.5470 0.5470 0.5470
2681.820227 0.5468 0.5466 0.5463 0.5461 0.5458
2685.066984 0.5455 0.5453 0.5450 0.5450 0.5450
2688.313741 0.5450 0.5450 0.5450 0.5450 0.5450
2691.560498 0.5450 0.5447 0.5445 0.5442 0.5440
2694.807255 0.5440 0.5440 0.5440 0.5440 0.5437
2698.054012 0.5435 0.5432 0.5430 0.5430 0.5430
2701.300769 0.5430 0.5430 0.5430 0.5430 0.5430
2704.547526 0.5430 0.5430 0.5430 0.5430 0.5431
2707.794283 0.5434 0.5436 0.5439 0.5440 0.5440
2711.041040 0.5440 0.5440 0.5441 0.5444 0.5447
2714.287797 0.5449 0.5450 0.5450 0.5450 0.5450
2717.534554 0.5450 0.5450 0.5450 0.5450 0.5450
2720.781311 0.5450 0.5450 0.5450 0.5450 0.5450
2724.028068 0.5450 0.5450 0.5452 0.5455 0.5457
2727.274825 0.5460 0.5462 0.5465 0.5468 0.5470
2730.521582 0.5470 0.5470 0.5470 0.5470 0.5470
2733.768339 0.5470 0.5470 0.5470 0.5473 0.5476
2737.015096 0.5478 0.5481 0.5483 0.5486 0.5488
2740.261853 0.5490 0.5490 0.5490 0.5490 0.5490
2743.508610 0.5490 0.5490 0.5490 0.5491 0.5494
2746.755367 0.5496 0.5499 0.5500 0.5500 0.5500
2750.002124 0.5500 0.5500 0.5500 0.5500 0.5500
2753.248881 0.5498 0.5496 0.5493 0.5491 0.5490
2756.495638 0.5490 0.5490 0.5490 0.5490 0.5490
2759.742395 0.5490 0.5490 0.5490 0.5490 0.5490
2762.989152 0.5490 0.5488 0.5485 0.5482 0.5480
2766.235909 0.5477 0.5475 0.5472 0.5470 0.5470
2769.482666 0.5470 0.5470 0.5470 0.5467 0.5464
2772.729423 0.5462 0.5459 0.5457 0.5454 0.5452
2775.976180 0.5449 0.5447 0.5444 0.5442 0.5439
2779.222937 0.5436 0.5434 0.5431 0.5427 0.5419
2782.469694 0.5411 0.5404 0.5397 0.5392 0.5387
2785.716451 0.5382 0.5380 0.5380 0.5380 0.5380
2788.963208 0.5380 0.5380 0.5380 0.5380 0.5376
2792.209965 0.5371 0.5366 0.5361 0.5356 0.5351
2795.456722 0.5346 0.5341 0.5335 0.5330 0.5325
2798.703479 0.5320 0.5315 0.5310 0.5305 0.5300
2801.950236 0.5295 0.5290 0.5285 0.5280 0.5275
2805.196993 0.5269 0.5264 0.5259 0.5254 0.5249
2808.443750 0.5244 0.5240 0.5240 0.5240 0.5240
2811.690507 0.5239 0.5233 0.5228 0.5223 0.5216
2814.937264 0.5203 0.5190 0.5177 0.5164 0.5151
2818.184021 0.5139 0.5126 0.5111 0.5093 0.5075
2821.430778 0.5057 0.5038 0.5018 0.4997 0.4977
2824.677535 0.4960 0.4945 0.4930 0.4914 0.4862
2827.924292 0.4796 0.4730 0.4664 0.4574 0.4478
2831.171049 0.4381 0.4284 0.4188 0.4091 0.3995
2834.417806 0.3898 0.3581 0.3243 0.2905 0.2567
2837.664563 0.2460 0.2359 0.2257 0.2153 0.2007
2840.911320 0.1860 0.1713 0.1583 0.1537 0.1491
2844.158077 0.1445 0.1410 0.1410 0.1410 0.1410
2847.404834 0.1410 0.1410 0.1410 0.1410 0.1425
2850.651591 0.1469 0.1512 0.1555 0.1585 0.1598
2853.898348 0.1611 0.1623 0.1642 0.1668 0.1693
2857.145105 0.1719 0.1744 0.1769 0.1795 0.1820
2860.391862 0.1844 0.1867 0.1890 0.1913 0.1936
2863.638619 0.1959 0.1981 0.2004 0.2016 0.2024
2866.885376 0.2031 0.2039 0.2040 0.2040 0.2040
2870.132133 0.2040 0.2042 0.2045 0.2047 0.2050
2873.378890 0.2047 0.2045 0.2042 0.2040 0.2040
2876.625647 0.2040 0.2040 0.2039 0.2029 0.2018
2879.872404 0.2008 0.1997 0.1979 0.1961 0.1943
2883.119160 0.1925 0.1908 0.1890 0.1872 0.1852
2886.365917 0.1826 0.1801 0.1776 0.1749 0.1721
2889.612674 0.1693 0.1665 0.1636 0.1605 0.1574
2892.859431 0.1543 0.1513 0.1482 0.1452 0.1421
2896.106188 0.1391 0.1360 0.1330 0.1299 0.1269
2899.352945 0.1238 0.1208 0.1177 0.1147 0.1116
2902.599702 0.1086 0.1055 0.1029 0.1004 0.0978
2905.846459 0.0953 0.0930 0.0907 0.0884 0.0861
2909.093216 0.0841 0.0820 0.0800 0.0780 0.0764
2912.339973 0.0749 0.0734 0.0716 0.0670 0.0625
2915.586730 0.0579 0.0540 0.0537 0.0534 0.0532
2918.833487 0.0529 0.0524 0.0518 0.0513 0.0510
2922.080244 0.0510 0.0510 0.0510 0.0511 0.0514
2925.327001 0.0516 0.0519 0.0529 0.0550 0.0570
2928.573758 0.0590 0.0611 0.0631 0.0651 0.0672
2931.820515 0.0692 0.0712 0.0733 0.0753 0.0770
2935.067272 0.0785 0.0801 0.0816 0.0827 0.0838
2938.314029 0.0848 0.0858 0.0862 0.0865 0.0867
2941.560786 0.0870 0.0870 0.0870 0.0870 0.0870
2944.807543 0.0872 0.0875 0.0878 0.0880 0.0880
2948.054300 0.0880 0.0880 0.0879 0.0869 0.0859
2951.301057 0.0849 0.0838 0.0822 0.0807 0.0792
2954.547814 0.0777 0.0764 0.0752 0.0739 0.0729
2957.794571 0.0727 0.0724 0.0722 0.0721 0.0723
2961.041328 0.0726 0.0729 0.0746 0.0784 0.0822
2964.288085 0.0861 0.0905 0.0956 0.1007 0.1057
2967.534842 0.1106 0.1152 0.1198 0.1245 0.1291
2970.781599 0.1336 0.1382 0.1428 0.1474 0.1519
2974.028356 0.1565 0.1611 0.1657 0.1702 0.1748
2977.275113 0.1794 0.1899 0.2013 0.2128 0.2242
2980.521870 0.2274 0.2299 0.2324 0.2350 0.2368
2983.768627 0.2386 0.2403 0.2423 0.2477 0.2530
2987.015384 0.2583 0.2636 0.2687 0.2738 0.2789
2990.262141 0.2840 0.2894 0.2947 0.3000 0.3055
2993.508898 0.3111 0.3168 0.3224 0.3274 0.3312
2996.755655 0.3350 0.3389 0.3413 0.3421 0.3429
3000.002412 0.3436 0.3446 0.3459 0.3472 0.3485
3003.249169 0.3499 0.3514 0.3529 0.3544 0.3555
3006.495926 0.3562 0.3570 0.3578 0.3587 0.3597
3009.742683 0.3607 0.3618 0.3628 0.3638 0.3648
3012.989440 0.3658 0.3668 0.3679 0.3689 0.3699
3016.236197 0.3711 0.3724 0.3737 0.3749 0.3750
3019.482954 0.3750 0.3750 0.3750 0.3753 0.3755
3022.729711 0.3758 0.3761 0.3766 0.3771 0.3776
3025.976468 0.3781 0.3786 0.3791 0.3796 0.3801
3029.223225 0.3806 0.3812 0.3817 0.3820 0.3820
3032.469982 0.3820 0.3820 0.3821 0.3824 0.3826
3035.716739 0.3829 0.3831 0.3834 0.3836 0.3839
3038.963496 0.3840 0.3840 0.3840 0.3840 0.3840
3042.210253 0.3840 0.3840 0.3840 0.3840 0.3840
3045.457010 0.3840 0.3840 0.3840 0.3840 0.3840
3048.703767 0.3840 0.3840 0.3840 0.3840 0.3840
3051.950524 0.3840 0.3840 0.3840 0.3840 0.3840
3055.197281 0.3840 0.3840 0.3840 0.3840 0.3840
3058.444038 0.3840 0.3840 0.3840 0.3840 0.3840
3061.690795 0.3840 0.3837 0.3834 0.3832 0.3830
3064.937552 0.3830 0.3830 0.3830 0.3829 0.3827
3068.184309 0.3824 0.3822 0.3820 0.3820 0.3820
3071.431066 0.3820 0.3819 0.3816 0.3814 0.3811
3074.677823 0.3809 0.3806 0.3804 0.3801 0.3800
3077.924580 0.3800 0.3800 0.3800 0.3798 0.3796
3081.171337 0.3793 0.3791 0.3788 0.3786 0.3783
3084.418094 0.3781 0.3780 0.3780 0.3780 0.3780
3087.664851 0.3778 0.3775 0.3773 0.3770 0.3770
3090.911608 0.3770 0.3770 0.3770 0.3767 0.3765
3094.158365 0.3762 0.3760 0.3757 0.3755 0.3752
3097.405122 0.3750 0.3750 0.3750 0.3750 0.3749
3100.651878 0.3744 0.3739 0.3734 0.3730 0.3730
3103.898635 0.3730 0.3730 0.3727 0.3720 0.3712
3107.145392 0.3704 0.3699 0.3696 0.3694 0.3691
3110.392149 0.3689 0.3686 0.3684 0.3681 0.3674
3113.638906 0.3664 0.3654 0.3644 0.3638 0.3636
3116.885663 0.3633 0.3631 0.3623 0.3613 0.3603
3120.132420 0.3592 0.3586 0.3581 0.3576 0.3571
3123.379177 0.3570 0.3570 0.3570 0.3570 0.3568
3126.625934 0.3565 0.3563 0.3560 0.3557 0.3555
3129.872691 0.3552 0.3550 0.3547 0.3545 0.3542
3133.119448 0.3540 0.3537 0.3535 0.3532 0.3529
3136.366205 0.3527 0.3524 0.3522 0.3519 0.3514
3139.612962 0.3508 0.3503 0.3497 0.3486 0.3476
3142.859719 0.3466 0.3456 0.3446 0.3436 0.3425
3146.106476 0.3414 0.3401 0.3388 0.3375 0.3366
3149.353233 0.3358 0.3350 0.3343 0.3335 0.3327
3152.599990 0.3320 0.3312 0.3306 0.3301 0.3296
3155.846747 0.3291 0.3286 0.3281 0.3276 0.3271
3159.093504 0.3257 0.3242 0.3227 0.3211 0.3194
3162.340261 0.3176 0.3158 0.3140 0.3125 0.3110
3165.587018 0.3095 0.3079 0.3064 0.3049 0.3034
3168.833775 0.3018 0.3003 0.2988 0.2973 0.2957
3172.080532 0.2942 0.2926 0.2911 0.2896 0.2880
3175.327289 0.2865 0.2850 0.2835 0.2819 0.2804
3178.574046 0.2789 0.2774 0.2758 0.2743 0.2728
3181.820803 0.2711 0.2694 0.2676 0.2658 0.2640
3185.067560 0.2623 0.2605 0.2587 0.2569 0.2551
3188.314317 0.2534 0.2516 0.2498 0.2480 0.2462
3191.561074 0.2445 0.2425 0.2405 0.2384 0.2364
3194.807831 0.2346 0.2328 0.2310 0.2292 0.2270
3198.054588 0.2247 0.2223 0.2200 0.2177 0.2155
3201.301345 0.2132 0.2109 0.2086 0.2063 0.2040
3204.548102 0.2017 0.1992 0.1966 0.1941 0.1915
3207.794859 0.1887 0.1859 0.1831 0.1803 0.1775
3211.041616 0.1747 0.1719 0.1690 0.1657 0.1624
3214.288373 0.1591 0.1558 0.1528 0.1497 0.1467
3217.535130 0.1446 0.1435 0.1425 0.1415 0.1410
3220.781887 0.1410 0.1410 0.1410 0.1410 0.1410
3224.028644 0.1410 0.1410 0.1424 0.1444 0.1465
3227.275401 0.1485 0.1517 0.1552 0.1588 0.1624
3230.522158 0.1661 0.1699 0.1737 0.1776 0.1811
3233.768915 0.1847 0.1883 0.1918 0.1963 0.2009
3237.015672 0.2055 0.2101 0.2149 0.2197 0.2246
3240.262429 0.2295 0.2353 0.2412 0.2470 0.2528
3243.509186 0.2584 0.2640 0.2696 0.2752 0.2811
3246.755943 0.2869 0.2928 0.2985 0.3039 0.3093
3250.002700 0.3147 0.3199 0.3247 0.3295 0.3344
3253.249457 0.3387 0.3425 0.3464 0.3502 0.3535
3256.496214 0.3562 0.3590 0.3618 0.3631 0.3634
3259.742971 0.3637 0.3639 0.3640 0.3640 0.3640
3262.989728 0.3640 0.3633 0.3623 0.3612 0.3602
3266.236485 0.3594 0.3586 0.3579 0.3571 0.3564
3269.483242 0.3556 0.3548 0.3541 0.3521 0.3501
3272.729999 0.3481 0.3460 0.3437 0.3414 0.3391
3275.976756 0.3368 0.3345 0.3322 0.3299 0.3276
3279.223513 0.3254 0.3231 0.3208 0.3185 0.3162
3282.470270 0.3139 0.3116 0.3093 0.3071 0.3048
3285.717027 0.3025 0.3002 0.2979 0.2956 0.2933
3288.963784 0.2910 0.2888 0.2865 0.2842 0.2818
3292.210541 0.2792 0.2767 0.2741 0.2716 0.2691
3295.457298 0.2665 0.2640 0.2616 0.2593 0.2570
3298.704055 0.2547 0.2523 0.2497 0.2471 0.2445
3301.950812 0.2418 0.2390 0.2362 0.2334 0.2306
3305.197569 0.2278 0.2250 0.2222 0.2192 0.2161
3308.444326 0.2131 0.2100 0.2072 0.2044 0.2016
3311.691083 0.1988 0.1955 0.1922 0.1889 0.1856
3314.937839 0.1826 0.1795 0.1765 0.1734 0.1701
3318.184596 0.1668 0.1635 0.1601 0.1566 0.1530
3321.431353 0.1494 0.1462 0.1437 0.1411 0.1386
3324.678110 0.1369 0.1366 0.1364 0.1361 0.1360
3327.924867 0.1360 0.1360 0.1360 0.1360 0.1360
3331.171624 0.1360 0.1360 0.1405 0.1476 0.1547
3334.418381 0.1618 0.1649 0.1661 0.1674 0.1687
3337.665138 0.1715 0.1748 0.1781 0.1814 0.1897
3340.911895 0.1991 0.2085 0.2179 0.2262 0.2343
3344.158652 0.2425 0.2506 0.2580 0.2654 0.2728
3347.405409 0.2801 0.2865 0.2928 0.2992 0.3055
3350.652166 0.3114 0.3173 0.3232 0.3290 0.3338
3353.898923 0.3386 0.3434 0.3481 0.3525 0.3568
3357.145680 0.3611 0.3652 0.3687 0.3723 0.3758
3360.392437 0.3793 0.3826 0.3859 0.3892 0.3922
3363.639194 0.3947 0.3972 0.3998 0.4011 0.4014
3366.885951 0.4016 0.4019 0.4020 0.4020 0.4020
3370.132708 0.4020 0.4003 0.3978 0.3953 0.3927
3373.379465 0.3882 0.3828 0.3775 0.3722 0.3698
3376.626222 0.3682 0.3667 0.3652 0.3623 0.3592
3379.872979 0.3562 0.3531 0.3481 0.3430 0.3379
3383.119736 0.3329 0.3280 0.3232 0.3184 0.3135
3386.366493 0.3084 0.3034 0.2983 0.2932 0.2884
3389.613250 0.2836 0.2787 0.2739 0.2691 0.2643
3392.860007 0.2594 0.2559 0.2557 0.2554 0.2552
3396.106764 0.2551 0.2553 0.2556 0.2559 0.2589
3399.353521 0.2658 0.2726 0.2795 0.2865 0.2937
3402.600278 0.3009 0.3081 0.3153 0.3224 0.3295
3405.847035 0.3366 0.3398 0.3411 0.3424 0.3437
3409.093792 0.3466 0.3502 0.3537 0.3573 0.3610
3412.340549 0.3648 0.3687 0.3725 0.3765 0.3806
3415.587306 0.3846 0.3887 0.3930 0.3973 0.4016
3418.834063 0.4060 0.4103 0.4146 0.4189 0.4234
3422.080820 0.4311 0.4387 0.4463 0.4533 0.4561
3425.327577 0.4589 0.4617 0.4645 0.4671 0.4696
3428.574334 0.4722 0.4744 0.4757 0.4769 0.4782
3431.821091 0.4802 0.4835 0.4868 0.4901 0.4931
3435.067848 0.4956 0.4982 0.5007 0.5031 0.5054
3438.314605 0.5077 0.5100 0.5119 0.5134 0.5149
3441.561362 0.5164 0.5178 0.5191 0.5203 0.5216
3444.808119 0.5227 0.5237 0.5247 0.5258 0.5266
3448.054876 0.5273 0.5281 0.5289 0.5294 0.5299
3451.301633 0.5304 0.5309 0.5315 0.5320 0.5325
3454.548390 0.5330 0.5335 0.5340 0.5345 0.5350
3457.795147 0.5355 0.5361 0.5366 0.5371 0.5376
3461.041904 0.5381 0.5386 0.5391 0.5393 0.5396
3464.288661 0.5398 0.5400 0.5400 0.5400 0.5400
3467.535418 0.5401 0.5403 0.5406 0.5408 0.5409
3470.782175 0.5406 0.5404 0.5401 0.5400 0.5400
3474.028932 0.5400 0.5400 0.5399 0.5396 0.5394
3477.275689 0.5391 0.5388 0.5386 0.5383 0.5381
3480.522446 0.5380 0.5380 0.5380 0.5380 0.5378
3483.769203 0.5375 0.5373 0.5370 0.5370 0.5370
3487.015960 0.5370 0.5370 0.5368 0.5365 0.5363
3490.262717 0.5360 0.5360 0.5360 0.5360 0.5360
3493.509474 0.5357 0.5355 0.5352 0.5350 0.5350
3496.756231 0.5350 0.5350 0.5350 0.5350 0.5350
3500.002988 0.5350 0.5349 0.5347 0.5344 0.5342
3503.249745 0.5339 0.5337 0.5334 0.5332 0.5329
3506.496502 0.5326 0.5324 0.5321 0.5319 0.5316
3509.743259 0.5314 0.5311 0.5307 0.5302 0.5297
3512.990016 0.5292 0.5288 0.5286 0.5283 0.5281
3516.236773 0.5278 0.5276 0.5273 0.5271 0.5268
3519.483530 0.5266 0.5263 0.5261 0.5260 0.5260
3522.730287 0.5260 0.5260 0.5256 0.5251 0.5245
3525.977044 0.5240 0.5235 0.5230 0.5225 0.5220
3529.223801 0.5220 0.5220 0.5220 0.5220 0.5220
3532.470557 0.5220 0.5220 0.5220 0.5217 0.5214
3535.717314 0.5212 0.5210 0.5210 0.5210 0.5210
3538.964071 0.5209 0.5207 0.5204 0.5202 0.5200
3542.210828 0.5200 0.5200 0.5200 0.5200 0.5200
3545.457585 0.5200 0.5200 0.5200 0.5200 0.5200
3548.704342 0.5200 0.5199 0.5196 0.5193 0.5191
3551.951099 0.5188 0.5186 0.5183 0.5181 0.5180
3555.197856 0.5180 0.5180 0.5180 0.5178 0.5175
3558.444613 0.5173 0.5170 0.5168 0.5165 0.5163
3561.691370 0.5160 0.5160 0.5160 0.5160 0.5160
3564.938127 0.5157 0.5155 0.5152 0.5150 0.5147
3568.184884 0.5145 0.5142 0.5140 0.5137 0.5135
3571.431641 0.5132 0.5129 0.5127 0.5124 0.5122
3574.678398 0.5119 0.5117 0.5114 0.5112 0.5108
3577.925155 0.5103 0.5098 0.5093 0.5090 0.5090
3581.171912 0.5090 0.5090 0.5089 0.5086 0.5084
3584.418669 0.5081 0.5077 0.5072 0.5067 0.5062
3587.665426 0.5060 0.5060 0.5060 0.5060 0.5056
3590.912183 0.5051 0.5046 0.5041 0.5038 0.5035
3594.158940 0.5033 0.5030 0.5028 0.5025 0.5023
3597.405697 0.5020 0.5020 0.5020 0.5020 0.5020
3600.652454 0.5018 0.5015 0.5012 0.5010 0.5007
3603.899211 0.5005 0.5002 0.5000 0.5000 0.5000
3607.145968 0.5000 0.4999 0.4997 0.4994 0.4992
3610.392725 0.4990 0.4990 0.4990 0.4990 0.4990
3613.639482 0.4990 0.4990 0.4990 0.4989 0.4986
3616.886239 0.4984 0.4981 0.4979 0.4976 0.4974
3620.132996 0.4971 0.4970 0.4970 0.4970 0.4970
3623.379753 0.4970 0.4970 0.4970 0.4970 0.4968
3626.626510 0.4966 0.4963 0.4961 0.4958 0.4956
3629.873267 0.4953 0.4951 0.4950 0.4950 0.4950
3633.120024 0.4950 0.4948 0.4945 0.4943 0.4940
3636.366781 0.4940 0.4940 0.4940 0.4940 0.4937
3639.613538 0.4935 0.4932 0.4929 0.4924 0.4919
3642.860295 0.4914 0.4910 0.4907 0.4904 0.4902
3646.107052 0.4900 0.4900 0.4900 0.4900 0.4898
3649.353809 0.4893 0.4888 0.4883 0.4880 0.4880
3652.600566 0.4880 0.4880 0.4879 0.4876 0.4874
3655.847323 0.4871 0.4869 0.4866 0.4864 0.4861
3659.094080 0.4860 0.4860 0.4860 0.4860 0.4857
3662.340837 0.4851 0.4846 0.4841 0.4838 0.4836
3665.587594 0.4833 0.4830 0.4828 0.4825 0.4823
3668.834351 0.4820 0.4820 0.4820 0.4820 0.4820
3672.081108 0.4818 0.4815 0.4813 0.4810 0.4810
3675.327865 0.4810 0.4810 0.4810 0.4810 0.4810
3678.574622 0.4810 0.4810 0.4810 0.4810 0.4810
3681.821379 0.4810 0.4810 0.4810 0.4810 0.4809
3685.068136 0.4807 0.4804 0.4802 0.4800 0.4800
3688.314893 0.4800 0.4800 0.4799 0.4796 0.4794
3691.561650 0.4791 0.4790 0.4790 0.4790 0.4790
3694.808407 0.4789 0.4786 0.4783 0.4781 0.4778
3698.055164 0.4776 0.4773 0.4771 0.4766 0.4761
3701.301921 0.4756 0.4751 0.4748 0.4745 0.4743
3704.548678 0.4740 0.4738 0.4735 0.4733 0.4730
3707.795435 0.4728 0.4725 0.4723 0.4720 0.4720
3711.042192 0.4720 0.4720 0.4720 0.4717 0.4715
3714.288949 0.4712 0.4710 0.4707 0.4705 0.4702
3717.535706 0.4700 0.4700 0.4700 0.4700 0.4700
3720.782463 0.4700 0.4700 0.4700 0.4700 0.4700
3724.029220 0.4700 0.4700 0.4700 0.4700 0.4700
3727.275977 0.4700 0.4699 0.4696 0.4694 0.4691
3730.522734 0.4690 0.4690 0.4690 0.4690 0.4688
3733.769491 0.4686 0.4683 0.4681 0.4678 0.4676
3737.016248 0.4673 0.4671 0.4668 0.4665 0.4663
3740.263005 0.4660 0.4660 0.4660 0.4660 0.4660
3743.509762 0.4660 0.4660 0.4660 0.4660 0.4660
3746.756519 0.4660 0.4660 0.4660 0.4657 0.4655
3750.003275 0.4652 0.4650 0.4647 0.4645 0.4642
3753.250032 0.4640 0.4637 0.4634 0.4632 0.4630
3756.496789 0.4630 0.4630 0.4630 0.4630 0.4630
3759.743546 0.4630 0.4630 0.4629 0.4626 0.4624
3762.990303 0.4621 0.4619 0.4616 0.4614 0.4611
3766.237060 0.4610 0.4610 0.4610 0.4610 0.4610
3769.483817 0.4610 0.4610 0.4610 0.4608 0.4606
3772.730574 0.4603 0.4601 0.4598 0.4596 0.4593
3775.977331 0.4590 0.4590 0.4590 0.4590 0.4590
3779.224088 0.4590 0.4590 0.4590 0.4590 0.4588
3782.470845 0.4585 0.4583 0.4580 0.4577 0.4575
3785.717602 0.4572 0.4570 0.4570 0.4570 0.4570
3788.964359 0.4570 0.4567 0.4564 0.4562 0.4560
3792.211116 0.4560 0.4560 0.4560 0.4559 0.4557
3795.457873 0.4554 0.4552 0.4549 0.4546 0.4544
3798.704630 0.4541 0.4540 0.4540 0.4540 0.4540
3801.951387 0.4540 0.4540 0.4540 0.4540 0.4539
3805.198144 0.4536 0.4533 0.4531 0.4528 0.4526
3808.444901 0.4523 0.4521 0.4520 0.4520 0.4520
3811.691658 0.4520 0.4520 0.4520 0.4520 0.4520
3814.938415 0.4520 0.4520 0.4520 0.4520 0.4518
3818.185172 0.4515 0.4512 0.4510 0.4510 0.4510
3821.431929 0.4510 0.4510 0.4507 0.4505 0.4502
3824.678686 0.4500 0.4500 0.4500 0.4500 0.4500
3827.925443 0.4500 0.4500 0.4500 0.4500 0.4500
3831.172200 0.4500 0.4500 0.4499 0.4497 0.4494
3834.418957 0.4491 0.4490 0.4490 0.4490 0.4490
3837.665714 0.4489 0.4486 0.4484 0.4481 0.4480
3840.912471 0.4480 0.4480 0.4480 0.4478 0.4476
3844.159228 0.4473 0.4471 0.4470 0.4470 0.4470
3847.405985 0.4470 0.4468 0.4465 0.4463 0.4460
3850.652742 0.4458 0.4455 0.4453 0.4450 0.4450
3853.899499 0.4450 0.4450 0.4450 0.4447 0.4445
3857.146256 0.4442 0.4440 0.4437 0.4435 0.4432
3860.393013 0.4430 0.4427 0.4425 0.4422 0.4420
3863.639770 0.4420 0.4420 0.4420 0.4419 0.4417
3866.886527 0.4414 0.4412 0.4410 0.4410 0.4410
3870.133284 0.4410 0.4410 0.4410 0.4410 0.4410
3873.380041 0.4410 0.4410 0.4410 0.4410 0.4409
3876.626798 0.4406 0.4404 0.4401 0.4400 0.4400
3879.873555 0.4400 0.4400 0.4398 0.4396 0.4393
3883.120312 0.4391 0.4390 0.4390 0.4390 0.4390
3886.367069 0.4390 0.4390 0.4390 0.4390 0.4390
3889.613826 0.4390 0.4390 0.4390 0.4387 0.4385
3892.860583 0.4382 0.4380 0.4380 0.4380 0.4380
3896.107340 0.4380 0.4380 0.4380 0.4380 0.4380
3899.354097 0.4380 0.4380 0.4380 0.4379 0.4377
3902.600854 0.4374 0.4372 0.4370 0.4370 0.4370
3905.847611 0.4370 0.4369 0.4366 0.4364 0.4361
3909.094368 0.4360 0.4360 0.4360 0.4360 0.4360
3912.341125 0.4360 0.4360 0.4360 0.4360 0.4360
3915.587882 0.4360 0.4360 0.4358 0.4356 0.4353
3918.834639 0.4351 0.4350 0.4350 0.4350 0.4350
3922.081396 0.4350 0.4350 0.4350 0.4350 0.4348
3925.328153 0.4345 0.4343 0.4340 0.4340 0.4340
3928.574910 0.4340 0.4340 0.4340 0.4340 0.4340
3931.821667 0.4340 0.4340 0.4340 0.4340 0.4340
3935.068424 0.4340 0.4340 0.4340 0.4339 0.4337
3938.315181 0.4334 0.4332 0.4329 0.4327 0.4324
3941.561938 0.4322 0.4320 0.4320 0.4320 0.4320
3944.808695 0.4320 0.4320 0.4320 0.4320 0.4320
3948.055452 0.4320 0.4320 0.4320 0.4320 0.4320
3951.302209 0.4320 0.4320 0.4318 0.4316 0.4313
3954.548966 0.4311 0.4310 0.4310 0.4310 0.4310
3957.795723 0.4310 0.4310 0.4310 0.4310 0.4308
3961.042480 0.4305 0.4303 0.4300 0.4300 0.4300
3964.289237 0.4300 0.4300 0.4300 0.4300 0.4300
3967.535993 0.4300 0.4300 0.4300 0.4300 0.4300
3970.782750 0.4297 0.4294 0.4292 0.4290 0.4290
3974.029507 0.4290 0.4290 0.4290 0.4290 0.4290
3977.276264 0.4290 0.4290 0.4290 0.4290 0.4290
3980.523021 0.4290 0.4290 0.4290 0.4290 0.4289
3983.769778 0.4286 0.4284 0.4281 0.4279 0.4276
3987.016535 0.4273 0.4271 0.4270 0.4270 0.4270
3990.263292 0.4270 0.4270 0.4270 0.4270 0.4270
3993.510049 0.4270 0.4270 0.4270 0.4270 0.4268
3996.756806 0.4265 0.4263 0.4260 0.4260 0.4260
4000.003563 0.4260
##END=
