##TITLE=p-Nitrotoluene
##JCAMP-DX=4.24
$$ By DXEDIT 1.05 (RS McDonald)
##DATA TYPE=INFRARED SPECTRUM
##CLASS=COBLENTZ III
##ORIGIN=DOW CHEMICAL COMPANY
##OWNER=COPYRIGHT (C) 1988 by COBLENTZ SOCIETY INC.
Collection (C) 2018 copyright by the U.S. Secretary of Commerce
on behalf of the United States of America. All rights reserved.
##DATE=1968/11/09
##NAMES=1-methyl-4-nitrobenzene
##CAS REGISTRY NO=99-99-0
##MOLFORM=C7 H7 N O2
##SOURCE REFERENCE=COBLENTZ NO. 5633
##$NIST SOURCE=COBLENTZ
##$NIST IMAGE=cob5633
##SPECTROMETER/DATA SYSTEM=DOW KBr FOREPRISM-GRATING
$$SPECTRAL CONTAMINATION DUE TO CS2 AROUND 400 CM^-^1
##INSTRUMENT PARAMETERS=BLAZED AT 3.5, 12.0, 20.0 AND CHANGED AT 5.0, 7.5, 14.9 MICRON
##STATE=SOLUTION (10% CCl4 FOR 3800-1300, 10% CS2 FOR 1300-400)
##PATH LENGTH=0.010 CM, 0.010 CM
##SAMPLING PROCEDURE=TRANSMISSION
##RESOLUTION=2
##DATA PROCESSING=DIGITIZED BY COBLENTZ SOCIETY (BATCH I) FROM HARD COPY
##XUNITS=1/CM
##YUNITS=TRANSMITTANCE
##XFACTOR=1
##YFACTOR=1
##DELTAX=1
##FIRSTX=3794
##LASTX=381
##FIRSTY=0.9129
##MAXX=3794
##MINX=381
##MAXY=0.9496
##MINY=0
##NPOINTS=3414
##XYDATA=(X++(Y..Y))
3794.000000 0.9129 0.9132 0.9135 0.9146 0.9156
3789.000000 0.9169 0.9180 0.9191 0.9201 0.9212
3784.000000 0.9214 0.9219 0.9230 0.9246 0.9256
3779.000000 0.9247 0.9262 0.9267 0.9271 0.9255
3774.000000 0.9270 0.9270 0.9270 0.9270 0.9270
3769.000000 0.9269 0.9269 0.9268 0.9267 0.9261
3764.000000 0.9256 0.9252 0.9247 0.9242 0.9245
3759.000000 0.9239 0.9227 0.9224 0.9222 0.9222
3754.000000 0.9222 0.9221 0.9221 0.9221 0.9221
3749.000000 0.9221 0.9222 0.9224 0.9226 0.9228
3744.000000 0.9230 0.9231 0.9233 0.9235 0.9237
3739.000000 0.9244 0.9257 0.9259 0.9261 0.9263
3734.000000 0.9258 0.9251 0.9260 0.9267 0.9268
3729.000000 0.9268 0.9268 0.9268 0.9268 0.9268
3724.000000 0.9268 0.9268 0.9270 0.9270 0.9270
3719.000000 0.9255 0.9257 0.9271 0.9271 0.9271
3714.000000 0.9271 0.9270 0.9272 0.9279 0.9272
3709.000000 0.9281 0.9280 0.9279 0.9278 0.9277
3704.000000 0.9276 0.9275 0.9274 0.9273 0.9272
3699.000000 0.9271 0.9270 0.9269 0.9254 0.9251
3694.000000 0.9250 0.9248 0.9247 0.9245 0.9242
3689.000000 0.9239 0.9237 0.9232 0.9217 0.9214
3684.000000 0.9212 0.9210 0.9207 0.9205 0.9203
3679.000000 0.9200 0.9198 0.9195 0.9193 0.9193
3674.000000 0.9194 0.9195 0.9196 0.9197 0.9211
3669.000000 0.9201 0.9199 0.9201 0.9203 0.9203
3664.000000 0.9205 0.9206 0.9207 0.9207 0.9209
3659.000000 0.9210 0.9210 0.9212 0.9214 0.9215
3654.000000 0.9217 0.9218 0.9220 0.9222 0.9224
3649.000000 0.9225 0.9227 0.9228 0.9231 0.9232
3644.000000 0.9234 0.9236 0.9238 0.9239 0.9241
3639.000000 0.9242 0.9244 0.9245 0.9247 0.9248
3634.000000 0.9250 0.9254 0.9270 0.9270 0.9268
3629.000000 0.9259 0.9267 0.9277 0.9279 0.9281
3624.000000 0.9284 0.9285 0.9287 0.9288 0.9288
3619.000000 0.9289 0.9289 0.9288 0.9287 0.9285
3614.000000 0.9285 0.9284 0.9283 0.9282 0.9282
3609.000000 0.9280 0.9266 0.9279 0.9279 0.9277
3604.000000 0.9277 0.9271 0.9266 0.9274 0.9267
3599.000000 0.9258 0.9265 0.9272 0.9272 0.9269
3594.000000 0.9269 0.9269 0.9269 0.9268 0.9268
3589.000000 0.9266 0.9266 0.9266 0.9266 0.9265
3584.000000 0.9265 0.9265 0.9265 0.9264 0.9264
3579.000000 0.9263 0.9263 0.9262 0.9257 0.9250
3574.000000 0.9261 0.9261 0.9254 0.9244 0.9244
3569.000000 0.9243 0.9243 0.9242 0.9242 0.9241
3564.000000 0.9241 0.9241 0.9241 0.9240 0.9240
3559.000000 0.9239 0.9239 0.9239 0.9239 0.9252
3554.000000 0.9238 0.9239 0.9252 0.9251 0.9247
3549.000000 0.9240 0.9251 0.9250 0.9250 0.9242
3544.000000 0.9241 0.9248 0.9248 0.9248 0.9238
3539.000000 0.9241 0.9236 0.9241 0.9245 0.9244
3534.000000 0.9244 0.9244 0.9244 0.9244 0.9244
3529.000000 0.9228 0.9228 0.9228 0.9228 0.9228
3524.000000 0.9228 0.9228 0.9228 0.9228 0.9228
3519.000000 0.9228 0.9228 0.9228 0.9228 0.9228
3514.000000 0.9228 0.9227 0.9227 0.9226 0.9226
3509.000000 0.9226 0.9226 0.9226 0.9226 0.9226
3504.000000 0.9226 0.9226 0.9226 0.9226 0.9226
3499.000000 0.9226 0.9226 0.9225 0.9225 0.9225
3494.000000 0.9225 0.9225 0.9225 0.9225 0.9225
3489.000000 0.9225 0.9225 0.9224 0.9224 0.9224
3484.000000 0.9224 0.9224 0.9224 0.9224 0.9224
3479.000000 0.9223 0.9223 0.9223 0.9223 0.9223
3474.000000 0.9223 0.9222 0.9222 0.9222 0.9222
3469.000000 0.9222 0.9222 0.9221 0.9221 0.9221
3464.000000 0.9221 0.9221 0.9221 0.9219 0.9219
3459.000000 0.9219 0.9219 0.9219 0.9219 0.9219
3454.000000 0.9219 0.9218 0.9218 0.9218 0.9218
3449.000000 0.9218 0.9219 0.9219 0.9219 0.9219
3444.000000 0.9219 0.9219 0.9219 0.9219 0.9219
3439.000000 0.9219 0.9220 0.9220 0.9220 0.9220
3434.000000 0.9220 0.9220 0.9220 0.9220 0.9220
3429.000000 0.9220 0.9221 0.9221 0.9221 0.9208
3424.000000 0.9219 0.9221 0.9221 0.9221 0.9221
3419.000000 0.9221 0.9222 0.9222 0.9222 0.9222
3414.000000 0.9222 0.9222 0.9222 0.9222 0.9222
3409.000000 0.9222 0.9223 0.9231 0.9230 0.9223
3404.000000 0.9223 0.9223 0.9223 0.9223 0.9223
3399.000000 0.9223 0.9224 0.9224 0.9224 0.9224
3394.000000 0.9224 0.9224 0.9225 0.9225 0.9225
3389.000000 0.9225 0.9226 0.9226 0.9226 0.9226
3384.000000 0.9226 0.9226 0.9227 0.9227 0.9227
3379.000000 0.9227 0.9228 0.9228 0.9228 0.9228
3374.000000 0.9229 0.9229 0.9229 0.9229 0.9243
3369.000000 0.9231 0.9230 0.9230 0.9231 0.9231
3364.000000 0.9231 0.9231 0.9231 0.9231 0.9232
3359.000000 0.9232 0.9232 0.9232 0.9233 0.9233
3354.000000 0.9233 0.9233 0.9234 0.9234 0.9234
3349.000000 0.9234 0.9235 0.9235 0.9235 0.9247
3344.000000 0.9250 0.9235 0.9248 0.9234 0.9233
3339.000000 0.9234 0.9249 0.9248 0.9246 0.9232
3334.000000 0.9232 0.9232 0.9232 0.9232 0.9232
3329.000000 0.9231 0.9231 0.9231 0.9231 0.9231
3324.000000 0.9231 0.9230 0.9230 0.9230 0.9230
3319.000000 0.9230 0.9230 0.9229 0.9229 0.9229
3314.000000 0.9229 0.9229 0.9244 0.9244 0.9244
3309.000000 0.9243 0.9241 0.9231 0.9243 0.9243
3304.000000 0.9238 0.9227 0.9227 0.9227 0.9228
3299.000000 0.9228 0.9229 0.9229 0.9230 0.9230
3294.000000 0.9231 0.9231 0.9232 0.9232 0.9232
3289.000000 0.9232 0.9233 0.9233 0.9234 0.9234
3284.000000 0.9235 0.9250 0.9249 0.9236 0.9240
3279.000000 0.9252 0.9249 0.9238 0.9244 0.9254
3274.000000 0.9255 0.9255 0.9256 0.9256 0.9256
3269.000000 0.9255 0.9255 0.9255 0.9255 0.9255
3264.000000 0.9255 0.9254 0.9254 0.9254 0.9254
3259.000000 0.9254 0.9254 0.9252 0.9238 0.9251
3254.000000 0.9250 0.9249 0.9248 0.9247 0.9245
3249.000000 0.9243 0.9242 0.9240 0.9239 0.9230
3244.000000 0.9229 0.9234 0.9233 0.9225 0.9219
3239.000000 0.9206 0.9195 0.9179 0.9163 0.9149
3234.000000 0.9133 0.9114 0.9097 0.9078 0.9058
3229.000000 0.9042 0.9027 0.9015 0.8993 0.8996
3224.000000 0.9009 0.9009 0.9009 0.9009 0.9009
3219.000000 0.9009 0.9009 0.9013 0.9016 0.9019
3214.000000 0.9022 0.9025 0.9030 0.9033 0.9037
3209.000000 0.9040 0.9030 0.9031 0.9035 0.9039
3204.000000 0.9043 0.9046 0.9051 0.9054 0.9061
3199.000000 0.9074 0.9069 0.9081 0.9078 0.9092
3194.000000 0.9097 0.9099 0.9101 0.9103 0.9097
3189.000000 0.9099 0.9108 0.9110 0.9102 0.9098
3184.000000 0.9100 0.9102 0.9104 0.9105 0.9106
3179.000000 0.9106 0.9106 0.9106 0.9106 0.9105
3174.000000 0.9105 0.9104 0.9103 0.9101 0.9098
3169.000000 0.9097 0.9095 0.9094 0.9090 0.9089
3164.000000 0.9094 0.9099 0.9089 0.9086 0.9088
3159.000000 0.9082 0.9068 0.9067 0.9053 0.9042
3154.000000 0.9047 0.9042 0.9035 0.9027 0.9018
3149.000000 0.9007 0.8984 0.8975 0.8965 0.8955
3144.000000 0.8945 0.8935 0.8926 0.8920 0.8920
3139.000000 0.8910 0.8899 0.8889 0.8879 0.8869
3134.000000 0.8859 0.8847 0.8836 0.8821 0.8805
3129.000000 0.8787 0.8772 0.8754 0.8736 0.8718
3124.000000 0.8700 0.8695 0.8695 0.8695 0.8700
3119.000000 0.8704 0.8708 0.8711 0.8715 0.8718
3114.000000 0.8723 0.8726 0.8729 0.8729 0.8729
3109.000000 0.8728 0.8728 0.8715 0.8699 0.8672
3104.000000 0.8644 0.8605 0.8567 0.8398 0.8241
3099.000000 0.8042 0.7839 0.7759 0.7679 0.7617
3094.000000 0.7543 0.7469 0.7274 0.7325 0.7265
3089.000000 0.7255 0.7249 0.7370 0.7491 0.7607
3084.000000 0.7728 0.7855 0.7986 0.8056 0.8126
3079.000000 0.8126 0.8136 0.8151 0.8155 0.8152
3074.000000 0.8158 0.8098 0.8023 0.7941 0.7860
3069.000000 0.7769 0.7702 0.7622 0.7554 0.7532
3064.000000 0.7507 0.7483 0.7468 0.7461 0.7412
3059.000000 0.7462 0.7462 0.7457 0.7451 0.7460
3054.000000 0.7464 0.7508 0.7560 0.7612 0.7660
3049.000000 0.7705 0.7750 0.7799 0.7859 0.7917
3044.000000 0.7985 0.8026 0.8068 0.8109 0.8151
3039.000000 0.8177 0.8205 0.8231 0.8243 0.8259
3034.000000 0.8283 0.8277 0.8279 0.8289 0.8292
3029.000000 0.8292 0.8333 0.8292 0.8288 0.8288
3024.000000 0.8288 0.8288 0.8288 0.8285 0.8284
3019.000000 0.8287 0.8281 0.8269 0.8245 0.8229
3014.000000 0.8216 0.8197 0.8180 0.8161 0.8141
3009.000000 0.8122 0.8099 0.8065 0.8049 0.8035
3004.000000 0.8014 0.7977 0.7939 0.7906 0.7880
2999.000000 0.7847 0.7808 0.7790 0.7774 0.7768
2994.000000 0.7762 0.7766 0.7768 0.7768 0.7769
2989.000000 0.7775 0.7780 0.7785 0.7790 0.7796
2984.000000 0.7801 0.7805 0.7810 0.7810 0.7816
2979.000000 0.7826 0.7821 0.7808 0.7809 0.7799
2974.000000 0.7789 0.7763 0.7741 0.7720 0.7700
2969.000000 0.7687 0.7673 0.7648 0.7625 0.7592
2964.000000 0.7559 0.7533 0.7509 0.7487 0.7463
2959.000000 0.7450 0.7422 0.7391 0.7371 0.7365
2954.000000 0.7353 0.7369 0.7366 0.7373 0.7379
2949.000000 0.7411 0.7443 0.7472 0.7500 0.7512
2944.000000 0.7529 0.7528 0.7534 0.7529 0.7534
2939.000000 0.7536 0.7536 0.7496 0.7454 0.7400
2934.000000 0.7355 0.7321 0.7201 0.7286 0.7283
2929.000000 0.7282 0.7281 0.7321 0.7364 0.7592
2924.000000 0.7821 0.7856 0.7887 0.7910 0.7942
2919.000000 0.7969 0.7998 0.8026 0.8058 0.8093
2914.000000 0.8128 0.8145 0.8164 0.8183 0.8202
2909.000000 0.8220 0.8252 0.8265 0.8263 0.8271
2904.000000 0.8280 0.8289 0.8297 0.8304 0.8311
2899.000000 0.8315 0.8319 0.8324 0.8359 0.8329
2894.000000 0.8330 0.8331 0.8332 0.8327 0.8322
2889.000000 0.8317 0.8313 0.8307 0.8300 0.8290
2884.000000 0.8279 0.8263 0.8247 0.8228 0.8209
2879.000000 0.8184 0.8160 0.8110 0.8086 0.8028
2874.000000 0.7970 0.7894 0.7818 0.7712 0.7610
2869.000000 0.7513 0.7419 0.7323 0.7227 0.7174
2864.000000 0.7076 0.7115 0.7108 0.7106 0.7105
2859.000000 0.7111 0.7117 0.7143 0.7169 0.7589
2854.000000 0.7997 0.8030 0.8065 0.8113 0.8162
2849.000000 0.8213 0.8265 0.8317 0.8381 0.8429
2844.000000 0.8475 0.8514 0.8570 0.8609 0.8642
2839.000000 0.8674 0.8717 0.8744 0.8763 0.8781
2834.000000 0.8806 0.8822 0.8837 0.8850 0.8864
2829.000000 0.8887 0.8892 0.8917 0.8932 0.8924
2824.000000 0.8930 0.8947 0.8935 0.8951 0.8954
2819.000000 0.8954 0.8944 0.8946 0.8948 0.8950
2814.000000 0.8952 0.8954 0.8956 0.8958 0.8960
2809.000000 0.8961 0.8971 0.8978 0.8981 0.8982
2804.000000 0.8984 0.8985 0.8987 0.8988 0.8990
2799.000000 0.8992 0.8997 0.9003 0.9008 0.9012
2794.000000 0.9017 0.9023 0.9025 0.9020 0.9034
2789.000000 0.9025 0.9032 0.9036 0.9040 0.9051
2784.000000 0.9065 0.9061 0.9058 0.9071 0.9082
2779.000000 0.9087 0.9090 0.9095 0.9100 0.9105
2774.000000 0.9110 0.9114 0.9118 0.9122 0.9128
2769.000000 0.9129 0.9131 0.9133 0.9135 0.9137
2764.000000 0.9139 0.9140 0.9142 0.9144 0.9145
2759.000000 0.9148 0.9150 0.9150 0.9153 0.9153
2754.000000 0.9156 0.9157 0.9157 0.9157 0.9156
2749.000000 0.9150 0.9142 0.9131 0.9119 0.9109
2744.000000 0.9100 0.9091 0.9083 0.9075 0.9067
2739.000000 0.9066 0.9065 0.9065 0.9066 0.9068
2734.000000 0.9071 0.9079 0.9087 0.9095 0.9104
2729.000000 0.9110 0.9118 0.9122 0.9126 0.9127
2724.000000 0.9127 0.9127 0.9126 0.9124 0.9122
2719.000000 0.9114 0.9107 0.9098 0.9091 0.9074
2714.000000 0.9058 0.9044 0.9032 0.9020 0.9009
2709.000000 0.8998 0.8989 0.8983 0.8983 0.8985
2704.000000 0.8991 0.8999 0.9006 0.9016 0.9025
2699.000000 0.9036 0.9047 0.9058 0.9070 0.9080
2694.000000 0.9091 0.9099 0.9109 0.9117 0.9127
2689.000000 0.9136 0.9144 0.9152 0.9158 0.9162
2684.000000 0.9168 0.9173 0.9178 0.9182 0.9188
2679.000000 0.9193 0.9197 0.9201 0.9204 0.9206
2674.000000 0.9210 0.9212 0.9215 0.9218 0.9221
2669.000000 0.9223 0.9226 0.9229 0.9231 0.9233
2664.000000 0.9235 0.9237 0.9239 0.9241 0.9243
2659.000000 0.9245 0.9248 0.9265 0.9267 0.9267
2654.000000 0.9268 0.9268 0.9268 0.9261 0.9251
2649.000000 0.9249 0.9257 0.9250 0.9235 0.9209
2644.000000 0.9187 0.9170 0.9164 0.9142 0.9123
2639.000000 0.9107 0.9091 0.9078 0.9066 0.9072
2634.000000 0.9093 0.9097 0.9100 0.9088 0.9095
2629.000000 0.9110 0.9116 0.9121 0.9126 0.9132
2624.000000 0.9139 0.9141 0.9141 0.9141 0.9140
2619.000000 0.9132 0.9126 0.9119 0.9110 0.9106
2614.000000 0.9103 0.9103 0.9103 0.9105 0.9106
2609.000000 0.9110 0.9113 0.9117 0.9122 0.9126
2604.000000 0.9130 0.9133 0.9137 0.9142 0.9146
2599.000000 0.9149 0.9152 0.9155 0.9158 0.9163
2594.000000 0.9166 0.9169 0.9173 0.9175 0.9178
2589.000000 0.9180 0.9184 0.9187 0.9190 0.9192
2584.000000 0.9195 0.9197 0.9200 0.9203 0.9206
2579.000000 0.9208 0.9211 0.9215 0.9218 0.9221
2574.000000 0.9226 0.9229 0.9232 0.9235 0.9239
2569.000000 0.9242 0.9246 0.9249 0.9253 0.9256
2564.000000 0.9259 0.9262 0.9266 0.9268 0.9271
2559.000000 0.9275 0.9278 0.9281 0.9285 0.9288
2554.000000 0.9291 0.9294 0.9297 0.9300 0.9303
2549.000000 0.9306 0.9308 0.9309 0.9311 0.9312
2544.000000 0.9313 0.9316 0.9318 0.9319 0.9320
2539.000000 0.9320 0.9320 0.9320 0.9320 0.9320
2534.000000 0.9320 0.9319 0.9319 0.9313 0.9308
2529.000000 0.9302 0.9297 0.9292 0.9286 0.9280
2524.000000 0.9274 0.9266 0.9260 0.9252 0.9246
2519.000000 0.9239 0.9231 0.9227 0.9224 0.9221
2514.000000 0.9221 0.9219 0.9221 0.9224 0.9227
2509.000000 0.9229 0.9232 0.9234 0.9237 0.9239
2504.000000 0.9243 0.9246 0.9249 0.9250 0.9251
2499.000000 0.9252 0.9253 0.9254 0.9256 0.9256
2494.000000 0.9256 0.9256 0.9256 0.9256 0.9257
2489.000000 0.9257 0.9257 0.9257 0.9256 0.9256
2484.000000 0.9255 0.9253 0.9251 0.9258 0.9263
2479.000000 0.9259 0.9254 0.9245 0.9235 0.9225
2474.000000 0.9215 0.9204 0.9192 0.9176 0.9163
2469.000000 0.9139 0.9116 0.9089 0.9063 0.8935
2464.000000 0.8806 0.8637 0.8165 0.8322 0.8180
2459.000000 0.8174 0.8164 0.8164 0.8164 0.8167
2454.000000 0.8176 0.8253 0.8325 0.8453 0.8571
2449.000000 0.8709 0.8840 0.8925 0.9010 0.9034
2444.000000 0.9058 0.9068 0.9077 0.9087 0.9096
2439.000000 0.9106 0.9115 0.9118 0.9125 0.9129
2434.000000 0.9134 0.9139 0.9143 0.9147 0.9152
2429.000000 0.9153 0.9154 0.9155 0.9157 0.9159
2424.000000 0.9160 0.9161 0.9163 0.9164 0.9166
2419.000000 0.9167 0.9168 0.9170 0.9171 0.9173
2414.000000 0.9175 0.9175 0.9178 0.9178 0.9182
2409.000000 0.9187 0.9195 0.9192 0.9204 0.9205
2404.000000 0.9207 0.9208 0.9211 0.9213 0.9215
2399.000000 0.9215 0.9215 0.9214 0.9214 0.9213
2394.000000 0.9212 0.9205 0.9200 0.9188 0.9178
2389.000000 0.9182 0.9172 0.9164 0.9156 0.9151
2384.000000 0.9156 0.9152 0.9155 0.9165 0.9166
2379.000000 0.9176 0.9191 0.9203 0.9217 0.9222
2374.000000 0.9238 0.9251 0.9257 0.9262 0.9269
2369.000000 0.9264 0.9266 0.9272 0.9279 0.9284
2364.000000 0.9290 0.9295 0.9300 0.9305 0.9325
2359.000000 0.9333 0.9352 0.9358 0.9381 0.9397
2354.000000 0.9401 0.9406 0.9410 0.9408 0.9403
2349.000000 0.9407 0.9420 0.9440 0.9452 0.9456
2344.000000 0.9449 0.9447 0.9451 0.9453 0.9455
2339.000000 0.9444 0.9457 0.9461 0.9439 0.9451
2334.000000 0.9466 0.9466 0.9463 0.9463 0.9473
2329.000000 0.9469 0.9465 0.9467 0.9475 0.9469
2324.000000 0.9468 0.9454 0.9440 0.9429 0.9419
2319.000000 0.9408 0.9398 0.9388 0.9379 0.9368
2314.000000 0.9361 0.9350 0.9340 0.9327 0.9314
2309.000000 0.9298 0.9283 0.9246 0.9209 0.9140
2304.000000 0.9071 0.9042 0.9013 0.9006 0.9001
2299.000000 0.9006 0.8941 0.9020 0.9025 0.9046
2294.000000 0.9067 0.9091 0.9116 0.9166 0.9216
2289.000000 0.9231 0.9235 0.9245 0.9259 0.9271
2284.000000 0.9286 0.9284 0.9296 0.9301 0.9308
2279.000000 0.9311 0.9302 0.9306 0.9309 0.9301
2274.000000 0.9307 0.9311 0.9311 0.9305 0.9310
2269.000000 0.9308 0.9304 0.9309 0.9314 0.9312
2264.000000 0.9313 0.9320 0.9327 0.9321 0.9322
2259.000000 0.9327 0.9320 0.9322 0.9328 0.9332
2254.000000 0.9322 0.9327 0.9332 0.9334 0.9323
2249.000000 0.9325 0.9328 0.9332 0.9343 0.9332
2244.000000 0.9324 0.9328 0.9331 0.9334 0.9337
2239.000000 0.9338 0.9338 0.9338 0.9336 0.9321
2234.000000 0.9312 0.9304 0.9297 0.9280 0.9264
2229.000000 0.9246 0.9229 0.9206 0.9184 0.9161
2224.000000 0.9138 0.9138 0.9136 0.9126 0.9128
2219.000000 0.9134 0.9142 0.9152 0.9163 0.9168
2214.000000 0.9172 0.9178 0.9182 0.9186 0.9191
2209.000000 0.9196 0.9201 0.9205 0.9209 0.9213
2204.000000 0.9218 0.9221 0.9225 0.9228 0.9232
2199.000000 0.9236 0.9240 0.9243 0.9245 0.9238
2194.000000 0.9257 0.9257 0.9250 0.9254 0.9258
2189.000000 0.9262 0.9267 0.9274 0.9281 0.9279
2184.000000 0.9287 0.9282 0.9274 0.9272 0.9271
2179.000000 0.9268 0.9277 0.9280 0.9280 0.9280
2174.000000 0.9281 0.9284 0.9287 0.9289 0.9292
2169.000000 0.9294 0.9283 0.9285 0.9288 0.9290
2164.000000 0.9294 0.9297 0.9300 0.9303 0.9307
2159.000000 0.9310 0.9315 0.9318 0.9323 0.9326
2154.000000 0.9330 0.9333 0.9338 0.9341 0.9345
2149.000000 0.9349 0.9353 0.9354 0.9356 0.9356
2144.000000 0.9356 0.9352 0.9349 0.9345 0.9342
2139.000000 0.9337 0.9333 0.9326 0.9319 0.9314
2134.000000 0.9312 0.9312 0.9313 0.9313 0.9314
2129.000000 0.9314 0.9316 0.9316 0.9317 0.9317
2124.000000 0.9317 0.9317 0.9304 0.9314 0.9316
2119.000000 0.9314 0.9314 0.9314 0.9314 0.9314
2114.000000 0.9314 0.9314 0.9314 0.9313 0.9313
2109.000000 0.9312 0.9312 0.9312 0.9312 0.9310
2104.000000 0.9310 0.9310 0.9309 0.9309 0.9309
2099.000000 0.9309 0.9298 0.9294 0.9306 0.9309
2094.000000 0.9296 0.9308 0.9309 0.9309 0.9309
2089.000000 0.9309 0.9309 0.9309 0.9309 0.9309
2084.000000 0.9309 0.9309 0.9309 0.9309 0.9309
2079.000000 0.9309 0.9309 0.9309 0.9309 0.9309
2074.000000 0.9309 0.9309 0.9309 0.9309 0.9309
2069.000000 0.9309 0.9311 0.9311 0.9312 0.9312
2064.000000 0.9313 0.9313 0.9313 0.9313 0.9313
2059.000000 0.9313 0.9315 0.9319 0.9332 0.9332
2054.000000 0.9332 0.9332 0.9327 0.9325 0.9335
2049.000000 0.9327 0.9320 0.9321 0.9322 0.9322
2044.000000 0.9323 0.9323 0.9324 0.9324 0.9325
2039.000000 0.9325 0.9326 0.9326 0.9326 0.9326
2034.000000 0.9326 0.9326 0.9327 0.9327 0.9327
2029.000000 0.9327 0.9332 0.9338 0.9328 0.9335
2024.000000 0.9344 0.9344 0.9345 0.9345 0.9345
2019.000000 0.9345 0.9346 0.9347 0.9349 0.9350
2014.000000 0.9352 0.9353 0.9355 0.9355 0.9355
2009.000000 0.9355 0.9355 0.9353 0.9351 0.9348
2004.000000 0.9345 0.9333 0.9323 0.9296 0.9270
1999.000000 0.9247 0.9222 0.9195 0.9177 0.9159
1994.000000 0.9142 0.9131 0.9120 0.9109 0.9108
1989.000000 0.9116 0.9123 0.9129 0.9124 0.9129
1984.000000 0.9134 0.9138 0.9142 0.9147 0.9151
1979.000000 0.9152 0.9142 0.9145 0.9148 0.9150
1974.000000 0.9150 0.9150 0.9150 0.9150 0.9150
1969.000000 0.9150 0.9136 0.9109 0.9088 0.9045
1964.000000 0.9001 0.8976 0.8950 0.8922 0.8899
1959.000000 0.8864 0.8878 0.8878 0.8880 0.8890
1954.000000 0.8901 0.8932 0.8971 0.9010 0.9047
1949.000000 0.9051 0.9066 0.9074 0.9082 0.9090
1944.000000 0.9097 0.9103 0.9111 0.9116 0.9118
1939.000000 0.9120 0.9120 0.9120 0.9119 0.9118
1934.000000 0.9113 0.9105 0.9090 0.9058 0.9008
1929.000000 0.8935 0.8853 0.8731 0.8652 0.8567
1924.000000 0.8402 0.8295 0.8190 0.8084 0.7979
1919.000000 0.7891 0.7901 0.7913 0.7968 0.8071
1914.000000 0.8175 0.8279 0.8382 0.8485 0.8589
1909.000000 0.8678 0.8722 0.8775 0.8813 0.8849
1904.000000 0.8884 0.8908 0.8932 0.8956 0.8980
1899.000000 0.8994 0.9007 0.9020 0.9030 0.9037
1894.000000 0.9043 0.9049 0.9056 0.9056 0.9050
1889.000000 0.9054 0.9057 0.9063 0.9067 0.9071
1884.000000 0.9085 0.9095 0.9095 0.9094 0.9093
1879.000000 0.9092 0.9091 0.9090 0.9090 0.9102
1874.000000 0.9102 0.9100 0.9098 0.9097 0.9095
1869.000000 0.9094 0.9091 0.9091 0.9091 0.9091
1864.000000 0.9092 0.9094 0.9093 0.9095 0.9095
1859.000000 0.9096 0.9097 0.9106 0.9103 0.9099
1854.000000 0.9102 0.9104 0.9107 0.9110 0.9112
1849.000000 0.9115 0.9119 0.9121 0.9113 0.9127
1844.000000 0.9129 0.9132 0.9135 0.9136 0.9136
1839.000000 0.9136 0.9138 0.9139 0.9134 0.9124
1834.000000 0.9126 0.9127 0.9128 0.9129 0.9129
1829.000000 0.9130 0.9131 0.9131 0.9131 0.9131
1824.000000 0.9131 0.9131 0.9131 0.9131 0.9131
1819.000000 0.9147 0.9147 0.9147 0.9147 0.9145
1814.000000 0.9145 0.9145 0.9144 0.9144 0.9144
1809.000000 0.9138 0.9126 0.9124 0.9121 0.9113
1804.000000 0.9069 0.9026 0.8988 0.8943 0.8898
1799.000000 0.8852 0.8809 0.8766 0.8723 0.8676
1794.000000 0.8636 0.8612 0.8597 0.8592 0.8589
1789.000000 0.8588 0.8588 0.8588 0.8589 0.8589
1784.000000 0.8590 0.8590 0.8587 0.8621 0.8684
1779.000000 0.8724 0.8764 0.8803 0.8819 0.8836
1774.000000 0.8860 0.8883 0.8908 0.8931 0.8955
1769.000000 0.8977 0.8993 0.9011 0.9029 0.9044
1764.000000 0.9053 0.9062 0.9072 0.9080 0.9090
1759.000000 0.9091 0.9101 0.9101 0.9107 0.9113
1754.000000 0.9119 0.9126 0.9131 0.9137 0.9143
1749.000000 0.9150 0.9150 0.9150 0.9148 0.9145
1744.000000 0.9135 0.9126 0.9116 0.9099 0.9083
1739.000000 0.9068 0.9055 0.9046 0.9041 0.9042
1734.000000 0.9041 0.9048 0.9053 0.9061 0.9069
1729.000000 0.9070 0.9071 0.9068 0.9052 0.9032
1724.000000 0.8905 0.8785 0.8787 0.8777 0.8782
1719.000000 0.8800 0.8842 0.8883 0.8914 0.8937
1714.000000 0.8962 0.8982 0.8998 0.9009 0.9017
1709.000000 0.9041 0.9024 0.9015 0.8978 0.8891
1704.000000 0.8802 0.8729 0.8649 0.8526 0.8575
1699.000000 0.8563 0.8558 0.8603 0.8666 0.8731
1694.000000 0.8775 0.8809 0.8830 0.8840 0.8850
1689.000000 0.8851 0.8849 0.8848 0.8849 0.8851
1684.000000 0.8854 0.8856 0.8858 0.8902 0.8862
1679.000000 0.8864 0.8867 0.8856 0.8838 0.8781
1674.000000 0.8702 0.8618 0.8561 0.8499 0.8436
1669.000000 0.8372 0.8300 0.8220 0.8158 0.8112
1664.000000 0.8089 0.8083 0.8056 0.8077 0.8087
1659.000000 0.8109 0.8160 0.8218 0.8254 0.8288
1654.000000 0.8318 0.8342 0.8353 0.8383 0.8400
1649.000000 0.8412 0.8416 0.8421 0.8433 0.8448
1644.000000 0.8455 0.8461 0.8475 0.8488 0.8495
1639.000000 0.8515 0.8514 0.8519 0.8509 0.8481
1634.000000 0.8375 0.8367 0.8350 0.8344 0.8327
1629.000000 0.8320 0.8302 0.8287 0.8242 0.8195
1624.000000 0.8171 0.8139 0.8119 0.8084 0.8040
1619.000000 0.8009 0.7974 0.7889 0.7815 0.7666
1614.000000 0.7445 0.7078 0.6630 0.5721 0.4596
1609.000000 0.3468 0.2329 0.1642 0.1635 0.1616
1604.000000 0.1567 0.1207 0.0844 0.0644 0.0625
1599.000000 0.0780 0.1859 0.2958 0.4075 0.4519
1594.000000 0.4894 0.5125 0.5374 0.5591 0.5750
1589.000000 0.5921 0.6064 0.6181 0.6272 0.6369
1584.000000 0.6440 0.6500 0.6525 0.6558 0.6593
1579.000000 0.6573 0.6501 0.6412 0.6289 0.6155
1574.000000 0.5989 0.5830 0.5672 0.5540 0.5390
1569.000000 0.5302 0.5235 0.5175 0.5163 0.5226
1564.000000 0.5294 0.5364 0.5425 0.5498 0.5554
1559.000000 0.5547 0.5520 0.5481 0.5487 0.5508
1554.000000 0.5509 0.5502 0.5501 0.5480 0.5437
1549.000000 0.5359 0.5266 0.5167 0.5065 0.4912
1544.000000 0.4733 0.4547 0.4319 0.3998 0.3694
1539.000000 0.3355 0.2915 0.2547 0.2206 0.1882
1534.000000 0.1559 0.1245 0.0941 0.0645 0.0358
1529.000000 0.0079 0.0010 0.0007 0.0006 0.0003
1524.000000 0.0001 0.0000 0.0000 0.0003 0.0004
1519.000000 0.0005 0.0008 0.0234 0.0609 0.0978
1514.000000 0.1343 0.1702 0.2058 0.2405 0.2751
1509.000000 0.3094 0.3427 0.3755 0.4078 0.4398
1504.000000 0.4718 0.5030 0.5300 0.5251 0.4815
1499.000000 0.3539 0.2360 0.2363 0.2344 0.2700
1494.000000 0.3221 0.3742 0.4258 0.4774 0.5283
1489.000000 0.5790 0.6487 0.6639 0.6734 0.6869
1484.000000 0.6943 0.7004 0.7051 0.7072 0.7072
1479.000000 0.7017 0.6948 0.6871 0.6203 0.6079
1474.000000 0.5941 0.5838 0.5715 0.5485 0.5247
1469.000000 0.5272 0.5282 0.5446 0.5609 0.5783
1464.000000 0.5937 0.6179 0.6439 0.6555 0.6659
1459.000000 0.6752 0.6842 0.6920 0.6957 0.6994
1454.000000 0.6998 0.6998 0.6998 0.7000 0.6993
1449.000000 0.6988 0.6991 0.6983 0.6981 0.6986
1444.000000 0.6994 0.7001 0.7035 0.7082 0.7130
1439.000000 0.7189 0.7249 0.7304 0.7358 0.7402
1434.000000 0.7445 0.7483 0.7513 0.7561 0.7598
1429.000000 0.7636 0.7668 0.7695 0.7728 0.7727
1424.000000 0.7720 0.7695 0.7575 0.7330 0.7086
1419.000000 0.6802 0.6826 0.6828 0.6961 0.7175
1414.000000 0.7394 0.7482 0.7550 0.7622 0.7692
1409.000000 0.7728 0.7743 0.7752 0.7757 0.7761
1404.000000 0.7768 0.7773 0.7777 0.7782 0.7786
1399.000000 0.7791 0.7801 0.7814 0.7818 0.7834
1394.000000 0.7827 0.7821 0.7815 0.7710 0.7491
1389.000000 0.7394 0.7338 0.7241 0.6887 0.6529
1384.000000 0.6149 0.5747 0.5348 0.5057 0.5106
1379.000000 0.5242 0.5385 0.5526 0.5666 0.5801
1374.000000 0.5943 0.5942 0.5942 0.5572 0.4544
1369.000000 0.3514 0.2486 0.2196 0.2203 0.2315
1364.000000 0.2491 0.2668 0.2844 0.3020 0.3181
1359.000000 0.3149 0.3003 0.2642 0.2276 0.1915
1354.000000 0.1555 0.1194 0.0834 0.0473 0.0110
1349.000000 0.0006 0.0006 0.0007 0.0007 0.0007
1344.000000 0.0007 0.0007 0.0007 0.0007 0.0138
1339.000000 0.0701 0.1265 0.1828 0.2392 0.2956
1334.000000 0.3521 0.4084 0.4648 0.4957 0.4964
1329.000000 0.4965 0.5037 0.5286 0.5531 0.5771
1324.000000 0.5911 0.5908 0.5649 0.4912 0.4174
1319.000000 0.3707 0.3720 0.3828 0.4308 0.4784
1314.000000 0.5260 0.5737 0.6111 0.6402 0.6693
1309.000000 0.6984 0.7275 0.7566 0.7654 0.7702
1304.000000 0.7726 0.7746 0.7755 0.7761 0.7685
1299.000000 0.7447 0.7207 0.6692 0.6734 0.6731
1294.000000 0.6776 0.6831 0.6887 0.6949 0.7012
1289.000000 0.7080 0.7133 0.7165 0.7214 0.7268
1284.000000 0.7351 0.7442 0.7558 0.7694 0.7822
1279.000000 0.7929 0.8025 0.8120 0.8223 0.8304
1274.000000 0.8384 0.8455 0.8503 0.8552 0.8600
1269.000000 0.8648 0.8689 0.8733 0.8782 0.8819
1264.000000 0.8852 0.8886 0.8912 0.8925 0.8939
1259.000000 0.8954 0.8966 0.8979 0.8991 0.9003
1254.000000 0.9016 0.9012 0.9016 0.9021 0.9028
1249.000000 0.9028 0.9028 0.9020 0.9005 0.8983
1244.000000 0.8943 0.8903 0.8858 0.8805 0.8755
1239.000000 0.8737 0.8725 0.8683 0.8702 0.8706
1234.000000 0.8711 0.8745 0.8785 0.8839 0.8896
1229.000000 0.8955 0.9003 0.9027 0.9048 0.9063
1224.000000 0.9079 0.9087 0.9092 0.9121 0.9098
1219.000000 0.9098 0.9079 0.9050 0.8935 0.8850
1214.000000 0.8760 0.8472 0.8054 0.7444 0.7444
1209.000000 0.7441 0.7465 0.7979 0.8286 0.8404
1204.000000 0.8475 0.8539 0.8573 0.8603 0.8615
1199.000000 0.8630 0.8632 0.8644 0.8653 0.8663
1194.000000 0.8671 0.8695 0.8705 0.8714 0.8723
1189.000000 0.8730 0.8733 0.8733 0.8733 0.8727
1184.000000 0.8653 0.8509 0.7307 0.6116 0.4936
1179.000000 0.3968 0.4006 0.4243 0.4908 0.5573
1174.000000 0.6238 0.6904 0.7392 0.8142 0.8255
1169.000000 0.8378 0.8507 0.8596 0.8669 0.8738
1164.000000 0.8796 0.8850 0.8894 0.8938 0.8977
1159.000000 0.9010 0.9035 0.9059 0.9081 0.9103
1154.000000 0.9124 0.9139 0.9153 0.9156 0.9166
1149.000000 0.9179 0.9172 0.9169 0.9171 0.9161
1144.000000 0.9142 0.9106 0.9104 0.9097 0.9099
1139.000000 0.9119 0.9137 0.9153 0.9157 0.9173
1134.000000 0.9170 0.9159 0.9159 0.9159 0.9156
1129.000000 0.9147 0.9135 0.9127 0.9121 0.9097
1124.000000 0.9068 0.9023 0.8982 0.8905 0.8789
1119.000000 0.8639 0.8493 0.7869 0.6358 0.4859
1114.000000 0.3360 0.1861 0.1606 0.1609 0.1781
1109.000000 0.2642 0.3501 0.4366 0.5220 0.5861
1104.000000 0.6361 0.6861 0.7362 0.7862 0.8001
1099.000000 0.8088 0.8161 0.8228 0.8273 0.8307
1094.000000 0.8318 0.8324 0.8324 0.8310 0.8219
1089.000000 0.8155 0.8125 0.8128 0.8158 0.8245
1084.000000 0.8352 0.8440 0.8525 0.8577 0.8640
1079.000000 0.8685 0.8719 0.8747 0.8757 0.8775
1074.000000 0.8787 0.8807 0.8827 0.8837 0.8847
1069.000000 0.8853 0.8858 0.8863 0.8869 0.8884
1064.000000 0.8872 0.8866 0.8873 0.8868 0.8854
1059.000000 0.8823 0.8823 0.8790 0.8742 0.8701
1054.000000 0.8659 0.8613 0.8567 0.8523 0.8480
1049.000000 0.8427 0.8348 0.8225 0.8095 0.7995
1044.000000 0.7896 0.7795 0.7696 0.7595 0.7497
1039.000000 0.7397 0.7368 0.7374 0.7381 0.7473
1034.000000 0.7576 0.7679 0.7782 0.7884 0.7973
1029.000000 0.8077 0.8179 0.8203 0.8207 0.8199
1024.000000 0.8200 0.8200 0.8192 0.8159 0.7552
1019.000000 0.6960 0.6369 0.6119 0.6420 0.6979
1014.000000 0.7538 0.8011 0.8223 0.8353 0.8448
1009.000000 0.8535 0.8592 0.8667 0.8764 0.8834
1004.000000 0.8864 0.8895 0.8915 0.8928 0.8934
999.000000 0.8938 0.8937 0.8927 0.8954 0.8933
994.000000 0.8934 0.8936 0.8945 0.8954 0.8956
989.000000 0.8957 0.8956 0.8954 0.8952 0.8950
984.000000 0.8947 0.8944 0.8941 0.8937 0.8934
979.000000 0.8929 0.8924 0.8919 0.8911 0.8893
974.000000 0.8855 0.8808 0.8766 0.8753 0.8737
969.000000 0.8720 0.8707 0.8697 0.8688 0.8683
964.000000 0.8678 0.8674 0.8671 0.8669 0.8665
959.000000 0.8584 0.8255 0.7926 0.7596 0.7267
954.000000 0.7193 0.7197 0.7531 0.7965 0.8278
949.000000 0.8424 0.8519 0.8614 0.8711 0.8777
944.000000 0.8828 0.8869 0.8895 0.8923 0.8944
939.000000 0.8964 0.8985 0.9005 0.9014 0.9025
934.000000 0.9034 0.9044 0.9052 0.9055 0.9058
929.000000 0.9059 0.9062 0.9066 0.9068 0.9071
924.000000 0.9074 0.9076 0.9079 0.9082 0.9084
919.000000 0.9090 0.9103 0.9096 0.9110 0.9110
914.000000 0.9111 0.9111 0.9117 0.9127 0.9123
909.000000 0.9120 0.9124 0.9128 0.9125 0.9131
904.000000 0.9133 0.9129 0.9138 0.9138 0.9144
899.000000 0.9139 0.9146 0.9153 0.9155 0.9156
894.000000 0.9171 0.9170 0.9183 0.9183 0.9175
889.000000 0.9172 0.9173 0.9169 0.9171 0.9167
884.000000 0.9157 0.9134 0.9102 0.9076 0.9048
879.000000 0.9013 0.8988 0.8960 0.8935 0.8909
874.000000 0.8886 0.8845 0.8776 0.8664 0.8556
869.000000 0.8470 0.8368 0.8261 0.8086 0.6651
864.000000 0.4397 0.2116 0.0422 0.0414 0.0763
859.000000 0.1523 0.2286 0.3053 0.3817 0.4579
854.000000 0.5329 0.6066 0.6790 0.7472 0.7539
849.000000 0.7512 0.7475 0.7386 0.7310 0.7214
844.000000 0.5736 0.3713 0.1727 0.0327 0.0317
839.000000 0.0296 0.0331 0.1052 0.1851 0.2647
834.000000 0.3439 0.4226 0.4926 0.5374 0.5825
829.000000 0.6278 0.6722 0.7139 0.7295 0.7363
824.000000 0.7390 0.7418 0.7448 0.7474 0.7509
819.000000 0.7695 0.7848 0.8180 0.8323 0.8447
814.000000 0.8528 0.8600 0.8668 0.8730 0.8773
809.000000 0.8825 0.8854 0.8871 0.8894 0.8922
804.000000 0.8935 0.8947 0.8949 0.8943 0.8946
799.000000 0.8946 0.8946 0.8927 0.8892 0.8843
794.000000 0.8764 0.8541 0.2790 0.2801 0.2797
789.000000 0.3827 0.4895 0.5962 0.7030 0.7627
784.000000 0.7802 0.8089 0.8418 0.8580 0.8726
779.000000 0.8809 0.8894 0.8963 0.9021 0.9049
774.000000 0.9070 0.9078 0.9082 0.9093 0.9102
769.000000 0.9061 0.9089 0.9088 0.9083 0.9063
764.000000 0.9046 0.9033 0.9014 0.8990 0.8966
759.000000 0.8942 0.8907 0.8867 0.8820 0.8770
754.000000 0.8722 0.8671 0.8606 0.8438 0.8372
749.000000 0.8309 0.8243 0.8178 0.7930 0.4681
744.000000 0.3101 0.1523 0.0001 0.0000 0.0140
739.000000 0.0824 0.1508 0.2190 0.2873 0.3558
734.000000 0.4242 0.4926 0.6805 0.7354 0.7761
729.000000 0.7931 0.8103 0.8223 0.8351 0.8441
724.000000 0.8507 0.8576 0.8641 0.8703 0.8758
719.000000 0.8798 0.8837 0.8889 0.8924 0.8957
714.000000 0.9005 0.9036 0.9056 0.9077 0.9090
709.000000 0.9101 0.9116 0.9127 0.9137 0.9148
704.000000 0.9158 0.9181 0.9188 0.9191 0.9204
699.000000 0.9203 0.9202 0.9187 0.9198 0.9203
694.000000 0.9213 0.9204 0.9195 0.9174 0.9141
689.000000 0.9106 0.9051 0.8959 0.8815 0.7565
684.000000 0.6013 0.4818 0.4873 0.5119 0.5835
679.000000 0.6543 0.7275 0.7999 0.8521 0.8689
674.000000 0.8777 0.8842 0.8893 0.8944 0.9016
669.000000 0.9159 0.9267 0.9184 0.9118 0.9128
664.000000 0.9155 0.9158 0.9153 0.9144 0.9138
659.000000 0.9130 0.9105 0.9075 0.8984 0.8921
654.000000 0.8861 0.8870 0.8855 0.8870 0.8889
649.000000 0.8913 0.8930 0.8944 0.8941 0.8950
644.000000 0.8953 0.8948 0.8959 0.8968 0.8971
639.000000 0.8984 0.8989 0.8991 0.9040 0.9010
634.000000 0.8984 0.8975 0.8918 0.8657 0.8650
629.000000 0.8647 0.8671 0.8766 0.8848 0.8944
624.000000 0.9001 0.9039 0.9031 0.9034 0.9026
619.000000 0.8928 0.4465 0.4496 0.4525 0.5161
614.000000 0.5792 0.6421 0.7055 0.7687 0.8275
609.000000 0.8380 0.8538 0.8857 0.8971 0.9030
604.000000 0.9089 0.9136 0.9178 0.9218 0.9258
599.000000 0.9275 0.9289 0.9301 0.9310 0.9320
594.000000 0.9329 0.9338 0.9347 0.9356 0.9365
589.000000 0.9374 0.9383 0.9384 0.9390 0.9401
584.000000 0.9398 0.9404 0.9409 0.9414 0.9419
579.000000 0.9425 0.9431 0.9425 0.9426 0.9431
574.000000 0.9449 0.9455 0.9459 0.9461 0.9464
569.000000 0.9466 0.9468 0.9457 0.9463 0.9480
564.000000 0.9480 0.9471 0.9475 0.9479 0.9482
559.000000 0.9486 0.9489 0.9492 0.9496 0.9470
554.000000 0.9483 0.9483 0.9472 0.9476 0.9477
549.000000 0.9471 0.9467 0.9460 0.9446 0.9432
544.000000 0.9417 0.9395 0.9371 0.9347 0.9321
539.000000 0.9289 0.9267 0.9236 0.9200 0.9146
534.000000 0.9103 0.9084 0.9054 0.9028 0.9003
529.000000 0.8978 0.8956 0.8935 0.8882 0.8933
524.000000 0.8929 0.8928 0.8929 0.8930 0.8931
519.000000 0.8944 0.8956 0.8969 0.8982 0.8995
514.000000 0.9009 0.9024 0.9037 0.9048 0.9061
509.000000 0.9072 0.9084 0.9095 0.9103 0.9110
504.000000 0.9116 0.9123 0.9126 0.9126 0.9127
499.000000 0.9127 0.9169 0.9120 0.9115 0.9110
494.000000 0.9097 0.9083 0.9068 0.9047 0.9025
489.000000 0.9002 0.8977 0.8950 0.8925 0.8898
484.000000 0.8867 0.8828 0.8788 0.8748 0.8690
479.000000 0.8628 0.8528 0.8390 0.8250 0.8145
474.000000 0.8047 0.7940 0.7670 0.7419 0.7170
469.000000 0.6919 0.6670 0.6419 0.6169 0.6110
464.000000 0.6062 0.6070 0.6084 0.6124 0.6213
459.000000 0.6367 0.6518 0.6671 0.6822 0.6973
454.000000 0.7124 0.7276 0.7426 0.7536 0.7621
449.000000 0.7679 0.7736 0.7781 0.7826 0.7863
444.000000 0.7887 0.7912 0.7932 0.7949 0.7964
439.000000 0.7974 0.7980 0.7985 0.7988 0.7988
434.000000 0.7989 0.7987 0.7985 0.7982 0.7976
429.000000 0.7971 0.7966 0.7951 0.7939 0.7924
424.000000 0.7910 0.7879 0.7841 0.7785 0.7724
419.000000 0.7651 0.7568 0.7479 0.7374 0.7264
414.000000 0.7149 0.7052 0.6978 0.6902 0.6803
409.000000 0.6703 0.6596 0.6413 0.6213 0.6025
404.000000 0.5898 0.5774 0.5648 0.5500 0.5320
399.000000 0.5175 0.5081 0.4998 0.4907 0.4793
394.000000 0.4711 0.4640 0.4569 0.4502 0.4441
389.000000 0.4367 0.4312 0.4259 0.4200 0.4119
384.000000 0.4003 0.3852 0.3741 0.3648
##END=
