##TITLE=P-HYDROXY ACETOPHENONE
##JCAMP-DX=4.24
##DATA TYPE=INFRARED SPECTRUM
##CLASS=COBLENTZ
##ORIGIN=BATTELLE MEMORIAL INSTITUTE (R. JAKOBSEN)
##OWNER=COBLENTZ SOCIETY
Collection (C) 2018 copyright by the U.S. Secretary of Commerce
on behalf of the United States of America. All rights reserved.
##DATE=Not specified, most likely prior to 1970
##NAMES=1-(4-hydroxyphenyl)ethanone
##CAS REGISTRY NO=99-93-4
##MOLFORM=C8 H8 O2
##SOURCE REFERENCE=COBLENTZ NO. 2539
##$NIST SOURCE=COBLENTZ
##$NIST IMAGE=cob2539
##SPECTROMETER/DATA SYSTEM=Not specified, most likely a prism, grating, or hybrid spectrometer.
##STATE=SOLID (NUJOL MULL)
##SAMPLING PROCEDURE=TRANSMISSION
##RESOLUTION=4
##DATA PROCESSING=DIGITIZED BY NIST FROM HARD COPY
##XUNITS=1/CM
##YUNITS=TRANSMITTANCE
##XFACTOR=1.000000
##YFACTOR=1
##DELTAX=000.132626
##FIRSTX=321.353
##LASTX=669.231
##FIRSTY=0.621
##MAXX=669.231
##MINX=321.353
##MAXY=0.703
##MINY=0.027
##NPOINTS=2624
##XYDATA=(X++(Y..Y))
321.353000 0.6210 0.6220 0.6210 0.6220 0.6240
322.016383 0.6250 0.6290 0.6330 0.6340 0.6510
322.679000 0.6560 0.6670 0.6800 0.6880 0.6920
323.342383 0.7000 0.7000 0.7000 0.7000 0.6960
324.005000 0.6920 0.6830 0.6660 0.6500 0.6370
324.668383 0.6340 0.6330 0.6330 0.6330 0.6330
325.332000 0.6340 0.6350 0.6450 0.6500 0.6560
325.995383 0.6590 0.6600 0.6620 0.6630 0.6680
326.658000 0.6710 0.6780 0.6860 0.6930 0.7000
327.321383 0.7010 0.7010 0.7010 0.7010 0.7000
327.984000 0.6680 0.6670 0.6670 0.6750 0.6760
328.647383 0.6760 0.6700 0.6670 0.6670 0.6700
329.310000 0.6710 0.6760 0.6800 0.6820 0.6860
329.973383 0.6880 0.6890 0.6920 0.6960 0.7000
330.637000 0.7030 0.7030 0.7000 0.7000 0.6990
331.300383 0.6990 0.6990 0.6990 0.6970 0.6960
331.963000 0.6930 0.6890 0.6870 0.6860 0.6860
332.626383 0.6870 0.6930 0.6970 0.6970 0.6970
333.289000 0.6950 0.6890 0.6800 0.6780 0.6720
333.952383 0.6720 0.6710 0.6710 0.6760 0.6790
334.615000 0.6800 0.6800 0.6820 0.6830 0.6860
335.278383 0.6870 0.6890 0.6890 0.6870 0.6840
335.942000 0.6830 0.6820 0.6820 0.6820 0.6830
336.605383 0.6830 0.6800 0.6760 0.6710 0.6700
337.268000 0.6700 0.6750 0.6760 0.6760 0.6750
337.931383 0.6740 0.6720 0.6680 0.6630 0.6620
338.594000 0.6620 0.6600 0.6600 0.6600 0.6620
339.257383 0.6630 0.6660 0.6670 0.6700 0.6700
339.920000 0.6710 0.6720 0.6740 0.6760 0.6760
340.583383 0.6750 0.6740 0.6740 0.6720 0.6720
341.247000 0.6710 0.6700 0.6700 0.6680 0.6660
341.910383 0.6620 0.6620 0.6620 0.6620 0.6620
342.573000 0.6630 0.6640 0.6640 0.6640 0.6660
343.236383 0.6660 0.6660 0.6660 0.6580 0.6550
343.899000 0.6530 0.6500 0.6500 0.6500 0.6500
344.562383 0.6500 0.6490 0.6460 0.6430 0.6430
345.225000 0.6430 0.6460 0.6470 0.6490 0.6490
345.888383 0.6500 0.6510 0.6540 0.6550 0.6560
346.552000 0.6540 0.6500 0.6450 0.6410 0.6290
347.215383 0.6270 0.6270 0.6300 0.6430 0.6600
347.878000 0.6600 0.6600 0.6600 0.6560 0.6530
348.541383 0.6500 0.6470 0.6470 0.6490 0.6530
349.204000 0.6540 0.6540 0.6550 0.6550 0.6540
349.867383 0.6530 0.6500 0.6490 0.6460 0.6410
350.531000 0.6390 0.6380 0.6380 0.6380 0.6370
351.194383 0.6370 0.6370 0.6350 0.6350 0.6340
351.857000 0.6330 0.6330 0.6330 0.6330 0.6330
352.520383 0.6330 0.6310 0.6300 0.6290 0.6250
353.183000 0.6210 0.6210 0.6310 0.6330 0.6340
353.846383 0.6330 0.6290 0.6240 0.6200 0.6170
354.509000 0.6160 0.6160 0.6140 0.6120 0.6100
355.172383 0.6100 0.6100 0.6050 0.5960 0.5920
355.836000 0.5890 0.5870 0.5830 0.5800 0.5790
356.499383 0.5790 0.5770 0.5770 0.5770 0.5770
357.162000 0.5770 0.5750 0.5750 0.5720 0.5720
357.825383 0.5710 0.5710 0.5710 0.5710 0.5710
358.488000 0.5710 0.5710 0.5690 0.5690 0.5690
359.151383 0.5690 0.5690 0.5690 0.5690 0.5690
359.814000 0.5690 0.5690 0.5690 0.5690 0.5690
360.477383 0.5690 0.5690 0.5710 0.5710 0.5710
361.141000 0.5710 0.5710 0.5710 0.5710 0.5710
361.804383 0.5710 0.5710 0.5720 0.5730 0.5750
362.467000 0.5750 0.5760 0.5760 0.5770 0.5790
363.130383 0.5830 0.5880 0.5890 0.5890 0.5890
363.793000 0.5890 0.5850 0.5800 0.5710 0.5690
364.456383 0.5690 0.5690 0.5690 0.5710 0.5710
365.119000 0.5710 0.5710 0.5710 0.5720 0.5720
365.782383 0.5720 0.5720 0.5730 0.5730 0.5730
366.446000 0.5750 0.5750 0.5750 0.5760 0.5760
367.109383 0.5800 0.5810 0.5810 0.5810 0.5830
367.772000 0.5850 0.5870 0.5870 0.5880 0.5880
368.435383 0.5880 0.5880 0.5910 0.5920 0.5920
369.098000 0.5930 0.5930 0.5930 0.5930 0.5930
369.761383 0.5930 0.5930 0.5930 0.5930 0.5940
370.424000 0.5940 0.5940 0.5970 0.5970 0.5980
371.087383 0.5980 0.6000 0.6000 0.6010 0.6020
371.751000 0.6020 0.6050 0.6050 0.6060 0.6060
372.414383 0.6060 0.6060 0.6060 0.6080 0.6090
373.077000 0.6090 0.6090 0.6130 0.6160 0.6180
373.740383 0.6180 0.6180 0.6180 0.6180 0.6170
374.403000 0.6170 0.6170 0.6160 0.6160 0.6160
375.066383 0.6160 0.6170 0.6180 0.6200 0.6210
375.729000 0.6220 0.6220 0.6240 0.6240 0.6240
376.392383 0.6240 0.6240 0.6220 0.6220 0.6240
377.056000 0.6260 0.6270 0.6260 0.6250 0.6240
377.719383 0.6220 0.6220 0.6240 0.6260 0.6290
378.382000 0.6290 0.6300 0.6310 0.6310 0.6310
379.045383 0.6300 0.6290 0.6260 0.6260 0.6260
379.708000 0.6260 0.6260 0.6250 0.6250 0.6240
380.371383 0.6220 0.6220 0.6210 0.6210 0.6210
381.034000 0.6210 0.6210 0.6220 0.6240 0.6250
381.697383 0.6260 0.6270 0.6290 0.6290 0.6290
382.361000 0.6270 0.6270 0.6260 0.6260 0.6250
383.024383 0.6250 0.6250 0.6250 0.6240 0.6220
383.687000 0.6200 0.6160 0.6160 0.6160 0.6140
384.350383 0.6130 0.6120 0.6120 0.6120 0.6130
385.013000 0.6160 0.6170 0.6200 0.6200 0.6180
385.676383 0.6170 0.6170 0.6170 0.6170 0.6170
386.340000 0.6170 0.6170 0.6170 0.6180 0.6180
387.003383 0.6200 0.6200 0.6200 0.6200 0.6200
387.666000 0.6200 0.6200 0.6200 0.6210 0.6210
388.329383 0.6220 0.6220 0.6210 0.6200 0.6200
388.992000 0.6180 0.6180 0.6180 0.6180 0.6180
389.655383 0.6180 0.6180 0.6180 0.6170 0.6160
390.318000 0.6140 0.6130 0.6120 0.6100 0.6100
390.981383 0.6100 0.6100 0.6100 0.6100 0.6100
391.645000 0.6100 0.6100 0.6100 0.6100 0.6090
392.308383 0.6080 0.6080 0.6080 0.6060 0.6060
392.971000 0.6050 0.6020 0.6010 0.5980 0.5940
393.634383 0.5940 0.5940 0.5930 0.5920 0.5920
394.297000 0.5920 0.5920 0.5920 0.5920 0.5920
394.960383 0.5920 0.5920 0.5930 0.5940 0.5960
395.623000 0.5960 0.5940 0.5930 0.5920 0.5920
396.286383 0.5910 0.5890 0.5890 0.5880 0.5880
396.950000 0.5880 0.5880 0.5870 0.5850 0.5800
397.613383 0.5790 0.5790 0.5790 0.5790 0.5790
398.276000 0.5790 0.5800 0.5800 0.5800 0.5830
398.939383 0.5840 0.5850 0.5890 0.5890 0.5890
399.602000 0.5910 0.5910 0.5910 0.5920 0.5930
400.265383 0.5940 0.5960 0.5960 0.5960 0.5960
400.928000 0.5970 0.5970 0.5970 0.5970 0.5970
401.591383 0.5940 0.5930 0.5910 0.5890 0.5850
402.255000 0.5830 0.5800 0.5790 0.5750 0.5720
402.918383 0.5710 0.5710 0.5720 0.5720 0.5720
403.581000 0.5750 0.5750 0.5720 0.5720 0.5720
404.244383 0.5720 0.5710 0.5680 0.5640 0.5630
404.907000 0.5620 0.5620 0.5620 0.5600 0.5590
405.570383 0.5590 0.5590 0.5560 0.5540 0.5510
406.233000 0.5510 0.5500 0.5500 0.5500 0.5500
406.896383 0.5500 0.5500 0.5470 0.5440 0.5420
407.560000 0.5360 0.5340 0.5320 0.5320 0.5320
408.223383 0.5320 0.5340 0.5350 0.5350 0.5340
408.886000 0.5320 0.5300 0.5300 0.5300 0.5300
409.549383 0.5300 0.5270 0.5260 0.5260 0.5230
410.212000 0.5210 0.5180 0.5170 0.5150 0.5140
410.875383 0.5110 0.5100 0.5090 0.5050 0.5030
411.538000 0.5010 0.5000 0.5000 0.4980 0.4970
412.201383 0.4970 0.4940 0.4930 0.4920 0.4920
412.865000 0.4920 0.4900 0.4900 0.4890 0.4890
413.528383 0.4890 0.4900 0.4940 0.4970 0.4980
414.191000 0.4980 0.4980 0.5000 0.5000 0.5000
414.854383 0.5000 0.5000 0.5000 0.5000 0.5000
415.517000 0.5010 0.5010 0.5010 0.5000 0.5000
416.180383 0.5000 0.5000 0.5000 0.5000 0.5000
416.844000 0.4940 0.4930 0.4920 0.4920 0.4920
417.507383 0.4920 0.4920 0.4920 0.4920 0.4920
418.170000 0.4920 0.4920 0.4930 0.4940 0.4940
418.833383 0.4960 0.4960 0.4960 0.4960 0.4940
419.496000 0.4940 0.4930 0.4930 0.4930 0.4930
420.159383 0.4930 0.4930 0.4940 0.4940 0.4930
420.822000 0.4930 0.4930 0.4920 0.4920 0.4920
421.485383 0.4930 0.4940 0.4960 0.4960 0.4960
422.149000 0.4960 0.4960 0.4930 0.4920 0.4900
422.812383 0.4890 0.4900 0.4920 0.4940 0.4940
423.475000 0.4940 0.4930 0.4900 0.4890 0.4850
424.138383 0.4820 0.4810 0.4800 0.4760 0.4730
424.801000 0.4720 0.4680 0.4650 0.4630 0.4610
425.464383 0.4590 0.4560 0.4520 0.4490 0.4430
426.127000 0.4390 0.4350 0.4310 0.4260 0.4220
426.790383 0.4190 0.4140 0.4110 0.4100 0.4050
427.454000 0.4010 0.3990 0.3900 0.3820 0.3770
428.117383 0.3730 0.3700 0.3680 0.3650 0.3620
428.780000 0.3600 0.3540 0.3520 0.3490 0.3460
429.443383 0.3450 0.3440 0.3430 0.3410 0.3400
430.106000 0.3390 0.3370 0.3360 0.3350 0.3330
430.769383 0.3320 0.3310 0.3280 0.3250 0.3240
431.432000 0.3210 0.3200 0.3190 0.3160 0.3150
432.095383 0.3130 0.3120 0.3110 0.3100 0.3080
432.759000 0.3070 0.3040 0.3000 0.2990 0.2940
433.422383 0.2920 0.2920 0.2920 0.2950 0.3000
434.085000 0.3000 0.3020 0.3030 0.3030 0.3060
434.748383 0.3060 0.3070 0.3070 0.3070 0.3070
435.411000 0.3070 0.3070 0.3070 0.3070 0.3070
436.074383 0.3070 0.3070 0.3040 0.3020 0.3000
436.737000 0.3000 0.2980 0.2980 0.2980 0.2980
437.400383 0.2980 0.2960 0.2940 0.2900 0.2880
438.064000 0.2870 0.2870 0.2870 0.2870 0.2860
438.727383 0.2840 0.2820 0.2790 0.2770 0.2750
439.390000 0.2750 0.2750 0.2740 0.2740 0.2710
440.053383 0.2710 0.2700 0.2700 0.2700 0.2700
440.716000 0.2700 0.2700 0.2690 0.2690 0.2690
441.379383 0.2670 0.2670 0.2660 0.2660 0.2660
442.042000 0.2670 0.2690 0.2700 0.2730 0.2790
442.705383 0.2860 0.2880 0.2910 0.2950 0.3000
443.369000 0.3110 0.3200 0.3250 0.3290 0.3330
444.032383 0.3400 0.3440 0.3490 0.3530 0.3600
444.695000 0.3650 0.3690 0.3720 0.3770 0.3810
445.358383 0.3850 0.3890 0.3930 0.4010 0.4020
446.021000 0.4100 0.4110 0.4140 0.4190 0.4230
446.684383 0.4320 0.4360 0.4390 0.4440 0.4490
447.347000 0.4520 0.4550 0.4590 0.4610 0.4670
448.010383 0.4690 0.4700 0.4740 0.4780 0.4810
448.674000 0.4850 0.4880 0.4900 0.4920 0.4930
449.337383 0.4960 0.4960 0.4970 0.4970 0.4980
450.000000 0.4980 0.4980 0.4980 0.5000 0.5000
450.663383 0.5000 0.5000 0.5010 0.5010 0.5020
451.326000 0.5020 0.5020 0.5020 0.5020 0.5010
451.989383 0.5010 0.5010 0.5000 0.5000 0.5000
452.653000 0.5000 0.5020 0.5030 0.5060 0.5090
453.316383 0.5100 0.5110 0.5140 0.5150 0.5150
453.979000 0.5140 0.5110 0.5110 0.5110 0.5100
454.642383 0.5100 0.5100 0.5100 0.5110 0.5140
455.305000 0.5190 0.5210 0.5220 0.5220 0.5220
455.968383 0.5210 0.5190 0.5190 0.5190 0.5180
456.631000 0.5150 0.5130 0.5130 0.5130 0.5130
457.294383 0.5140 0.5150 0.5150 0.5150 0.5170
457.958000 0.5170 0.5170 0.5180 0.5180 0.5180
458.621383 0.5190 0.5220 0.5260 0.5270 0.5300
459.284000 0.5310 0.5310 0.5320 0.5320 0.5320
459.947383 0.5320 0.5320 0.5320 0.5320 0.5320
460.610000 0.5320 0.5320 0.5320 0.5320 0.5320
461.273383 0.5320 0.5320 0.5320 0.5310 0.5310
461.936000 0.5290 0.5270 0.5250 0.5220 0.5210
462.599383 0.5190 0.5180 0.5170 0.5170 0.5170
463.263000 0.5170 0.5180 0.5190 0.5210 0.5210
463.926383 0.5220 0.5220 0.5220 0.5220 0.5220
464.589000 0.5220 0.5220 0.5220 0.5210 0.5190
465.252383 0.5150 0.5130 0.5110 0.5110 0.5110
465.915000 0.5110 0.5110 0.5110 0.5110 0.5110
466.578383 0.5110 0.5100 0.5090 0.5060 0.5050
467.241000 0.5020 0.4940 0.4930 0.4920 0.4920
467.904383 0.4920 0.4920 0.4920 0.4920 0.4920
468.568000 0.4890 0.4860 0.4850 0.4820 0.4810
469.231383 0.4810 0.4810 0.4810 0.4810 0.4810
469.894000 0.4820 0.4840 0.4860 0.4880 0.4890
470.557383 0.4900 0.4900 0.4900 0.4900 0.4900
471.220000 0.4900 0.4900 0.4880 0.4850 0.4840
471.883383 0.4820 0.4810 0.4800 0.4760 0.4720
472.546000 0.4690 0.4650 0.4630 0.4590 0.4530
473.209383 0.4490 0.4490 0.4440 0.4430 0.4410
473.873000 0.4410 0.4390 0.4390 0.4350 0.4320
474.536383 0.4310 0.4300 0.4270 0.4240 0.4220
475.199000 0.4220 0.4190 0.4160 0.4140 0.4100
475.862383 0.4060 0.4010 0.4010 0.3990 0.3990
476.525000 0.3940 0.3910 0.3860 0.3810 0.3740
477.188383 0.3700 0.3600 0.3560 0.3500 0.3490
477.851000 0.3400 0.3350 0.3310 0.3250 0.3230
478.514383 0.3200 0.3150 0.3100 0.3030 0.3000
479.178000 0.2950 0.2910 0.2860 0.2810 0.2750
479.841383 0.2710 0.2670 0.2630 0.2610 0.2580
480.504000 0.2540 0.2510 0.2500 0.2490 0.2450
481.167383 0.2420 0.2400 0.2380 0.2340 0.2290
481.830000 0.2260 0.2220 0.2220 0.2210 0.2210
482.493383 0.2200 0.2180 0.1930 0.1890 0.1860
483.156000 0.1790 0.1750 0.1720 0.1710 0.1700
483.819383 0.1700 0.1700 0.1700 0.1700 0.1700
484.483000 0.1700 0.1700 0.1710 0.1720 0.1720
485.146383 0.1740 0.1740 0.1760 0.1800 0.1840
485.809000 0.1890 0.1930 0.2000 0.2010 0.2050
486.472383 0.2090 0.2130 0.2150 0.2160 0.2200
487.135000 0.2240 0.2300 0.2360 0.2410 0.2440
487.798383 0.2490 0.2500 0.2530 0.2540 0.2570
488.462000 0.2590 0.2620 0.2630 0.2650 0.2660
489.125383 0.2660 0.2670 0.2690 0.2690 0.2700
489.788000 0.2700 0.2700 0.2710 0.2710 0.2730
490.451383 0.2730 0.2740 0.2750 0.2770 0.2790
491.114000 0.2810 0.2820 0.2840 0.2860 0.2870
491.777383 0.2870 0.2880 0.2900 0.2910 0.2920
492.440000 0.2940 0.2950 0.2950 0.2940 0.2920
493.103383 0.2910 0.2900 0.2860 0.2840 0.2830
493.767000 0.2820 0.2790 0.2780 0.2780 0.2750
494.430383 0.2740 0.2710 0.2700 0.2650 0.2610
495.093000 0.2590 0.2550 0.2540 0.2500 0.2450
495.756383 0.2420 0.2380 0.2320 0.2250 0.2220
496.419000 0.2180 0.2120 0.2040 0.1990 0.1890
497.082383 0.1820 0.1790 0.1710 0.1660 0.1600
497.745000 0.1540 0.1510 0.1500 0.1430 0.1380
498.408383 0.1310 0.1290 0.1250 0.1240 0.1210
499.072000 0.1200 0.1180 0.1160 0.1130 0.1100
499.735383 0.1100 0.1090 0.1080 0.1060 0.1050
500.398000 0.1050 0.1050 0.1050 0.1050 0.1050
501.061383 0.1050 0.1050 0.1050 0.1060 0.1080
501.724000 0.1100 0.1120 0.1130 0.1140 0.1140
502.387383 0.1160 0.1160 0.1200 0.1220 0.1290
503.050000 0.1310 0.1380 0.1450 0.1530 0.1600
503.713383 0.1700 0.1780 0.1800 0.1880 0.1910
504.377000 0.1950 0.2000 0.2050 0.2130 0.2210
505.040383 0.2290 0.2380 0.2410 0.2490 0.2530
505.703000 0.2620 0.2700 0.2780 0.2840 0.2900
506.366383 0.2980 0.3000 0.3080 0.3130 0.3190
507.029000 0.3230 0.3310 0.3370 0.3440 0.3500
507.692383 0.3540 0.3580 0.3610 0.3640 0.3660
508.355000 0.3680 0.3700 0.3720 0.3740 0.3770
509.018383 0.3780 0.3790 0.3810 0.3820 0.3830
509.682000 0.3830 0.3860 0.3870 0.3890 0.3910
510.345383 0.3930 0.3950 0.3970 0.3990 0.4020
511.008000 0.4030 0.4050 0.4070 0.4080 0.4110
511.671383 0.4120 0.4150 0.4160 0.4180 0.4190
512.334000 0.4200 0.4230 0.4280 0.4280 0.4300
512.997383 0.4300 0.4300 0.4300 0.4300 0.4300
513.660000 0.4310 0.4320 0.4320 0.4320 0.4320
514.323383 0.4310 0.4310 0.4310 0.4310 0.4320
514.987000 0.4320 0.4320 0.4310 0.4310 0.4310
515.650383 0.4300 0.4300 0.4300 0.4300 0.4280
516.313000 0.4280 0.4280 0.4260 0.4260 0.4240
516.976383 0.4230 0.4230 0.4200 0.4200 0.4200
517.639000 0.4200 0.4220 0.4230 0.4240 0.4260
518.302383 0.4260 0.4270 0.4280 0.4280 0.4280
518.966000 0.4280 0.4280 0.4280 0.4270 0.4260
519.629383 0.4240 0.4240 0.4230 0.4230 0.4230
520.292000 0.4220 0.4220 0.4220 0.4220 0.4220
520.955383 0.4220 0.4200 0.4200 0.4220 0.4220
521.618000 0.4220 0.4220 0.4200 0.4200 0.4190
522.281383 0.4180 0.4180 0.4180 0.4190 0.4190
522.944000 0.4180 0.4180 0.4160 0.4160 0.4160
523.607383 0.4160 0.4160 0.4160 0.4150 0.4150
524.271000 0.4150 0.4140 0.4120 0.4110 0.4080
524.934383 0.4020 0.3990 0.3990 0.3980 0.3980
525.597000 0.3970 0.3950 0.3950 0.3950 0.3970
526.260383 0.3980 0.3990 0.4010 0.4010 0.4030
526.923000 0.4050 0.4060 0.4070 0.4070 0.4060
527.586383 0.4060 0.4060 0.4060 0.4060 0.4060
528.249000 0.4070 0.4070 0.4080 0.4080 0.4080
528.912383 0.4080 0.4080 0.4080 0.4070 0.4070
529.576000 0.4050 0.4050 0.4030 0.4010 0.4010
530.239383 0.3990 0.3990 0.3990 0.3980 0.3980
530.902000 0.3980 0.3980 0.3930 0.3910 0.3900
531.565383 0.3870 0.3870 0.3850 0.3850 0.3830
532.228000 0.3830 0.3850 0.3850 0.3860 0.3870
532.891383 0.3870 0.3830 0.3780 0.3750 0.3750
533.554000 0.3750 0.3750 0.3740 0.3730 0.3720
534.217383 0.3700 0.3690 0.3690 0.3680 0.3680
534.881000 0.3680 0.3680 0.3680 0.3680 0.3680
535.544383 0.3680 0.3650 0.3650 0.3640 0.3620
536.207000 0.3610 0.3580 0.3560 0.3540 0.3540
536.870383 0.3540 0.3540 0.3540 0.3540 0.3520
537.533000 0.3500 0.3490 0.3480 0.3480 0.3480
538.196383 0.3480 0.3480 0.3480 0.3480 0.3480
538.859000 0.3460 0.3460 0.3460 0.3460 0.3460
539.522383 0.3460 0.3460 0.3460 0.3460 0.3460
540.186000 0.3480 0.3480 0.3480 0.3480 0.3480
540.849383 0.3480 0.3480 0.3450 0.3450 0.3450
541.512000 0.3440 0.3440 0.3440 0.3440 0.3440
542.175383 0.3430 0.3400 0.3390 0.3370 0.3350
542.838000 0.3330 0.3330 0.3320 0.3310 0.3310
543.501383 0.3310 0.3310 0.3310 0.3290 0.3280
544.164000 0.3250 0.3240 0.3230 0.3210 0.3200
544.827383 0.3190 0.3190 0.3170 0.3170 0.3170
545.491000 0.3170 0.3170 0.3170 0.3160 0.3130
546.154383 0.3120 0.3110 0.3100 0.3080 0.3080
546.817000 0.3060 0.3030 0.3000 0.2980 0.2950
547.480383 0.2940 0.2910 0.2900 0.2880 0.2860
548.143000 0.2840 0.2810 0.2750 0.2750 0.2740
548.806383 0.2730 0.2700 0.2690 0.2670 0.2660
549.469000 0.2650 0.2630 0.2620 0.2610 0.2590
550.132383 0.2590 0.2580 0.2580 0.2580 0.2580
550.796000 0.2590 0.2590 0.2590 0.2590 0.2590
551.459383 0.2590 0.2580 0.2580 0.2540 0.2510
552.122000 0.2500 0.2500 0.2500 0.2490 0.2490
552.785383 0.2490 0.2440 0.2380 0.2340 0.2340
553.448000 0.2320 0.2290 0.2260 0.2260 0.2250
554.111383 0.2250 0.2250 0.2250 0.2250 0.2240
554.775000 0.2240 0.2240 0.2220 0.2210 0.2200
555.438383 0.2200 0.2200 0.2180 0.2180 0.2160
556.101000 0.2150 0.2120 0.2080 0.2000 0.1970
556.764383 0.1930 0.1920 0.1890 0.1880 0.1840
557.427000 0.1820 0.1790 0.1740 0.1710 0.1700
558.090383 0.1680 0.1660 0.1640 0.1630 0.1630
558.753000 0.1600 0.1600 0.1590 0.1590 0.1580
559.416383 0.1580 0.1540 0.1530 0.1510 0.1510
560.080000 0.1500 0.1500 0.1490 0.1490 0.1490
560.743383 0.1490 0.1470 0.1450 0.1420 0.1410
561.406000 0.1390 0.1380 0.1340 0.1330 0.1310
562.069383 0.1290 0.1290 0.1220 0.1180 0.1140
562.732000 0.1100 0.1090 0.1050 0.1040 0.1000
563.395383 0.1000 0.0940 0.0930 0.0910 0.0890
564.058000 0.0890 0.0880 0.0830 0.0800 0.0790
564.721383 0.0760 0.0720 0.0690 0.0680 0.0650
565.385000 0.0640 0.0630 0.0630 0.0620 0.0600
566.048383 0.0590 0.0590 0.0520 0.0500 0.0460
566.711000 0.0460 0.0440 0.0440 0.0430 0.0420
567.374383 0.0420 0.0420 0.0400 0.0400 0.0390
568.037000 0.0390 0.0380 0.0340 0.0340 0.0320
568.700383 0.0320 0.0320 0.0320 0.0320 0.0320
569.363000 0.0320 0.0310 0.0310 0.0310 0.0300
570.026383 0.0300 0.0300 0.0300 0.0290 0.0290
570.690000 0.0270 0.0270 0.0270 0.0270 0.0270
571.353383 0.0270 0.0270 0.0270 0.0270 0.0270
572.016000 0.0270 0.0290 0.0290 0.0300 0.0300
572.679383 0.0310 0.0310 0.0310 0.0310 0.0310
573.342000 0.0310 0.0310 0.0310 0.0310 0.0310
574.005383 0.0310 0.0310 0.0310 0.0310 0.0310
574.668000 0.0310 0.0310 0.0310 0.0310 0.0310
575.331383 0.0320 0.0360 0.0380 0.0380 0.0390
575.995000 0.0390 0.0390 0.0390 0.0390 0.0390
576.658383 0.0390 0.0390 0.0390 0.0390 0.0390
577.321000 0.0400 0.0400 0.0400 0.0420 0.0420
577.984383 0.0420 0.0430 0.0440 0.0440 0.0460
578.647000 0.0460 0.0460 0.0460 0.0460 0.0460
579.310383 0.0460 0.0480 0.0480 0.0500 0.0500
579.973000 0.0510 0.0510 0.0510 0.0510 0.0510
580.636383 0.0510 0.0510 0.0510 0.0510 0.0510
581.300000 0.0520 0.0540 0.0550 0.0550 0.0560
581.963383 0.0560 0.0560 0.0590 0.0620 0.0630
582.626000 0.0640 0.0650 0.0670 0.0680 0.0680
583.289383 0.0690 0.0690 0.0690 0.0710 0.0710
583.952000 0.0710 0.0720 0.0720 0.0720 0.0720
584.615383 0.0720 0.0720 0.0710 0.0710 0.0710
585.279000 0.0710 0.0690 0.0690 0.0690 0.0690
585.942383 0.0680 0.0670 0.0650 0.0650 0.0650
586.605000 0.0630 0.0620 0.0600 0.0590 0.0590
587.268383 0.0590 0.0590 0.0590 0.0600 0.0620
587.931000 0.0620 0.0620 0.0620 0.0600 0.0600
588.594383 0.0590 0.0590 0.0600 0.0600 0.0600
589.257000 0.0620 0.0630 0.0640 0.0640 0.0650
589.920383 0.0670 0.0670 0.0670 0.0670 0.0670
590.584000 0.0670 0.0680 0.0690 0.0690 0.0710
591.247383 0.0720 0.0730 0.0750 0.0760 0.0790
591.910000 0.0800 0.0830 0.0880 0.0890 0.0920
592.573383 0.0940 0.0980 0.0980 0.1000 0.1010
593.236000 0.1090 0.1100 0.1170 0.1220 0.1290
593.899383 0.1340 0.1380 0.1390 0.1420 0.1430
594.562000 0.1490 0.1490 0.1510 0.1620 0.1680
595.225383 0.1750 0.1820 0.1880 0.1890 0.1930
595.889000 0.1990 0.2010 0.2040 0.2080 0.2150
596.552383 0.2210 0.2290 0.2330 0.2410 0.2480
597.215000 0.2500 0.2550 0.2610 0.2630 0.2690
597.878383 0.2700 0.2730 0.2740 0.2780 0.2810
598.541000 0.2880 0.2910 0.2950 0.2990 0.3000
599.204383 0.3020 0.3020 0.3060 0.3080 0.3110
599.867000 0.3120 0.3120 0.3130 0.3130 0.3150
600.530383 0.3160 0.3190 0.3190 0.3230 0.3250
601.194000 0.3280 0.3310 0.3330 0.3390 0.3400
601.857383 0.3410 0.3430 0.3440 0.3450 0.3450
602.520000 0.3480 0.3500 0.3530 0.3540 0.3580
603.183383 0.3600 0.3620 0.3650 0.3660 0.3680
603.846000 0.3680 0.3690 0.3690 0.3690 0.3690
604.509383 0.3720 0.3740 0.3780 0.3790 0.3810
605.172000 0.3830 0.3890 0.3900 0.3940 0.3990
605.835383 0.3990 0.4010 0.4010 0.4010 0.4010
606.499000 0.4010 0.4010 0.4010 0.4010 0.4020
607.162383 0.4050 0.4080 0.4080 0.4080 0.4080
607.825000 0.4080 0.4080 0.4100 0.4100 0.4100
608.488383 0.4080 0.4080 0.4080 0.4070 0.4070
609.151000 0.4070 0.4070 0.4070 0.4070 0.4070
609.814383 0.4060 0.4060 0.4050 0.4050 0.4050
610.477000 0.4050 0.4050 0.4060 0.4060 0.4060
611.140383 0.4070 0.4100 0.4100 0.4080 0.4080
611.804000 0.4080 0.4080 0.4080 0.4100 0.4100
612.467383 0.4140 0.4150 0.4180 0.4190 0.4180
613.130000 0.4160 0.4140 0.4120 0.4110 0.4080
613.793383 0.4080 0.4080 0.4080 0.4100 0.4110
614.456000 0.4120 0.4150 0.4190 0.4190 0.4200
615.119383 0.4220 0.4220 0.4190 0.4190 0.4190
615.782000 0.4190 0.4180 0.4180 0.4160 0.4160
616.445383 0.4160 0.4150 0.4120 0.4110 0.4100
617.109000 0.4100 0.4080 0.4080 0.4080 0.4060
617.772383 0.4050 0.4020 0.4010 0.3990 0.3950
618.435000 0.3910 0.3890 0.3870 0.3870 0.3890
619.098383 0.3890 0.3900 0.3910 0.3930 0.3940
619.761000 0.3950 0.3950 0.3950 0.3970 0.3980
620.424383 0.3980 0.3990 0.3990 0.3990 0.3990
621.088000 0.3990 0.3990 0.3990 0.3990 0.3990
621.751383 0.4010 0.4010 0.4010 0.4020 0.4030
622.414000 0.4050 0.4050 0.4050 0.4050 0.4030
623.077383 0.4030 0.4010 0.3980 0.3930 0.3910
623.740000 0.3900 0.3900 0.3900 0.3900 0.3890
624.403383 0.3890 0.3890 0.3890 0.3890 0.3870
625.066000 0.3870 0.3870 0.3890 0.3890 0.3890
625.729383 0.3900 0.3900 0.3900 0.3900 0.3890
626.393000 0.3890 0.3850 0.3850 0.3820 0.3820
627.056383 0.3810 0.3790 0.3740 0.3720 0.3700
627.719000 0.3690 0.3690 0.3690 0.3690 0.3660
628.382383 0.3640 0.3610 0.3600 0.3600 0.3560
629.045000 0.3560 0.3540 0.3530 0.3520 0.3500
629.708383 0.3490 0.3460 0.3440 0.3410 0.3400
630.371000 0.3390 0.3360 0.3350 0.3330 0.3310
631.034383 0.3290 0.3290 0.3270 0.3250 0.3240
631.698000 0.3230 0.3200 0.3190 0.3160 0.3130
632.361383 0.3060 0.3000 0.2940 0.2900 0.2840
633.024000 0.2830 0.2820 0.2790 0.2790 0.2730
633.687383 0.2700 0.2700 0.2690 0.2650 0.2630
634.350000 0.2610 0.2590 0.2590 0.2570 0.2570
635.013383 0.2550 0.2530 0.2510 0.2510 0.2500
635.676000 0.2500 0.2500 0.2500 0.2500 0.2500
636.339383 0.2510 0.2540 0.2550 0.2590 0.2590
637.003000 0.2610 0.2610 0.2620 0.2620 0.2630
637.666383 0.2690 0.2710 0.2730 0.2790 0.2830
638.329000 0.2880 0.2940 0.3000 0.3020 0.3030
638.992383 0.3100 0.3130 0.3190 0.3200 0.3230
639.655000 0.3240 0.3250 0.3270 0.3290 0.3310
640.318383 0.3320 0.3330 0.3360 0.3390 0.3400
640.981000 0.3400 0.3410 0.3430 0.3430 0.3440
641.644383 0.3450 0.3460 0.3460 0.3480 0.3480
642.308000 0.3480 0.3480 0.3480 0.3460 0.3440
642.971383 0.3440 0.3430 0.3410 0.3410 0.3410
643.634000 0.3410 0.3410 0.3400 0.3400 0.3360
644.297383 0.3360 0.3360 0.3360 0.3360 0.3350
644.960000 0.3350 0.3330 0.3330 0.3330 0.3330
645.623383 0.3350 0.3350 0.3350 0.3350 0.3350
646.286000 0.3350 0.3350 0.3350 0.3330 0.3330
646.949383 0.3320 0.3290 0.3250 0.3240 0.3240
647.613000 0.3240 0.3230 0.3230 0.3210 0.3210
648.276383 0.3210 0.3210 0.3210 0.3210 0.3210
648.939000 0.3210 0.3210 0.3210 0.3210 0.3210
649.602383 0.3200 0.3200 0.3200 0.3200 0.3190
650.265000 0.3190 0.3170 0.3150 0.3130 0.3120
650.928383 0.3110 0.3100 0.3100 0.3080 0.3080
651.591000 0.3080 0.3080 0.3080 0.3080 0.3080
652.254383 0.3080 0.3080 0.3080 0.3080 0.3100
652.918000 0.3100 0.3100 0.3100 0.3100 0.3100
653.581383 0.3080 0.3080 0.3040 0.3030 0.3020
654.244000 0.3000 0.2990 0.2990 0.2990 0.2990
654.907383 0.2990 0.2990 0.2990 0.2990 0.2990
655.570000 0.2990 0.3000 0.3020 0.3040 0.3040
656.233383 0.3030 0.3020 0.3000 0.2990 0.2960
656.897000 0.2950 0.2940 0.2940 0.2920 0.2910
657.560383 0.2910 0.2910 0.2900 0.2900 0.2900
658.223000 0.2880 0.2870 0.2860 0.2860 0.2840
658.886383 0.2840 0.2840 0.2830 0.2830 0.2820
659.549000 0.2820 0.2820 0.2820 0.2820 0.2820
660.212383 0.2820 0.2830 0.2830 0.2830 0.2830
660.875000 0.2840 0.2840 0.2840 0.2840 0.2860
661.538383 0.2860 0.2860 0.2840 0.2830 0.2810
662.202000 0.2780 0.2770 0.2740 0.2700 0.2670
662.865383 0.2670 0.2670 0.2690 0.2710 0.2730
663.528000 0.2730 0.2730 0.2710 0.2700 0.2690
664.191383 0.2690 0.2690 0.2690 0.2690 0.2690
664.854000 0.2690 0.2690 0.2700 0.2700 0.2690
665.517383 0.2690 0.2670 0.2650 0.2620 0.2610
666.180000 0.2590 0.2570 0.2540 0.2540 0.2540
666.843383 0.2540 0.2540 0.2540 0.2540 0.2540
667.507000 0.2550 0.2570 0.2580 0.2580 0.2580
668.170383 0.2580 0.2580 0.2570 0.2550 0.2530
668.833000 0.2530 0.2510 0.2510 0.2500
##END=
